
     Program PWSCF v.7.3 starts on 12Mar2026 at  6:10: 8 

     This program is part of the open-source Quantum ESPRESSO suite
     for quantum simulation of materials; please cite
         "P. Giannozzi et al., J. Phys.:Condens. Matter 21 395502 (2009);
         "P. Giannozzi et al., J. Phys.:Condens. Matter 29 465901 (2017);
         "P. Giannozzi et al., J. Chem. Phys. 152 154105 (2020);
          URL http://www.quantum-espresso.org", 
     in publications or presentations arising from this work. More details at
     http://www.quantum-espresso.org/quote

     Parallel version (MPI), running on    64 processors

     MPI processes distributed on     4 nodes
     219259 MiB available memory on the printing compute node when the environment starts
 
     Reading input from /tmpu/isholek_g/isholek/MIGUEL/QE/111_2x2/NSCF/Ni2Pd2_111-NSCF.in

     Current dimensions of program PWSCF are:
     Max number of different atomic species (ntypx) = 10
     Max number of k-points (npk) =  40000
     Max angular momentum in pseudopotentials (lmaxx) =  4
     file Ni.upf: wavefunction(s)  4S 3D renormalized
     file Pd.upf: wavefunction(s)  5S 4D renormalized

     IMPORTANT: XC functional enforced from input :
     Exchange-correlation= PBE
                           (   1   4   3   4   0   0   0)
     Any further DFT definition will be discarded
     Please, verify this is what you really want


     Atomic positions and unit cell read from directory:
     /tmpu/isholek_g/isholek/MIGUEL/QE/111_2x2/SAVE/Ni2Pd2_111.save/
 
     Found identity + (  0.0000  0.5000  0.0000) symmetry
     This is a supercell, fractional translations are disabled
 
     K-points division:     npool     =      16
     R & G space division:  proc/nbgrp/npool/nimage =       4
     Subspace diagonalization in iterative solution of the eigenvalue problem:
     one sub-group per band group will be used
     scalapack distributed-memory algorithm (size of sub-group:  2*  2 procs)

 
     Parallelization info
     --------------------
     sticks:   dense  smooth     PW     G-vecs:    dense   smooth      PW
     Min         791     394    113               227593    80427   12615
     Max         792     396    114               227601    80436   12642
     Sum        3165    1581    455               910393   321727   50521
 
     Using Slab Decomposition
 

     Title: 
     Ni2Pd2_111-NSCF                                                            


     bravais-lattice index     =            0
     lattice parameter (alat)  =       9.7088  a.u.
     unit-cell volume          =    5128.0588 (a.u.)^3
     number of atoms/cell      =           24
     number of atomic types    =            2
     number of electrons       =       240.00
     number of Kohn-Sham states=          144
     kinetic-energy cutoff     =      60.0000  Ry
     charge density cutoff     =     480.0000  Ry
     Exchange-correlation= PBE
                           (   1   4   3   4   0   0   0)

     celldm(1)=   9.708762  celldm(2)=   0.000000  celldm(3)=   0.000000
     celldm(4)=   0.000000  celldm(5)=   0.000000  celldm(6)=   0.000000

     crystal axes: (cart. coord. in units of alat)
               a(1) = (   1.000000   0.000000   0.000000 )  
               a(2) = (   0.531889   0.883670   0.000000 )  
               a(3) = (   0.000000   0.000000   6.341200 )  

     reciprocal axes: (cart. coord. in units 2 pi/alat)
               b(1) = (  1.000000 -0.601910  0.000000 )  
               b(2) = (  0.000000  1.131644  0.000000 )  
               b(3) = (  0.000000  0.000000  0.157699 )  


     PseudoPot. # 1 for Ni read from file:
     /tmpu/isholek_g/isholek/MIGUEL/PP/PAW/Ni.upf
     MD5 check sum: d88365a95a5e142bd87181c2c8b16588
     Pseudo is Projector augmented-wave + core cor, Zval = 10.0
     Generated using "atomic" code by A. Dal Corso  v.5.0.2 svn rev. 9415
     Shape of augmentation charge: PSQ
     Using radial grid of 1195 points,  6 beta functions with: 
                l(1) =   0
                l(2) =   0
                l(3) =   1
                l(4) =   1
                l(5) =   2
                l(6) =   2
     Q(r) pseudized with 0 coefficients 


     PseudoPot. # 2 for Pd read from file:
     /tmpu/isholek_g/isholek/MIGUEL/PP/PAW/Pd.upf
     MD5 check sum: e9d6f14fd83b79f8105499163af174c9
     Pseudo is Projector augmented-wave + core cor, Zval = 10.0
     Generated using "atomic" code by A. Dal Corso  v.5.0.2 svn rev. 9415
     Shape of augmentation charge: PSQ
     Using radial grid of 1235 points,  6 beta functions with: 
                l(1) =   0
                l(2) =   0
                l(3) =   1
                l(4) =   1
                l(5) =   2
                l(6) =   2
     Q(r) pseudized with 0 coefficients 


     atomic species   valence    mass     pseudopotential
     Ni               10.00    58.69340     Ni( 1.00)
     Pd               10.00   106.42000     Pd( 1.00)

     Starting magnetic structure 
     atomic species   magnetization
     Ni              0.650
     Pd              0.100

     No symmetry found



   Cartesian axes

     site n.     atom                  positions (alat units)
         1        Ni     tau(   1) = (   0.0000000   0.0000000   2.1410544  )
         2        Pd     tau(   2) = (   0.7659447   0.4418349   2.1410544  )
         3        Pd     tau(   3) = (   0.5000000   0.0000000   2.1410544  )
         4        Ni     tau(   4) = (   0.2659447   0.4418349   2.1410544  )
         5        Pd     tau(   5) = (   0.2340553   0.1600746   2.5528726  )
         6        Pd     tau(   6) = (   0.5000000   0.6019096   2.5528726  )
         7        Ni     tau(   7) = (   0.7340553   0.1600746   2.5528726  )
         8        Ni     tau(   8) = (   1.0000000   0.6019096   2.5528726  )
         9        Ni     tau(   9) = (   0.4676141   0.3204482   2.9649918  )
        10        Ni     tau(  10) = (   0.7335589   0.7622830   2.9649917  )
        11        Pd     tau(  11) = (   0.9670748   0.3207728   2.9624338  )
        12        Pd     tau(  12) = (   1.2330195   0.7626077   2.9624338  )
        13        Ni     tau(  13) = (   0.9385204   0.0370052   3.3722310  )
        14        Pd     tau(  14) = (   0.7052687   0.4783564   3.3783033  )
        15        Pd     tau(  15) = (   0.4393240   0.0365214   3.3783033  )
        16        Ni     tau(  16) = (   1.2044652   0.4788400   3.3722309  )
        17        Ni     tau(  17) = (   0.9345827   0.6412849   3.7920127  )
        18        Pd     tau(  18) = (   0.1659461   0.2010702   3.7826626  )
        19        Pd     tau(  19) = (   0.4318909   0.6429051   3.7826626  )
        20        Ni     tau(  20) = (   0.6686379   0.1994500   3.7920128  )
        21        Pd     tau(  21) = (   0.9024647   0.3596623   4.2069143  )
        22        Ni     tau(  22) = (   0.6734731   0.7984492   4.1887321  )
        23        Ni     tau(  23) = (   0.4075286   0.3566142   4.1887318  )
        24        Pd     tau(  24) = (   1.1684093   0.8014971   4.2069143  )

     --------------------------------------------
     DFT-D3 Dispersion Correction (3-body terms):
     --------------------------------------------
       Reference C6 values for interpolation: 

         atom   Coordination number   C6
         Ni         0.000          1149.49
         Ni         1.794           356.66
         Ni         6.546           257.56
         Ni         6.292           283.75
         Pd         0.000          1217.01
         Pd         1.863           573.90
         Pd         5.710           531.75

       Values used:

         atom   Coordination number  R0_AB[au]  C6      C8
         Ni         6.134            3.162    273.94  22954.57
         Pd         7.162            3.168    531.75  48720.73
         Pd         7.162            3.168    531.75  48720.73
         Ni         6.134            3.162    273.94  22954.57
         Pd         9.623            3.168    531.75  48720.73
         Pd         9.623            3.168    531.75  48720.73
         Ni         8.224            3.162    258.17  21633.10
         Ni         8.224            3.162    258.17  21633.10
         Ni         8.222            3.162    258.18  21633.28
         Ni         8.222            3.162    258.18  21633.28
         Pd         9.664            3.168    531.75  48720.73
         Pd         9.664            3.168    531.75  48720.73
         Ni         8.228            3.162    258.17  21632.64
         Pd         9.604            3.168    531.75  48720.73
         Pd         9.604            3.168    531.75  48720.73
         Ni         8.228            3.162    258.17  21632.64
         Ni         8.219            3.162    258.18  21633.58
         Pd         9.635            3.168    531.75  48720.73
         Pd         9.635            3.168    531.75  48720.73
         Ni         8.219            3.162    258.18  21633.58
         Pd         7.056            3.168    531.75  48720.73
         Ni         6.279            3.162    272.07  22797.86
         Ni         6.279            3.162    272.07  22797.86
         Pd         7.056            3.168    531.75  48720.73

         Molecular C6 ( Ry / a.u.^6 ) =    222050.50


     number of k points=   400  Marzari-Vanderbilt smearing, width (Ry)=  0.0147

     Number of k-points >= 100: set verbosity='high' to print them.

     Dense  grid:   910393 G-vectors     FFT dimensions: (  72,  72, 432)

     Smooth grid:   321727 G-vectors     FFT dimensions: (  48,  50, 320)

     Estimated max dynamical RAM per process >     329.58 MB

     Estimated total dynamical RAM >      20.60 GB
 ----2D----2D----2D----2D----2D----2D----2D----2D----2D----2D----2D----2D
  The code is running with the 2D cutoff
  Please refer to:
  Sohier, T., Calandra, M., & Mauri, F. (2017), 
  Density functional perturbation theory for gated two-dimensional heterostructu
 res:
  Theoretical developments and application to flexural phonons in graphene.
  Physical Review B, 96(7), 75448. https://doi.org/10.1103/PhysRevB.96.075448
 ----2D----2D----2D----2D----2D----2D----2D----2D----2D----2D----2D----2D

     Check: negative core charge=   -0.000002
     Generating pointlists ...
     new r_m :   0.2043 (alat units)  1.9835 (a.u.) for type    1
     new r_m :   0.2043 (alat units)  1.9835 (a.u.) for type    2

     The potential is recalculated from file :
     /tmpu/isholek_g/isholek/MIGUEL/QE/111_2x2/SAVE/Ni2Pd2_111.save/charge-density


     negative rho (up, down):  2.070E-04 1.579E-04
     Starting wfcs are  216 randomized atomic wfcs
     Checking if some PAW data can be deallocated... 

     Band Structure Calculation
     Davidson diagonalization with overlap
     c_bands:  1 eigenvalues not converged
     c_bands:  1 eigenvalues not converged
     c_bands:  2 eigenvalues not converged
     c_bands:  1 eigenvalues not converged
     c_bands:  1 eigenvalues not converged
     c_bands:  2 eigenvalues not converged
     c_bands:  1 eigenvalues not converged

     ethr =  1.00E-13,  avg # of iterations =101.4

     total cpu time spent up to now is    42644.0 secs

     End of band structure calculation

     Number of k-points >= 100: set verbosity='high' to print the bands.

     the Fermi energy is    -5.0458 ev
     (compare with:    -5.0454 eV, computed in scf)

     Writing all to output data dir /tmpu/isholek_g/isholek/MIGUEL/QE/111_2x2/SAVE/Ni2Pd2_111.save/ :
     XML data file, pseudopotentials, collected wavefunctions
 
     init_run     :      4.48s CPU      9.41s WALL (       1 calls)
     electrons    :  21043.51s CPU  42368.45s WALL (       1 calls)

     Called by init_run:
     wfcinit      :      0.00s CPU      0.02s WALL (       1 calls)
     potinit      :      2.56s CPU      5.41s WALL (       1 calls)
     hinit0       :      0.92s CPU      1.90s WALL (       1 calls)

     Called by electrons:
     c_bands      :  21041.65s CPU  42364.61s WALL (       1 calls)
     v_of_rho     :      0.93s CPU      2.00s WALL (       1 calls)
     newd         :      0.28s CPU      0.61s WALL (       1 calls)
     PAW_pot      :      0.81s CPU      1.64s WALL (       1 calls)

     Called by c_bands:
     init_us_2    :      1.19s CPU      2.12s WALL (      50 calls)
     init_us_2:cp :      1.19s CPU      2.09s WALL (      50 calls)
     cegterg      :  14493.87s CPU  29250.76s WALL (     254 calls)

     Called by *egterg:
     cdiaghg      :   1232.23s CPU   2466.03s WALL (    4684 calls)
     h_psi        :  10316.50s CPU  20871.81s WALL (    4938 calls)
     s_psi        :    525.55s CPU   1052.95s WALL (    4938 calls)
     g_psi        :     26.84s CPU     54.86s WALL (    4634 calls)

     Called by h_psi:
     h_psi:calbec :    589.03s CPU   1177.32s WALL (    4938 calls)
     vloc_psi     :   9181.91s CPU  18611.56s WALL (    4938 calls)
     add_vuspsi   :    525.80s CPU   1043.46s WALL (    4938 calls)

     General routines
     calbec       :    588.99s CPU   1177.27s WALL (    4938 calls)
     fft          :      0.56s CPU      1.20s WALL (      23 calls)
     ffts         :      0.02s CPU      0.05s WALL (       2 calls)
     fftw         :   8278.06s CPU  16958.45s WALL (  959972 calls)
     interpolate  :      0.06s CPU      0.14s WALL (       2 calls)
     davcio       :      0.02s CPU      3.37s WALL (     100 calls)
 
     Parallel routines
 
     PWSCF        :      5h54m CPU     11h54m WALL

 
   This run was terminated on:  18: 4:31  12Mar2026            

=------------------------------------------------------------------------------=
   JOB DONE.
=------------------------------------------------------------------------------=
