
     Program PWSCF v.7.3 starts on 12Mar2026 at 21:14:20 

     This program is part of the open-source Quantum ESPRESSO suite
     for quantum simulation of materials; please cite
         "P. Giannozzi et al., J. Phys.:Condens. Matter 21 395502 (2009);
         "P. Giannozzi et al., J. Phys.:Condens. Matter 29 465901 (2017);
         "P. Giannozzi et al., J. Chem. Phys. 152 154105 (2020);
          URL http://www.quantum-espresso.org", 
     in publications or presentations arising from this work. More details at
     http://www.quantum-espresso.org/quote

     Parallel version (MPI), running on    64 processors

     MPI processes distributed on     4 nodes
     224734 MiB available memory on the printing compute node when the environment starts
 
     Reading input from /tmpu/isholek_g/isholek/MIGUEL/QE/111_2x2/NSCF/Ni3Pd1_111-NSCF.in

     Current dimensions of program PWSCF are:
     Max number of different atomic species (ntypx) = 10
     Max number of k-points (npk) =  40000
     Max angular momentum in pseudopotentials (lmaxx) =  4
     file Ni.upf: wavefunction(s)  4S 3D renormalized
     file Pd.upf: wavefunction(s)  5S 4D renormalized

     IMPORTANT: XC functional enforced from input :
     Exchange-correlation= PBE
                           (   1   4   3   4   0   0   0)
     Any further DFT definition will be discarded
     Please, verify this is what you really want


     Atomic positions and unit cell read from directory:
     /tmpu/isholek_g/isholek/MIGUEL/QE/111_2x2/SAVE/Ni3Pd1_111.save/
 
     Message from routine find_sym:
     Not a group! Trying with lower acceptance parameter...
     Message from routine find_sym:
     Symmetry operations form a group
 
     K-points division:     npool     =       8
     R & G space division:  proc/nbgrp/npool/nimage =       8
     Subspace diagonalization in iterative solution of the eigenvalue problem:
     one sub-group per band group will be used
     scalapack distributed-memory algorithm (size of sub-group:  2*  2 procs)

 
     Parallelization info
     --------------------
     sticks:   dense  smooth     PW     G-vecs:    dense   smooth      PW
     Min         375     188     54               106317    37608    5930
     Max         376     189     55               106344    37623    5959
     Sum        3001    1507    433               850625   300931   47527
 
     Using Slab Decomposition
 

     Title: 
     Ni3Pd1_111-NSCF                                                            


     bravais-lattice index     =            0
     lattice parameter (alat)  =       9.5206  a.u.
     unit-cell volume          =    4789.0025 (a.u.)^3
     number of atoms/cell      =           24
     number of atomic types    =            2
     number of electrons       =       240.00
     number of Kohn-Sham states=          144
     kinetic-energy cutoff     =      60.0000  Ry
     charge density cutoff     =     480.0000  Ry
     Exchange-correlation= PBE
                           (   1   4   3   4   0   0   0)

     celldm(1)=   9.520593  celldm(2)=   0.000000  celldm(3)=   0.000000
     celldm(4)=   0.000000  celldm(5)=   0.000000  celldm(6)=   0.000000

     crystal axes: (cart. coord. in units of alat)
               a(1) = (   1.000000   0.000000   0.000000 )  
               a(2) = (   0.500000   0.866025   0.000000 )  
               a(3) = (   0.000000   0.000000   6.408000 )  

     reciprocal axes: (cart. coord. in units 2 pi/alat)
               b(1) = (  1.000000 -0.577350  0.000000 )  
               b(2) = (  0.000000  1.154701  0.000000 )  
               b(3) = (  0.000000  0.000000  0.156055 )  


     PseudoPot. # 1 for Ni read from file:
     /tmpu/isholek_g/isholek/MIGUEL/PP/PAW/Ni.upf
     MD5 check sum: d88365a95a5e142bd87181c2c8b16588
     Pseudo is Projector augmented-wave + core cor, Zval = 10.0
     Generated using "atomic" code by A. Dal Corso  v.5.0.2 svn rev. 9415
     Shape of augmentation charge: PSQ
     Using radial grid of 1195 points,  6 beta functions with: 
                l(1) =   0
                l(2) =   0
                l(3) =   1
                l(4) =   1
                l(5) =   2
                l(6) =   2
     Q(r) pseudized with 0 coefficients 


     PseudoPot. # 2 for Pd read from file:
     /tmpu/isholek_g/isholek/MIGUEL/PP/PAW/Pd.upf
     MD5 check sum: e9d6f14fd83b79f8105499163af174c9
     Pseudo is Projector augmented-wave + core cor, Zval = 10.0
     Generated using "atomic" code by A. Dal Corso  v.5.0.2 svn rev. 9415
     Shape of augmentation charge: PSQ
     Using radial grid of 1235 points,  6 beta functions with: 
                l(1) =   0
                l(2) =   0
                l(3) =   1
                l(4) =   1
                l(5) =   2
                l(6) =   2
     Q(r) pseudized with 0 coefficients 


     atomic species   valence    mass     pseudopotential
     Ni               10.00    58.69340     Ni( 1.00)
     Pd               10.00   106.42000     Pd( 1.00)

     Starting magnetic structure 
     atomic species   magnetization
     Ni              0.650
     Pd              0.100

     No symmetry found



   Cartesian axes

     site n.     atom                  positions (alat units)
         1        Ni     tau(   1) = (   1.0000055   0.5773497   2.1833712  )
         2        Ni     tau(   2) = (   0.2499946   0.1443334   2.1833775  )
         3        Pd     tau(   3) = (   0.5000045   0.5773498   2.1833823  )
         4        Ni     tau(   4) = (   0.7499961   0.1443432   2.1833870  )
         5        Ni     tau(   5) = (   0.5000055   0.2886746   2.5916194  )
         6        Ni     tau(   6) = (   1.2499946   0.7216837   2.5916258  )
         7        Pd     tau(   7) = (   1.0000045   0.2886747   2.5916306  )
         8        Ni     tau(   8) = (   0.7499961   0.7216934   2.5916353  )
         9        Ni     tau(   9) = (   0.5000001   0.8656035   2.9996417  )
        10        Ni     tau(  10) = (   0.7496345   0.4332248   2.9996403  )
        11        Pd     tau(  11) = (   1.0000009   0.8660278   2.9988887  )
        12        Ni     tau(  12) = (   1.2503687   0.4332260   2.9996406  )
        13        Ni     tau(  13) = (   1.0000011   0.5775760   3.4076330  )
        14        Ni     tau(  14) = (   0.2501945   0.1442245   3.4076341  )
        15        Pd     tau(  15) = (   0.5000006   0.5773503   3.4103187  )
        16        Ni     tau(  16) = (   0.7498054   0.1442258   3.4076350  )
        17        Ni     tau(  17) = (   0.5000008   0.2852883   3.8164077  )
        18        Ni     tau(  18) = (   1.2470663   0.7233808   3.8164079  )
        19        Pd     tau(  19) = (   1.0000003   0.2886755   3.8139684  )
        20        Ni     tau(  20) = (   0.7529338   0.7233824   3.8164085  )
        21        Ni     tau(  21) = (   0.5000002   0.8590908   4.2179755  )
        22        Ni     tau(  22) = (   0.7439943   0.4364798   4.2179755  )
        23        Pd     tau(  23) = (   1.0000001   0.8660255   4.2390566  )
        24        Ni     tau(  24) = (   1.2560056   0.4364803   4.2179754  )

     --------------------------------------------
     DFT-D3 Dispersion Correction (3-body terms):
     --------------------------------------------
       Reference C6 values for interpolation: 

         atom   Coordination number   C6
         Ni         0.000          1149.49
         Ni         1.794           356.66
         Ni         6.546           257.56
         Ni         6.292           283.75
         Pd         0.000          1217.01
         Pd         1.863           573.90
         Pd         5.710           531.75

       Values used:

         atom   Coordination number  R0_AB[au]  C6      C8
         Ni         6.658            3.162    267.12  22382.86
         Ni         6.659            3.162    267.12  22382.70
         Pd         7.596            3.168    531.75  48720.73
         Ni         6.659            3.162    267.12  22382.50
         Ni         8.918            3.162    257.72  21594.70
         Ni         8.918            3.162    257.72  21594.70
         Pd        10.217            3.168    531.75  48720.73
         Ni         8.918            3.162    257.72  21594.70
         Ni         8.915            3.162    257.72  21594.77
         Ni         8.915            3.162    257.72  21594.78
         Pd        10.236            3.168    531.75  48720.73
         Ni         8.915            3.162    257.72  21594.78
         Ni         8.934            3.162    257.71  21594.30
         Ni         8.934            3.162    257.71  21594.30
         Pd        10.203            3.168    531.75  48720.73
         Ni         8.934            3.162    257.71  21594.30
         Ni         8.950            3.162    257.71  21593.91
         Ni         8.950            3.162    257.71  21593.91
         Pd        10.216            3.168    531.75  48720.73
         Ni         8.950            3.162    257.71  21593.91
         Ni         6.728            3.162    266.28  22312.48
         Ni         6.728            3.162    266.28  22312.48
         Pd         7.390            3.168    531.75  48720.73
         Ni         6.728            3.162    266.28  22312.48

         Molecular C6 ( Ry / a.u.^6 ) =    183959.60


     number of k points=   400  Marzari-Vanderbilt smearing, width (Ry)=  0.0147

     Number of k-points >= 100: set verbosity='high' to print them.

     Dense  grid:   850625 G-vectors     FFT dimensions: (  72,  72, 432)

     Smooth grid:   300931 G-vectors     FFT dimensions: (  48,  48, 320)

     Estimated max dynamical RAM per process >     158.49 MB

     Estimated total dynamical RAM >       9.91 GB
 ----2D----2D----2D----2D----2D----2D----2D----2D----2D----2D----2D----2D
  The code is running with the 2D cutoff
  Please refer to:
  Sohier, T., Calandra, M., & Mauri, F. (2017), 
  Density functional perturbation theory for gated two-dimensional heterostructu
 res:
  Theoretical developments and application to flexural phonons in graphene.
  Physical Review B, 96(7), 75448. https://doi.org/10.1103/PhysRevB.96.075448
 ----2D----2D----2D----2D----2D----2D----2D----2D----2D----2D----2D----2D

     Check: negative core charge=   -0.000001
     Generating pointlists ...
     new r_m :   0.2013 (alat units)  1.9165 (a.u.) for type    1
     new r_m :   0.2057 (alat units)  1.9580 (a.u.) for type    2

     The potential is recalculated from file :
     /tmpu/isholek_g/isholek/MIGUEL/QE/111_2x2/SAVE/Ni3Pd1_111.save/charge-density


     negative rho (up, down):  2.470E-04 1.911E-04
     Starting wfcs are  216 randomized atomic wfcs
     Checking if some PAW data can be deallocated... 

     Band Structure Calculation
     Davidson diagonalization with overlap
     c_bands:  1 eigenvalues not converged
     c_bands:  1 eigenvalues not converged
     c_bands:  1 eigenvalues not converged
     c_bands:  1 eigenvalues not converged
     c_bands:  1 eigenvalues not converged
     c_bands:  1 eigenvalues not converged
     c_bands:  1 eigenvalues not converged
     c_bands:  1 eigenvalues not converged
     c_bands:  1 eigenvalues not converged
     c_bands:  1 eigenvalues not converged
     c_bands:  1 eigenvalues not converged
     c_bands:  1 eigenvalues not converged
     c_bands:  1 eigenvalues not converged
     c_bands:  1 eigenvalues not converged
     c_bands:  1 eigenvalues not converged
     c_bands:  2 eigenvalues not converged
     c_bands:  1 eigenvalues not converged
     c_bands:  1 eigenvalues not converged
     c_bands:  1 eigenvalues not converged
     c_bands:  2 eigenvalues not converged
     c_bands:  1 eigenvalues not converged
     c_bands:  1 eigenvalues not converged
     c_bands:  1 eigenvalues not converged
     c_bands:  1 eigenvalues not converged
     c_bands:  1 eigenvalues not converged
     c_bands:  1 eigenvalues not converged
     c_bands:  1 eigenvalues not converged
     c_bands:  1 eigenvalues not converged
     c_bands:  1 eigenvalues not converged
     c_bands:  1 eigenvalues not converged
     c_bands:  1 eigenvalues not converged
     c_bands:  1 eigenvalues not converged
     c_bands:  1 eigenvalues not converged
     c_bands:  1 eigenvalues not converged
     c_bands:  1 eigenvalues not converged
     c_bands:  1 eigenvalues not converged
     c_bands:  1 eigenvalues not converged
     c_bands:  1 eigenvalues not converged
     c_bands:  1 eigenvalues not converged

     ethr =  1.00E-13,  avg # of iterations =114.7

     total cpu time spent up to now is    90705.4 secs

     End of band structure calculation

     Number of k-points >= 100: set verbosity='high' to print the bands.

     the Fermi energy is    -5.0593 ev
     (compare with:    -5.0599 eV, computed in scf)

     Writing all to output data dir /tmpu/isholek_g/isholek/MIGUEL/QE/111_2x2/SAVE/Ni3Pd1_111.save/ :
     XML data file, pseudopotentials, collected wavefunctions
 
     init_run     :      3.49s CPU      6.74s WALL (       1 calls)
     electrons    :  47070.56s CPU  90465.81s WALL (       1 calls)

     Called by init_run:
     wfcinit      :      0.00s CPU      0.01s WALL (       1 calls)
     potinit      :      2.01s CPU      3.77s WALL (       1 calls)
     hinit0       :      0.47s CPU      1.02s WALL (       1 calls)

     Called by electrons:
     c_bands      :  47068.44s CPU  90463.28s WALL (       1 calls)
     v_of_rho     :      0.45s CPU      0.96s WALL (       1 calls)
     newd         :      0.19s CPU      0.44s WALL (       1 calls)
     PAW_pot      :      0.70s CPU      1.40s WALL (       1 calls)

     Called by c_bands:
     init_us_2    :      1.66s CPU      2.75s WALL (     100 calls)
     init_us_2:cp :      1.66s CPU      2.72s WALL (     100 calls)
     cegterg      :  19557.11s CPU  37816.77s WALL (     591 calls)

     Called by *egterg:
     cdiaghg      :   1685.30s CPU   3266.35s WALL (   11406 calls)
     h_psi        :  13948.61s CPU  27034.60s WALL (   11997 calls)
     s_psi        :    609.72s CPU   1190.70s WALL (   11997 calls)
     g_psi        :     31.13s CPU     53.23s WALL (   11306 calls)

     Called by h_psi:
     h_psi:calbec :    756.75s CPU   1454.01s WALL (   11997 calls)
     vloc_psi     :  12543.21s CPU  24329.16s WALL (   11997 calls)
     add_vuspsi   :    622.48s CPU   1197.01s WALL (   11997 calls)

     General routines
     calbec       :    756.63s CPU   1453.76s WALL (   11997 calls)
     fft          :      0.30s CPU      0.66s WALL (      23 calls)
     ffts         :      0.02s CPU      0.04s WALL (       2 calls)
     fftw         :  11308.19s CPU  21998.65s WALL ( 2354290 calls)
     interpolate  :      0.04s CPU      0.08s WALL (       2 calls)
     davcio       :      0.05s CPU      3.07s WALL (     200 calls)
 
     Parallel routines
 
     PWSCF        :     13h23m CPU   1d 1h44m WALL

 
   This run was terminated on:  22:58:20  13Mar2026            

=------------------------------------------------------------------------------=
   JOB DONE.
=------------------------------------------------------------------------------=
