
     Program PWSCF v.7.3 starts on  9Nov2025 at  2:59:30 

     This program is part of the open-source Quantum ESPRESSO suite
     for quantum simulation of materials; please cite
         "P. Giannozzi et al., J. Phys.:Condens. Matter 21 395502 (2009);
         "P. Giannozzi et al., J. Phys.:Condens. Matter 29 465901 (2017);
         "P. Giannozzi et al., J. Chem. Phys. 152 154105 (2020);
          URL http://www.quantum-espresso.org", 
     in publications or presentations arising from this work. More details at
     http://www.quantum-espresso.org/quote

     Parallel version (MPI), running on    32 processors

     MPI processes distributed on     2 nodes
     122123 MiB available memory on the printing compute node when the environment starts
 
     Reading input from Pd_111_3Layer.in

     Current dimensions of program PWSCF are:
     Max number of different atomic species (ntypx) = 10
     Max number of k-points (npk) =  40000
     Max angular momentum in pseudopotentials (lmaxx) =  4
     file Pd.upf: wavefunction(s)  5S 4D renormalized
     file H.upf: wavefunction(s)  1S renormalized

     IMPORTANT: XC functional enforced from input :
     Exchange-correlation= PBE
                           (   1   4   3   4   0   0   0)
     Any further DFT definition will be discarded
     Please, verify this is what you really want

 
     K-points division:     npool     =       4
     R & G space division:  proc/nbgrp/npool/nimage =       8
     wavefunctions fft division:  Y-proc x Z-proc =       2      4
     wavefunctions fft division:  task group distribution
                                  #TG    x Z-proc =       2      4
     Subspace diagonalization in iterative solution of the eigenvalue problem:
     one sub-group per band group will be used
     scalapack distributed-memory algorithm (size of sub-group:  2*  2 procs)

 
     Parallelization info
     --------------------
     sticks:   dense  smooth     PW     G-vecs:    dense   smooth      PW
     Min         432     216     62               125980    44482    6848
     Max         434     217     63               126068    44575    6873
     Sum        3463    1735    499              1008141   356271   54903
 
     Using Pencil Decomposition
 

     Title: 
     Pd_111_3Layer                                                              


     bravais-lattice index     =            0
     lattice parameter (alat)  =      10.2412  a.u.
     unit-cell volume          =    5675.0250 (a.u.)^3
     number of atoms/cell      =           12
     number of atomic types    =            2
     number of electrons       =       120.00
     number of Kohn-Sham states=           72
     kinetic-energy cutoff     =      60.0000  Ry
     charge density cutoff     =     480.0000  Ry
     scf convergence threshold =      1.0E-08
     mixing beta               =       0.2000
     number of iterations used =           12  local-TF  mixing
     energy convergence thresh.=      9.6E-06
     force convergence thresh. =      7.8E-04
     Exchange-correlation= PBE
                           (   1   4   3   4   0   0   0)
     nstep                     =           50


     celldm(1)=  10.241232  celldm(2)=   0.000000  celldm(3)=   0.000000
     celldm(4)=   0.000000  celldm(5)=   0.000000  celldm(6)=   0.000000

     crystal axes: (cart. coord. in units of alat)
               a(1) = (   1.000000   0.000000   0.000000 )  
               a(2) = (   0.500000   0.866025   0.000000 )  
               a(3) = (   0.000000   0.000000   6.100712 )  

     reciprocal axes: (cart. coord. in units 2 pi/alat)
               b(1) = (  1.000000 -0.577350  0.000000 )  
               b(2) = (  0.000000  1.154701  0.000000 )  
               b(3) = (  0.000000  0.000000  0.163915 )  


     PseudoPot. # 1 for Pd read from file:
     /tmpu/isholek_g/isholek/MIGUEL/PP/Pd.upf
     MD5 check sum: e9d6f14fd83b79f8105499163af174c9
     Pseudo is Projector augmented-wave + core cor, Zval = 10.0
     Generated using "atomic" code by A. Dal Corso  v.5.0.2 svn rev. 9415
     Shape of augmentation charge: PSQ
     Using radial grid of 1235 points,  6 beta functions with: 
                l(1) =   0
                l(2) =   0
                l(3) =   1
                l(4) =   1
                l(5) =   2
                l(6) =   2
     Q(r) pseudized with 0 coefficients 


     PseudoPot. # 2 for H  read from file:
     /tmpu/isholek_g/isholek/MIGUEL/PP/H.upf
     MD5 check sum: 4cbe42a24e15140179a93d5bf84f2220
     Pseudo is Projector augmented-wave, Zval =  1.0
     Generated using "atomic" code by A. Dal Corso  v.5.0.2 svn rev. 9415
     Shape of augmentation charge: PSQ
     Using radial grid of  929 points,  2 beta functions with: 
                l(1) =   0
                l(2) =   0
     Q(r) pseudized with 0 coefficients 


     atomic species   valence    mass     pseudopotential
     Pd               10.00   106.42000     Pd( 1.00)
     H                 1.00     1.00784     H ( 1.00)

     Starting magnetic structure 
     atomic species   magnetization
     Pd              0.065
     H               1.000

     No symmetry found



   Cartesian axes

     site n.     atom                  positions (alat units)
         1        Pd     tau(   1) = (   0.7499990   0.1443381   2.0297350  )
         2        Pd     tau(   2) = (   0.2500010   0.1443381   2.0297350  )
         3        Pd     tau(   3) = (   0.5000000   0.5773491   2.0297350  )
         4        Pd     tau(   4) = (   1.0000000   0.5773503   2.0297357  )
         5        Pd     tau(   5) = (   0.7499990   0.7216884   2.4379833  )
         6        Pd     tau(   6) = (   1.0000000   0.2886740   2.4379833  )
         7        Pd     tau(   7) = (   1.2500010   0.7216884   2.4379833  )
         8        Pd     tau(   8) = (   0.5000000   0.2886751   2.4379840  )
         9        Pd     tau(   9) = (   1.0000000   0.8660253   2.8438202  )
        10        Pd     tau(  10) = (   1.2500345   0.4330327   2.8448126  )
        11        Pd     tau(  11) = (   0.7499655   0.4330327   2.8448126  )
        12        Pd     tau(  12) = (   1.0000000  -0.0000399   2.8448132  )

     --------------------------------------------
     DFT-D3 Dispersion Correction (3-body terms):
     --------------------------------------------
       Reference C6 values for interpolation: 

         atom   Coordination number   C6
         H          0.912             6.05
         H          0.000            15.18
         Pd         0.000          1217.01
         Pd         1.863           573.90
         Pd         5.710           531.75

       Values used:

         atom   Coordination number  R0_AB[au]  C6      C8
         Pd         6.688            3.168    531.75  48720.73
         Pd         6.688            3.168    531.75  48720.73
         Pd         6.688            3.168    531.75  48720.73
         Pd         6.688            3.168    531.75  48720.73
         Pd         8.974            3.168    531.75  48720.73
         Pd         8.968            3.168    531.75  48720.73
         Pd         8.974            3.168    531.75  48720.73
         Pd         8.974            3.168    531.75  48720.73
         Pd         6.728            3.168    531.75  48720.73
         Pd         6.712            3.168    531.75  48720.73
         Pd         6.712            3.168    531.75  48720.73
         Pd         6.712            3.168    531.75  48720.73

         Molecular C6 ( Ry / a.u.^6 ) =     76571.88


     number of k points=    52  Marzari-Vanderbilt smearing, width (Ry)=  0.0147
                       cart. coord. in units 2pi/alat
        k(    1) = (   0.0000000   0.0000000   0.0000000), wk =   0.0100000
        k(    2) = (   0.0000000   0.1154701   0.0000000), wk =   0.0200000
        k(    3) = (   0.0000000   0.2309401   0.0000000), wk =   0.0200000
        k(    4) = (   0.0000000   0.3464102   0.0000000), wk =   0.0200000
        k(    5) = (   0.0000000   0.4618802   0.0000000), wk =   0.0200000
        k(    6) = (   0.0000000  -0.5773503   0.0000000), wk =   0.0100000
        k(    7) = (   0.1000000  -0.0577350   0.0000000), wk =   0.0200000
        k(    8) = (   0.1000000   0.0577350   0.0000000), wk =   0.0200000
        k(    9) = (   0.1000000   0.1732051   0.0000000), wk =   0.0200000
        k(   10) = (   0.1000000   0.2886751   0.0000000), wk =   0.0200000
        k(   11) = (   0.1000000   0.4041452   0.0000000), wk =   0.0200000
        k(   12) = (   0.1000000  -0.6350853   0.0000000), wk =   0.0200000
        k(   13) = (   0.1000000  -0.5196152   0.0000000), wk =   0.0200000
        k(   14) = (   0.1000000  -0.4041452   0.0000000), wk =   0.0200000
        k(   15) = (   0.1000000  -0.2886751   0.0000000), wk =   0.0200000
        k(   16) = (   0.1000000  -0.1732051   0.0000000), wk =   0.0200000
        k(   17) = (   0.2000000  -0.1154701   0.0000000), wk =   0.0200000
        k(   18) = (   0.2000000   0.0000000   0.0000000), wk =   0.0200000
        k(   19) = (   0.2000000   0.1154701   0.0000000), wk =   0.0200000
        k(   20) = (   0.2000000   0.2309401   0.0000000), wk =   0.0200000
        k(   21) = (   0.2000000   0.3464102   0.0000000), wk =   0.0200000
        k(   22) = (   0.2000000  -0.6928203   0.0000000), wk =   0.0200000
        k(   23) = (   0.2000000  -0.5773503   0.0000000), wk =   0.0200000
        k(   24) = (   0.2000000  -0.4618802   0.0000000), wk =   0.0200000
        k(   25) = (   0.2000000  -0.3464102   0.0000000), wk =   0.0200000
        k(   26) = (   0.2000000  -0.2309401   0.0000000), wk =   0.0200000
        k(   27) = (   0.3000000  -0.1732051   0.0000000), wk =   0.0200000
        k(   28) = (   0.3000000  -0.0577350   0.0000000), wk =   0.0200000
        k(   29) = (   0.3000000   0.0577350   0.0000000), wk =   0.0200000
        k(   30) = (   0.3000000   0.1732051   0.0000000), wk =   0.0200000
        k(   31) = (   0.3000000   0.2886751   0.0000000), wk =   0.0200000
        k(   32) = (   0.3000000  -0.7505553   0.0000000), wk =   0.0200000
        k(   33) = (   0.3000000  -0.6350853   0.0000000), wk =   0.0200000
        k(   34) = (   0.3000000  -0.5196152   0.0000000), wk =   0.0200000
        k(   35) = (   0.3000000  -0.4041452   0.0000000), wk =   0.0200000
        k(   36) = (   0.3000000  -0.2886751   0.0000000), wk =   0.0200000
        k(   37) = (   0.4000000  -0.2309401   0.0000000), wk =   0.0200000
        k(   38) = (   0.4000000  -0.1154701   0.0000000), wk =   0.0200000
        k(   39) = (   0.4000000   0.0000000   0.0000000), wk =   0.0200000
        k(   40) = (   0.4000000   0.1154701   0.0000000), wk =   0.0200000
        k(   41) = (   0.4000000   0.2309401   0.0000000), wk =   0.0200000
        k(   42) = (   0.4000000  -0.8082904   0.0000000), wk =   0.0200000
        k(   43) = (   0.4000000  -0.6928203   0.0000000), wk =   0.0200000
        k(   44) = (   0.4000000  -0.5773503   0.0000000), wk =   0.0200000
        k(   45) = (   0.4000000  -0.4618802   0.0000000), wk =   0.0200000
        k(   46) = (   0.4000000  -0.3464102   0.0000000), wk =   0.0200000
        k(   47) = (  -0.5000000   0.2886751   0.0000000), wk =   0.0100000
        k(   48) = (  -0.5000000   0.4041452   0.0000000), wk =   0.0200000
        k(   49) = (  -0.5000000   0.5196152   0.0000000), wk =   0.0200000
        k(   50) = (  -0.5000000   0.6350853   0.0000000), wk =   0.0200000
        k(   51) = (  -0.5000000   0.7505553   0.0000000), wk =   0.0200000
        k(   52) = (  -0.5000000  -0.2886751   0.0000000), wk =   0.0100000

     Dense  grid:  1008141 G-vectors     FFT dimensions: (  72,  72, 450)

     Smooth grid:   356271 G-vectors     FFT dimensions: (  54,  54, 320)

     Estimated max dynamical RAM per process >     450.96 MB

     Estimated total dynamical RAM >      11.93 GB
 ----2D----2D----2D----2D----2D----2D----2D----2D----2D----2D----2D----2D
  The code is running with the 2D cutoff
  Please refer to:
  Sohier, T., Calandra, M., & Mauri, F. (2017), 
  Density functional perturbation theory for gated two-dimensional heterostructu
 res:
  Theoretical developments and application to flexural phonons in graphene.
  Physical Review B, 96(7), 75448. https://doi.org/10.1103/PhysRevB.96.075448
 ----2D----2D----2D----2D----2D----2D----2D----2D----2D----2D----2D----2D

     Check: negative core charge=   -0.000002
     Generating pointlists ...
     new r_m :   0.2054 (alat units)  2.1039 (a.u.) for type    1
     new r_m :   0.4125 (alat units)  4.2245 (a.u.) for type    2

     Initial potential from superposition of free atoms

     starting charge     119.9937, renormalised to     120.0000

     negative rho (up, down):  4.655E-05 4.087E-05
     Starting wfcs are  108 randomized atomic wfcs
     Checking if some PAW data can be deallocated... 

     total cpu time spent up to now is       24.5 secs

     Self-consistent Calculation

     iteration #  1     ecut=    60.00 Ry     beta= 0.20
     Davidson diagonalization with overlap
     ethr =  1.00E-02,  avg # of iterations =  4.7

     negative rho (up, down):  1.349E-03 1.364E-03

     total cpu time spent up to now is       74.3 secs

     total energy              =   -3974.34417136 Ry
     estimated scf accuracy    <       1.34709917 Ry

     total magnetization       =     4.83 Bohr mag/cell
     absolute magnetization    =     4.84 Bohr mag/cell

     iteration #  2     ecut=    60.00 Ry     beta= 0.20
     Davidson diagonalization with overlap
     ethr =  1.12E-03,  avg # of iterations =  1.7

     negative rho (up, down):  6.253E-03 5.974E-03

     total cpu time spent up to now is      117.4 secs

     total energy              =   -3974.05866833 Ry
     estimated scf accuracy    <       0.92442648 Ry

     total magnetization       =     4.82 Bohr mag/cell
     absolute magnetization    =     4.82 Bohr mag/cell

     iteration #  3     ecut=    60.00 Ry     beta= 0.20
     Davidson diagonalization with overlap
     ethr =  7.70E-04,  avg # of iterations =  2.2

     negative rho (up, down):  4.624E-03 4.483E-03

     total cpu time spent up to now is      161.4 secs

     total energy              =   -3974.16205954 Ry
     estimated scf accuracy    <       0.10004958 Ry

     total magnetization       =     4.56 Bohr mag/cell
     absolute magnetization    =     4.62 Bohr mag/cell

     iteration #  4     ecut=    60.00 Ry     beta= 0.20
     Davidson diagonalization with overlap
     ethr =  8.34E-05,  avg # of iterations =  7.0

     negative rho (up, down):  4.593E-03 4.452E-03

     total cpu time spent up to now is      222.3 secs

     total energy              =   -3974.17909170 Ry
     estimated scf accuracy    <       0.04113733 Ry

     total magnetization       =     4.51 Bohr mag/cell
     absolute magnetization    =     4.61 Bohr mag/cell

     iteration #  5     ecut=    60.00 Ry     beta= 0.20
     Davidson diagonalization with overlap
     ethr =  3.43E-05,  avg # of iterations =  2.6

     negative rho (up, down):  5.521E-03 5.319E-03

     total cpu time spent up to now is      267.2 secs

     total energy              =   -3974.17264347 Ry
     estimated scf accuracy    <       0.03857972 Ry

     total magnetization       =     4.51 Bohr mag/cell
     absolute magnetization    =     4.61 Bohr mag/cell

     iteration #  6     ecut=    60.00 Ry     beta= 0.20
     Davidson diagonalization with overlap
     ethr =  3.21E-05,  avg # of iterations =  2.0

     negative rho (up, down):  9.939E-03 9.738E-03

     total cpu time spent up to now is      312.0 secs

     total energy              =   -3974.17468250 Ry
     estimated scf accuracy    <       0.03264495 Ry

     total magnetization       =     4.46 Bohr mag/cell
     absolute magnetization    =     4.58 Bohr mag/cell

     iteration #  7     ecut=    60.00 Ry     beta= 0.20
     Davidson diagonalization with overlap
     ethr =  2.72E-05,  avg # of iterations =  1.0

     negative rho (up, down):  2.178E-02 2.163E-02

     total cpu time spent up to now is      353.1 secs

     total energy              =   -3974.17649554 Ry
     estimated scf accuracy    <       0.03610952 Ry

     total magnetization       =     4.45 Bohr mag/cell
     absolute magnetization    =     4.56 Bohr mag/cell

     iteration #  8     ecut=    60.00 Ry     beta= 0.20
     Davidson diagonalization with overlap
     ethr =  2.72E-05,  avg # of iterations =  2.8

     negative rho (up, down):  4.612E-03 4.482E-03

     total cpu time spent up to now is      398.9 secs

     total energy              =   -3974.17053584 Ry
     estimated scf accuracy    <       0.05923634 Ry

     total magnetization       =     4.42 Bohr mag/cell
     absolute magnetization    =     4.52 Bohr mag/cell

     iteration #  9     ecut=    60.00 Ry     beta= 0.20
     Davidson diagonalization with overlap
     ethr =  2.72E-05,  avg # of iterations =  2.4

     negative rho (up, down):  1.675E-02 1.662E-02

     total cpu time spent up to now is      448.1 secs

     total energy              =   -3974.18306676 Ry
     estimated scf accuracy    <       0.03125499 Ry

     total magnetization       =     4.51 Bohr mag/cell
     absolute magnetization    =     4.62 Bohr mag/cell

     iteration # 10     ecut=    60.00 Ry     beta= 0.20
     Davidson diagonalization with overlap
     ethr =  2.60E-05,  avg # of iterations =  1.1

     negative rho (up, down):  2.740E-02 2.727E-02

     total cpu time spent up to now is      489.7 secs

     total energy              =   -3974.18215716 Ry
     estimated scf accuracy    <       0.01503874 Ry

     total magnetization       =     4.38 Bohr mag/cell
     absolute magnetization    =     4.51 Bohr mag/cell

     iteration # 11     ecut=    60.00 Ry     beta= 0.20
     Davidson diagonalization with overlap
     ethr =  1.25E-05,  avg # of iterations =  3.4

     negative rho (up, down):  1.943E-02 1.936E-02

     total cpu time spent up to now is      536.2 secs

     total energy              =   -3974.18136371 Ry
     estimated scf accuracy    <       0.01750483 Ry

     total magnetization       =     4.32 Bohr mag/cell
     absolute magnetization    =     4.45 Bohr mag/cell

     iteration # 12     ecut=    60.00 Ry     beta= 0.20
     Davidson diagonalization with overlap
     ethr =  1.25E-05,  avg # of iterations =  3.8

     negative rho (up, down):  4.309E-03 4.243E-03

     total cpu time spent up to now is      595.2 secs

     total energy              =   -3974.18139225 Ry
     estimated scf accuracy    <       0.01597195 Ry

     total magnetization       =     4.31 Bohr mag/cell
     absolute magnetization    =     4.46 Bohr mag/cell

     iteration # 13     ecut=    60.00 Ry     beta= 0.20
     Davidson diagonalization with overlap
     ethr =  1.25E-05,  avg # of iterations =  2.0

     negative rho (up, down):  3.354E-03 3.313E-03

     total cpu time spent up to now is      638.4 secs

     total energy              =   -3974.18309666 Ry
     estimated scf accuracy    <       0.00172776 Ry

     total magnetization       =     4.26 Bohr mag/cell
     absolute magnetization    =     4.43 Bohr mag/cell

     iteration # 14     ecut=    60.00 Ry     beta= 0.20
     Davidson diagonalization with overlap
     c_bands:  1 eigenvalues not converged
     ethr =  1.44E-06,  avg # of iterations =  7.1

     negative rho (up, down):  2.121E-03 2.096E-03

     total cpu time spent up to now is      702.1 secs

     total energy              =   -3974.18371139 Ry
     estimated scf accuracy    <       0.00238356 Ry

     total magnetization       =     4.21 Bohr mag/cell
     absolute magnetization    =     4.40 Bohr mag/cell

     iteration # 15     ecut=    60.00 Ry     beta= 0.20
     Davidson diagonalization with overlap
     ethr =  1.44E-06,  avg # of iterations =  2.2

     negative rho (up, down):  1.578E-03 1.562E-03

     total cpu time spent up to now is      747.1 secs

     total energy              =   -3974.18317654 Ry
     estimated scf accuracy    <       0.00220956 Ry

     total magnetization       =     4.21 Bohr mag/cell
     absolute magnetization    =     4.40 Bohr mag/cell

     iteration # 16     ecut=    60.00 Ry     beta= 0.20
     Davidson diagonalization with overlap
     ethr =  1.44E-06,  avg # of iterations =  2.0

     negative rho (up, down):  1.313E-03 1.303E-03

     total cpu time spent up to now is      790.8 secs

     total energy              =   -3974.18323667 Ry
     estimated scf accuracy    <       0.00046154 Ry

     total magnetization       =     4.19 Bohr mag/cell
     absolute magnetization    =     4.38 Bohr mag/cell

     iteration # 17     ecut=    60.00 Ry     beta= 0.20
     Davidson diagonalization with overlap
     ethr =  3.85E-07,  avg # of iterations =  2.5

     negative rho (up, down):  1.143E-03 1.139E-03

     total cpu time spent up to now is      842.7 secs

     total energy              =   -3974.18330367 Ry
     estimated scf accuracy    <       0.00004641 Ry

     total magnetization       =     4.19 Bohr mag/cell
     absolute magnetization    =     4.37 Bohr mag/cell

     iteration # 18     ecut=    60.00 Ry     beta= 0.20
     Davidson diagonalization with overlap
     ethr =  3.87E-08,  avg # of iterations =  5.3

     negative rho (up, down):  1.068E-03 1.066E-03

     total cpu time spent up to now is      909.9 secs

     total energy              =   -3974.18330625 Ry
     estimated scf accuracy    <       0.00006433 Ry

     total magnetization       =     4.18 Bohr mag/cell
     absolute magnetization    =     4.36 Bohr mag/cell

     iteration # 19     ecut=    60.00 Ry     beta= 0.20
     Davidson diagonalization with overlap
     ethr =  3.87E-08,  avg # of iterations =  2.5

     negative rho (up, down):  1.053E-03 1.052E-03

     total cpu time spent up to now is      965.7 secs

     total energy              =   -3974.18331876 Ry
     estimated scf accuracy    <       0.00001979 Ry

     total magnetization       =     4.17 Bohr mag/cell
     absolute magnetization    =     4.35 Bohr mag/cell

     iteration # 20     ecut=    60.00 Ry     beta= 0.20
     Davidson diagonalization with overlap
     ethr =  1.65E-08,  avg # of iterations =  1.0

     negative rho (up, down):  1.033E-03 1.032E-03

     total cpu time spent up to now is     1006.8 secs

     total energy              =   -3974.18331785 Ry
     estimated scf accuracy    <       0.00000931 Ry

     total magnetization       =     4.15 Bohr mag/cell
     absolute magnetization    =     4.34 Bohr mag/cell

     iteration # 21     ecut=    60.00 Ry     beta= 0.20
     Davidson diagonalization with overlap
     ethr =  7.76E-09,  avg # of iterations =  2.0

     negative rho (up, down):  7.598E-04 7.594E-04

     total cpu time spent up to now is     1052.2 secs

     total energy              =   -3974.18331584 Ry
     estimated scf accuracy    <       0.00000702 Ry

     total magnetization       =     4.15 Bohr mag/cell
     absolute magnetization    =     4.33 Bohr mag/cell

     iteration # 22     ecut=    60.00 Ry     beta= 0.20
     Davidson diagonalization with overlap
     ethr =  5.85E-09,  avg # of iterations =  2.6

     negative rho (up, down):  5.652E-04 5.648E-04

     total cpu time spent up to now is     1109.4 secs

     total energy              =   -3974.18331435 Ry
     estimated scf accuracy    <       0.00000392 Ry

     total magnetization       =     4.13 Bohr mag/cell
     absolute magnetization    =     4.31 Bohr mag/cell

     iteration # 23     ecut=    60.00 Ry     beta= 0.20
     Davidson diagonalization with overlap
     ethr =  3.27E-09,  avg # of iterations =  2.6

     negative rho (up, down):  4.195E-04 4.191E-04

     total cpu time spent up to now is     1168.2 secs

     total energy              =   -3974.18331621 Ry
     estimated scf accuracy    <       0.00000592 Ry

     total magnetization       =     4.11 Bohr mag/cell
     absolute magnetization    =     4.29 Bohr mag/cell

     iteration # 24     ecut=    60.00 Ry     beta= 0.20
     Davidson diagonalization with overlap
     ethr =  3.27E-09,  avg # of iterations =  2.1

     negative rho (up, down):  2.373E-04 2.365E-04

     total cpu time spent up to now is     1215.3 secs

     total energy              =   -3974.18331625 Ry
     estimated scf accuracy    <       0.00000228 Ry

     total magnetization       =     4.11 Bohr mag/cell
     absolute magnetization    =     4.29 Bohr mag/cell

     iteration # 25     ecut=    60.00 Ry     beta= 0.20
     Davidson diagonalization with overlap
     ethr =  1.90E-09,  avg # of iterations =  2.1

     negative rho (up, down):  2.025E-04 2.018E-04

     total cpu time spent up to now is     1266.7 secs

     total energy              =   -3974.18331615 Ry
     estimated scf accuracy    <       0.00000154 Ry

     total magnetization       =     4.10 Bohr mag/cell
     absolute magnetization    =     4.28 Bohr mag/cell

     iteration # 26     ecut=    60.00 Ry     beta= 0.20
     Davidson diagonalization with overlap
     ethr =  1.28E-09,  avg # of iterations =  1.1

     negative rho (up, down):  1.917E-04 1.917E-04

     total cpu time spent up to now is     1307.9 secs

     total energy              =   -3974.18331587 Ry
     estimated scf accuracy    <       0.00000064 Ry

     total magnetization       =     4.10 Bohr mag/cell
     absolute magnetization    =     4.29 Bohr mag/cell

     iteration # 27     ecut=    60.00 Ry     beta= 0.20
     Davidson diagonalization with overlap
     ethr =  5.36E-10,  avg # of iterations =  3.6

     negative rho (up, down):  1.387E-04 1.388E-04

     total cpu time spent up to now is     1364.8 secs

     total energy              =   -3974.18331597 Ry
     estimated scf accuracy    <       0.00000041 Ry

     total magnetization       =     4.11 Bohr mag/cell
     absolute magnetization    =     4.29 Bohr mag/cell

     iteration # 28     ecut=    60.00 Ry     beta= 0.20
     Davidson diagonalization with overlap
     ethr =  3.43E-10,  avg # of iterations =  3.1

     negative rho (up, down):  2.115E-05 2.091E-05

     total cpu time spent up to now is     1426.1 secs

     total energy              =   -3974.18331558 Ry
     estimated scf accuracy    <       0.00000195 Ry

     total magnetization       =     4.11 Bohr mag/cell
     absolute magnetization    =     4.29 Bohr mag/cell

     iteration # 29     ecut=    60.00 Ry     beta= 0.20
     Davidson diagonalization with overlap
     ethr =  3.43E-10,  avg # of iterations =  2.6

     negative rho (up, down):  2.146E-05 2.117E-05

     total cpu time spent up to now is     1482.4 secs

     total energy              =   -3974.18331577 Ry
     estimated scf accuracy    <       0.00000017 Ry

     total magnetization       =     4.11 Bohr mag/cell
     absolute magnetization    =     4.29 Bohr mag/cell

     iteration # 30     ecut=    60.00 Ry     beta= 0.20
     Davidson diagonalization with overlap
     ethr =  1.39E-10,  avg # of iterations =  2.0

     negative rho (up, down):  2.213E-05 2.177E-05

     total cpu time spent up to now is     1528.1 secs

     total energy              =   -3974.18331576 Ry
     estimated scf accuracy    <       0.00000009 Ry

     total magnetization       =     4.11 Bohr mag/cell
     absolute magnetization    =     4.29 Bohr mag/cell

     iteration # 31     ecut=    60.00 Ry     beta= 0.20
     Davidson diagonalization with overlap
     ethr =  7.43E-11,  avg # of iterations =  2.0

     negative rho (up, down):  2.065E-05 2.020E-05

     total cpu time spent up to now is     1574.8 secs

     total energy              =   -3974.18331577 Ry
     estimated scf accuracy    <       0.00000004 Ry

     total magnetization       =     4.11 Bohr mag/cell
     absolute magnetization    =     4.29 Bohr mag/cell

     iteration # 32     ecut=    60.00 Ry     beta= 0.20
     Davidson diagonalization with overlap
     ethr =  3.33E-11,  avg # of iterations =  2.1

     negative rho (up, down):  1.361E-05 1.332E-05

     total cpu time spent up to now is     1619.3 secs

     total energy              =   -3974.18331575 Ry
     estimated scf accuracy    <       0.00000003 Ry

     total magnetization       =     4.11 Bohr mag/cell
     absolute magnetization    =     4.29 Bohr mag/cell

     iteration # 33     ecut=    60.00 Ry     beta= 0.20
     Davidson diagonalization with overlap
     ethr =  2.19E-11,  avg # of iterations =  2.0

     negative rho (up, down):  1.163E-05 1.144E-05

     total cpu time spent up to now is     1674.4 secs

     total energy              =   -3974.18331576 Ry
     estimated scf accuracy    <       0.00000002 Ry

     total magnetization       =     4.11 Bohr mag/cell
     absolute magnetization    =     4.29 Bohr mag/cell

     iteration # 34     ecut=    60.00 Ry     beta= 0.20
     Davidson diagonalization with overlap
     ethr =  1.98E-11,  avg # of iterations =  2.0

     negative rho (up, down):  6.413E-06 6.294E-06
 
     Magnetic moment per site  (integrated on atomic sphere of radius R)
     atom   1 (R=0.205)  charge=  8.3645  magn=  0.3036
     atom   2 (R=0.205)  charge=  8.3645  magn=  0.3036
     atom   3 (R=0.205)  charge=  8.3645  magn=  0.3040
     atom   4 (R=0.205)  charge=  8.3645  magn=  0.3036
     atom   5 (R=0.205)  charge=  8.4099  magn=  0.4155
     atom   6 (R=0.205)  charge=  8.4095  magn=  0.4147
     atom   7 (R=0.205)  charge=  8.4099  magn=  0.4155
     atom   8 (R=0.205)  charge=  8.4099  magn=  0.4155
     atom   9 (R=0.205)  charge=  8.3675  magn=  0.3094
     atom  10 (R=0.205)  charge=  8.3664  magn=  0.3083
     atom  11 (R=0.205)  charge=  8.3664  magn=  0.3083
     atom  12 (R=0.205)  charge=  8.3664  magn=  0.3083

     total cpu time spent up to now is     1722.1 secs

     End of self-consistent calculation

     Number of k-points >= 100: set verbosity='high' to print the bands.

     the Fermi energy is    -5.2176 ev

!    total energy              =   -3974.18331575 Ry
     total all-electron energy =   -121105.574210 Ry
     estimated scf accuracy    <          5.7E-09 Ry
     smearing contrib. (-TS)   =       0.00297391 Ry
     internal energy E=F+TS    =   -3974.18628966 Ry

     The total energy is F=E-TS. E is the sum of the following terms:
     one-electron contribution =  -22940.21348291 Ry
     hartree contribution      =   11562.72698973 Ry
     xc contribution           =    -389.24354566 Ry
     ewald contribution        =   10874.63478497 Ry
     DFT-D3 Dispersion         =      -1.24675259 Ry
     one-center paw contrib.   =   -3080.84428321 Ry

     total magnetization       =     4.11 Bohr mag/cell
     absolute magnetization    =     4.29 Bohr mag/cell

     convergence has been achieved in  34 iterations

     negative rho (up, down):  6.413E-06 6.294E-06

     Forces acting on atoms (cartesian axes, Ry/au):

     atom    1 type  1   force =     0.00001105    0.00000366   -0.00310940
     atom    2 type  1   force =    -0.00001044    0.00000212   -0.00310900
     atom    3 type  1   force =     0.00000044    0.00000358   -0.00297867
     atom    4 type  1   force =    -0.00000053   -0.00000883   -0.00310884
     atom    5 type  1   force =    -0.00034682   -0.00020551   -0.00266741
     atom    6 type  1   force =    -0.00000205    0.00000336   -0.00210155
     atom    7 type  1   force =     0.00034644   -0.00020458   -0.00266601
     atom    8 type  1   force =     0.00000113    0.00040514   -0.00266750
     atom    9 type  1   force =     0.00000079    0.00000044    0.00666337
     atom   10 type  1   force =    -0.00015449   -0.00008864    0.00524699
     atom   11 type  1   force =     0.00015466   -0.00008959    0.00525037
     atom   12 type  1   force =    -0.00000020    0.00017886    0.00524767

     Total force =     0.011275     Total SCF correction =     0.000041


     Computing stress (Cartesian axis) and pressure


     negative rho (up, down):  6.413E-06 6.294E-06
          total   stress  (Ry/bohr**3)                   (kbar)     P=       -7.35
  -0.00008716  -0.00000000  -0.00000000          -12.82       -0.00       -0.00
  -0.00000000  -0.00008716  -0.00000000           -0.00      -12.82       -0.00
  -0.00000000  -0.00000000   0.00002433           -0.00       -0.00        3.58


     BFGS Geometry Optimization
     Energy error            =      0.0E+00 Ry
     Gradient error          =      6.7E-03 Ry/Bohr

     number of scf cycles    =   1
     number of bfgs steps    =   0

     energy             new  =   -3974.1833157492 Ry

     new trust radius        =       0.0066633746 bohr
     new conv_thr            =       0.0000000100 Ry


ATOMIC_POSITIONS (angstrom)
Pd               4.0645645626        0.7822299404       11.0000000000    0   0   0
Pd               1.3548619999        0.7822299404       11.0000000000    0   0   0
Pd               2.7097132812        3.1289011964       11.0000000000    0   0   0
Pd               5.4194265625        3.1289073847       11.0000037136    0   0   0
Pd               4.0645645626        3.9111373251       13.2124716294    0   0   0
Pd               5.4194265625        1.5644475040       13.2124716294    0   0   0
Pd               6.7742885624        3.9111373251       13.2124716294    0   0   0
Pd               2.7097132813        1.5644536924       13.2124753430    0   0   0
Pd               5.4194270247        4.6933606166       15.4154006400
Pd               6.7743882698        2.3467418445       15.4200297786
Pd               4.0644649905        2.3467413659       15.4200315704
Pd               5.4194264487       -0.0001217273       15.4200330438



     Writing config-only to output data dir ./Pd_111_3Layer.save/ :
     XML data file
     NEW-OLD atomic charge density approx. for the potential

     Check: negative core charge=   -0.000002

     negative rho (up, down):  7.202E-06 6.548E-06
     Generating pointlists ...

     total cpu time spent up to now is     1791.4 secs

     Self-consistent Calculation

     iteration #  1     ecut=    60.00 Ry     beta= 0.20
     Davidson diagonalization with overlap
     ethr =  1.00E-06,  avg # of iterations =  4.1

     Threshold (ethr) on eigenvalues was too large:
     Diagonalizing with lowered threshold

     Davidson diagonalization with overlap
     ethr =  3.01E-08,  avg # of iterations =  3.4

     negative rho (up, down):  7.298E-06 7.045E-06

     total cpu time spent up to now is     1931.1 secs

     total energy              =   -3974.18340551 Ry
     estimated scf accuracy    <       0.00002853 Ry

     total magnetization       =     4.10 Bohr mag/cell
     absolute magnetization    =     4.28 Bohr mag/cell

     iteration #  2     ecut=    60.00 Ry     beta= 0.20
     Davidson diagonalization with overlap
     ethr =  2.38E-08,  avg # of iterations =  1.0

     negative rho (up, down):  7.222E-06 7.028E-06

     total cpu time spent up to now is     1972.3 secs

     total energy              =   -3974.18341315 Ry
     estimated scf accuracy    <       0.00000999 Ry

     total magnetization       =     4.10 Bohr mag/cell
     absolute magnetization    =     4.28 Bohr mag/cell

     iteration #  3     ecut=    60.00 Ry     beta= 0.20
     Davidson diagonalization with overlap
     ethr =  8.32E-09,  avg # of iterations =  1.0

     negative rho (up, down):  7.557E-06 7.395E-06

     total cpu time spent up to now is     2013.3 secs

     total energy              =   -3974.18342747 Ry
     estimated scf accuracy    <       0.00000527 Ry

     total magnetization       =     4.10 Bohr mag/cell
     absolute magnetization    =     4.28 Bohr mag/cell

     iteration #  4     ecut=    60.00 Ry     beta= 0.20
     Davidson diagonalization with overlap
     ethr =  4.39E-09,  avg # of iterations =  2.0

     negative rho (up, down):  7.150E-06 7.000E-06

     total cpu time spent up to now is     2064.6 secs

     total energy              =   -3974.18343184 Ry
     estimated scf accuracy    <       0.00000127 Ry

     total magnetization       =     4.10 Bohr mag/cell
     absolute magnetization    =     4.28 Bohr mag/cell

     iteration #  5     ecut=    60.00 Ry     beta= 0.20
     Davidson diagonalization with overlap
     ethr =  1.06E-09,  avg # of iterations =  2.3

     negative rho (up, down):  5.564E-06 5.434E-06

     total cpu time spent up to now is     2115.6 secs

     total energy              =   -3974.18343351 Ry
     estimated scf accuracy    <       0.00000059 Ry

     total magnetization       =     4.10 Bohr mag/cell
     absolute magnetization    =     4.28 Bohr mag/cell

     iteration #  6     ecut=    60.00 Ry     beta= 0.20
     Davidson diagonalization with overlap
     ethr =  4.89E-10,  avg # of iterations =  2.1

     negative rho (up, down):  5.214E-06 5.081E-06

     total cpu time spent up to now is     2164.3 secs

     total energy              =   -3974.18343416 Ry
     estimated scf accuracy    <       0.00000010 Ry

     total magnetization       =     4.10 Bohr mag/cell
     absolute magnetization    =     4.28 Bohr mag/cell

     iteration #  7     ecut=    60.00 Ry     beta= 0.20
     Davidson diagonalization with overlap
     ethr =  8.68E-11,  avg # of iterations =  3.7

     negative rho (up, down):  5.340E-06 5.220E-06

     total cpu time spent up to now is     2222.9 secs

     total energy              =   -3974.18343424 Ry
     estimated scf accuracy    <       0.00000004 Ry

     total magnetization       =     4.10 Bohr mag/cell
     absolute magnetization    =     4.28 Bohr mag/cell

     iteration #  8     ecut=    60.00 Ry     beta= 0.20
     Davidson diagonalization with overlap
     ethr =  3.19E-11,  avg # of iterations =  2.0

     negative rho (up, down):  5.242E-06 5.129E-06

     total cpu time spent up to now is     2267.4 secs

     total energy              =   -3974.18343428 Ry
     estimated scf accuracy    <       0.00000002 Ry

     total magnetization       =     4.10 Bohr mag/cell
     absolute magnetization    =     4.28 Bohr mag/cell

     iteration #  9     ecut=    60.00 Ry     beta= 0.20
     Davidson diagonalization with overlap
     ethr =  1.68E-11,  avg # of iterations =  2.0

     negative rho (up, down):  6.423E-06 6.302E-06
 
     Magnetic moment per site  (integrated on atomic sphere of radius R)
     atom   1 (R=0.205)  charge=  8.3644  magn=  0.3036
     atom   2 (R=0.205)  charge=  8.3644  magn=  0.3036
     atom   3 (R=0.205)  charge=  8.3644  magn=  0.3040
     atom   4 (R=0.205)  charge=  8.3644  magn=  0.3036
     atom   5 (R=0.205)  charge=  8.4091  magn=  0.4150
     atom   6 (R=0.205)  charge=  8.4087  magn=  0.4144
     atom   7 (R=0.205)  charge=  8.4091  magn=  0.4150
     atom   8 (R=0.205)  charge=  8.4091  magn=  0.4150
     atom   9 (R=0.205)  charge=  8.3666  magn=  0.3078
     atom  10 (R=0.205)  charge=  8.3656  magn=  0.3068
     atom  11 (R=0.205)  charge=  8.3656  magn=  0.3068
     atom  12 (R=0.205)  charge=  8.3656  magn=  0.3068

     total cpu time spent up to now is     2315.5 secs

     End of self-consistent calculation

     Number of k-points >= 100: set verbosity='high' to print the bands.

     the Fermi energy is    -5.2191 ev

!    total energy              =   -3974.18343429 Ry
     total all-electron energy =   -121105.574329 Ry
     estimated scf accuracy    <          3.5E-09 Ry
     smearing contrib. (-TS)   =       0.00298471 Ry
     internal energy E=F+TS    =   -3974.18641899 Ry

     The total energy is F=E-TS. E is the sum of the following terms:
     one-electron contribution =  -22935.29372167 Ry
     hartree contribution      =   11560.27043214 Ry
     xc contribution           =    -389.23851645 Ry
     ewald contribution        =   10872.16478460 Ry
     DFT-D3 Dispersion         =      -1.24616958 Ry
     one-center paw contrib.   =   -3080.84322804 Ry

     total magnetization       =     4.10 Bohr mag/cell
     absolute magnetization    =     4.28 Bohr mag/cell

     convergence has been achieved in   9 iterations

     negative rho (up, down):  6.423E-06 6.302E-06

     Forces acting on atoms (cartesian axes, Ry/au):

     atom    1 type  1   force =     0.00001016    0.00000171   -0.00316021
     atom    2 type  1   force =    -0.00001020    0.00000183   -0.00316042
     atom    3 type  1   force =    -0.00000012    0.00000409   -0.00304753
     atom    4 type  1   force =     0.00000015   -0.00000768   -0.00315976
     atom    5 type  1   force =    -0.00029935   -0.00017775   -0.00180196
     atom    6 type  1   force =    -0.00000019    0.00000505   -0.00133556
     atom    7 type  1   force =     0.00029945   -0.00017780   -0.00180260
     atom    8 type  1   force =     0.00000016    0.00035054   -0.00180264
     atom    9 type  1   force =    -0.00000052   -0.00000004    0.00571353
     atom   10 type  1   force =    -0.00009020   -0.00005234    0.00451890
     atom   11 type  1   force =     0.00009029   -0.00005183    0.00451829
     atom   12 type  1   force =     0.00000037    0.00010424    0.00451995

     Total force =     0.009692     Total SCF correction =     0.000066


     Computing stress (Cartesian axis) and pressure


     negative rho (up, down):  6.423E-06 6.302E-06
          total   stress  (Ry/bohr**3)                   (kbar)     P=       -7.48
  -0.00008757  -0.00000000  -0.00000000          -12.88       -0.00       -0.00
  -0.00000000  -0.00008757  -0.00000000           -0.00      -12.88       -0.00
  -0.00000000  -0.00000000   0.00002264           -0.00       -0.00        3.33

     Energy error            =      1.2E-04 Ry
     Gradient error          =      5.7E-03 Ry/Bohr

     number of scf cycles    =   2
     number of bfgs steps    =   1

     energy             old  =   -3974.1833157492 Ry
     energy             new  =   -3974.1834342880 Ry

     CASE: energy            _new < energy            _old


     WARNING: bfgs curvature condition failed, Theta= 0.931
     new trust radius        =       0.0073297121 bohr
     new conv_thr            =       0.0000000007 Ry


ATOMIC_POSITIONS (angstrom)
Pd               4.0645645626        0.7822299404       11.0000000000    0   0   0
Pd               1.3548619999        0.7822299404       11.0000000000    0   0   0
Pd               2.7097132812        3.1289011964       11.0000000000    0   0   0
Pd               5.4194265625        3.1289073847       11.0000037136    0   0   0
Pd               4.0645645626        3.9111373251       13.2124716294    0   0   0
Pd               5.4194265625        1.5644475040       13.2124716294    0   0   0
Pd               6.7742885624        3.9111373251       13.2124716294    0   0   0
Pd               2.7097132813        1.5644536924       13.2124753430    0   0   0
Pd               5.4194267413        4.6933606108       15.4192793566
Pd               6.7743246424        2.3467049742       15.4230963796
Pd               4.0645286810        2.3467047675       15.4230979549
Pd               5.4194266711       -0.0000481848       15.4231003279



     Writing config-only to output data dir ./Pd_111_3Layer.save/ :
     XML data file
     NEW-OLD atomic charge density approx. for the potential

     Check: negative core charge=   -0.000002

     negative rho (up, down):  6.788E-06 6.626E-06
     Generating pointlists ...

     total cpu time spent up to now is     2384.9 secs

     Self-consistent Calculation

     iteration #  1     ecut=    60.00 Ry     beta= 0.20
     Davidson diagonalization with overlap
     ethr =  1.00E-06,  avg # of iterations =  4.9

     Threshold (ethr) on eigenvalues was too large:
     Diagonalizing with lowered threshold

     Davidson diagonalization with overlap
     ethr =  5.74E-08,  avg # of iterations =  3.1

     negative rho (up, down):  7.498E-06 7.385E-06

     total cpu time spent up to now is     2518.7 secs

     total energy              =   -3974.18350711 Ry
     estimated scf accuracy    <       0.00005880 Ry

     total magnetization       =     4.09 Bohr mag/cell
     absolute magnetization    =     4.27 Bohr mag/cell

     iteration #  2     ecut=    60.00 Ry     beta= 0.20
     Davidson diagonalization with overlap
     ethr =  4.90E-08,  avg # of iterations =  1.1

     negative rho (up, down):  7.818E-06 7.725E-06

     total cpu time spent up to now is     2560.1 secs

     total energy              =   -3974.18351707 Ry
     estimated scf accuracy    <       0.00002126 Ry

     total magnetization       =     4.09 Bohr mag/cell
     absolute magnetization    =     4.27 Bohr mag/cell

     iteration #  3     ecut=    60.00 Ry     beta= 0.20
     Davidson diagonalization with overlap
     ethr =  1.77E-08,  avg # of iterations =  1.0

     negative rho (up, down):  8.657E-06 8.535E-06

     total cpu time spent up to now is     2601.1 secs

     total energy              =   -3974.18353172 Ry
     estimated scf accuracy    <       0.00000703 Ry

     total magnetization       =     4.09 Bohr mag/cell
     absolute magnetization    =     4.27 Bohr mag/cell

     iteration #  4     ecut=    60.00 Ry     beta= 0.20
     Davidson diagonalization with overlap
     ethr =  5.86E-09,  avg # of iterations =  2.0

     negative rho (up, down):  8.658E-06 8.480E-06

     total cpu time spent up to now is     2647.3 secs

     total energy              =   -3974.18353944 Ry
     estimated scf accuracy    <       0.00000236 Ry

     total magnetization       =     4.09 Bohr mag/cell
     absolute magnetization    =     4.27 Bohr mag/cell

     iteration #  5     ecut=    60.00 Ry     beta= 0.20
     Davidson diagonalization with overlap
     ethr =  1.96E-09,  avg # of iterations =  2.0

     negative rho (up, down):  7.117E-06 6.923E-06

     total cpu time spent up to now is     2699.1 secs

     total energy              =   -3974.18354259 Ry
     estimated scf accuracy    <       0.00000090 Ry

     total magnetization       =     4.09 Bohr mag/cell
     absolute magnetization    =     4.27 Bohr mag/cell

     iteration #  6     ecut=    60.00 Ry     beta= 0.20
     Davidson diagonalization with overlap
     ethr =  7.47E-10,  avg # of iterations =  2.2

     negative rho (up, down):  6.180E-06 5.991E-06

     total cpu time spent up to now is     2751.2 secs

     total energy              =   -3974.18354339 Ry
     estimated scf accuracy    <       0.00000012 Ry

     total magnetization       =     4.09 Bohr mag/cell
     absolute magnetization    =     4.27 Bohr mag/cell

     iteration #  7     ecut=    60.00 Ry     beta= 0.20
     Davidson diagonalization with overlap
     ethr =  1.01E-10,  avg # of iterations =  3.9

     negative rho (up, down):  5.868E-06 5.715E-06

     total cpu time spent up to now is     2811.6 secs

     total energy              =   -3974.18354341 Ry
     estimated scf accuracy    <       0.00000006 Ry

     total magnetization       =     4.09 Bohr mag/cell
     absolute magnetization    =     4.27 Bohr mag/cell

     iteration #  8     ecut=    60.00 Ry     beta= 0.20
     Davidson diagonalization with overlap
     ethr =  4.95E-11,  avg # of iterations =  2.0

     negative rho (up, down):  5.544E-06 5.401E-06

     total cpu time spent up to now is     2855.4 secs

     total energy              =   -3974.18354350 Ry
     estimated scf accuracy    <       0.00000003 Ry

     total magnetization       =     4.09 Bohr mag/cell
     absolute magnetization    =     4.27 Bohr mag/cell

     iteration #  9     ecut=    60.00 Ry     beta= 0.20
     Davidson diagonalization with overlap
     ethr =  2.37E-11,  avg # of iterations =  2.0

     negative rho (up, down):  5.791E-06 5.653E-06

     total cpu time spent up to now is     2906.1 secs

     total energy              =   -3974.18354352 Ry
     estimated scf accuracy    <          7.2E-09 Ry

     total magnetization       =     4.09 Bohr mag/cell
     absolute magnetization    =     4.27 Bohr mag/cell

     iteration # 10     ecut=    60.00 Ry     beta= 0.20
     Davidson diagonalization with overlap
     ethr =  6.01E-12,  avg # of iterations =  2.6

     negative rho (up, down):  6.657E-06 6.516E-06

     total cpu time spent up to now is     2955.9 secs

     total energy              =   -3974.18354352 Ry
     estimated scf accuracy    <          4.8E-09 Ry

     total magnetization       =     4.09 Bohr mag/cell
     absolute magnetization    =     4.27 Bohr mag/cell

     iteration # 11     ecut=    60.00 Ry     beta= 0.20
     Davidson diagonalization with overlap
     ethr =  4.00E-12,  avg # of iterations =  2.6

     negative rho (up, down):  6.543E-06 6.408E-06

     total cpu time spent up to now is     3012.0 secs

     total energy              =   -3974.18354353 Ry
     estimated scf accuracy    <          2.5E-09 Ry

     total magnetization       =     4.08 Bohr mag/cell
     absolute magnetization    =     4.26 Bohr mag/cell

     iteration # 12     ecut=    60.00 Ry     beta= 0.20
     Davidson diagonalization with overlap
     ethr =  2.10E-12,  avg # of iterations =  1.1

     negative rho (up, down):  7.098E-06 6.968E-06

     total cpu time spent up to now is     3053.4 secs

     total energy              =   -3974.18354352 Ry
     estimated scf accuracy    <          2.2E-09 Ry

     total magnetization       =     4.08 Bohr mag/cell
     absolute magnetization    =     4.26 Bohr mag/cell

     iteration # 13     ecut=    60.00 Ry     beta= 0.20
     Davidson diagonalization with overlap
     ethr =  1.87E-12,  avg # of iterations =  3.8

     negative rho (up, down):  6.438E-06 6.313E-06
 
     Magnetic moment per site  (integrated on atomic sphere of radius R)
     atom   1 (R=0.205)  charge=  8.3644  magn=  0.3031
     atom   2 (R=0.205)  charge=  8.3644  magn=  0.3031
     atom   3 (R=0.205)  charge=  8.3643  magn=  0.3034
     atom   4 (R=0.205)  charge=  8.3644  magn=  0.3031
     atom   5 (R=0.205)  charge=  8.4082  magn=  0.4134
     atom   6 (R=0.205)  charge=  8.4079  magn=  0.4129
     atom   7 (R=0.205)  charge=  8.4082  magn=  0.4134
     atom   8 (R=0.205)  charge=  8.4082  magn=  0.4134
     atom   9 (R=0.205)  charge=  8.3655  magn=  0.3052
     atom  10 (R=0.205)  charge=  8.3648  magn=  0.3044
     atom  11 (R=0.205)  charge=  8.3648  magn=  0.3044
     atom  12 (R=0.205)  charge=  8.3648  magn=  0.3044

     total cpu time spent up to now is     3113.7 secs

     End of self-consistent calculation

     Number of k-points >= 100: set verbosity='high' to print the bands.

     the Fermi energy is    -5.2202 ev

!    total energy              =   -3974.18354353 Ry
     total all-electron energy =   -121105.574438 Ry
     estimated scf accuracy    <          6.4E-10 Ry
     smearing contrib. (-TS)   =       0.00299088 Ry
     internal energy E=F+TS    =   -3974.18653441 Ry

     The total energy is F=E-TS. E is the sum of the following terms:
     one-electron contribution =  -22929.86263973 Ry
     hartree contribution      =   11557.55643456 Ry
     xc contribution           =    -389.23299086 Ry
     ewald contribution        =   10869.44033359 Ry
     DFT-D3 Dispersion         =      -1.24552633 Ry
     one-center paw contrib.   =   -3080.84214563 Ry

     total magnetization       =     4.08 Bohr mag/cell
     absolute magnetization    =     4.26 Bohr mag/cell

     convergence has been achieved in  13 iterations

     negative rho (up, down):  6.438E-06 6.313E-06

     Forces acting on atoms (cartesian axes, Ry/au):

     atom    1 type  1   force =     0.00000886    0.00000100   -0.00317211
     atom    2 type  1   force =    -0.00000888    0.00000098   -0.00317214
     atom    3 type  1   force =     0.00000005    0.00000409   -0.00307851
     atom    4 type  1   force =    -0.00000003   -0.00000611   -0.00317154
     atom    5 type  1   force =    -0.00024453   -0.00014603   -0.00087162
     atom    6 type  1   force =    -0.00000006    0.00000474   -0.00050601
     atom    7 type  1   force =     0.00024451   -0.00014594   -0.00087170
     atom    8 type  1   force =     0.00000008    0.00028721   -0.00087205
     atom    9 type  1   force =    -0.00000010   -0.00000015    0.00467122
     atom   10 type  1   force =    -0.00004000   -0.00002301    0.00368146
     atom   11 type  1   force =     0.00004001   -0.00002280    0.00368112
     atom   12 type  1   force =     0.00000009    0.00004603    0.00368188

     Total force =     0.007905     Total SCF correction =     0.000068


     Computing stress (Cartesian axis) and pressure


     negative rho (up, down):  6.438E-06 6.313E-06
          total   stress  (Ry/bohr**3)                   (kbar)     P=       -7.75
  -0.00008897  -0.00000000  -0.00000000          -13.09       -0.00       -0.00
  -0.00000000  -0.00008897   0.00000000           -0.00      -13.09        0.00
  -0.00000000   0.00000000   0.00001992           -0.00        0.00        2.93

     Energy error            =      1.1E-04 Ry
     Gradient error          =      4.7E-03 Ry/Bohr

     number of scf cycles    =   3
     number of bfgs steps    =   2

     energy             old  =   -3974.1834342880 Ry
     energy             new  =   -3974.1835435321 Ry

     CASE: energy            _new < energy            _old

     new trust radius        =       0.0109945681 bohr
     new conv_thr            =       0.0000000006 Ry


ATOMIC_POSITIONS (angstrom)
Pd               4.0645645626        0.7822299404       11.0000000000    0   0   0
Pd               1.3548619999        0.7822299404       11.0000000000    0   0   0
Pd               2.7097132812        3.1289011964       11.0000000000    0   0   0
Pd               5.4194265625        3.1289073847       11.0000037136    0   0   0
Pd               4.0645645626        3.9111373251       13.2124716294    0   0   0
Pd               5.4194265625        1.5644475040       13.2124716294    0   0   0
Pd               6.7742885624        3.9111373251       13.2124716294    0   0   0
Pd               2.7097132813        1.5644536924       13.2124753430    0   0   0
Pd               5.4194266270        4.6933604907       15.4250974315
Pd               6.7742619724        2.3466688802       15.4276835869
Pd               4.0645913856        2.3466688753       15.4276849922
Pd               5.4194267935        0.0000240768       15.4276881447



     Writing config-only to output data dir ./Pd_111_3Layer.save/ :
     XML data file
     NEW-OLD atomic charge density approx. for the potential

     Check: negative core charge=   -0.000002

     negative rho (up, down):  1.404E-05 7.144E-06
     Generating pointlists ...

     total cpu time spent up to now is     3182.9 secs

     Self-consistent Calculation

     iteration #  1     ecut=    60.00 Ry     beta= 0.20
     Davidson diagonalization with overlap
     ethr =  1.00E-06,  avg # of iterations =  5.1

     negative rho (up, down):  6.836E-05 6.377E-05

     total cpu time spent up to now is     3273.7 secs

     total energy              =   -3974.18356141 Ry
     estimated scf accuracy    <       0.00032374 Ry

     total magnetization       =     4.07 Bohr mag/cell
     absolute magnetization    =     4.25 Bohr mag/cell

     iteration #  2     ecut=    60.00 Ry     beta= 0.20
     Davidson diagonalization with overlap
     ethr =  2.70E-07,  avg # of iterations =  1.4

     negative rho (up, down):  5.405E-05 5.035E-05

     total cpu time spent up to now is     3316.4 secs

     total energy              =   -3974.18360083 Ry
     estimated scf accuracy    <       0.00005145 Ry

     total magnetization       =     4.07 Bohr mag/cell
     absolute magnetization    =     4.25 Bohr mag/cell

     iteration #  3     ecut=    60.00 Ry     beta= 0.20
     Davidson diagonalization with overlap
     ethr =  4.29E-08,  avg # of iterations =  1.8

     negative rho (up, down):  4.386E-05 4.134E-05

     total cpu time spent up to now is     3360.8 secs

     total energy              =   -3974.18363255 Ry
     estimated scf accuracy    <       0.00002609 Ry

     total magnetization       =     4.07 Bohr mag/cell
     absolute magnetization    =     4.25 Bohr mag/cell

     iteration #  4     ecut=    60.00 Ry     beta= 0.20
     Davidson diagonalization with overlap
     ethr =  2.17E-08,  avg # of iterations =  2.0

     negative rho (up, down):  3.620E-05 3.450E-05

     total cpu time spent up to now is     3404.7 secs

     total energy              =   -3974.18365214 Ry
     estimated scf accuracy    <       0.00001234 Ry

     total magnetization       =     4.07 Bohr mag/cell
     absolute magnetization    =     4.25 Bohr mag/cell

     iteration #  5     ecut=    60.00 Ry     beta= 0.20
     Davidson diagonalization with overlap
     ethr =  1.03E-08,  avg # of iterations =  2.0

     negative rho (up, down):  2.746E-05 2.660E-05

     total cpu time spent up to now is     3451.1 secs

     total energy              =   -3974.18366153 Ry
     estimated scf accuracy    <       0.00000412 Ry

     total magnetization       =     4.07 Bohr mag/cell
     absolute magnetization    =     4.25 Bohr mag/cell

     iteration #  6     ecut=    60.00 Ry     beta= 0.20
     Davidson diagonalization with overlap
     ethr =  3.43E-09,  avg # of iterations =  2.0

     negative rho (up, down):  2.163E-05 2.138E-05

     total cpu time spent up to now is     3499.7 secs

     total energy              =   -3974.18366456 Ry
     estimated scf accuracy    <       0.00000066 Ry

     total magnetization       =     4.07 Bohr mag/cell
     absolute magnetization    =     4.25 Bohr mag/cell

     iteration #  7     ecut=    60.00 Ry     beta= 0.20
     Davidson diagonalization with overlap
     ethr =  5.49E-10,  avg # of iterations =  3.8

     negative rho (up, down):  1.685E-05 1.670E-05

     total cpu time spent up to now is     3558.3 secs

     total energy              =   -3974.18366494 Ry
     estimated scf accuracy    <       0.00000013 Ry

     total magnetization       =     4.07 Bohr mag/cell
     absolute magnetization    =     4.25 Bohr mag/cell

     iteration #  8     ecut=    60.00 Ry     beta= 0.20
     Davidson diagonalization with overlap
     ethr =  1.05E-10,  avg # of iterations =  2.3

     negative rho (up, down):  1.300E-05 1.293E-05

     total cpu time spent up to now is     3604.5 secs

     total energy              =   -3974.18366516 Ry
     estimated scf accuracy    <       0.00000011 Ry

     total magnetization       =     4.07 Bohr mag/cell
     absolute magnetization    =     4.24 Bohr mag/cell

     iteration #  9     ecut=    60.00 Ry     beta= 0.20
     Davidson diagonalization with overlap
     ethr =  8.91E-11,  avg # of iterations =  2.0

     negative rho (up, down):  1.085E-05 1.083E-05

     total cpu time spent up to now is     3652.9 secs

     total energy              =   -3974.18366524 Ry
     estimated scf accuracy    <       0.00000004 Ry

     total magnetization       =     4.06 Bohr mag/cell
     absolute magnetization    =     4.24 Bohr mag/cell

     iteration # 10     ecut=    60.00 Ry     beta= 0.20
     Davidson diagonalization with overlap
     ethr =  3.33E-11,  avg # of iterations =  2.0

     negative rho (up, down):  1.054E-05 1.058E-05

     total cpu time spent up to now is     3696.2 secs

     total energy              =   -3974.18366527 Ry
     estimated scf accuracy    <       0.00000002 Ry

     total magnetization       =     4.06 Bohr mag/cell
     absolute magnetization    =     4.24 Bohr mag/cell

     iteration # 11     ecut=    60.00 Ry     beta= 0.20
     Davidson diagonalization with overlap
     ethr =  1.68E-11,  avg # of iterations =  2.7

     negative rho (up, down):  8.923E-06 8.927E-06

     total cpu time spent up to now is     3753.7 secs

     total energy              =   -3974.18366531 Ry
     estimated scf accuracy    <          6.2E-09 Ry

     total magnetization       =     4.06 Bohr mag/cell
     absolute magnetization    =     4.24 Bohr mag/cell

     iteration # 12     ecut=    60.00 Ry     beta= 0.20
     Davidson diagonalization with overlap
     ethr =  5.13E-12,  avg # of iterations =  2.0

     negative rho (up, down):  8.315E-06 8.323E-06

     total cpu time spent up to now is     3797.9 secs

     total energy              =   -3974.18366533 Ry
     estimated scf accuracy    <          4.3E-09 Ry

     total magnetization       =     4.06 Bohr mag/cell
     absolute magnetization    =     4.24 Bohr mag/cell

     iteration # 13     ecut=    60.00 Ry     beta= 0.20
     Davidson diagonalization with overlap
     ethr =  3.61E-12,  avg # of iterations =  2.7

     negative rho (up, down):  8.079E-06 8.080E-06

     total cpu time spent up to now is     3858.3 secs

     total energy              =   -3974.18366535 Ry
     estimated scf accuracy    <          3.4E-09 Ry

     total magnetization       =     4.06 Bohr mag/cell
     absolute magnetization    =     4.24 Bohr mag/cell

     iteration # 14     ecut=    60.00 Ry     beta= 0.20
     Davidson diagonalization with overlap
     ethr =  2.86E-12,  avg # of iterations =  2.3

     negative rho (up, down):  7.518E-06 7.509E-06

     total cpu time spent up to now is     3914.8 secs

     total energy              =   -3974.18366536 Ry
     estimated scf accuracy    <          1.5E-09 Ry

     total magnetization       =     4.06 Bohr mag/cell
     absolute magnetization    =     4.24 Bohr mag/cell

     iteration # 15     ecut=    60.00 Ry     beta= 0.20
     Davidson diagonalization with overlap
     ethr =  1.23E-12,  avg # of iterations =  3.7

     negative rho (up, down):  7.182E-06 7.159E-06

     total cpu time spent up to now is     3977.1 secs

     total energy              =   -3974.18366537 Ry
     estimated scf accuracy    <          7.0E-10 Ry

     total magnetization       =     4.06 Bohr mag/cell
     absolute magnetization    =     4.24 Bohr mag/cell

     iteration # 16     ecut=    60.00 Ry     beta= 0.20
     Davidson diagonalization with overlap
     ethr =  5.84E-13,  avg # of iterations =  2.9

     negative rho (up, down):  6.467E-06 6.337E-06
 
     Magnetic moment per site  (integrated on atomic sphere of radius R)
     atom   1 (R=0.205)  charge=  8.3643  magn=  0.3023
     atom   2 (R=0.205)  charge=  8.3643  magn=  0.3023
     atom   3 (R=0.205)  charge=  8.3643  magn=  0.3025
     atom   4 (R=0.205)  charge=  8.3643  magn=  0.3023
     atom   5 (R=0.205)  charge=  8.4069  magn=  0.4113
     atom   6 (R=0.205)  charge=  8.4067  magn=  0.4110
     atom   7 (R=0.205)  charge=  8.4069  magn=  0.4113
     atom   8 (R=0.205)  charge=  8.4069  magn=  0.4113
     atom   9 (R=0.205)  charge=  8.3640  magn=  0.3016
     atom  10 (R=0.205)  charge=  8.3636  magn=  0.3011
     atom  11 (R=0.205)  charge=  8.3636  magn=  0.3011
     atom  12 (R=0.205)  charge=  8.3636  magn=  0.3011

     total cpu time spent up to now is     4034.5 secs

     End of self-consistent calculation

     Number of k-points >= 100: set verbosity='high' to print the bands.

     the Fermi energy is    -5.2221 ev

!    total energy              =   -3974.18366538 Ry
     total all-electron energy =   -121105.574560 Ry
     estimated scf accuracy    <          1.1E-10 Ry
     smearing contrib. (-TS)   =       0.00300258 Ry
     internal energy E=F+TS    =   -3974.18666795 Ry

     The total energy is F=E-TS. E is the sum of the following terms:
     one-electron contribution =  -22921.73130971 Ry
     hartree contribution      =   11553.49306202 Ry
     xc contribution           =    -389.22475899 Ry
     ewald contribution        =   10865.36140843 Ry
     DFT-D3 Dispersion         =      -1.24456296 Ry
     one-center paw contrib.   =   -3080.84050674 Ry

     total magnetization       =     4.06 Bohr mag/cell
     absolute magnetization    =     4.23 Bohr mag/cell

     convergence has been achieved in  16 iterations

     negative rho (up, down):  6.467E-06 6.337E-06

     Forces acting on atoms (cartesian axes, Ry/au):

     atom    1 type  1   force =     0.00000713   -0.00000003   -0.00317466
     atom    2 type  1   force =    -0.00000714    0.00000001   -0.00317469
     atom    3 type  1   force =    -0.00000002    0.00000411   -0.00311067
     atom    4 type  1   force =    -0.00000000   -0.00000413   -0.00317414
     atom    5 type  1   force =    -0.00016328   -0.00009905    0.00051309
     atom    6 type  1   force =    -0.00000009    0.00000472    0.00074099
     atom    7 type  1   force =     0.00016330   -0.00009895    0.00051294
     atom    8 type  1   force =     0.00000009    0.00019327    0.00051253
     atom    9 type  1   force =     0.00000009   -0.00000005    0.00308068
     atom   10 type  1   force =     0.00001001    0.00000586    0.00242467
     atom   11 type  1   force =    -0.00000999    0.00000581    0.00242438
     atom   12 type  1   force =    -0.00000009   -0.00001156    0.00242488

     Total force =     0.005208     Total SCF correction =     0.000017


     Computing stress (Cartesian axis) and pressure


     negative rho (up, down):  6.467E-06 6.337E-06
          total   stress  (Ry/bohr**3)                   (kbar)     P=       -8.13
  -0.00009092  -0.00000000  -0.00000000          -13.37       -0.00       -0.00
  -0.00000000  -0.00009092  -0.00000000           -0.00      -13.37       -0.00
  -0.00000000  -0.00000000   0.00001595           -0.00       -0.00        2.35

     Energy error            =      1.2E-04 Ry
     Gradient error          =      3.1E-03 Ry/Bohr

     number of scf cycles    =   4
     number of bfgs steps    =   3

     energy             old  =   -3974.1835435321 Ry
     energy             new  =   -3974.1836653761 Ry

     CASE: energy            _new < energy            _old

     new trust radius        =       0.0164918522 bohr
     new conv_thr            =       0.0000000004 Ry


ATOMIC_POSITIONS (angstrom)
Pd               4.0645645626        0.7822299404       11.0000000000    0   0   0
Pd               1.3548619999        0.7822299404       11.0000000000    0   0   0
Pd               2.7097132812        3.1289011964       11.0000000000    0   0   0
Pd               5.4194265625        3.1289073847       11.0000037136    0   0   0
Pd               4.0645645626        3.9111373251       13.2124716294    0   0   0
Pd               5.4194265625        1.5644475040       13.2124716294    0   0   0
Pd               6.7742885624        3.9111373251       13.2124716294    0   0   0
Pd               2.7097132813        1.5644536924       13.2124753430    0   0   0
Pd               5.4194266401        4.6933603683       15.4338245438
Pd               6.7742117674        2.3466400587       15.4345604639
Pd               4.0646416556        2.3466401303       15.4345615382
Pd               5.4194268025        0.0000820156       15.4345658530



     Writing config-only to output data dir ./Pd_111_3Layer.save/ :
     XML data file
     NEW-OLD atomic charge density approx. for the potential

     Check: negative core charge=   -0.000002

     negative rho (up, down):  9.385E-06 7.828E-06
     Generating pointlists ...

     total cpu time spent up to now is     4103.7 secs

     Self-consistent Calculation

     iteration #  1     ecut=    60.00 Ry     beta= 0.20
     Davidson diagonalization with overlap
     ethr =  1.00E-06,  avg # of iterations =  6.1

     negative rho (up, down):  1.350E-05 1.222E-05

     total cpu time spent up to now is     4203.0 secs

     total energy              =   -3974.18347461 Ry
     estimated scf accuracy    <       0.00200588 Ry

     total magnetization       =     4.05 Bohr mag/cell
     absolute magnetization    =     4.23 Bohr mag/cell

     iteration #  2     ecut=    60.00 Ry     beta= 0.20
     Davidson diagonalization with overlap
     ethr =  1.67E-06,  avg # of iterations =  1.0

     negative rho (up, down):  1.448E-05 1.351E-05

     total cpu time spent up to now is     4244.0 secs

     total energy              =   -3974.18359568 Ry
     estimated scf accuracy    <       0.00022701 Ry

     total magnetization       =     4.04 Bohr mag/cell
     absolute magnetization    =     4.22 Bohr mag/cell

     iteration #  3     ecut=    60.00 Ry     beta= 0.20
     Davidson diagonalization with overlap
     ethr =  1.89E-07,  avg # of iterations =  1.0

     negative rho (up, down):  1.618E-05 1.548E-05

     total cpu time spent up to now is     4285.2 secs

     total energy              =   -3974.18365907 Ry
     estimated scf accuracy    <       0.00014184 Ry

     total magnetization       =     4.04 Bohr mag/cell
     absolute magnetization    =     4.22 Bohr mag/cell

     iteration #  4     ecut=    60.00 Ry     beta= 0.20
     Davidson diagonalization with overlap
     ethr =  1.18E-07,  avg # of iterations =  1.0

     negative rho (up, down):  1.587E-05 1.531E-05

     total cpu time spent up to now is     4326.4 secs

     total energy              =   -3974.18371210 Ry
     estimated scf accuracy    <       0.00006675 Ry

     total magnetization       =     4.04 Bohr mag/cell
     absolute magnetization    =     4.22 Bohr mag/cell

     iteration #  5     ecut=    60.00 Ry     beta= 0.20
     Davidson diagonalization with overlap
     ethr =  5.56E-08,  avg # of iterations =  2.0

     negative rho (up, down):  9.701E-06 9.108E-06

     total cpu time spent up to now is     4369.6 secs

     total energy              =   -3974.18374606 Ry
     estimated scf accuracy    <       0.00002264 Ry

     total magnetization       =     4.04 Bohr mag/cell
     absolute magnetization    =     4.22 Bohr mag/cell

     iteration #  6     ecut=    60.00 Ry     beta= 0.20
     Davidson diagonalization with overlap
     ethr =  1.89E-08,  avg # of iterations =  2.0

     negative rho (up, down):  5.836E-06 5.352E-06

     total cpu time spent up to now is     4417.2 secs

     total energy              =   -3974.18375416 Ry
     estimated scf accuracy    <       0.00000619 Ry

     total magnetization       =     4.04 Bohr mag/cell
     absolute magnetization    =     4.21 Bohr mag/cell

     iteration #  7     ecut=    60.00 Ry     beta= 0.20
     Davidson diagonalization with overlap
     ethr =  5.16E-09,  avg # of iterations =  2.3

     negative rho (up, down):  4.522E-06 4.188E-06

     total cpu time spent up to now is     4465.0 secs

     total energy              =   -3974.18375512 Ry
     estimated scf accuracy    <       0.00000084 Ry

     total magnetization       =     4.03 Bohr mag/cell
     absolute magnetization    =     4.21 Bohr mag/cell

     iteration #  8     ecut=    60.00 Ry     beta= 0.20
     Davidson diagonalization with overlap
     ethr =  7.02E-10,  avg # of iterations =  3.4

     negative rho (up, down):  3.588E-06 3.340E-06

     total cpu time spent up to now is     4515.0 secs

     total energy              =   -3974.18375572 Ry
     estimated scf accuracy    <       0.00000049 Ry

     total magnetization       =     4.03 Bohr mag/cell
     absolute magnetization    =     4.21 Bohr mag/cell

     iteration #  9     ecut=    60.00 Ry     beta= 0.20
     Davidson diagonalization with overlap
     ethr =  4.11E-10,  avg # of iterations =  2.0

     negative rho (up, down):  3.617E-06 3.396E-06

     total cpu time spent up to now is     4562.4 secs

     total energy              =   -3974.18375607 Ry
     estimated scf accuracy    <       0.00000034 Ry

     total magnetization       =     4.03 Bohr mag/cell
     absolute magnetization    =     4.21 Bohr mag/cell

     iteration # 10     ecut=    60.00 Ry     beta= 0.20
     Davidson diagonalization with overlap
     ethr =  2.82E-10,  avg # of iterations =  2.0

     negative rho (up, down):  4.221E-06 4.007E-06

     total cpu time spent up to now is     4607.4 secs

     total energy              =   -3974.18375614 Ry
     estimated scf accuracy    <       0.00000007 Ry

     total magnetization       =     4.03 Bohr mag/cell
     absolute magnetization    =     4.21 Bohr mag/cell

     iteration # 11     ecut=    60.00 Ry     beta= 0.20
     Davidson diagonalization with overlap
     ethr =  5.73E-11,  avg # of iterations =  2.7

     negative rho (up, down):  4.578E-06 4.385E-06

     total cpu time spent up to now is     4663.8 secs

     total energy              =   -3974.18375616 Ry
     estimated scf accuracy    <       0.00000002 Ry

     total magnetization       =     4.03 Bohr mag/cell
     absolute magnetization    =     4.21 Bohr mag/cell

     iteration # 12     ecut=    60.00 Ry     beta= 0.20
     Davidson diagonalization with overlap
     ethr =  1.47E-11,  avg # of iterations =  3.0

     negative rho (up, down):  5.283E-06 5.101E-06

     total cpu time spent up to now is     4712.5 secs

     total energy              =   -3974.18375618 Ry
     estimated scf accuracy    <       0.00000001 Ry

     total magnetization       =     4.03 Bohr mag/cell
     absolute magnetization    =     4.20 Bohr mag/cell

     iteration # 13     ecut=    60.00 Ry     beta= 0.20
     Davidson diagonalization with overlap
     ethr =  8.60E-12,  avg # of iterations =  2.3

     negative rho (up, down):  7.167E-06 6.984E-06

     total cpu time spent up to now is     4767.4 secs

     total energy              =   -3974.18375619 Ry
     estimated scf accuracy    <       0.00000001 Ry

     total magnetization       =     4.02 Bohr mag/cell
     absolute magnetization    =     4.20 Bohr mag/cell

     iteration # 14     ecut=    60.00 Ry     beta= 0.20
     Davidson diagonalization with overlap
     ethr =  8.60E-12,  avg # of iterations =  2.9

     negative rho (up, down):  7.148E-06 6.977E-06

     total cpu time spent up to now is     4823.8 secs

     total energy              =   -3974.18375621 Ry
     estimated scf accuracy    <          2.9E-09 Ry

     total magnetization       =     4.02 Bohr mag/cell
     absolute magnetization    =     4.20 Bohr mag/cell

     iteration # 15     ecut=    60.00 Ry     beta= 0.20
     Davidson diagonalization with overlap
     ethr =  2.43E-12,  avg # of iterations =  2.0

     negative rho (up, down):  7.628E-06 7.467E-06

     total cpu time spent up to now is     4869.6 secs

     total energy              =   -3974.18375621 Ry
     estimated scf accuracy    <          2.8E-09 Ry

     total magnetization       =     4.02 Bohr mag/cell
     absolute magnetization    =     4.20 Bohr mag/cell

     iteration # 16     ecut=    60.00 Ry     beta= 0.20
     Davidson diagonalization with overlap
     ethr =  2.35E-12,  avg # of iterations =  2.9

     negative rho (up, down):  6.522E-06 6.383E-06
 
     Magnetic moment per site  (integrated on atomic sphere of radius R)
     atom   1 (R=0.205)  charge=  8.3641  magn=  0.3012
     atom   2 (R=0.205)  charge=  8.3641  magn=  0.3012
     atom   3 (R=0.205)  charge=  8.3641  magn=  0.3013
     atom   4 (R=0.205)  charge=  8.3641  magn=  0.3012
     atom   5 (R=0.205)  charge=  8.4049  magn=  0.4081
     atom   6 (R=0.205)  charge=  8.4049  magn=  0.4080
     atom   7 (R=0.205)  charge=  8.4049  magn=  0.4081
     atom   8 (R=0.205)  charge=  8.4049  magn=  0.4081
     atom   9 (R=0.205)  charge=  8.3619  magn=  0.2963
     atom  10 (R=0.205)  charge=  8.3618  magn=  0.2962
     atom  11 (R=0.205)  charge=  8.3618  magn=  0.2962
     atom  12 (R=0.205)  charge=  8.3618  magn=  0.2962

     total cpu time spent up to now is     4929.5 secs

     End of self-consistent calculation

     Number of k-points >= 100: set verbosity='high' to print the bands.

     the Fermi energy is    -5.2247 ev

!    total energy              =   -3974.18375621 Ry
     total all-electron energy =   -121105.574651 Ry
     estimated scf accuracy    <          3.2E-10 Ry
     smearing contrib. (-TS)   =       0.00302363 Ry
     internal energy E=F+TS    =   -3974.18677985 Ry

     The total energy is F=E-TS. E is the sum of the following terms:
     one-electron contribution =  -22909.53806257 Ry
     hartree contribution      =   11547.40016958 Ry
     xc contribution           =    -389.21262087 Ry
     ewald contribution        =   10859.24497714 Ry
     DFT-D3 Dispersion         =      -1.24311764 Ry
     one-center paw contrib.   =   -3080.83812549 Ry

     total magnetization       =     4.02 Bohr mag/cell
     absolute magnetization    =     4.20 Bohr mag/cell

     convergence has been achieved in  16 iterations

     negative rho (up, down):  6.522E-06 6.383E-06

     Forces acting on atoms (cartesian axes, Ry/au):

     atom    1 type  1   force =     0.00000489   -0.00000135   -0.00318577
     atom    2 type  1   force =    -0.00000486   -0.00000137   -0.00318582
     atom    3 type  1   force =    -0.00000002    0.00000411   -0.00316708
     atom    4 type  1   force =    -0.00000006   -0.00000141   -0.00318525
     atom    5 type  1   force =    -0.00004483   -0.00003056    0.00254762
     atom    6 type  1   force =    -0.00000004    0.00000453    0.00258905
     atom    7 type  1   force =     0.00004480   -0.00003035    0.00254747
     atom    8 type  1   force =     0.00000016    0.00005636    0.00254710
     atom    9 type  1   force =     0.00000004    0.00000013    0.00075915
     atom   10 type  1   force =     0.00005227    0.00003009    0.00057797
     atom   11 type  1   force =    -0.00005225    0.00003005    0.00057764
     atom   12 type  1   force =    -0.00000010   -0.00006023    0.00057793

     Total force =     0.001261     Total SCF correction =     0.000047


     Computing stress (Cartesian axis) and pressure


     negative rho (up, down):  6.522E-06 6.383E-06
          total   stress  (Ry/bohr**3)                   (kbar)     P=       -8.70
  -0.00009378  -0.00000000  -0.00000000          -13.80       -0.00       -0.00
  -0.00000000  -0.00009378   0.00000000           -0.00      -13.80        0.00
  -0.00000000   0.00000000   0.00001010           -0.00        0.00        1.49

     Energy error            =      9.1E-05 Ry
     Gradient error          =      7.6E-04 Ry/Bohr

     number of scf cycles    =   5
     number of bfgs steps    =   4

     energy             old  =   -3974.1836653761 Ry
     energy             new  =   -3974.1837562136 Ry

     CASE: energy            _new < energy            _old

     new trust radius        =       0.0052603484 bohr
     new conv_thr            =            1.0E-10 Ry


ATOMIC_POSITIONS (angstrom)
Pd               4.0645645626        0.7822299404       11.0000000000    0   0   0
Pd               1.3548619999        0.7822299404       11.0000000000    0   0   0
Pd               2.7097132812        3.1289011964       11.0000000000    0   0   0
Pd               5.4194265625        3.1289073847       11.0000037136    0   0   0
Pd               4.0645645626        3.9111373251       13.2124716294    0   0   0
Pd               5.4194265625        1.5644475040       13.2124716294    0   0   0
Pd               6.7742885624        3.9111373251       13.2124716294    0   0   0
Pd               2.7097132813        1.5644536924       13.2124753430    0   0   0
Pd               5.4194266597        4.6933604318       15.4366082003
Pd               6.7742305561        2.3466508864       15.4367403288
Pd               4.0646228934        2.3466509631       15.4367411193
Pd               5.4194267516        0.0000603928       15.4367459166



     Writing config-only to output data dir ./Pd_111_3Layer.save/ :
     XML data file
     NEW-OLD atomic charge density approx. for the potential

     Check: negative core charge=   -0.000002

     negative rho (up, down):  7.039E-06 6.623E-06
     Generating pointlists ...

     total cpu time spent up to now is     4998.7 secs

     Self-consistent Calculation

     iteration #  1     ecut=    60.00 Ry     beta= 0.20
     Davidson diagonalization with overlap
     ethr =  1.00E-06,  avg # of iterations =  4.0

     Threshold (ethr) on eigenvalues was too large:
     Diagonalizing with lowered threshold

     Davidson diagonalization with overlap
     ethr =  7.76E-09,  avg # of iterations =  4.3

     negative rho (up, down):  7.030E-06 7.082E-06

     total cpu time spent up to now is     5147.1 secs

     total energy              =   -3974.18374548 Ry
     estimated scf accuracy    <       0.00000547 Ry

     total magnetization       =     4.02 Bohr mag/cell
     absolute magnetization    =     4.19 Bohr mag/cell

     iteration #  2     ecut=    60.00 Ry     beta= 0.20
     Davidson diagonalization with overlap
     ethr =  4.55E-09,  avg # of iterations =  1.9

     negative rho (up, down):  7.039E-06 7.069E-06

     total cpu time spent up to now is     5191.4 secs

     total energy              =   -3974.18374890 Ry
     estimated scf accuracy    <       0.00000461 Ry

     total magnetization       =     4.02 Bohr mag/cell
     absolute magnetization    =     4.19 Bohr mag/cell

     iteration #  3     ecut=    60.00 Ry     beta= 0.20
     Davidson diagonalization with overlap
     ethr =  3.84E-09,  avg # of iterations =  1.0

     negative rho (up, down):  7.241E-06 7.203E-06

     total cpu time spent up to now is     5232.4 secs

     total energy              =   -3974.18375801 Ry
     estimated scf accuracy    <       0.00000270 Ry

     total magnetization       =     4.02 Bohr mag/cell
     absolute magnetization    =     4.19 Bohr mag/cell

     iteration #  4     ecut=    60.00 Ry     beta= 0.20
     Davidson diagonalization with overlap
     ethr =  2.25E-09,  avg # of iterations =  2.0

     negative rho (up, down):  6.934E-06 6.844E-06

     total cpu time spent up to now is     5282.8 secs

     total energy              =   -3974.18376102 Ry
     estimated scf accuracy    <       0.00000059 Ry

     total magnetization       =     4.01 Bohr mag/cell
     absolute magnetization    =     4.19 Bohr mag/cell

     iteration #  5     ecut=    60.00 Ry     beta= 0.20
     Davidson diagonalization with overlap
     ethr =  4.94E-10,  avg # of iterations =  2.5

     negative rho (up, down):  5.837E-06 5.733E-06

     total cpu time spent up to now is     5337.7 secs

     total energy              =   -3974.18376200 Ry
     estimated scf accuracy    <       0.00000025 Ry

     total magnetization       =     4.01 Bohr mag/cell
     absolute magnetization    =     4.19 Bohr mag/cell

     iteration #  6     ecut=    60.00 Ry     beta= 0.20
     Davidson diagonalization with overlap
     ethr =  2.05E-10,  avg # of iterations =  2.2

     negative rho (up, down):  5.514E-06 5.410E-06

     total cpu time spent up to now is     5391.8 secs

     total energy              =   -3974.18376218 Ry
     estimated scf accuracy    <       0.00000005 Ry

     total magnetization       =     4.01 Bohr mag/cell
     absolute magnetization    =     4.19 Bohr mag/cell

     iteration #  7     ecut=    60.00 Ry     beta= 0.20
     Davidson diagonalization with overlap
     ethr =  3.79E-11,  avg # of iterations =  3.3

     negative rho (up, down):  5.484E-06 5.381E-06

     total cpu time spent up to now is     5444.0 secs

     total energy              =   -3974.18376222 Ry
     estimated scf accuracy    <       0.00000002 Ry

     total magnetization       =     4.01 Bohr mag/cell
     absolute magnetization    =     4.19 Bohr mag/cell

     iteration #  8     ecut=    60.00 Ry     beta= 0.20
     Davidson diagonalization with overlap
     ethr =  2.06E-11,  avg # of iterations =  2.0

     negative rho (up, down):  5.479E-06 5.369E-06

     total cpu time spent up to now is     5489.8 secs

     total energy              =   -3974.18376225 Ry
     estimated scf accuracy    <          7.0E-09 Ry

     total magnetization       =     4.01 Bohr mag/cell
     absolute magnetization    =     4.19 Bohr mag/cell

     iteration #  9     ecut=    60.00 Ry     beta= 0.20
     Davidson diagonalization with overlap
     ethr =  5.86E-12,  avg # of iterations =  2.3

     negative rho (up, down):  5.784E-06 5.665E-06

     total cpu time spent up to now is     5543.7 secs

     total energy              =   -3974.18376225 Ry
     estimated scf accuracy    <          3.7E-09 Ry

     total magnetization       =     4.01 Bohr mag/cell
     absolute magnetization    =     4.19 Bohr mag/cell

     iteration # 10     ecut=    60.00 Ry     beta= 0.20
     Davidson diagonalization with overlap
     ethr =  3.05E-12,  avg # of iterations =  2.5

     negative rho (up, down):  6.013E-06 5.889E-06

     total cpu time spent up to now is     5597.1 secs

     total energy              =   -3974.18376225 Ry
     estimated scf accuracy    <          1.3E-09 Ry

     total magnetization       =     4.01 Bohr mag/cell
     absolute magnetization    =     4.19 Bohr mag/cell

     iteration # 11     ecut=    60.00 Ry     beta= 0.20
     Davidson diagonalization with overlap
     ethr =  1.06E-12,  avg # of iterations =  2.6

     negative rho (up, down):  6.570E-06 6.442E-06

     total cpu time spent up to now is     5648.5 secs

     total energy              =   -3974.18376225 Ry
     estimated scf accuracy    <          1.0E-09 Ry

     total magnetization       =     4.01 Bohr mag/cell
     absolute magnetization    =     4.19 Bohr mag/cell

     iteration # 12     ecut=    60.00 Ry     beta= 0.20
     Davidson diagonalization with overlap
     ethr =  8.70E-13,  avg # of iterations =  2.2

     negative rho (up, down):  7.207E-06 7.076E-06

     total cpu time spent up to now is     5700.9 secs

     total energy              =   -3974.18376226 Ry
     estimated scf accuracy    <          5.8E-10 Ry

     total magnetization       =     4.01 Bohr mag/cell
     absolute magnetization    =     4.19 Bohr mag/cell

     iteration # 13     ecut=    60.00 Ry     beta= 0.20
     Davidson diagonalization with overlap
     ethr =  4.86E-13,  avg # of iterations =  3.5

     negative rho (up, down):  7.108E-06 6.977E-06

     total cpu time spent up to now is     5761.5 secs

     total energy              =   -3974.18376226 Ry
     estimated scf accuracy    <          2.6E-10 Ry

     total magnetization       =     4.01 Bohr mag/cell
     absolute magnetization    =     4.18 Bohr mag/cell

     iteration # 14     ecut=    60.00 Ry     beta= 0.20
     Davidson diagonalization with overlap
     ethr =  2.17E-13,  avg # of iterations =  3.6

     negative rho (up, down):  6.991E-06 6.858E-06

     total cpu time spent up to now is     5822.9 secs

     total energy              =   -3974.18376226 Ry
     estimated scf accuracy    <          1.0E-10 Ry

     total magnetization       =     4.01 Bohr mag/cell
     absolute magnetization    =     4.18 Bohr mag/cell

     iteration # 15     ecut=    60.00 Ry     beta= 0.20
     Davidson diagonalization with overlap
     ethr =  1.00E-13,  avg # of iterations =  2.1

     negative rho (up, down):  6.541E-06 6.400E-06
 
     Magnetic moment per site  (integrated on atomic sphere of radius R)
     atom   1 (R=0.205)  charge=  8.3641  magn=  0.3008
     atom   2 (R=0.205)  charge=  8.3641  magn=  0.3008
     atom   3 (R=0.205)  charge=  8.3641  magn=  0.3008
     atom   4 (R=0.205)  charge=  8.3641  magn=  0.3008
     atom   5 (R=0.205)  charge=  8.4043  magn=  0.4070
     atom   6 (R=0.205)  charge=  8.4043  magn=  0.4070
     atom   7 (R=0.205)  charge=  8.4043  magn=  0.4070
     atom   8 (R=0.205)  charge=  8.4043  magn=  0.4070
     atom   9 (R=0.205)  charge=  8.3612  magn=  0.2946
     atom  10 (R=0.205)  charge=  8.3612  magn=  0.2946
     atom  11 (R=0.205)  charge=  8.3612  magn=  0.2946
     atom  12 (R=0.205)  charge=  8.3612  magn=  0.2946

     total cpu time spent up to now is     5868.5 secs

     End of self-consistent calculation

     Number of k-points >= 100: set verbosity='high' to print the bands.

     the Fermi energy is    -5.2256 ev

!    total energy              =   -3974.18376226 Ry
     total all-electron energy =   -121105.574657 Ry
     estimated scf accuracy    <          2.8E-11 Ry
     smearing contrib. (-TS)   =       0.00303069 Ry
     internal energy E=F+TS    =   -3974.18679295 Ry

     The total energy is F=E-TS. E is the sum of the following terms:
     one-electron contribution =  -22905.66623384 Ry
     hartree contribution      =   11545.46573547 Ry
     xc contribution           =    -389.20876277 Ry
     ewald contribution        =   10857.30247553 Ry
     DFT-D3 Dispersion         =      -1.24265844 Ry
     one-center paw contrib.   =   -3080.83734890 Ry

     total magnetization       =     4.01 Bohr mag/cell
     absolute magnetization    =     4.18 Bohr mag/cell

     convergence has been achieved in  15 iterations

     negative rho (up, down):  6.541E-06 6.400E-06

     Forces acting on atoms (cartesian axes, Ry/au):

     atom    1 type  1   force =     0.00000400   -0.00000182   -0.00320059
     atom    2 type  1   force =    -0.00000402   -0.00000183   -0.00320061
     atom    3 type  1   force =    -0.00000001    0.00000413   -0.00319702
     atom    4 type  1   force =    -0.00000002   -0.00000050   -0.00320011
     atom    5 type  1   force =    -0.00000634   -0.00000833    0.00318041
     atom    6 type  1   force =    -0.00000004    0.00000463    0.00317539
     atom    7 type  1   force =     0.00000638   -0.00000823    0.00318039
     atom    8 type  1   force =     0.00000008    0.00001196    0.00317986
     atom    9 type  1   force =     0.00000005    0.00000008    0.00004474
     atom   10 type  1   force =     0.00003912    0.00002256    0.00001260
     atom   11 type  1   force =    -0.00003915    0.00002250    0.00001239
     atom   12 type  1   force =    -0.00000006   -0.00004513    0.00001254

     Total force =     0.000093     Total SCF correction =     0.000026
     SCF correction compared to forces is large: reduce conv_thr to get better values


     Computing stress (Cartesian axis) and pressure


     negative rho (up, down):  6.541E-06 6.400E-06
          total   stress  (Ry/bohr**3)                   (kbar)     P=       -8.86
  -0.00009453  -0.00000000  -0.00000000          -13.91       -0.00       -0.00
  -0.00000000  -0.00009453  -0.00000000           -0.00      -13.91       -0.00
  -0.00000000  -0.00000000   0.00000842           -0.00       -0.00        1.24

     Energy error            =      6.0E-06 Ry
     Gradient error          =      4.5E-05 Ry/Bohr

     bfgs converged in   6 scf cycles and   5 bfgs steps
     (criteria: energy <  9.6E-06 Ry, force <  7.8E-04 Ry/Bohr)

     End of BFGS Geometry Optimization

     Final energy             =   -3974.1837622564 Ry

     File ./Pd_111_3Layer.bfgs deleted, as requested
Begin final coordinates

ATOMIC_POSITIONS (angstrom)
Pd               4.0645645626        0.7822299404       11.0000000000    0   0   0
Pd               1.3548619999        0.7822299404       11.0000000000    0   0   0
Pd               2.7097132812        3.1289011964       11.0000000000    0   0   0
Pd               5.4194265625        3.1289073847       11.0000037136    0   0   0
Pd               4.0645645626        3.9111373251       13.2124716294    0   0   0
Pd               5.4194265625        1.5644475040       13.2124716294    0   0   0
Pd               6.7742885624        3.9111373251       13.2124716294    0   0   0
Pd               2.7097132813        1.5644536924       13.2124753430    0   0   0
Pd               5.4194266597        4.6933604318       15.4366082003
Pd               6.7742305561        2.3466508864       15.4367403288
Pd               4.0646228934        2.3466509631       15.4367411193
Pd               5.4194267516        0.0000603928       15.4367459166
End final coordinates



     Writing all to output data dir ./Pd_111_3Layer.save/ :
     XML data file, charge density, pseudopotentials, collected wavefunctions
 
     init_run     :     22.38s CPU     23.54s WALL (       1 calls)
     electrons    :   5343.98s CPU   5499.10s WALL (       6 calls)
     update_pot   :      4.53s CPU      4.78s WALL (       5 calls)
     forces       :     24.68s CPU     25.23s WALL (       6 calls)
     force_dftd3  :      0.24s CPU      0.25s WALL (       6 calls)
     stress       :    370.20s CPU    374.17s WALL (       6 calls)
     stres_dftd3  :      0.19s CPU      0.19s WALL (       6 calls)

     Called by init_run:
     wfcinit      :     20.62s CPU     21.35s WALL (       1 calls)
     potinit      :      0.89s CPU      1.04s WALL (       1 calls)
     hinit0       :      0.28s CPU      0.44s WALL (       1 calls)

     Called by electrons:
     c_bands      :   4313.97s CPU   4432.65s WALL (     106 calls)
     sum_band     :    826.46s CPU    850.59s WALL (     106 calls)
     v_of_rho     :     62.45s CPU     65.88s WALL (     109 calls)
     newd         :     14.85s CPU     17.37s WALL (     109 calls)
     PAW_pot      :     25.85s CPU     25.95s WALL (     114 calls)
     mix_rho      :     98.12s CPU    103.02s WALL (     106 calls)
     energy_dftd3 :      0.10s CPU      0.10s WALL (       6 calls)

     Called by c_bands:
     init_us_2    :     37.57s CPU     37.87s WALL (    5980 calls)
     init_us_2:cp :     37.50s CPU     37.82s WALL (    5980 calls)
     cegterg      :   3834.04s CPU   3945.73s WALL (    2756 calls)

     Called by *egterg:
     cdiaghg      :     47.13s CPU     47.52s WALL (    9477 calls)
     h_psi        :   3142.04s CPU   3250.45s WALL (    9711 calls)
     s_psi        :    155.66s CPU    155.86s WALL (    9711 calls)
     g_psi        :     13.19s CPU     13.27s WALL (    6929 calls)

     Called by h_psi:
     h_psi:calbec :    145.53s CPU    146.52s WALL (    9711 calls)
     vloc_psi     :   2822.83s CPU   2929.08s WALL (    9711 calls)
     vloc_psi:tg_ :     14.96s CPU     15.15s WALL (    9711 calls)
     add_vuspsi   :    154.17s CPU    154.45s WALL (    9711 calls)

     General routines
     calbec       :    222.19s CPU    223.27s WALL (   13377 calls)
     fft          :     60.88s CPU     66.19s WALL (    2964 calls)
     ffts         :     45.72s CPU     49.82s WALL (   12361 calls)
     fftw         :   2732.79s CPU   2832.11s WALL (  601058 calls)
     interpolate  :      5.25s CPU      5.70s WALL (     218 calls)
 
     Parallel routines
     fft_scatt_xy :    817.32s CPU    827.09s WALL (  616383 calls)
     fft_scatt_yz :    343.46s CPU    399.24s WALL (  616383 calls)
     fft_scatt_tg :    103.40s CPU    120.75s WALL (  601058 calls)
 
     PWSCF        :      1h36m CPU      1h38m WALL

 
   This run was terminated on:   4:38:28   9Nov2025            

=------------------------------------------------------------------------------=
   JOB DONE.
=------------------------------------------------------------------------------=
