
     Program PWSCF v.7.3 starts on  9Nov2025 at  4:38:36 

     This program is part of the open-source Quantum ESPRESSO suite
     for quantum simulation of materials; please cite
         "P. Giannozzi et al., J. Phys.:Condens. Matter 21 395502 (2009);
         "P. Giannozzi et al., J. Phys.:Condens. Matter 29 465901 (2017);
         "P. Giannozzi et al., J. Chem. Phys. 152 154105 (2020);
          URL http://www.quantum-espresso.org", 
     in publications or presentations arising from this work. More details at
     http://www.quantum-espresso.org/quote

     Parallel version (MPI), running on    32 processors

     MPI processes distributed on     2 nodes
     56277 MiB available memory on the printing compute node when the environment starts
 
     Reading input from Pd_111_6Layer-H.in

     Current dimensions of program PWSCF are:
     Max number of different atomic species (ntypx) = 10
     Max number of k-points (npk) =  40000
     Max angular momentum in pseudopotentials (lmaxx) =  4
     file Pd.upf: wavefunction(s)  5S 4D renormalized
     file H.upf: wavefunction(s)  1S renormalized

     IMPORTANT: XC functional enforced from input :
     Exchange-correlation= PBE
                           (   1   4   3   4   0   0   0)
     Any further DFT definition will be discarded
     Please, verify this is what you really want

 
     K-points division:     npool     =       4
     R & G space division:  proc/nbgrp/npool/nimage =       8
     wavefunctions fft division:  Y-proc x Z-proc =       2      4
     wavefunctions fft division:  task group distribution
                                  #TG    x Z-proc =       2      4
     Subspace diagonalization in iterative solution of the eigenvalue problem:
     one sub-group per band group will be used
     scalapack distributed-memory algorithm (size of sub-group:  2*  2 procs)

 
     Parallelization info
     --------------------
     sticks:   dense  smooth     PW     G-vecs:    dense   smooth      PW
     Min         432     216     62               125980    44482    6848
     Max         434     217     63               126068    44575    6873
     Sum        3463    1735    499              1008141   356271   54903
 
     Using Pencil Decomposition
 

     Title: 
     Pd_111_6Layer-H                                                            


     bravais-lattice index     =            0
     lattice parameter (alat)  =      10.2412  a.u.
     unit-cell volume          =    5675.0250 (a.u.)^3
     number of atoms/cell      =           25
     number of atomic types    =            2
     number of electrons       =       241.00
     number of Kohn-Sham states=          145
     kinetic-energy cutoff     =      60.0000  Ry
     charge density cutoff     =     480.0000  Ry
     scf convergence threshold =      1.0E-08
     mixing beta               =       0.2000
     number of iterations used =           12  local-TF  mixing
     energy convergence thresh.=      1.8E-05
     force convergence thresh. =      7.8E-04
     Exchange-correlation= PBE
                           (   1   4   3   4   0   0   0)
     nstep                     =           50


     celldm(1)=  10.241232  celldm(2)=   0.000000  celldm(3)=   0.000000
     celldm(4)=   0.000000  celldm(5)=   0.000000  celldm(6)=   0.000000

     crystal axes: (cart. coord. in units of alat)
               a(1) = (   1.000000   0.000000   0.000000 )  
               a(2) = (   0.500000   0.866025   0.000000 )  
               a(3) = (   0.000000   0.000000   6.100712 )  

     reciprocal axes: (cart. coord. in units 2 pi/alat)
               b(1) = (  1.000000 -0.577350  0.000000 )  
               b(2) = (  0.000000  1.154701  0.000000 )  
               b(3) = (  0.000000  0.000000  0.163915 )  


     PseudoPot. # 1 for Pd read from file:
     /tmpu/isholek_g/isholek/MIGUEL/PP/Pd.upf
     MD5 check sum: e9d6f14fd83b79f8105499163af174c9
     Pseudo is Projector augmented-wave + core cor, Zval = 10.0
     Generated using "atomic" code by A. Dal Corso  v.5.0.2 svn rev. 9415
     Shape of augmentation charge: PSQ
     Using radial grid of 1235 points,  6 beta functions with: 
                l(1) =   0
                l(2) =   0
                l(3) =   1
                l(4) =   1
                l(5) =   2
                l(6) =   2
     Q(r) pseudized with 0 coefficients 


     PseudoPot. # 2 for H  read from file:
     /tmpu/isholek_g/isholek/MIGUEL/PP/H.upf
     MD5 check sum: 4cbe42a24e15140179a93d5bf84f2220
     Pseudo is Projector augmented-wave, Zval =  1.0
     Generated using "atomic" code by A. Dal Corso  v.5.0.2 svn rev. 9415
     Shape of augmentation charge: PSQ
     Using radial grid of  929 points,  2 beta functions with: 
                l(1) =   0
                l(2) =   0
     Q(r) pseudized with 0 coefficients 


     atomic species   valence    mass     pseudopotential
     Pd               10.00   106.42000     Pd( 1.00)
     H                 1.00     1.00784     H ( 1.00)

     Starting magnetic structure 
     atomic species   magnetization
     Pd              0.065
     H               1.000

     No symmetry found



   Cartesian axes

     site n.     atom                  positions (alat units)
         1        Pd     tau(   1) = (   0.7499990   0.1443381   2.0297350  )
         2        Pd     tau(   2) = (   0.2500010   0.1443381   2.0297350  )
         3        Pd     tau(   3) = (   0.5000000   0.5773491   2.0297350  )
         4        Pd     tau(   4) = (   1.0000000   0.5773503   2.0297357  )
         5        Pd     tau(   5) = (   0.7499990   0.7216884   2.4379833  )
         6        Pd     tau(   6) = (   1.0000000   0.2886740   2.4379833  )
         7        Pd     tau(   7) = (   1.2500010   0.7216884   2.4379833  )
         8        Pd     tau(   8) = (   0.5000000   0.2886751   2.4379840  )
         9        Pd     tau(   9) = (   1.0000000   0.8660253   2.8438202  )
        10        Pd     tau(  10) = (   1.2500345   0.4330327   2.8448126  )
        11        Pd     tau(  11) = (   0.7499655   0.4330327   2.8448126  )
        12        Pd     tau(  12) = (   1.0000000  -0.0000399   2.8448132  )
        13        Pd     tau(  13) = (   0.7499647   0.1443172   3.2517267  )
        14        Pd     tau(  14) = (   0.5000000   0.5773501   3.2522224  )
        15        Pd     tau(  15) = (   0.2500353   0.1443172   3.2517267  )
        16        Pd     tau(  16) = (   1.0000000   0.5773909   3.2517266  )
        17        Pd     tau(  17) = (   0.7498690   0.7216121   3.6594665  )
        18        Pd     tau(  18) = (   1.0000000   0.2886750   3.6609209  )
        19        Pd     tau(  19) = (   1.2501310   0.7216121   3.6594665  )
        20        Pd     tau(  20) = (   0.5000000   0.2888263   3.6594667  )
        21        Pd     tau(  21) = (   1.2472943   0.4314504   4.0747664  )
        22        Pd     tau(  22) = (   1.0000000   0.8660252   4.0713545  )
        23        Pd     tau(  23) = (   0.7527058   0.4314503   4.0747663  )
        24        Pd     tau(  24) = (   1.5000000   0.8691496   4.0747663  )
        25        H      tau(  25) = (   0.5000001   0.5773503   4.2381685  )

     --------------------------------------------
     DFT-D3 Dispersion Correction (3-body terms):
     --------------------------------------------
       Reference C6 values for interpolation: 

         atom   Coordination number   C6
         H          0.912             6.05
         H          0.000            15.18
         Pd         0.000          1217.01
         Pd         1.863           573.90
         Pd         5.710           531.75

       Values used:

         atom   Coordination number  R0_AB[au]  C6      C8
         Pd         6.691            3.168    531.75  48720.73
         Pd         6.691            3.168    531.75  48720.73
         Pd         6.691            3.168    531.75  48720.73
         Pd         6.691            3.168    531.75  48720.73
         Pd         8.987            3.168    531.75  48720.73
         Pd         8.981            3.168    531.75  48720.73
         Pd         8.987            3.168    531.75  48720.73
         Pd         8.987            3.168    531.75  48720.73
         Pd         9.014            3.168    531.75  48720.73
         Pd         9.011            3.168    531.75  48720.73
         Pd         9.011            3.168    531.75  48720.73
         Pd         9.011            3.168    531.75  48720.73
         Pd         8.984            3.168    531.75  48720.73
         Pd         8.999            3.168    531.75  48720.73
         Pd         8.984            3.168    531.75  48720.73
         Pd         8.984            3.168    531.75  48720.73
         Pd         8.853            3.168    531.75  48720.73
         Pd         8.882            3.168    531.75  48720.73
         Pd         8.853            3.168    531.75  48720.73
         Pd         8.853            3.168    531.75  48720.73
         Pd         7.188            3.168    531.75  48720.73
         Pd         6.629            3.168    531.75  48720.73
         Pd         7.188            3.168    531.75  48720.73
         Pd         7.188            3.168    531.75  48720.73
         H          1.860            2.062      6.05     73.18

         Molecular C6 ( Ry / a.u.^6 ) =    308987.71


     number of k points=    52  Marzari-Vanderbilt smearing, width (Ry)=  0.0147
                       cart. coord. in units 2pi/alat
        k(    1) = (   0.0000000   0.0000000   0.0000000), wk =   0.0100000
        k(    2) = (   0.0000000   0.1154701   0.0000000), wk =   0.0200000
        k(    3) = (   0.0000000   0.2309401   0.0000000), wk =   0.0200000
        k(    4) = (   0.0000000   0.3464102   0.0000000), wk =   0.0200000
        k(    5) = (   0.0000000   0.4618802   0.0000000), wk =   0.0200000
        k(    6) = (   0.0000000  -0.5773503   0.0000000), wk =   0.0100000
        k(    7) = (   0.1000000  -0.0577350   0.0000000), wk =   0.0200000
        k(    8) = (   0.1000000   0.0577350   0.0000000), wk =   0.0200000
        k(    9) = (   0.1000000   0.1732051   0.0000000), wk =   0.0200000
        k(   10) = (   0.1000000   0.2886751   0.0000000), wk =   0.0200000
        k(   11) = (   0.1000000   0.4041452   0.0000000), wk =   0.0200000
        k(   12) = (   0.1000000  -0.6350853   0.0000000), wk =   0.0200000
        k(   13) = (   0.1000000  -0.5196152   0.0000000), wk =   0.0200000
        k(   14) = (   0.1000000  -0.4041452   0.0000000), wk =   0.0200000
        k(   15) = (   0.1000000  -0.2886751   0.0000000), wk =   0.0200000
        k(   16) = (   0.1000000  -0.1732051   0.0000000), wk =   0.0200000
        k(   17) = (   0.2000000  -0.1154701   0.0000000), wk =   0.0200000
        k(   18) = (   0.2000000   0.0000000   0.0000000), wk =   0.0200000
        k(   19) = (   0.2000000   0.1154701   0.0000000), wk =   0.0200000
        k(   20) = (   0.2000000   0.2309401   0.0000000), wk =   0.0200000
        k(   21) = (   0.2000000   0.3464102   0.0000000), wk =   0.0200000
        k(   22) = (   0.2000000  -0.6928203   0.0000000), wk =   0.0200000
        k(   23) = (   0.2000000  -0.5773503   0.0000000), wk =   0.0200000
        k(   24) = (   0.2000000  -0.4618802   0.0000000), wk =   0.0200000
        k(   25) = (   0.2000000  -0.3464102   0.0000000), wk =   0.0200000
        k(   26) = (   0.2000000  -0.2309401   0.0000000), wk =   0.0200000
        k(   27) = (   0.3000000  -0.1732051   0.0000000), wk =   0.0200000
        k(   28) = (   0.3000000  -0.0577350   0.0000000), wk =   0.0200000
        k(   29) = (   0.3000000   0.0577350   0.0000000), wk =   0.0200000
        k(   30) = (   0.3000000   0.1732051   0.0000000), wk =   0.0200000
        k(   31) = (   0.3000000   0.2886751   0.0000000), wk =   0.0200000
        k(   32) = (   0.3000000  -0.7505553   0.0000000), wk =   0.0200000
        k(   33) = (   0.3000000  -0.6350853   0.0000000), wk =   0.0200000
        k(   34) = (   0.3000000  -0.5196152   0.0000000), wk =   0.0200000
        k(   35) = (   0.3000000  -0.4041452   0.0000000), wk =   0.0200000
        k(   36) = (   0.3000000  -0.2886751   0.0000000), wk =   0.0200000
        k(   37) = (   0.4000000  -0.2309401   0.0000000), wk =   0.0200000
        k(   38) = (   0.4000000  -0.1154701   0.0000000), wk =   0.0200000
        k(   39) = (   0.4000000   0.0000000   0.0000000), wk =   0.0200000
        k(   40) = (   0.4000000   0.1154701   0.0000000), wk =   0.0200000
        k(   41) = (   0.4000000   0.2309401   0.0000000), wk =   0.0200000
        k(   42) = (   0.4000000  -0.8082904   0.0000000), wk =   0.0200000
        k(   43) = (   0.4000000  -0.6928203   0.0000000), wk =   0.0200000
        k(   44) = (   0.4000000  -0.5773503   0.0000000), wk =   0.0200000
        k(   45) = (   0.4000000  -0.4618802   0.0000000), wk =   0.0200000
        k(   46) = (   0.4000000  -0.3464102   0.0000000), wk =   0.0200000
        k(   47) = (  -0.5000000   0.2886751   0.0000000), wk =   0.0100000
        k(   48) = (  -0.5000000   0.4041452   0.0000000), wk =   0.0200000
        k(   49) = (  -0.5000000   0.5196152   0.0000000), wk =   0.0200000
        k(   50) = (  -0.5000000   0.6350853   0.0000000), wk =   0.0200000
        k(   51) = (  -0.5000000   0.7505553   0.0000000), wk =   0.0200000
        k(   52) = (  -0.5000000  -0.2886751   0.0000000), wk =   0.0100000

     Dense  grid:  1008141 G-vectors     FFT dimensions: (  72,  72, 450)

     Smooth grid:   356271 G-vectors     FFT dimensions: (  54,  54, 320)

     Estimated max dynamical RAM per process >     654.31 MB

     Estimated total dynamical RAM >      18.28 GB
 ----2D----2D----2D----2D----2D----2D----2D----2D----2D----2D----2D----2D
  The code is running with the 2D cutoff
  Please refer to:
  Sohier, T., Calandra, M., & Mauri, F. (2017), 
  Density functional perturbation theory for gated two-dimensional heterostructu
 res:
  Theoretical developments and application to flexural phonons in graphene.
  Physical Review B, 96(7), 75448. https://doi.org/10.1103/PhysRevB.96.075448
 ----2D----2D----2D----2D----2D----2D----2D----2D----2D----2D----2D----2D

     Check: negative core charge=   -0.000002
     Generating pointlists ...
     new r_m :   0.1380 (alat units)  1.4128 (a.u.) for type    1
     new r_m :   0.1380 (alat units)  1.4128 (a.u.) for type    2

     Initial potential from superposition of free atoms

     starting charge     240.9874, renormalised to     241.0000

     negative rho (up, down):  3.833E-05 3.448E-05
     Starting wfcs are  217 randomized atomic wfcs
     Checking if some PAW data can be deallocated... 

     total cpu time spent up to now is      248.6 secs

     Self-consistent Calculation

     iteration #  1     ecut=    60.00 Ry     beta= 0.20
     Davidson diagonalization with overlap
     ethr =  1.00E-02,  avg # of iterations =  6.5

     negative rho (up, down):  1.089E-03 1.175E-03

     total cpu time spent up to now is      843.9 secs

     total energy              =   -7950.50961800 Ry
     estimated scf accuracy    <       2.98304481 Ry

     total magnetization       =     9.39 Bohr mag/cell
     absolute magnetization    =     9.40 Bohr mag/cell

     iteration #  2     ecut=    60.00 Ry     beta= 0.20
     Davidson diagonalization with overlap
     ethr =  1.24E-03,  avg # of iterations =  1.8

     negative rho (up, down):  7.080E-03 7.253E-03

     total cpu time spent up to now is     1277.2 secs

     total energy              =   -7949.90939363 Ry
     estimated scf accuracy    <       2.04868756 Ry

     total magnetization       =     9.15 Bohr mag/cell
     absolute magnetization    =     9.18 Bohr mag/cell

     iteration #  3     ecut=    60.00 Ry     beta= 0.20
     Davidson diagonalization with overlap
     ethr =  8.50E-04,  avg # of iterations =  1.9

     negative rho (up, down):  5.788E-03 5.883E-03

     total cpu time spent up to now is     1718.1 secs

     total energy              =   -7950.14602533 Ry
     estimated scf accuracy    <       0.16871954 Ry

     total magnetization       =     8.08 Bohr mag/cell
     absolute magnetization    =     8.25 Bohr mag/cell

     iteration #  4     ecut=    60.00 Ry     beta= 0.20
     Davidson diagonalization with overlap
     c_bands:  1 eigenvalues not converged
     ethr =  7.00E-05,  avg # of iterations = 13.6

     negative rho (up, down):  5.494E-03 5.564E-03

     total cpu time spent up to now is     2498.7 secs

     total energy              =   -7950.18502128 Ry
     estimated scf accuracy    <       0.04767709 Ry

     total magnetization       =     7.93 Bohr mag/cell
     absolute magnetization    =     8.16 Bohr mag/cell

     iteration #  5     ecut=    60.00 Ry     beta= 0.20
     Davidson diagonalization with overlap
     ethr =  1.98E-05,  avg # of iterations =  4.8

     negative rho (up, down):  3.199E-03 3.226E-03

     total cpu time spent up to now is     3040.7 secs

     total energy              =   -7950.20661738 Ry
     estimated scf accuracy    <       0.03038932 Ry

     total magnetization       =     7.82 Bohr mag/cell
     absolute magnetization    =     8.08 Bohr mag/cell

     iteration #  6     ecut=    60.00 Ry     beta= 0.20
     Davidson diagonalization with overlap
     ethr =  1.26E-05,  avg # of iterations =  2.3

     negative rho (up, down):  2.024E-03 2.025E-03

     total cpu time spent up to now is     3477.2 secs

     total energy              =   -7950.20726775 Ry
     estimated scf accuracy    <       0.03692698 Ry

     total magnetization       =     7.69 Bohr mag/cell
     absolute magnetization    =     7.96 Bohr mag/cell

     iteration #  7     ecut=    60.00 Ry     beta= 0.20
     Davidson diagonalization with overlap
     ethr =  1.26E-05,  avg # of iterations =  2.7

     negative rho (up, down):  1.418E-03 1.418E-03

     total cpu time spent up to now is     3905.1 secs

     total energy              =   -7950.20441078 Ry
     estimated scf accuracy    <       0.01383370 Ry

     total magnetization       =     7.24 Bohr mag/cell
     absolute magnetization    =     7.57 Bohr mag/cell

     iteration #  8     ecut=    60.00 Ry     beta= 0.20
     Davidson diagonalization with overlap
     ethr =  5.74E-06,  avg # of iterations =  4.6

     negative rho (up, down):  8.873E-04 8.874E-04

     total cpu time spent up to now is     4480.6 secs

     total energy              =   -7950.20839953 Ry
     estimated scf accuracy    <       0.00305035 Ry

     total magnetization       =     6.81 Bohr mag/cell
     absolute magnetization    =     7.19 Bohr mag/cell

     iteration #  9     ecut=    60.00 Ry     beta= 0.20
     Davidson diagonalization with overlap
     c_bands:  1 eigenvalues not converged
     c_bands:  1 eigenvalues not converged
     ethr =  1.27E-06,  avg # of iterations =  7.5

     negative rho (up, down):  4.633E-04 4.634E-04

     total cpu time spent up to now is     5174.0 secs

     total energy              =   -7950.20899164 Ry
     estimated scf accuracy    <       0.00333940 Ry

     total magnetization       =     6.81 Bohr mag/cell
     absolute magnetization    =     7.16 Bohr mag/cell

     iteration # 10     ecut=    60.00 Ry     beta= 0.20
     Davidson diagonalization with overlap
     ethr =  1.27E-06,  avg # of iterations =  1.5

     negative rho (up, down):  4.523E-05 4.518E-05

     total cpu time spent up to now is     5605.3 secs

     total energy              =   -7950.20890525 Ry
     estimated scf accuracy    <       0.00287989 Ry

     total magnetization       =     6.66 Bohr mag/cell
     absolute magnetization    =     7.01 Bohr mag/cell

     iteration # 11     ecut=    60.00 Ry     beta= 0.20
     Davidson diagonalization with overlap
     ethr =  1.19E-06,  avg # of iterations =  1.0

     total cpu time spent up to now is     6027.1 secs

     total energy              =   -7950.20884191 Ry
     estimated scf accuracy    <       0.00232611 Ry

     total magnetization       =     6.46 Bohr mag/cell
     absolute magnetization    =     6.79 Bohr mag/cell

     iteration # 12     ecut=    60.00 Ry     beta= 0.20
     Davidson diagonalization with overlap
     ethr =  9.65E-07,  avg # of iterations =  1.3

     total cpu time spent up to now is     6425.6 secs

     total energy              =   -7950.20869670 Ry
     estimated scf accuracy    <       0.00111736 Ry

     total magnetization       =     6.23 Bohr mag/cell
     absolute magnetization    =     6.56 Bohr mag/cell

     iteration # 13     ecut=    60.00 Ry     beta= 0.20
     Davidson diagonalization with overlap
     ethr =  4.64E-07,  avg # of iterations =  2.0

     total cpu time spent up to now is     6875.2 secs

     total energy              =   -7950.20890871 Ry
     estimated scf accuracy    <       0.00040103 Ry

     total magnetization       =     5.82 Bohr mag/cell
     absolute magnetization    =     6.13 Bohr mag/cell

     iteration # 14     ecut=    60.00 Ry     beta= 0.20
     Davidson diagonalization with overlap
     ethr =  1.66E-07,  avg # of iterations =  2.7

     total cpu time spent up to now is     7385.7 secs

     total energy              =   -7950.20894237 Ry
     estimated scf accuracy    <       0.00014302 Ry

     total magnetization       =     5.75 Bohr mag/cell
     absolute magnetization    =     6.06 Bohr mag/cell

     iteration # 15     ecut=    60.00 Ry     beta= 0.20
     Davidson diagonalization with overlap
     ethr =  5.93E-08,  avg # of iterations =  2.7

     total cpu time spent up to now is     7975.1 secs

     total energy              =   -7950.20898306 Ry
     estimated scf accuracy    <       0.00012690 Ry

     total magnetization       =     5.64 Bohr mag/cell
     absolute magnetization    =     5.94 Bohr mag/cell

     iteration # 16     ecut=    60.00 Ry     beta= 0.20
     Davidson diagonalization with overlap
     ethr =  5.27E-08,  avg # of iterations =  2.0

     total cpu time spent up to now is     8474.3 secs

     total energy              =   -7950.20901578 Ry
     estimated scf accuracy    <       0.00007927 Ry

     total magnetization       =     5.56 Bohr mag/cell
     absolute magnetization    =     5.85 Bohr mag/cell

     iteration # 17     ecut=    60.00 Ry     beta= 0.20
     Davidson diagonalization with overlap
     ethr =  3.29E-08,  avg # of iterations =  2.0

     negative rho (up, down):  1.109E-05 1.095E-05

     total cpu time spent up to now is     8966.8 secs

     total energy              =   -7950.20896653 Ry
     estimated scf accuracy    <       0.00015348 Ry

     total magnetization       =     5.51 Bohr mag/cell
     absolute magnetization    =     5.79 Bohr mag/cell

     iteration # 18     ecut=    60.00 Ry     beta= 0.20
     Davidson diagonalization with overlap
     ethr =  3.29E-08,  avg # of iterations =  2.0

     negative rho (up, down):  9.831E-05 9.806E-05

     total cpu time spent up to now is     9494.1 secs

     total energy              =   -7950.20897982 Ry
     estimated scf accuracy    <       0.00008456 Ry

     total magnetization       =     5.48 Bohr mag/cell
     absolute magnetization    =     5.76 Bohr mag/cell

     iteration # 19     ecut=    60.00 Ry     beta= 0.20
     Davidson diagonalization with overlap
     ethr =  3.29E-08,  avg # of iterations =  1.1

     negative rho (up, down):  3.800E-05 3.784E-05

     total cpu time spent up to now is     9898.0 secs

     total energy              =   -7950.20898227 Ry
     estimated scf accuracy    <       0.00006559 Ry

     total magnetization       =     5.45 Bohr mag/cell
     absolute magnetization    =     5.73 Bohr mag/cell

     iteration # 20     ecut=    60.00 Ry     beta= 0.20
     Davidson diagonalization with overlap
     ethr =  2.72E-08,  avg # of iterations =  1.0

     negative rho (up, down):  3.037E-07 3.140E-07

     total cpu time spent up to now is    10298.4 secs

     total energy              =   -7950.20900319 Ry
     estimated scf accuracy    <       0.00005269 Ry

     total magnetization       =     5.41 Bohr mag/cell
     absolute magnetization    =     5.70 Bohr mag/cell

     iteration # 21     ecut=    60.00 Ry     beta= 0.20
     Davidson diagonalization with overlap
     ethr =  2.19E-08,  avg # of iterations =  2.0

     negative rho (up, down):  7.461E-06 7.443E-06

     total cpu time spent up to now is    10799.5 secs

     total energy              =   -7950.20900952 Ry
     estimated scf accuracy    <       0.00004731 Ry

     total magnetization       =     5.35 Bohr mag/cell
     absolute magnetization    =     5.63 Bohr mag/cell

     iteration # 22     ecut=    60.00 Ry     beta= 0.20
     Davidson diagonalization with overlap
     ethr =  1.96E-08,  avg # of iterations =  1.1

     negative rho (up, down):  4.779E-07 4.792E-07

     total cpu time spent up to now is    11205.6 secs

     total energy              =   -7950.20901804 Ry
     estimated scf accuracy    <       0.00002207 Ry

     total magnetization       =     5.28 Bohr mag/cell
     absolute magnetization    =     5.55 Bohr mag/cell

     iteration # 23     ecut=    60.00 Ry     beta= 0.20
     Davidson diagonalization with overlap
     ethr =  9.16E-09,  avg # of iterations =  1.5

     negative rho (up, down):  2.874E-05 2.873E-05

     total cpu time spent up to now is    11607.1 secs

     total energy              =   -7950.20902086 Ry
     estimated scf accuracy    <       0.00000603 Ry

     total magnetization       =     5.23 Bohr mag/cell
     absolute magnetization    =     5.50 Bohr mag/cell

     iteration # 24     ecut=    60.00 Ry     beta= 0.20
     Davidson diagonalization with overlap
     ethr =  2.50E-09,  avg # of iterations =  2.1

     negative rho (up, down):  6.565E-05 6.564E-05

     total cpu time spent up to now is    12098.1 secs

     total energy              =   -7950.20902310 Ry
     estimated scf accuracy    <       0.00000224 Ry

     total magnetization       =     5.21 Bohr mag/cell
     absolute magnetization    =     5.48 Bohr mag/cell

     iteration # 25     ecut=    60.00 Ry     beta= 0.20
     Davidson diagonalization with overlap
     ethr =  9.28E-10,  avg # of iterations =  2.1

     negative rho (up, down):  7.602E-05 7.600E-05

     total cpu time spent up to now is    12606.6 secs

     total energy              =   -7950.20902562 Ry
     estimated scf accuracy    <       0.00000270 Ry

     total magnetization       =     5.18 Bohr mag/cell
     absolute magnetization    =     5.45 Bohr mag/cell

     iteration # 26     ecut=    60.00 Ry     beta= 0.20
     Davidson diagonalization with overlap
     ethr =  9.28E-10,  avg # of iterations =  2.2

     negative rho (up, down):  5.359E-05 5.352E-05

     total cpu time spent up to now is    13093.2 secs

     total energy              =   -7950.20902582 Ry
     estimated scf accuracy    <       0.00000267 Ry

     total magnetization       =     5.14 Bohr mag/cell
     absolute magnetization    =     5.41 Bohr mag/cell

     iteration # 27     ecut=    60.00 Ry     beta= 0.20
     Davidson diagonalization with overlap
     ethr =  9.28E-10,  avg # of iterations =  3.9

     negative rho (up, down):  3.976E-05 3.972E-05

     total cpu time spent up to now is    13741.3 secs

     total energy              =   -7950.20902590 Ry
     estimated scf accuracy    <       0.00000090 Ry

     total magnetization       =     5.06 Bohr mag/cell
     absolute magnetization    =     5.32 Bohr mag/cell

     iteration # 28     ecut=    60.00 Ry     beta= 0.20
     Davidson diagonalization with overlap
     ethr =  3.73E-10,  avg # of iterations =  5.1

     negative rho (up, down):  2.882E-05 2.880E-05

     total cpu time spent up to now is    14471.0 secs

     total energy              =   -7950.20903083 Ry
     estimated scf accuracy    <       0.00000120 Ry

     total magnetization       =     4.96 Bohr mag/cell
     absolute magnetization    =     5.22 Bohr mag/cell

     iteration # 29     ecut=    60.00 Ry     beta= 0.20
     Davidson diagonalization with overlap
     ethr =  3.73E-10,  avg # of iterations =  4.8

     negative rho (up, down):  5.928E-05 5.926E-05

     total cpu time spent up to now is    15271.5 secs

     total energy              =   -7950.20903784 Ry
     estimated scf accuracy    <       0.00000374 Ry

     total magnetization       =     4.88 Bohr mag/cell
     absolute magnetization    =     5.12 Bohr mag/cell

     iteration # 30     ecut=    60.00 Ry     beta= 0.20
     Davidson diagonalization with overlap
     ethr =  3.73E-10,  avg # of iterations =  1.5

     negative rho (up, down):  6.577E-06 6.560E-06

     total cpu time spent up to now is    15678.9 secs

     total energy              =   -7950.20903472 Ry
     estimated scf accuracy    <       0.00000095 Ry

     total magnetization       =     4.87 Bohr mag/cell
     absolute magnetization    =     5.12 Bohr mag/cell

     iteration # 31     ecut=    60.00 Ry     beta= 0.20
     Davidson diagonalization with overlap
     ethr =  3.73E-10,  avg # of iterations =  3.3

     negative rho (up, down):  1.539E-05 1.538E-05

     total cpu time spent up to now is    16271.1 secs

     total energy              =   -7950.20903874 Ry
     estimated scf accuracy    <       0.00000078 Ry

     total magnetization       =     4.80 Bohr mag/cell
     absolute magnetization    =     5.04 Bohr mag/cell

     iteration # 32     ecut=    60.00 Ry     beta= 0.20
     Davidson diagonalization with overlap
     ethr =  3.23E-10,  avg # of iterations =  2.0

     negative rho (up, down):  1.966E-05 1.965E-05

     total cpu time spent up to now is    16695.1 secs

     total energy              =   -7950.20903867 Ry
     estimated scf accuracy    <       0.00000028 Ry

     total magnetization       =     4.79 Bohr mag/cell
     absolute magnetization    =     5.03 Bohr mag/cell

     iteration # 33     ecut=    60.00 Ry     beta= 0.20
     Davidson diagonalization with overlap
     ethr =  1.16E-10,  avg # of iterations =  3.4

     negative rho (up, down):  1.043E-05 1.044E-05

     total cpu time spent up to now is    17208.2 secs

     total energy              =   -7950.20903883 Ry
     estimated scf accuracy    <       0.00000004 Ry

     total magnetization       =     4.77 Bohr mag/cell
     absolute magnetization    =     5.01 Bohr mag/cell

     iteration # 34     ecut=    60.00 Ry     beta= 0.20
     Davidson diagonalization with overlap
     ethr =  1.61E-11,  avg # of iterations =  4.3

     negative rho (up, down):  1.493E-05 1.494E-05

     total cpu time spent up to now is    17881.5 secs

     total energy              =   -7950.20903893 Ry
     estimated scf accuracy    <       0.00000003 Ry

     total magnetization       =     4.76 Bohr mag/cell
     absolute magnetization    =     5.00 Bohr mag/cell

     iteration # 35     ecut=    60.00 Ry     beta= 0.20
     Davidson diagonalization with overlap
     ethr =  1.39E-11,  avg # of iterations =  4.0

     negative rho (up, down):  8.783E-06 8.792E-06

     total cpu time spent up to now is    18440.9 secs

     total energy              =   -7950.20903902 Ry
     estimated scf accuracy    <       0.00000006 Ry

     total magnetization       =     4.75 Bohr mag/cell
     absolute magnetization    =     4.99 Bohr mag/cell

     iteration # 36     ecut=    60.00 Ry     beta= 0.20
     Davidson diagonalization with overlap
     ethr =  1.39E-11,  avg # of iterations =  1.0

     negative rho (up, down):  6.692E-06 6.700E-06

     total cpu time spent up to now is    18828.0 secs

     total energy              =   -7950.20903901 Ry
     estimated scf accuracy    <       0.00000001 Ry

     total magnetization       =     4.75 Bohr mag/cell
     absolute magnetization    =     4.99 Bohr mag/cell

     iteration # 37     ecut=    60.00 Ry     beta= 0.20
     Davidson diagonalization with overlap
     ethr =  4.88E-12,  avg # of iterations =  1.9

     negative rho (up, down):  7.398E-06 7.410E-06
 
     Magnetic moment per site  (integrated on atomic sphere of radius R)
     atom   1 (R=0.138)  charge=  5.6115  magn=  0.1332
     atom   2 (R=0.138)  charge=  5.6115  magn=  0.1332
     atom   3 (R=0.138)  charge=  5.6113  magn=  0.1324
     atom   4 (R=0.138)  charge=  5.6115  magn=  0.1332
     atom   5 (R=0.138)  charge=  5.5964  magn=  0.2023
     atom   6 (R=0.138)  charge=  5.5963  magn=  0.1975
     atom   7 (R=0.138)  charge=  5.5964  magn=  0.2023
     atom   8 (R=0.138)  charge=  5.5964  magn=  0.2023
     atom   9 (R=0.138)  charge=  5.5952  magn=  0.2121
     atom  10 (R=0.138)  charge=  5.5955  magn=  0.2038
     atom  11 (R=0.138)  charge=  5.5955  magn=  0.2038
     atom  12 (R=0.138)  charge=  5.5955  magn=  0.2038
     atom  13 (R=0.138)  charge=  5.5962  magn=  0.1862
     atom  14 (R=0.138)  charge=  5.5952  magn=  0.1882
     atom  15 (R=0.138)  charge=  5.5962  magn=  0.1862
     atom  16 (R=0.138)  charge=  5.5962  magn=  0.1862
     atom  17 (R=0.138)  charge=  5.5969  magn=  0.1547
     atom  18 (R=0.138)  charge=  5.5999  magn=  0.1358
     atom  19 (R=0.138)  charge=  5.5969  magn=  0.1547
     atom  20 (R=0.138)  charge=  5.5969  magn=  0.1547
     atom  21 (R=0.138)  charge=  5.6070  magn=  0.0665
     atom  22 (R=0.138)  charge=  5.6144  magn=  0.0947
     atom  23 (R=0.138)  charge=  5.6070  magn=  0.0665
     atom  24 (R=0.138)  charge=  5.6070  magn=  0.0665
     atom  25 (R=0.138)  charge=  1.0159  magn= -0.0010

     total cpu time spent up to now is    19232.1 secs

     End of self-consistent calculation

     Number of k-points >= 100: set verbosity='high' to print the bands.

     the Fermi energy is    -5.2746 ev

!    total energy              =   -7950.20903901 Ry
     total all-electron energy =   -242212.990824 Ry
     estimated scf accuracy    <          5.5E-09 Ry
     smearing contrib. (-TS)   =       0.00357138 Ry
     internal energy E=F+TS    =   -7950.21261040 Ry

     The total energy is F=E-TS. E is the sum of the following terms:
     one-electron contribution =  -58310.13118662 Ry
     hartree contribution      =   29338.81930518 Ry
     xc contribution           =    -779.79267346 Ry
     ewald contribution        =   27965.43485996 Ry
     DFT-D3 Dispersion         =      -2.83662238 Ry
     one-center paw contrib.   =   -6161.70629308 Ry

     total magnetization       =     4.75 Bohr mag/cell
     absolute magnetization    =     4.99 Bohr mag/cell

     convergence has been achieved in  37 iterations

     negative rho (up, down):  7.398E-06 7.410E-06

     Forces acting on atoms (cartesian axes, Ry/au):

     atom    1 type  1   force =     0.00007256    0.00003781   -0.00601940
     atom    2 type  1   force =    -0.00007200    0.00003723   -0.00601908
     atom    3 type  1   force =    -0.00000013    0.00000422   -0.00585463
     atom    4 type  1   force =    -0.00000027   -0.00007931   -0.00602015
     atom    5 type  1   force =    -0.00070713   -0.00041322    0.00586755
     atom    6 type  1   force =    -0.00000109    0.00000452    0.00658845
     atom    7 type  1   force =     0.00070663   -0.00041351    0.00586839
     atom    8 type  1   force =     0.00000025    0.00082233    0.00586771
     atom    9 type  1   force =     0.00000094    0.00000004   -0.00041500
     atom   10 type  1   force =     0.00004573    0.00002682    0.00001109
     atom   11 type  1   force =    -0.00004569    0.00002542    0.00001137
     atom   12 type  1   force =     0.00000008   -0.00005232    0.00001087
     atom   13 type  1   force =     0.00002789    0.00001535    0.00002545
     atom   14 type  1   force =    -0.00000052    0.00000085    0.00021749
     atom   15 type  1   force =    -0.00002765    0.00001543    0.00002687
     atom   16 type  1   force =    -0.00000023   -0.00003137    0.00002704
     atom   17 type  1   force =     0.00000761    0.00000296    0.00004521
     atom   18 type  1   force =    -0.00000075    0.00000070    0.00047471
     atom   19 type  1   force =    -0.00000704    0.00000458    0.00004504
     atom   20 type  1   force =     0.00000124   -0.00000825    0.00004472
     atom   21 type  1   force =     0.00025298    0.00014655   -0.00018566
     atom   22 type  1   force =     0.00000057   -0.00000000   -0.00021244
     atom   23 type  1   force =    -0.00025346    0.00014589   -0.00018419
     atom   24 type  1   force =    -0.00000041   -0.00029268   -0.00018514
     atom   25 type  2   force =    -0.00000012   -0.00000006   -0.00003626

     Total force =     0.000933     Total SCF correction =     0.000294
     SCF correction compared to forces is large: reduce conv_thr to get better values


     Computing stress (Cartesian axis) and pressure


     negative rho (up, down):  7.398E-06 7.410E-06
          total   stress  (Ry/bohr**3)                   (kbar)     P=       -7.22
  -0.00008281  -0.00000000  -0.00000000          -12.18       -0.00       -0.00
  -0.00000000  -0.00008281   0.00000000           -0.00      -12.18        0.00
  -0.00000000   0.00000000   0.00001842           -0.00        0.00        2.71


     BFGS Geometry Optimization
     Energy error            =      0.0E+00 Ry
     Gradient error          =      4.7E-04 Ry/Bohr

     bfgs converged in   1 scf cycles and   0 bfgs steps
     (criteria: energy <  1.8E-05 Ry, force <  7.8E-04 Ry/Bohr)

     End of BFGS Geometry Optimization

     Final energy             =   -7950.2090390127 Ry
Begin final coordinates

ATOMIC_POSITIONS (angstrom)
Pd               4.0645645626        0.7822299404       11.0000000000    0   0   0
Pd               1.3548619999        0.7822299404       11.0000000000    0   0   0
Pd               2.7097132812        3.1289011964       11.0000000000    0   0   0
Pd               5.4194265625        3.1289073847       11.0000037136    0   0   0
Pd               4.0645645626        3.9111373251       13.2124716294    0   0   0
Pd               5.4194265625        1.5644475040       13.2124716294    0   0   0
Pd               6.7742885624        3.9111373251       13.2124716294    0   0   0
Pd               2.7097132813        1.5644536924       13.2124753430    0   0   0
Pd               5.4194266048        4.6933603835       15.4118745340
Pd               6.7744700224        2.3467887492       15.4172531903
Pd               4.0643831458        2.3467887746       15.4172531962
Pd               5.4194265522       -0.0002163753       15.4172560970
Pd               4.0643787309        0.7821163303       17.6224939867
Pd               2.7097133307        3.1289066895       17.6251804565
Pd               1.3550479454        0.7821163339       17.6224939211
Pd               5.4194266231        3.1291275643       17.6224936272
Pd               4.0638599952        3.9107235367       19.8322101127
Pd               5.4194266167        1.5644529416       19.8400918293
Pd               6.7749931779        3.9107235119       19.8322101763
Pd               2.7097133141        1.5652727871       19.8322108578
Pd               6.7596196027        2.3382135064       22.0828970981
Pd               5.4194265289        4.6933599740       22.0644069286
Pd               4.0792336025        2.3382134203       22.0828969911
Pd               8.1291398414        4.7102923979       22.0828969028
H                2.7097135897        3.1289073259       22.9684427317
End final coordinates



     Writing all to output data dir ./Pd_111_6Layer-H.save/ :
     XML data file, charge density, pseudopotentials, collected wavefunctions
 
     init_run     :    231.37s CPU    238.35s WALL (       1 calls)
     electrons    :  17635.79s CPU  18983.87s WALL (       1 calls)
     forces       :     40.30s CPU     42.30s WALL (       1 calls)
     force_dftd3  :      1.47s CPU      1.50s WALL (       1 calls)
     stress       :    447.40s CPU    451.82s WALL (       1 calls)
     stres_dftd3  :      0.85s CPU      1.55s WALL (       1 calls)

     Called by init_run:
     wfcinit      :     86.26s CPU     91.61s WALL (       1 calls)
     potinit      :      3.40s CPU      3.91s WALL (       1 calls)
     hinit0       :      0.49s CPU      0.67s WALL (       1 calls)

     Called by electrons:
     c_bands      :  14766.69s CPU  15896.08s WALL (      37 calls)
     sum_band     :   2662.74s CPU   2860.23s WALL (      37 calls)
     v_of_rho     :     36.40s CPU     41.13s WALL (      38 calls)
     newd         :     18.97s CPU     21.00s WALL (      38 calls)
     PAW_pot      :     54.64s CPU     58.80s WALL (      38 calls)
     mix_rho      :     90.38s CPU     99.61s WALL (      37 calls)
     energy_dftd3 :      0.17s CPU      0.17s WALL (       1 calls)

     Called by c_bands:
     init_us_2    :     34.76s CPU     38.31s WALL (    2002 calls)
     init_us_2:cp :     34.72s CPU     38.28s WALL (    2002 calls)
     cegterg      :   6780.00s CPU   7365.22s WALL (     962 calls)

     Called by *egterg:
     cdiaghg      :    143.14s CPU    154.41s WALL (    3853 calls)
     h_psi        :   4864.93s CPU   5314.95s WALL (    3879 calls)
     s_psi        :    332.24s CPU    353.52s WALL (    3879 calls)
     g_psi        :     12.11s CPU     13.38s WALL (    2891 calls)

     Called by h_psi:
     h_psi:calbec :    477.44s CPU    510.85s WALL (    3879 calls)
     vloc_psi     :   4037.34s CPU   4417.01s WALL (    3879 calls)
     vloc_psi:tg_ :     19.19s CPU     20.21s WALL (    3879 calls)
     add_vuspsi   :    337.22s CPU    364.26s WALL (    3879 calls)

     General routines
     calbec       :    686.99s CPU    733.86s WALL (    4971 calls)
     fft          :     36.46s CPU     41.21s WALL (     988 calls)
     ffts         :     45.33s CPU     50.64s WALL (    4394 calls)
     fftw         :   4322.83s CPU   4715.46s WALL (  411340 calls)
     interpolate  :      3.40s CPU      3.85s WALL (      76 calls)
 
     Parallel routines
     fft_scatt_xy :    898.88s CPU    950.08s WALL (  416722 calls)
     fft_scatt_yz :   1191.86s CPU   1272.71s WALL (  416722 calls)
     fft_scatt_tg :    777.80s CPU    829.68s WALL (  411340 calls)
 
     PWSCF        :      5h 8m CPU      5h31m WALL

 
   This run was terminated on:  10:10: 2   9Nov2025            

=------------------------------------------------------------------------------=
   JOB DONE.
=------------------------------------------------------------------------------=
