
     Program PWSCF v.7.3 starts on  1May2026 at 15:25:32 

     This program is part of the open-source Quantum ESPRESSO suite
     for quantum simulation of materials; please cite
         "P. Giannozzi et al., J. Phys.:Condens. Matter 21 395502 (2009);
         "P. Giannozzi et al., J. Phys.:Condens. Matter 29 465901 (2017);
         "P. Giannozzi et al., J. Chem. Phys. 152 154105 (2020);
          URL http://www.quantum-espresso.org", 
     in publications or presentations arising from this work. More details at
     http://www.quantum-espresso.org/quote

     Parallel version (MPI), running on    64 processors

     MPI processes distributed on     4 nodes
     31033 MiB available memory on the printing compute node when the environment starts
 
     Reading input from /tmpu/isholek_g/isholek/MIGUEL/QE/Hydrogen/111_2x2/NSCF/Ni1Pd3_111-T1-NSCF.in

     Current dimensions of program PWSCF are:
     Max number of different atomic species (ntypx) = 10
     Max number of k-points (npk) =  40000
     Max angular momentum in pseudopotentials (lmaxx) =  4
     file Ni.upf: wavefunction(s)  4S 3D renormalized
     file Pd.upf: wavefunction(s)  5S 4D renormalized
     file H.upf: wavefunction(s)  1S renormalized

     IMPORTANT: XC functional enforced from input :
     Exchange-correlation= PBE
                           (   1   4   3   4   0   0   0)
     Any further DFT definition will be discarded
     Please, verify this is what you really want


     Atomic positions and unit cell read from directory:
     /tmpu/isholek_g/isholek/MIGUEL/QE/Hydrogen/111_2x2/SAVE/Ni1Pd3_111-T1.save/
 
 
     K-points division:     npool     =       8
     R & G space division:  proc/nbgrp/npool/nimage =       8
     Subspace diagonalization in iterative solution of the eigenvalue problem:
     one sub-group per band group will be used
     scalapack distributed-memory algorithm (size of sub-group:  2*  2 procs)

 
     Parallelization info
     --------------------
     sticks:   dense  smooth     PW     G-vecs:    dense   smooth      PW
     Min         416     207     61               120460    42599    6663
     Max         417     208     63               120479    42626    6672
     Sum        3331    1663    499               963739   340921   53319
 
     Using Slab Decomposition
 

     Title: 
     Ni1Pd3_111-T1-NSCF                                                         


     bravais-lattice index     =            0
     lattice parameter (alat)  =      10.0481  a.u.
     unit-cell volume          =    5428.4795 (a.u.)^3
     number of atoms/cell      =           25
     number of atomic types    =            3
     number of electrons       =       241.00
     number of Kohn-Sham states=          145
     kinetic-energy cutoff     =      60.0000  Ry
     charge density cutoff     =     480.0000  Ry
     Exchange-correlation= PBE
                           (   1   4   3   4   0   0   0)

     celldm(1)=  10.048050  celldm(2)=   0.000000  celldm(3)=   0.000000
     celldm(4)=   0.000000  celldm(5)=   0.000000  celldm(6)=   0.000000

     crystal axes: (cart. coord. in units of alat)
               a(1) = (   1.000000   0.000000   0.000000 )  
               a(2) = (   0.500000   0.866025   0.000000 )  
               a(3) = (   0.000000   0.000000   6.178773 )  

     reciprocal axes: (cart. coord. in units 2 pi/alat)
               b(1) = (  1.000000 -0.577350  0.000000 )  
               b(2) = (  0.000000  1.154701  0.000000 )  
               b(3) = (  0.000000  0.000000  0.161844 )  


     PseudoPot. # 1 for Ni read from file:
     /tmpu/isholek_g/isholek/MIGUEL/PP/PAW/Ni.upf
     MD5 check sum: d88365a95a5e142bd87181c2c8b16588
     Pseudo is Projector augmented-wave + core cor, Zval = 10.0
     Generated using "atomic" code by A. Dal Corso  v.5.0.2 svn rev. 9415
     Shape of augmentation charge: PSQ
     Using radial grid of 1195 points,  6 beta functions with: 
                l(1) =   0
                l(2) =   0
                l(3) =   1
                l(4) =   1
                l(5) =   2
                l(6) =   2
     Q(r) pseudized with 0 coefficients 


     PseudoPot. # 2 for Pd read from file:
     /tmpu/isholek_g/isholek/MIGUEL/PP/PAW/Pd.upf
     MD5 check sum: e9d6f14fd83b79f8105499163af174c9
     Pseudo is Projector augmented-wave + core cor, Zval = 10.0
     Generated using "atomic" code by A. Dal Corso  v.5.0.2 svn rev. 9415
     Shape of augmentation charge: PSQ
     Using radial grid of 1235 points,  6 beta functions with: 
                l(1) =   0
                l(2) =   0
                l(3) =   1
                l(4) =   1
                l(5) =   2
                l(6) =   2
     Q(r) pseudized with 0 coefficients 


     PseudoPot. # 3 for H  read from file:
     /tmpu/isholek_g/isholek/MIGUEL/PP/PAW/H.upf
     MD5 check sum: 4cbe42a24e15140179a93d5bf84f2220
     Pseudo is Projector augmented-wave, Zval =  1.0
     Generated using "atomic" code by A. Dal Corso  v.5.0.2 svn rev. 9415
     Shape of augmentation charge: PSQ
     Using radial grid of  929 points,  2 beta functions with: 
                l(1) =   0
                l(2) =   0
     Q(r) pseudized with 0 coefficients 


     atomic species   valence    mass     pseudopotential
     Ni               10.00    58.69340     Ni( 1.00)
     Pd               10.00   106.42000     Pd( 1.00)
     H                 1.00     1.00794     H ( 1.00)

     Starting magnetic structure 
     atomic species   magnetization
     Ni              0.650
     Pd              0.100
     H               0.000

     No symmetry found



   Cartesian axes

     site n.     atom                  positions (alat units)
         1        Ni     tau(   1) = (   1.0000000   0.5773503   2.0687584  )
         2        Pd     tau(   2) = (   0.5000000   0.5773500   2.0687727  )
         3        Pd     tau(   3) = (   0.7499998   0.1443377   2.0687727  )
         4        Pd     tau(   4) = (   0.2500002   0.1443377   2.0687727  )
         5        Ni     tau(   5) = (   0.5000000   0.2886751   2.4770066  )
         6        Pd     tau(   6) = (   0.7499998   0.7216879   2.4770210  )
         7        Pd     tau(   7) = (   1.0000000   0.2886749   2.4770210  )
         8        Pd     tau(   8) = (   1.2500002   0.7216879   2.4770210  )
         9        Ni     tau(   9) = (  -0.0005649  -0.0003261   2.8837020  )
        10        Pd     tau(  10) = (   1.0008835   0.8664334   2.8838806  )
        11        Pd     tau(  11) = (   0.7507157   0.4334259   2.8865074  )
        12        Pd     tau(  12) = (   1.2507951   0.4335738   2.8838806  )
        13        Ni     tau(  13) = (   0.9990619   0.5768087   3.2943777  )
        14        Pd     tau(  14) = (   0.7472148   0.1434817   3.2953976  )
        15        Pd     tau(  15) = (   0.4978662   0.5753662   3.2953976  )
        16        Pd     tau(  16) = (   0.2467710   0.1424733   3.2874999  )
        17        Ni     tau(  17) = (   0.4996495   0.2884728   3.7034729  )
        18        Pd     tau(  18) = (   0.7524027   0.7222612   3.7003645  )
        19        Pd     tau(  19) = (   1.0016979   0.2904693   3.7003645  )
        20        Pd     tau(  20) = (   1.2500664   0.7217262   3.7022258  )
        21        Ni     tau(  21) = (   0.0041424   0.0023917   4.0950302  )
        22        Pd     tau(  22) = (   1.0037316   0.8712362   4.1172770  )
        23        Pd     tau(  23) = (   0.7537282   0.4351652   4.1193379  )
        24        Pd     tau(  24) = (   1.2563785   0.4336390   4.1172770  )
        25        H      tau(  25) = (   0.7480776   0.4319029   4.4118337  )

     --------------------------------------------
     DFT-D3 Dispersion Correction (3-body terms):
     --------------------------------------------
       Reference C6 values for interpolation: 

         atom   Coordination number   C6
         H          0.912             6.05
         H          0.000            15.18
         Ni         0.000          1149.49
         Ni         1.794           356.66
         Ni         6.546           257.56
         Ni         6.292           283.75
         Pd         0.000          1217.01
         Pd         1.863           573.90
         Pd         5.710           531.75

       Values used:

         atom   Coordination number  R0_AB[au]  C6      C8
         Ni         5.893            3.162    276.72  23187.45
         Pd         6.810            3.168    531.75  48720.73
         Pd         6.810            3.168    531.75  48720.73
         Pd         6.810            3.168    531.75  48720.73
         Ni         7.884            3.162    258.75  21681.54
         Pd         9.134            3.168    531.75  48720.73
         Pd         9.134            3.168    531.75  48720.73
         Pd         9.154            3.168    531.75  48720.73
         Ni         7.893            3.162    258.73  21679.85
         Pd         9.150            3.168    531.75  48720.73
         Pd         9.117            3.168    531.75  48720.73
         Pd         9.150            3.168    531.75  48720.73
         Ni         7.900            3.162    258.72  21678.66
         Pd         9.113            3.168    531.75  48720.73
         Pd         9.113            3.168    531.75  48720.73
         Pd         9.110            3.168    531.75  48720.73
         Ni         7.740            3.162    259.13  21713.53
         Pd         9.108            3.168    531.75  48720.73
         Pd         9.108            3.168    531.75  48720.73
         Pd         9.140            3.168    531.75  48720.73
         Ni         6.113            3.162    274.21  22976.47
         Pd         6.698            3.168    531.75  48720.73
         Pd         7.588            3.168    531.75  48720.73
         Pd         6.698            3.168    531.75  48720.73
         H          0.972            2.062      6.21     75.06

         Molecular C6 ( Ry / a.u.^6 ) =    265215.47


     number of k points=   400  Marzari-Vanderbilt smearing, width (Ry)=  0.0147

     Number of k-points >= 100: set verbosity='high' to print them.

     Dense  grid:   963739 G-vectors     FFT dimensions: (  72,  72, 450)

     Smooth grid:   340921 G-vectors     FFT dimensions: (  50,  50, 320)

     Estimated max dynamical RAM per process >     160.81 MB

     Estimated total dynamical RAM >      10.05 GB
 ----2D----2D----2D----2D----2D----2D----2D----2D----2D----2D----2D----2D
  The code is running with the 2D cutoff
  Please refer to:
  Sohier, T., Calandra, M., & Mauri, F. (2017), 
  Density functional perturbation theory for gated two-dimensional heterostructu
 res:
  Theoretical developments and application to flexural phonons in graphene.
  Physical Review B, 96(7), 75448. https://doi.org/10.1103/PhysRevB.96.075448
 ----2D----2D----2D----2D----2D----2D----2D----2D----2D----2D----2D----2D

     Check: negative core charge=   -0.000002
     Generating pointlists ...
     new r_m :   0.2016 (alat units)  2.0253 (a.u.) for type    1
     new r_m :   0.1207 (alat units)  1.2126 (a.u.) for type    2
     new r_m :   0.1207 (alat units)  1.2126 (a.u.) for type    3

     The potential is recalculated from file :
     /tmpu/isholek_g/isholek/MIGUEL/QE/Hydrogen/111_2x2/SAVE/Ni1Pd3_111-T1.save/charge-density


     negative rho (up, down):  1.545E-04 1.184E-04
     Starting wfcs from file
     Checking if some PAW data can be deallocated... 

     Band Structure Calculation
     CG style diagonalization
     c_bands:  2 eigenvalues not converged
     c_bands:  5 eigenvalues not converged
     c_bands:  4 eigenvalues not converged
     c_bands:  2 eigenvalues not converged
     c_bands:  2 eigenvalues not converged
     c_bands:  3 eigenvalues not converged
     c_bands:  2 eigenvalues not converged
     c_bands:  1 eigenvalues not converged
     c_bands:  5 eigenvalues not converged
     c_bands:  4 eigenvalues not converged
     c_bands:  2 eigenvalues not converged
     c_bands:  1 eigenvalues not converged
     c_bands:  2 eigenvalues not converged
     c_bands:  4 eigenvalues not converged
     c_bands:  4 eigenvalues not converged
     c_bands:  3 eigenvalues not converged
     c_bands:  5 eigenvalues not converged
     c_bands:  5 eigenvalues not converged
     c_bands:  9 eigenvalues not converged
     c_bands: 13 eigenvalues not converged
     c_bands: 13 eigenvalues not converged
     c_bands: 10 eigenvalues not converged
     c_bands:  8 eigenvalues not converged
     c_bands:  6 eigenvalues not converged
     c_bands:  6 eigenvalues not converged
     c_bands:  7 eigenvalues not converged
     c_bands:  5 eigenvalues not converged
     c_bands:  4 eigenvalues not converged
     c_bands:  4 eigenvalues not converged
     c_bands:  3 eigenvalues not converged
     c_bands:  2 eigenvalues not converged
     c_bands:  2 eigenvalues not converged
     c_bands:  3 eigenvalues not converged
     c_bands:  3 eigenvalues not converged
     c_bands:  4 eigenvalues not converged
     c_bands:  5 eigenvalues not converged
     c_bands:  6 eigenvalues not converged
     c_bands:  5 eigenvalues not converged
     c_bands:  7 eigenvalues not converged
     c_bands:  9 eigenvalues not converged
     c_bands:  9 eigenvalues not converged
     c_bands: 11 eigenvalues not converged
     c_bands:  8 eigenvalues not converged
     c_bands:  6 eigenvalues not converged
     c_bands:  5 eigenvalues not converged
     c_bands:  6 eigenvalues not converged
     c_bands:  5 eigenvalues not converged
     c_bands:  6 eigenvalues not converged
     c_bands:  5 eigenvalues not converged
     c_bands:  4 eigenvalues not converged
     c_bands:  4 eigenvalues not converged
     c_bands:  4 eigenvalues not converged
     c_bands:  4 eigenvalues not converged
     c_bands:  5 eigenvalues not converged
     c_bands:  4 eigenvalues not converged
     c_bands:  5 eigenvalues not converged
     c_bands:  5 eigenvalues not converged
     c_bands:  7 eigenvalues not converged
     c_bands:  7 eigenvalues not converged
     c_bands:  8 eigenvalues not converged
     c_bands:  5 eigenvalues not converged
     c_bands:  6 eigenvalues not converged
     c_bands:  8 eigenvalues not converged
     c_bands:  7 eigenvalues not converged
     c_bands:  5 eigenvalues not converged
     c_bands:  4 eigenvalues not converged
     c_bands:  5 eigenvalues not converged
     c_bands:  5 eigenvalues not converged
     c_bands:  5 eigenvalues not converged
     c_bands:  5 eigenvalues not converged
     c_bands:  6 eigenvalues not converged
     c_bands:  7 eigenvalues not converged
     c_bands:  3 eigenvalues not converged
     c_bands:  4 eigenvalues not converged
     c_bands:  4 eigenvalues not converged
     c_bands:  6 eigenvalues not converged
     c_bands:  6 eigenvalues not converged
     c_bands:  3 eigenvalues not converged
     c_bands:  2 eigenvalues not converged
     c_bands:  3 eigenvalues not converged
     c_bands:  3 eigenvalues not converged
     c_bands:  3 eigenvalues not converged
     c_bands:  2 eigenvalues not converged
     c_bands:  3 eigenvalues not converged
     c_bands:  4 eigenvalues not converged
     c_bands:  3 eigenvalues not converged
     c_bands:  4 eigenvalues not converged
     c_bands:  4 eigenvalues not converged
     c_bands:  8 eigenvalues not converged
     c_bands:  9 eigenvalues not converged
     c_bands:  6 eigenvalues not converged
     c_bands:  5 eigenvalues not converged
     c_bands:  6 eigenvalues not converged
     c_bands:  6 eigenvalues not converged
     c_bands:  5 eigenvalues not converged
     c_bands:  8 eigenvalues not converged
     c_bands:  6 eigenvalues not converged
     c_bands:  6 eigenvalues not converged
     c_bands:  5 eigenvalues not converged
     c_bands:  4 eigenvalues not converged

     ethr =  1.00E-13,  avg # of iterations = 81.4

     total cpu time spent up to now is    90259.8 secs

     End of band structure calculation

     Number of k-points >= 100: set verbosity='high' to print the bands.

     the Fermi energy is    -5.1808 ev
     (compare with:    -5.1810 eV, computed in scf)

     Writing all to output data dir /tmpu/isholek_g/isholek/MIGUEL/QE/Hydrogen/111_2x2/SAVE/Ni1Pd3_111-T1.save/ :
     XML data file, pseudopotentials, collected wavefunctions
 
     init_run     :     27.98s CPU     33.73s WALL (       1 calls)
     electrons    :  86752.70s CPU  90221.37s WALL (       1 calls)

     Called by init_run:
     wfcinit      :      9.78s CPU     14.52s WALL (       1 calls)
     potinit      :      1.20s CPU      1.64s WALL (       1 calls)
     hinit0       :      0.83s CPU      0.85s WALL (       1 calls)

     Called by electrons:
     c_bands      :  86752.58s CPU  90221.14s WALL (       1 calls)
     v_of_rho     :      0.61s CPU      0.80s WALL (       1 calls)
     newd         :      0.18s CPU      0.22s WALL (       1 calls)
     PAW_pot      :      0.20s CPU      0.28s WALL (       1 calls)

     Called by c_bands:
     init_us_2    :      1.79s CPU      2.20s WALL (     100 calls)
     init_us_2:cp :      1.79s CPU      2.19s WALL (     100 calls)
     ccgdiagg     :  74599.41s CPU  77875.35s WALL (     600 calls)
     wfcrot       :    854.04s CPU    901.71s WALL (     500 calls)

     Called by *cgdiagg:
     h_psi        :  32339.29s CPU  33795.22s WALL ( 1154973 calls)
     s_psi        :  19462.53s CPU  20725.32s WALL ( 2309446 calls)

     Called by h_psi:
     h_psi:calbec :  14223.28s CPU  15051.25s WALL ( 1154973 calls)
     vloc_psi     :   7771.49s CPU   8161.21s WALL ( 1154973 calls)
     add_vuspsi   :  10289.81s CPU  10527.50s WALL ( 1154973 calls)
     hs_1psi      :  41254.28s CPU  43341.69s WALL ( 1154473 calls)
     s_1psi       :  22090.07s CPU  23032.54s WALL ( 1154473 calls)

     General routines
     calbec       :  26382.30s CPU  27566.27s WALL ( 2309446 calls)
     fft          :      0.43s CPU      0.54s WALL (      23 calls)
     ffts         :      0.02s CPU      0.02s WALL (       2 calls)
     fftw         :   4724.92s CPU   4964.84s WALL ( 2453946 calls)
     interpolate  :      0.07s CPU      0.07s WALL (       2 calls)
     davcio       :      0.05s CPU      6.66s WALL (     400 calls)
 
     Parallel routines
 
     PWSCF        :   1d 0h 6m CPU   1d 1h 4m WALL

 
   This run was terminated on:  16:30:24   2May2026            

=------------------------------------------------------------------------------=
   JOB DONE.
=------------------------------------------------------------------------------=
