
     Program PWSCF v.7.3 starts on  1May2026 at  4:41:17 

     This program is part of the open-source Quantum ESPRESSO suite
     for quantum simulation of materials; please cite
         "P. Giannozzi et al., J. Phys.:Condens. Matter 21 395502 (2009);
         "P. Giannozzi et al., J. Phys.:Condens. Matter 29 465901 (2017);
         "P. Giannozzi et al., J. Chem. Phys. 152 154105 (2020);
          URL http://www.quantum-espresso.org", 
     in publications or presentations arising from this work. More details at
     http://www.quantum-espresso.org/quote

     Parallel version (MPI), running on   128 processors

     MPI processes distributed on     8 nodes
     51843 MiB available memory on the printing compute node when the environment starts
 
     Reading input from /tmpu/isholek_g/isholek/MIGUEL/QE/Hydrogen/111_2x2/NSCF/Ni2Pd2_111-T1-NSCF.in

     Current dimensions of program PWSCF are:
     Max number of different atomic species (ntypx) = 10
     Max number of k-points (npk) =  40000
     Max angular momentum in pseudopotentials (lmaxx) =  4
     file Ni.upf: wavefunction(s)  4S 3D renormalized
     file Pd.upf: wavefunction(s)  5S 4D renormalized
     file H.upf: wavefunction(s)  1S renormalized

     IMPORTANT: XC functional enforced from input :
     Exchange-correlation= PBE
                           (   1   4   3   4   0   0   0)
     Any further DFT definition will be discarded
     Please, verify this is what you really want


     Atomic positions and unit cell read from directory:
     /tmpu/isholek_g/isholek/MIGUEL/QE/Hydrogen/111_2x2/SAVE/Ni2Pd2_111-T1.save/
 
 
     K-points division:     npool     =       8
     R & G space division:  proc/nbgrp/npool/nimage =      16
     Subspace diagonalization in iterative solution of the eigenvalue problem:
     one sub-group per band group will be used
     scalapack distributed-memory algorithm (size of sub-group:  2*  2 procs)

 
     Parallelization info
     --------------------
     sticks:   dense  smooth     PW     G-vecs:    dense   smooth      PW
     Min         197      98     28                56881    20094    3146
     Max         198      99     29                56920    20125    3175
     Sum        3165    1581    455               910393   321727   50521
 
     Using Slab Decomposition
 

     Title: 
     Ni2Pd2_111-T1-NSCF                                                         


     bravais-lattice index     =            0
     lattice parameter (alat)  =       9.7088  a.u.
     unit-cell volume          =    5128.0588 (a.u.)^3
     number of atoms/cell      =           25
     number of atomic types    =            3
     number of electrons       =       241.00
     number of Kohn-Sham states=          145
     kinetic-energy cutoff     =      60.0000  Ry
     charge density cutoff     =     480.0000  Ry
     Exchange-correlation= PBE
                           (   1   4   3   4   0   0   0)

     celldm(1)=   9.708762  celldm(2)=   0.000000  celldm(3)=   0.000000
     celldm(4)=   0.000000  celldm(5)=   0.000000  celldm(6)=   0.000000

     crystal axes: (cart. coord. in units of alat)
               a(1) = (   1.000000   0.000000   0.000000 )  
               a(2) = (   0.531889   0.883670   0.000000 )  
               a(3) = (   0.000000   0.000000   6.341200 )  

     reciprocal axes: (cart. coord. in units 2 pi/alat)
               b(1) = (  1.000000 -0.601910  0.000000 )  
               b(2) = (  0.000000  1.131644  0.000000 )  
               b(3) = (  0.000000  0.000000  0.157699 )  


     PseudoPot. # 1 for Ni read from file:
     /tmpu/isholek_g/isholek/MIGUEL/PP/PAW/Ni.upf
     MD5 check sum: d88365a95a5e142bd87181c2c8b16588
     Pseudo is Projector augmented-wave + core cor, Zval = 10.0
     Generated using "atomic" code by A. Dal Corso  v.5.0.2 svn rev. 9415
     Shape of augmentation charge: PSQ
     Using radial grid of 1195 points,  6 beta functions with: 
                l(1) =   0
                l(2) =   0
                l(3) =   1
                l(4) =   1
                l(5) =   2
                l(6) =   2
     Q(r) pseudized with 0 coefficients 


     PseudoPot. # 2 for Pd read from file:
     /tmpu/isholek_g/isholek/MIGUEL/PP/PAW/Pd.upf
     MD5 check sum: e9d6f14fd83b79f8105499163af174c9
     Pseudo is Projector augmented-wave + core cor, Zval = 10.0
     Generated using "atomic" code by A. Dal Corso  v.5.0.2 svn rev. 9415
     Shape of augmentation charge: PSQ
     Using radial grid of 1235 points,  6 beta functions with: 
                l(1) =   0
                l(2) =   0
                l(3) =   1
                l(4) =   1
                l(5) =   2
                l(6) =   2
     Q(r) pseudized with 0 coefficients 


     PseudoPot. # 3 for H  read from file:
     /tmpu/isholek_g/isholek/MIGUEL/PP/PAW/H.upf
     MD5 check sum: 4cbe42a24e15140179a93d5bf84f2220
     Pseudo is Projector augmented-wave, Zval =  1.0
     Generated using "atomic" code by A. Dal Corso  v.5.0.2 svn rev. 9415
     Shape of augmentation charge: PSQ
     Using radial grid of  929 points,  2 beta functions with: 
                l(1) =   0
                l(2) =   0
     Q(r) pseudized with 0 coefficients 


     atomic species   valence    mass     pseudopotential
     Ni               10.00    58.69340     Ni( 1.00)
     Pd               10.00   106.42000     Pd( 1.00)
     H                 1.00     1.00794     H ( 1.00)

     Starting magnetic structure 
     atomic species   magnetization
     Ni              0.650
     Pd              0.100
     H               0.000

     No symmetry found



   Cartesian axes

     site n.     atom                  positions (alat units)
         1        Ni     tau(   1) = (   0.0000000   0.0000000   2.1410544  )
         2        Pd     tau(   2) = (   0.7659447   0.4418349   2.1410544  )
         3        Pd     tau(   3) = (   0.5000000   0.0000000   2.1410544  )
         4        Ni     tau(   4) = (   0.2659447   0.4418349   2.1410544  )
         5        Pd     tau(   5) = (   0.2340553   0.1600746   2.5528726  )
         6        Pd     tau(   6) = (   0.5000000   0.6019096   2.5528726  )
         7        Ni     tau(   7) = (   0.7340553   0.1600746   2.5528726  )
         8        Ni     tau(   8) = (   1.0000000   0.6019096   2.5528726  )
         9        Ni     tau(   9) = (   0.4664923   0.3211234   2.9662284  )
        10        Ni     tau(  10) = (   0.7325704   0.7628780   2.9667923  )
        11        Pd     tau(  11) = (   0.9654052   0.3215366   2.9615874  )
        12        Pd     tau(  12) = (   1.2315630   0.7637255   2.9615874  )
        13        Ni     tau(  13) = (   0.9398810   0.0361862   3.3712972  )
        14        Pd     tau(  14) = (   0.7070565   0.4776725   3.3816061  )
        15        Pd     tau(  15) = (   0.4407652   0.0352618   3.3816061  )
        16        Ni     tau(  16) = (   1.2069903   0.4773201   3.3659778  )
        17        Ni     tau(  17) = (   0.9316225   0.6430666   3.7954377  )
        18        Pd     tau(  18) = (   0.1617691   0.2041838   3.7817480  )
        19        Pd     tau(  19) = (   0.4271841   0.6451387   3.7817480  )
        20        Ni     tau(  20) = (   0.6650897   0.2015857   3.7962030  )
        21        Pd     tau(  21) = (   0.9026439   0.3601683   4.2117407  )
        22        Ni     tau(  22) = (   0.6719896   0.7993421   4.1876313  )
        23        Ni     tau(  23) = (   0.4069025   0.3569910   4.1875421  )
        24        Pd     tau(  24) = (   1.1680460   0.8011019   4.2117407  )
        25        H      tau(  25) = (   0.6734731   0.7984492   4.4724809  )

     --------------------------------------------
     DFT-D3 Dispersion Correction (3-body terms):
     --------------------------------------------
       Reference C6 values for interpolation: 

         atom   Coordination number   C6
         H          0.912             6.05
         H          0.000            15.18
         Ni         0.000          1149.49
         Ni         1.794           356.66
         Ni         6.546           257.56
         Ni         6.292           283.75
         Pd         0.000          1217.01
         Pd         1.863           573.90
         Pd         5.710           531.75

       Values used:

         atom   Coordination number  R0_AB[au]  C6      C8
         Ni         6.134            3.162    273.94  22954.56
         Pd         7.162            3.168    531.75  48720.73
         Pd         7.162            3.168    531.75  48720.73
         Ni         6.134            3.162    273.94  22954.55
         Pd         9.611            3.168    531.75  48720.73
         Pd         9.611            3.168    531.75  48720.73
         Ni         8.224            3.162    258.17  21633.06
         Ni         8.219            3.162    258.18  21633.56
         Ni         8.232            3.162    258.16  21632.25
         Ni         8.199            3.162    258.20  21635.70
         Pd         9.679            3.168    531.75  48720.73
         Pd         9.679            3.168    531.75  48720.73
         Ni         8.209            3.162    258.19  21634.64
         Pd         9.575            3.168    531.75  48720.73
         Pd         9.575            3.168    531.75  48720.73
         Ni         8.219            3.162    258.18  21633.57
         Ni         8.165            3.162    258.25  21639.37
         Pd         9.600            3.168    531.75  48720.73
         Pd         9.600            3.168    531.75  48720.73
         Ni         8.193            3.162    258.21  21636.27
         Pd         7.018            3.168    531.75  48720.73
         Ni         7.258            3.162    261.36  21900.43
         Ni         6.320            3.162    271.54  22753.23
         Pd         7.018            3.168    531.75  48720.73
         H          0.976            2.062      6.21     75.02

         Molecular C6 ( Ry / a.u.^6 ) =    224068.25


     number of k points=   400  Marzari-Vanderbilt smearing, width (Ry)=  0.0147

     Number of k-points >= 100: set verbosity='high' to print them.

     Dense  grid:   910393 G-vectors     FFT dimensions: (  72,  72, 432)

     Smooth grid:   321727 G-vectors     FFT dimensions: (  48,  50, 320)

     Estimated max dynamical RAM per process >      90.31 MB

     Estimated total dynamical RAM >      11.29 GB
 ----2D----2D----2D----2D----2D----2D----2D----2D----2D----2D----2D----2D
  The code is running with the 2D cutoff
  Please refer to:
  Sohier, T., Calandra, M., & Mauri, F. (2017), 
  Density functional perturbation theory for gated two-dimensional heterostructu
 res:
  Theoretical developments and application to flexural phonons in graphene.
  Physical Review B, 96(7), 75448. https://doi.org/10.1103/PhysRevB.96.075448
 ----2D----2D----2D----2D----2D----2D----2D----2D----2D----2D----2D----2D

     Check: negative core charge=   -0.000002
     Generating pointlists ...
     new r_m :   0.1175 (alat units)  1.1408 (a.u.) for type    1
     new r_m :   0.2045 (alat units)  1.9854 (a.u.) for type    2
     new r_m :   0.1175 (alat units)  1.1408 (a.u.) for type    3

     The potential is recalculated from file :
     /tmpu/isholek_g/isholek/MIGUEL/QE/Hydrogen/111_2x2/SAVE/Ni2Pd2_111-T1.save/charge-density


     negative rho (up, down):  2.067E-04 1.615E-04
     Starting wfcs are  217 randomized atomic wfcs
     Checking if some PAW data can be deallocated... 

     Band Structure Calculation
     Davidson diagonalization with overlap
     c_bands:  1 eigenvalues not converged
     c_bands:  1 eigenvalues not converged
     c_bands:  1 eigenvalues not converged
     c_bands:  1 eigenvalues not converged
     c_bands:  1 eigenvalues not converged
     c_bands:  1 eigenvalues not converged
     c_bands:  2 eigenvalues not converged
     c_bands:  1 eigenvalues not converged
     c_bands:  1 eigenvalues not converged
     c_bands:  2 eigenvalues not converged
     c_bands:  1 eigenvalues not converged
     c_bands:  1 eigenvalues not converged
     c_bands:  1 eigenvalues not converged
     c_bands:  1 eigenvalues not converged
     c_bands:  1 eigenvalues not converged
     c_bands:  1 eigenvalues not converged
     c_bands:  2 eigenvalues not converged
     c_bands:  1 eigenvalues not converged
     c_bands:  1 eigenvalues not converged

     ethr =  1.00E-13,  avg # of iterations =106.6

     total cpu time spent up to now is     9566.0 secs

     End of band structure calculation

     Number of k-points >= 100: set verbosity='high' to print the bands.

     the Fermi energy is    -5.1319 ev
     (compare with:    -5.1317 eV, computed in scf)

     Writing all to output data dir /tmpu/isholek_g/isholek/MIGUEL/QE/Hydrogen/111_2x2/SAVE/Ni2Pd2_111-T1.save/ :
     XML data file, pseudopotentials, collected wavefunctions
 
     init_run     :      1.80s CPU      2.11s WALL (       1 calls)
     electrons    :   9007.01s CPU   9558.80s WALL (       1 calls)

     Called by init_run:
     wfcinit      :      0.00s CPU      0.00s WALL (       1 calls)
     potinit      :      0.87s CPU      1.11s WALL (       1 calls)
     hinit0       :      0.53s CPU      0.54s WALL (       1 calls)

     Called by electrons:
     c_bands      :   9006.92s CPU   9558.60s WALL (       1 calls)
     v_of_rho     :      0.35s CPU      0.41s WALL (       1 calls)
     newd         :      0.10s CPU      0.11s WALL (       1 calls)
     PAW_pot      :      0.33s CPU      0.33s WALL (       1 calls)

     Called by c_bands:
     init_us_2    :      0.88s CPU      1.06s WALL (     100 calls)
     init_us_2:cp :      0.88s CPU      1.04s WALL (     100 calls)
     cegterg      :   8855.47s CPU   9392.76s WALL (     543 calls)

     Called by *egterg:
     cdiaghg      :    442.83s CPU    468.26s WALL (   10178 calls)
     h_psi        :   4565.36s CPU   4936.19s WALL (   10721 calls)
     s_psi        :    441.48s CPU    463.10s WALL (   10721 calls)
     g_psi        :     24.88s CPU     26.05s WALL (   10078 calls)

     Called by h_psi:
     h_psi:calbec :    776.43s CPU    810.87s WALL (   10721 calls)
     vloc_psi     :   3309.57s CPU   3616.80s WALL (   10721 calls)
     add_vuspsi   :    450.70s CPU    477.30s WALL (   10721 calls)

     General routines
     calbec       :    776.34s CPU    810.80s WALL (   10721 calls)
     fft          :      0.26s CPU      0.27s WALL (      23 calls)
     ffts         :      0.01s CPU      0.01s WALL (       2 calls)
     fftw         :   2723.62s CPU   2935.27s WALL ( 1968496 calls)
     interpolate  :      0.02s CPU      0.03s WALL (       2 calls)
     davcio       :      0.02s CPU      1.34s WALL (     200 calls)
 
     Parallel routines
 
     PWSCF        :      2h30m CPU      2h40m WALL

 
   This run was terminated on:   7:21:28   1May2026            

=------------------------------------------------------------------------------=
   JOB DONE.
=------------------------------------------------------------------------------=
