
     Program PWSCF v.7.3 starts on 10Apr2026 at 22:22:22 

     This program is part of the open-source Quantum ESPRESSO suite
     for quantum simulation of materials; please cite
         "P. Giannozzi et al., J. Phys.:Condens. Matter 21 395502 (2009);
         "P. Giannozzi et al., J. Phys.:Condens. Matter 29 465901 (2017);
         "P. Giannozzi et al., J. Chem. Phys. 152 154105 (2020);
          URL http://www.quantum-espresso.org", 
     in publications or presentations arising from this work. More details at
     http://www.quantum-espresso.org/quote

     Parallel version (MPI), running on    64 processors

     MPI processes distributed on     4 nodes
     44309 MiB available memory on the printing compute node when the environment starts
 
     Reading input from /tmpu/isholek_g/isholek/MIGUEL/QE/Hydrogen/111_2x2/NSCF/Ni2Pd2_111-B1-NSCF.in

     Current dimensions of program PWSCF are:
     Max number of different atomic species (ntypx) = 10
     Max number of k-points (npk) =  40000
     Max angular momentum in pseudopotentials (lmaxx) =  4
     file Ni.upf: wavefunction(s)  4S 3D renormalized
     file Pd.upf: wavefunction(s)  5S 4D renormalized
     file H.upf: wavefunction(s)  1S renormalized

     IMPORTANT: XC functional enforced from input :
     Exchange-correlation= PBE
                           (   1   4   3   4   0   0   0)
     Any further DFT definition will be discarded
     Please, verify this is what you really want


     Atomic positions and unit cell read from directory:
     /tmpu/isholek_g/isholek/MIGUEL/QE/Hydrogen/111_2x2/SAVE/Ni2Pd2_111-B1.save/
 
 
     K-points division:     npool     =       8
     R & G space division:  proc/nbgrp/npool/nimage =       8
     Subspace diagonalization in iterative solution of the eigenvalue problem:
     one sub-group per band group will be used
     scalapack distributed-memory algorithm (size of sub-group:  2*  2 procs)

 
     Parallelization info
     --------------------
     sticks:   dense  smooth     PW     G-vecs:    dense   smooth      PW
     Min         395     197     56               113792    40212    6294
     Max         396     199     57               113804    40221    6321
     Sum        3165    1581    455               910393   321727   50521
 
     Using Slab Decomposition
 

     Title: 
     Ni2Pd2_111-B1-NSCF                                                         


     bravais-lattice index     =            0
     lattice parameter (alat)  =       9.7088  a.u.
     unit-cell volume          =    5128.0588 (a.u.)^3
     number of atoms/cell      =           25
     number of atomic types    =            3
     number of electrons       =       241.00
     number of Kohn-Sham states=          145
     kinetic-energy cutoff     =      60.0000  Ry
     charge density cutoff     =     480.0000  Ry
     Exchange-correlation= PBE
                           (   1   4   3   4   0   0   0)

     celldm(1)=   9.708762  celldm(2)=   0.000000  celldm(3)=   0.000000
     celldm(4)=   0.000000  celldm(5)=   0.000000  celldm(6)=   0.000000

     crystal axes: (cart. coord. in units of alat)
               a(1) = (   1.000000   0.000000   0.000000 )  
               a(2) = (   0.531889   0.883670   0.000000 )  
               a(3) = (   0.000000   0.000000   6.341200 )  

     reciprocal axes: (cart. coord. in units 2 pi/alat)
               b(1) = (  1.000000 -0.601910  0.000000 )  
               b(2) = (  0.000000  1.131644  0.000000 )  
               b(3) = (  0.000000  0.000000  0.157699 )  


     PseudoPot. # 1 for Ni read from file:
     /tmpu/isholek_g/isholek/MIGUEL/PP/PAW/Ni.upf
     MD5 check sum: d88365a95a5e142bd87181c2c8b16588
     Pseudo is Projector augmented-wave + core cor, Zval = 10.0
     Generated using "atomic" code by A. Dal Corso  v.5.0.2 svn rev. 9415
     Shape of augmentation charge: PSQ
     Using radial grid of 1195 points,  6 beta functions with: 
                l(1) =   0
                l(2) =   0
                l(3) =   1
                l(4) =   1
                l(5) =   2
                l(6) =   2
     Q(r) pseudized with 0 coefficients 


     PseudoPot. # 2 for Pd read from file:
     /tmpu/isholek_g/isholek/MIGUEL/PP/PAW/Pd.upf
     MD5 check sum: e9d6f14fd83b79f8105499163af174c9
     Pseudo is Projector augmented-wave + core cor, Zval = 10.0
     Generated using "atomic" code by A. Dal Corso  v.5.0.2 svn rev. 9415
     Shape of augmentation charge: PSQ
     Using radial grid of 1235 points,  6 beta functions with: 
                l(1) =   0
                l(2) =   0
                l(3) =   1
                l(4) =   1
                l(5) =   2
                l(6) =   2
     Q(r) pseudized with 0 coefficients 


     PseudoPot. # 3 for H  read from file:
     /tmpu/isholek_g/isholek/MIGUEL/PP/PAW/H.upf
     MD5 check sum: 4cbe42a24e15140179a93d5bf84f2220
     Pseudo is Projector augmented-wave, Zval =  1.0
     Generated using "atomic" code by A. Dal Corso  v.5.0.2 svn rev. 9415
     Shape of augmentation charge: PSQ
     Using radial grid of  929 points,  2 beta functions with: 
                l(1) =   0
                l(2) =   0
     Q(r) pseudized with 0 coefficients 


     atomic species   valence    mass     pseudopotential
     Ni               10.00    58.69340     Ni( 1.00)
     Pd               10.00   106.42000     Pd( 1.00)
     H                 1.00     1.00794     H ( 1.00)

     Starting magnetic structure 
     atomic species   magnetization
     Ni              0.650
     Pd              0.100
     H               0.000

     No symmetry found



   Cartesian axes

     site n.     atom                  positions (alat units)
         1        Ni     tau(   1) = (   0.0000000   0.0000000   2.1410544  )
         2        Pd     tau(   2) = (   0.7659447   0.4418349   2.1410544  )
         3        Pd     tau(   3) = (   0.5000000   0.0000000   2.1410544  )
         4        Ni     tau(   4) = (   0.2659447   0.4418349   2.1410544  )
         5        Pd     tau(   5) = (   0.2340553   0.1600746   2.5528726  )
         6        Pd     tau(   6) = (   0.5000000   0.6019096   2.5528726  )
         7        Ni     tau(   7) = (   0.7340553   0.1600746   2.5528726  )
         8        Ni     tau(   8) = (   1.0000000   0.6019096   2.5528726  )
         9        Ni     tau(   9) = (   0.4668201   0.3211181   2.9652654  )
        10        Ni     tau(  10) = (   0.7325952   0.7626711   2.9652653  )
        11        Pd     tau(  11) = (   0.9662756   0.3212539   2.9621208  )
        12        Pd     tau(  12) = (   1.2319864   0.7632294   2.9619896  )
        13        Ni     tau(  13) = (   0.9376369   0.0360585   3.3708051  )
        14        Pd     tau(  14) = (   0.7055930   0.4781611   3.3790612  )
        15        Pd     tau(  15) = (   0.4378471   0.0374105   3.3789842  )
        16        Ni     tau(  16) = (   1.2048880   0.4800640   3.3708051  )
        17        Ni     tau(  17) = (   0.9324091   0.6445499   3.7923532  )
        18        Pd     tau(  18) = (   0.1612304   0.2039086   3.7827313  )
        19        Pd     tau(  19) = (   0.4301727   0.6439393   3.7823520  )
        20        Ni     tau(  20) = (   0.6647353   0.1998423   3.7923532  )
        21        Pd     tau(  21) = (   0.8989667   0.3617677   4.2080606  )
        22        Ni     tau(  22) = (   0.6725352   0.8045432   4.1908039  )
        23        Ni     tau(  23) = (   0.4017044   0.3545903   4.1908038  )
        24        Pd     tau(  24) = (   1.1673045   0.8021621   4.2093793  )
        25        H      tau(  25) = (   0.5405009   0.5775317   4.3745615  )

     --------------------------------------------
     DFT-D3 Dispersion Correction (3-body terms):
     --------------------------------------------
       Reference C6 values for interpolation: 

         atom   Coordination number   C6
         H          0.912             6.05
         H          0.000            15.18
         Ni         0.000          1149.49
         Ni         1.794           356.66
         Ni         6.546           257.56
         Ni         6.292           283.75
         Pd         0.000          1217.01
         Pd         1.863           573.90
         Pd         5.710           531.75

       Values used:

         atom   Coordination number  R0_AB[au]  C6      C8
         Ni         6.134            3.162    273.94  22954.53
         Pd         7.162            3.168    531.75  48720.73
         Pd         7.162            3.168    531.75  48720.73
         Ni         6.134            3.162    273.94  22954.53
         Pd         9.622            3.168    531.75  48720.73
         Pd         9.623            3.168    531.75  48720.73
         Ni         8.224            3.162    258.17  21633.07
         Ni         8.224            3.162    258.17  21633.07
         Ni         8.225            3.162    258.17  21633.01
         Ni         8.225            3.162    258.17  21633.01
         Pd         9.669            3.168    531.75  48720.73
         Pd         9.677            3.168    531.75  48720.73
         Ni         8.222            3.162    258.18  21633.23
         Pd         9.599            3.168    531.75  48720.73
         Pd         9.603            3.168    531.75  48720.73
         Ni         8.222            3.162    258.18  21633.23
         Ni         8.175            3.162    258.24  21638.29
         Pd         9.620            3.168    531.75  48720.73
         Pd         9.576            3.168    531.75  48720.73
         Ni         8.175            3.162    258.24  21638.29
         Pd         7.084            3.168    531.75  48720.73
         Ni         6.974            3.162    263.64  22091.44
         Ni         6.974            3.162    263.64  22091.44
         Pd         7.052            3.168    531.75  48720.73
         H          1.530            2.062      6.06     73.21

         Molecular C6 ( Ry / a.u.^6 ) =    223884.06


     number of k points=   400  Marzari-Vanderbilt smearing, width (Ry)=  0.0147

     Number of k-points >= 100: set verbosity='high' to print them.

     Dense  grid:   910393 G-vectors     FFT dimensions: (  72,  72, 432)

     Smooth grid:   321727 G-vectors     FFT dimensions: (  48,  50, 320)

     Estimated max dynamical RAM per process >     173.43 MB

     Estimated total dynamical RAM >      10.84 GB
 ----2D----2D----2D----2D----2D----2D----2D----2D----2D----2D----2D----2D
  The code is running with the 2D cutoff
  Please refer to:
  Sohier, T., Calandra, M., & Mauri, F. (2017), 
  Density functional perturbation theory for gated two-dimensional heterostructu
 res:
  Theoretical developments and application to flexural phonons in graphene.
  Physical Review B, 96(7), 75448. https://doi.org/10.1103/PhysRevB.96.075448
 ----2D----2D----2D----2D----2D----2D----2D----2D----2D----2D----2D----2D

     Check: negative core charge=   -0.000002
     Generating pointlists ...
     new r_m :   0.1322 (alat units)  1.2836 (a.u.) for type    1
     new r_m :   0.1858 (alat units)  1.8034 (a.u.) for type    2
     new r_m :   0.1322 (alat units)  1.2836 (a.u.) for type    3

     The potential is recalculated from file :
     /tmpu/isholek_g/isholek/MIGUEL/QE/Hydrogen/111_2x2/SAVE/Ni2Pd2_111-B1.save/charge-density


     negative rho (up, down):  2.072E-04 1.615E-04
     Starting wfcs are  217 randomized atomic wfcs
     Checking if some PAW data can be deallocated... 

     Band Structure Calculation
     Davidson diagonalization with overlap
     c_bands:  1 eigenvalues not converged
     c_bands:  1 eigenvalues not converged
     c_bands:  1 eigenvalues not converged
     c_bands:  1 eigenvalues not converged
     c_bands:  1 eigenvalues not converged
     c_bands:  1 eigenvalues not converged
     c_bands:  1 eigenvalues not converged
     c_bands:  1 eigenvalues not converged

     ethr =  1.00E-13,  avg # of iterations =102.9

     total cpu time spent up to now is    36918.2 secs

     End of band structure calculation

     Number of k-points >= 100: set verbosity='high' to print the bands.

     the Fermi energy is    -5.0894 ev
     (compare with:    -5.0892 eV, computed in scf)

     Writing all to output data dir /tmpu/isholek_g/isholek/MIGUEL/QE/Hydrogen/111_2x2/SAVE/Ni2Pd2_111-B1.save/ :
     XML data file, pseudopotentials, collected wavefunctions
 
     init_run     :      3.40s CPU      4.62s WALL (       1 calls)
     electrons    :  23441.20s CPU  36902.59s WALL (       1 calls)

     Called by init_run:
     wfcinit      :      0.00s CPU      0.02s WALL (       1 calls)
     potinit      :      1.61s CPU      2.40s WALL (       1 calls)
     hinit0       :      1.16s CPU      1.30s WALL (       1 calls)

     Called by electrons:
     c_bands      :  23441.08s CPU  36902.35s WALL (       1 calls)
     v_of_rho     :      0.99s CPU      1.21s WALL (       1 calls)
     newd         :      0.23s CPU      0.32s WALL (       1 calls)
     PAW_pot      :      0.30s CPU      0.62s WALL (       1 calls)

     Called by c_bands:
     init_us_2    :      1.61s CPU      2.59s WALL (     100 calls)
     init_us_2:cp :      1.61s CPU      2.59s WALL (     100 calls)
     cegterg      :  21135.78s CPU  32880.93s WALL (     519 calls)

     Called by *egterg:
     cdiaghg      :    793.26s CPU   1303.63s WALL (    9702 calls)
     h_psi        :  14464.26s CPU  22535.05s WALL (   10221 calls)
     s_psi        :    832.90s CPU   1370.12s WALL (   10221 calls)
     g_psi        :     49.12s CPU     88.19s WALL (    9602 calls)

     Called by h_psi:
     h_psi:calbec :   1189.47s CPU   1859.22s WALL (   10221 calls)
     vloc_psi     :  12377.70s CPU  19154.15s WALL (   10221 calls)
     add_vuspsi   :    867.87s CPU   1451.42s WALL (   10221 calls)

     General routines
     calbec       :   1189.37s CPU   1859.09s WALL (   10221 calls)
     fft          :      0.70s CPU      0.87s WALL (      23 calls)
     ffts         :      0.00s CPU      0.00s WALL (       2 calls)
     fftw         :  10797.90s CPU  16111.38s WALL ( 1947308 calls)
     interpolate  :      0.03s CPU      0.06s WALL (       2 calls)
     davcio       :      0.05s CPU      2.99s WALL (     200 calls)
 
     Parallel routines
 
     PWSCF        :      6h31m CPU     10h17m WALL

 
   This run was terminated on:   8:39:23  11Apr2026            

=------------------------------------------------------------------------------=
   JOB DONE.
=------------------------------------------------------------------------------=
