
     Program PWSCF v.7.3 starts on 23Apr2026 at  4:47:39 

     This program is part of the open-source Quantum ESPRESSO suite
     for quantum simulation of materials; please cite
         "P. Giannozzi et al., J. Phys.:Condens. Matter 21 395502 (2009);
         "P. Giannozzi et al., J. Phys.:Condens. Matter 29 465901 (2017);
         "P. Giannozzi et al., J. Chem. Phys. 152 154105 (2020);
          URL http://www.quantum-espresso.org", 
     in publications or presentations arising from this work. More details at
     http://www.quantum-espresso.org/quote

     Parallel version (MPI), running on    64 processors

     MPI processes distributed on     4 nodes
     44446 MiB available memory on the printing compute node when the environment starts
 
     Reading input from /tmpu/isholek_g/isholek/MIGUEL/QE/Hydrogen/111_2x2/NSCF/Ni3Pd1_111-B3-NSCF.in

     Current dimensions of program PWSCF are:
     Max number of different atomic species (ntypx) = 10
     Max number of k-points (npk) =  40000
     Max angular momentum in pseudopotentials (lmaxx) =  4
     file Ni.upf: wavefunction(s)  4S 3D renormalized
     file Pd.upf: wavefunction(s)  5S 4D renormalized
     file H.upf: wavefunction(s)  1S renormalized

     IMPORTANT: XC functional enforced from input :
     Exchange-correlation= PBE
                           (   1   4   3   4   0   0   0)
     Any further DFT definition will be discarded
     Please, verify this is what you really want


     Atomic positions and unit cell read from directory:
     /tmpu/isholek_g/isholek/MIGUEL/QE/Hydrogen/111_2x2/SAVE/Ni3Pd1_111-B3.save/
 
 
     K-points division:     npool     =       8
     R & G space division:  proc/nbgrp/npool/nimage =       8
     Subspace diagonalization in iterative solution of the eigenvalue problem:
     one sub-group per band group will be used
     scalapack distributed-memory algorithm (size of sub-group:  2*  2 procs)

 
     Parallelization info
     --------------------
     sticks:   dense  smooth     PW     G-vecs:    dense   smooth      PW
     Min         375     188     54               106317    37608    5930
     Max         376     189     55               106344    37623    5959
     Sum        3001    1507    433               850625   300931   47527
 
     Using Slab Decomposition
 

     Title: 
     Ni3Pd1_111-B3-NSCF                                                         


     bravais-lattice index     =            0
     lattice parameter (alat)  =       9.5206  a.u.
     unit-cell volume          =    4789.0025 (a.u.)^3
     number of atoms/cell      =           25
     number of atomic types    =            3
     number of electrons       =       241.00
     number of Kohn-Sham states=          145
     kinetic-energy cutoff     =      60.0000  Ry
     charge density cutoff     =     480.0000  Ry
     Exchange-correlation= PBE
                           (   1   4   3   4   0   0   0)

     celldm(1)=   9.520593  celldm(2)=   0.000000  celldm(3)=   0.000000
     celldm(4)=   0.000000  celldm(5)=   0.000000  celldm(6)=   0.000000

     crystal axes: (cart. coord. in units of alat)
               a(1) = (   1.000000   0.000000   0.000000 )  
               a(2) = (   0.500000   0.866025   0.000000 )  
               a(3) = (   0.000000   0.000000   6.408000 )  

     reciprocal axes: (cart. coord. in units 2 pi/alat)
               b(1) = (  1.000000 -0.577350  0.000000 )  
               b(2) = (  0.000000  1.154701  0.000000 )  
               b(3) = (  0.000000  0.000000  0.156055 )  


     PseudoPot. # 1 for Ni read from file:
     /tmpu/isholek_g/isholek/MIGUEL/PP/PAW/Ni.upf
     MD5 check sum: d88365a95a5e142bd87181c2c8b16588
     Pseudo is Projector augmented-wave + core cor, Zval = 10.0
     Generated using "atomic" code by A. Dal Corso  v.5.0.2 svn rev. 9415
     Shape of augmentation charge: PSQ
     Using radial grid of 1195 points,  6 beta functions with: 
                l(1) =   0
                l(2) =   0
                l(3) =   1
                l(4) =   1
                l(5) =   2
                l(6) =   2
     Q(r) pseudized with 0 coefficients 


     PseudoPot. # 2 for Pd read from file:
     /tmpu/isholek_g/isholek/MIGUEL/PP/PAW/Pd.upf
     MD5 check sum: e9d6f14fd83b79f8105499163af174c9
     Pseudo is Projector augmented-wave + core cor, Zval = 10.0
     Generated using "atomic" code by A. Dal Corso  v.5.0.2 svn rev. 9415
     Shape of augmentation charge: PSQ
     Using radial grid of 1235 points,  6 beta functions with: 
                l(1) =   0
                l(2) =   0
                l(3) =   1
                l(4) =   1
                l(5) =   2
                l(6) =   2
     Q(r) pseudized with 0 coefficients 


     PseudoPot. # 3 for H  read from file:
     /tmpu/isholek_g/isholek/MIGUEL/PP/PAW/H.upf
     MD5 check sum: 4cbe42a24e15140179a93d5bf84f2220
     Pseudo is Projector augmented-wave, Zval =  1.0
     Generated using "atomic" code by A. Dal Corso  v.5.0.2 svn rev. 9415
     Shape of augmentation charge: PSQ
     Using radial grid of  929 points,  2 beta functions with: 
                l(1) =   0
                l(2) =   0
     Q(r) pseudized with 0 coefficients 


     atomic species   valence    mass     pseudopotential
     Ni               10.00    58.69340     Ni( 1.00)
     Pd               10.00   106.42000     Pd( 1.00)
     H                 1.00     1.00794     H ( 1.00)

     Starting magnetic structure 
     atomic species   magnetization
     Ni              0.650
     Pd              0.100
     H               0.000

     No symmetry found



   Cartesian axes

     site n.     atom                  positions (alat units)
         1        Ni     tau(   1) = (   1.0000055   0.5773497   2.1833712  )
         2        Ni     tau(   2) = (   0.2499946   0.1443334   2.1833775  )
         3        Pd     tau(   3) = (   0.5000045   0.5773498   2.1833823  )
         4        Ni     tau(   4) = (   0.7499961   0.1443432   2.1833870  )
         5        Ni     tau(   5) = (   0.5000055   0.2886746   2.5916194  )
         6        Ni     tau(   6) = (   1.2499946   0.7216837   2.5916258  )
         7        Pd     tau(   7) = (   1.0000045   0.2886747   2.5916306  )
         8        Ni     tau(   8) = (   0.7499961   0.7216934   2.5916353  )
         9        Ni     tau(   9) = (   0.4999998   0.8656275   2.9991968  )
        10        Ni     tau(  10) = (   0.7496155   0.4329578   2.9992692  )
        11        Pd     tau(  11) = (   1.0000013   0.8656803   2.9977276  )
        12        Ni     tau(  12) = (   1.2503886   0.4329577   2.9992690  )
        13        Ni     tau(  13) = (   1.0000008   0.5773190   3.4074239  )
        14        Ni     tau(  14) = (   0.2505274   0.1442254   3.4055461  )
        15        Pd     tau(  15) = (   0.5000008   0.5775383   3.4094118  )
        16        Ni     tau(  16) = (   0.7494738   0.1442254   3.4055463  )
        17        Ni     tau(  17) = (   0.5000004   0.2855496   3.8148325  )
        18        Ni     tau(  18) = (   1.2464534   0.7229697   3.8149998  )
        19        Pd     tau(  19) = (   1.0000004   0.2875566   3.8139302  )
        20        Ni     tau(  20) = (   0.7535474   0.7229698   3.8149999  )
        21        Ni     tau(  21) = (   0.5000003   0.8581483   4.2170818  )
        22        Ni     tau(  22) = (   0.7479254   0.4358699   4.2183342  )
        23        Pd     tau(  23) = (   1.0000003   0.8668576   4.2381565  )
        24        Ni     tau(  24) = (   1.2520749   0.4358700   4.2183343  )
        25        H      tau(  25) = (   0.5000001   0.4364801   4.4258618  )

     --------------------------------------------
     DFT-D3 Dispersion Correction (3-body terms):
     --------------------------------------------
       Reference C6 values for interpolation: 

         atom   Coordination number   C6
         H          0.912             6.05
         H          0.000            15.18
         Ni         0.000          1149.49
         Ni         1.794           356.66
         Ni         6.546           257.56
         Ni         6.292           283.75
         Pd         0.000          1217.01
         Pd         1.863           573.90
         Pd         5.710           531.75

       Values used:

         atom   Coordination number  R0_AB[au]  C6      C8
         Ni         6.658            3.162    267.12  22382.76
         Ni         6.659            3.162    267.12  22382.60
         Pd         7.597            3.168    531.75  48720.73
         Ni         6.659            3.162    267.12  22382.40
         Ni         8.928            3.162    257.71  21594.45
         Ni         8.927            3.162    257.71  21594.46
         Pd        10.225            3.168    531.75  48720.73
         Ni         8.927            3.162    257.71  21594.46
         Ni         8.942            3.162    257.71  21594.10
         Ni         8.934            3.162    257.71  21594.30
         Pd        10.256            3.168    531.75  48720.73
         Ni         8.934            3.162    257.71  21594.30
         Ni         8.944            3.162    257.71  21594.04
         Ni         8.942            3.162    257.71  21594.09
         Pd        10.213            3.168    531.75  48720.73
         Ni         8.942            3.162    257.71  21594.09
         Ni         8.903            3.162    257.72  21595.08
         Ni         8.936            3.162    257.71  21594.24
         Pd        10.217            3.168    531.75  48720.73
         Ni         8.936            3.162    257.71  21594.24
         Ni         6.743            3.162    266.11  22297.91
         Ni         7.473            3.162    260.15  21798.87
         Pd         7.416            3.168    531.75  48720.73
         Ni         7.473            3.162    260.15  21798.87
         H          1.571            2.062      6.06     73.20

         Molecular C6 ( Ry / a.u.^6 ) =    185724.52


     number of k points=   400  Marzari-Vanderbilt smearing, width (Ry)=  0.0147

     Number of k-points >= 100: set verbosity='high' to print them.

     Dense  grid:   850625 G-vectors     FFT dimensions: (  72,  72, 432)

     Smooth grid:   300931 G-vectors     FFT dimensions: (  48,  48, 320)

     Estimated max dynamical RAM per process >     164.16 MB

     Estimated total dynamical RAM >      10.26 GB
 ----2D----2D----2D----2D----2D----2D----2D----2D----2D----2D----2D----2D
  The code is running with the 2D cutoff
  Please refer to:
  Sohier, T., Calandra, M., & Mauri, F. (2017), 
  Density functional perturbation theory for gated two-dimensional heterostructu
 res:
  Theoretical developments and application to flexural phonons in graphene.
  Physical Review B, 96(7), 75448. https://doi.org/10.1103/PhysRevB.96.075448
 ----2D----2D----2D----2D----2D----2D----2D----2D----2D----2D----2D----2D

     Check: negative core charge=   -0.000001
     Generating pointlists ...
     new r_m :   0.1334 (alat units)  1.2698 (a.u.) for type    1
     new r_m :   0.1957 (alat units)  1.8629 (a.u.) for type    2
     new r_m :   0.1334 (alat units)  1.2698 (a.u.) for type    3

     The potential is recalculated from file :
     /tmpu/isholek_g/isholek/MIGUEL/QE/Hydrogen/111_2x2/SAVE/Ni3Pd1_111-B3.save/charge-density


     negative rho (up, down):  2.461E-04 1.936E-04
     Starting wfcs are  217 randomized atomic wfcs
     Checking if some PAW data can be deallocated... 

     Band Structure Calculation
     Davidson diagonalization with overlap
     c_bands:  1 eigenvalues not converged
     c_bands:  1 eigenvalues not converged
     c_bands:  1 eigenvalues not converged
     c_bands:  1 eigenvalues not converged
     c_bands:  1 eigenvalues not converged
     c_bands:  1 eigenvalues not converged
     c_bands:  2 eigenvalues not converged
     c_bands:  1 eigenvalues not converged
     c_bands:  1 eigenvalues not converged
     c_bands:  1 eigenvalues not converged
     c_bands:  1 eigenvalues not converged
     c_bands:  1 eigenvalues not converged
     c_bands:  1 eigenvalues not converged
     c_bands:  1 eigenvalues not converged
     c_bands:  1 eigenvalues not converged
     c_bands:  1 eigenvalues not converged
     c_bands:  1 eigenvalues not converged
     c_bands:  1 eigenvalues not converged
     c_bands:  1 eigenvalues not converged
     c_bands:  1 eigenvalues not converged
     c_bands:  1 eigenvalues not converged
     c_bands:  1 eigenvalues not converged
     c_bands:  1 eigenvalues not converged
     c_bands:  1 eigenvalues not converged
     c_bands:  1 eigenvalues not converged

     ethr =  1.00E-13,  avg # of iterations =109.4

     total cpu time spent up to now is    20266.8 secs

     End of band structure calculation

     Number of k-points >= 100: set verbosity='high' to print the bands.

     the Fermi energy is    -5.0884 ev
     (compare with:    -5.0885 eV, computed in scf)

     Writing all to output data dir /tmpu/isholek_g/isholek/MIGUEL/QE/Hydrogen/111_2x2/SAVE/Ni3Pd1_111-B3.save/ :
     XML data file, pseudopotentials, collected wavefunctions
 
     init_run     :      2.22s CPU      2.89s WALL (       1 calls)
     electrons    :  19377.04s CPU  20260.02s WALL (       1 calls)

     Called by init_run:
     wfcinit      :      0.00s CPU      0.01s WALL (       1 calls)
     potinit      :      1.01s CPU      1.37s WALL (       1 calls)
     hinit0       :      0.54s CPU      0.80s WALL (       1 calls)

     Called by electrons:
     c_bands      :  19376.95s CPU  20259.63s WALL (       1 calls)
     v_of_rho     :      0.56s CPU      0.79s WALL (       1 calls)
     newd         :      0.26s CPU      0.28s WALL (       1 calls)
     PAW_pot      :      0.32s CPU      0.32s WALL (       1 calls)

     Called by c_bands:
     init_us_2    :      1.62s CPU      1.87s WALL (     100 calls)
     init_us_2:cp :      1.62s CPU      1.87s WALL (     100 calls)
     cegterg      :  15960.36s CPU  16790.55s WALL (     554 calls)

     Called by *egterg:
     cdiaghg      :    486.36s CPU    507.43s WALL (   10522 calls)
     h_psi        :   9321.87s CPU   9902.20s WALL (   11076 calls)
     s_psi        :    960.51s CPU    993.77s WALL (   11076 calls)
     g_psi        :     57.93s CPU     60.50s WALL (   10422 calls)

     Called by h_psi:
     h_psi:calbec :   1219.79s CPU   1268.35s WALL (   11076 calls)
     vloc_psi     :   7074.77s CPU   7557.85s WALL (   11076 calls)
     add_vuspsi   :    967.22s CPU   1007.87s WALL (   11076 calls)

     General routines
     calbec       :   1219.70s CPU   1268.26s WALL (   11076 calls)
     fft          :      0.41s CPU      0.52s WALL (      23 calls)
     ffts         :      0.03s CPU      0.03s WALL (       2 calls)
     fftw         :   4690.55s CPU   4953.24s WALL ( 2333594 calls)
     interpolate  :      0.07s CPU      0.07s WALL (       2 calls)
     davcio       :      0.02s CPU      2.27s WALL (     200 calls)
 
     Parallel routines
 
     PWSCF        :      5h23m CPU      5h38m WALL

 
   This run was terminated on:  10:25:57  23Apr2026            

=------------------------------------------------------------------------------=
   JOB DONE.
=------------------------------------------------------------------------------=
