
     Program PWSCF v.7.3 starts on 21Mar2026 at 12: 5:36 

     This program is part of the open-source Quantum ESPRESSO suite
     for quantum simulation of materials; please cite
         "P. Giannozzi et al., J. Phys.:Condens. Matter 21 395502 (2009);
         "P. Giannozzi et al., J. Phys.:Condens. Matter 29 465901 (2017);
         "P. Giannozzi et al., J. Chem. Phys. 152 154105 (2020);
          URL http://www.quantum-espresso.org", 
     in publications or presentations arising from this work. More details at
     http://www.quantum-espresso.org/quote

     Parallel version (MPI), running on    64 processors

     MPI processes distributed on     4 nodes
     39399 MiB available memory on the printing compute node when the environment starts
 
     Reading input from /tmpu/isholek_g/isholek/MIGUEL/QE/Hydrogen/111_2x2/NSCF/Ni3Pd1_111-H_hcp_1-NSCF.in

     Current dimensions of program PWSCF are:
     Max number of different atomic species (ntypx) = 10
     Max number of k-points (npk) =  40000
     Max angular momentum in pseudopotentials (lmaxx) =  4
     file Ni.upf: wavefunction(s)  4S 3D renormalized
     file Pd.upf: wavefunction(s)  5S 4D renormalized
     file H.upf: wavefunction(s)  1S renormalized

     IMPORTANT: XC functional enforced from input :
     Exchange-correlation= PBE
                           (   1   4   3   4   0   0   0)
     Any further DFT definition will be discarded
     Please, verify this is what you really want


     Atomic positions and unit cell read from directory:
     /tmpu/isholek_g/isholek/MIGUEL/QE/Hydrogen/111_2x2/SAVE/Ni3Pd1_111-H_hcp_1.save/
 
 
     K-points division:     npool     =       8
     R & G space division:  proc/nbgrp/npool/nimage =       8
     Subspace diagonalization in iterative solution of the eigenvalue problem:
     one sub-group per band group will be used
     scalapack distributed-memory algorithm (size of sub-group:  2*  2 procs)

 
     Parallelization info
     --------------------
     sticks:   dense  smooth     PW     G-vecs:    dense   smooth      PW
     Min         375     188     54               106317    37608    5930
     Max         376     189     55               106344    37623    5959
     Sum        3001    1507    433               850625   300931   47527
 
     Using Slab Decomposition
 

     Title: 
     Ni3Pd1_111-H_hcp_1-NSCF                                                    


     bravais-lattice index     =            0
     lattice parameter (alat)  =       9.5206  a.u.
     unit-cell volume          =    4789.0025 (a.u.)^3
     number of atoms/cell      =           25
     number of atomic types    =            3
     number of electrons       =       241.00
     number of Kohn-Sham states=          145
     kinetic-energy cutoff     =      60.0000  Ry
     charge density cutoff     =     480.0000  Ry
     Exchange-correlation= PBE
                           (   1   4   3   4   0   0   0)

     celldm(1)=   9.520593  celldm(2)=   0.000000  celldm(3)=   0.000000
     celldm(4)=   0.000000  celldm(5)=   0.000000  celldm(6)=   0.000000

     crystal axes: (cart. coord. in units of alat)
               a(1) = (   1.000000   0.000000   0.000000 )  
               a(2) = (   0.500000   0.866025   0.000000 )  
               a(3) = (   0.000000   0.000000   6.408000 )  

     reciprocal axes: (cart. coord. in units 2 pi/alat)
               b(1) = (  1.000000 -0.577350  0.000000 )  
               b(2) = (  0.000000  1.154701  0.000000 )  
               b(3) = (  0.000000  0.000000  0.156055 )  


     PseudoPot. # 1 for Ni read from file:
     /tmpu/isholek_g/isholek/MIGUEL/PP/PAW/Ni.upf
     MD5 check sum: d88365a95a5e142bd87181c2c8b16588
     Pseudo is Projector augmented-wave + core cor, Zval = 10.0
     Generated using "atomic" code by A. Dal Corso  v.5.0.2 svn rev. 9415
     Shape of augmentation charge: PSQ
     Using radial grid of 1195 points,  6 beta functions with: 
                l(1) =   0
                l(2) =   0
                l(3) =   1
                l(4) =   1
                l(5) =   2
                l(6) =   2
     Q(r) pseudized with 0 coefficients 


     PseudoPot. # 2 for Pd read from file:
     /tmpu/isholek_g/isholek/MIGUEL/PP/PAW/Pd.upf
     MD5 check sum: e9d6f14fd83b79f8105499163af174c9
     Pseudo is Projector augmented-wave + core cor, Zval = 10.0
     Generated using "atomic" code by A. Dal Corso  v.5.0.2 svn rev. 9415
     Shape of augmentation charge: PSQ
     Using radial grid of 1235 points,  6 beta functions with: 
                l(1) =   0
                l(2) =   0
                l(3) =   1
                l(4) =   1
                l(5) =   2
                l(6) =   2
     Q(r) pseudized with 0 coefficients 


     PseudoPot. # 3 for H  read from file:
     /tmpu/isholek_g/isholek/MIGUEL/PP/PAW/H.upf
     MD5 check sum: 4cbe42a24e15140179a93d5bf84f2220
     Pseudo is Projector augmented-wave, Zval =  1.0
     Generated using "atomic" code by A. Dal Corso  v.5.0.2 svn rev. 9415
     Shape of augmentation charge: PSQ
     Using radial grid of  929 points,  2 beta functions with: 
                l(1) =   0
                l(2) =   0
     Q(r) pseudized with 0 coefficients 


     atomic species   valence    mass     pseudopotential
     Ni               10.00    58.69340     Ni( 1.00)
     Pd               10.00   106.42000     Pd( 1.00)
     H                 1.00     1.00794     H ( 1.00)

     Starting magnetic structure 
     atomic species   magnetization
     Ni              0.650
     Pd              0.100
     H               0.000

     No symmetry found



   Cartesian axes

     site n.     atom                  positions (alat units)
         1        Ni     tau(   1) = (   1.0000055   0.5773497   2.1833712  )
         2        Ni     tau(   2) = (   0.2499946   0.1443334   2.1833775  )
         3        Pd     tau(   3) = (   0.5000045   0.5773498   2.1833823  )
         4        Ni     tau(   4) = (   0.7499961   0.1443432   2.1833870  )
         5        Ni     tau(   5) = (   0.5000055   0.2886746   2.5916194  )
         6        Ni     tau(   6) = (   1.2499946   0.7216837   2.5916258  )
         7        Pd     tau(   7) = (   1.0000045   0.2886747   2.5916306  )
         8        Ni     tau(   8) = (   0.7499961   0.7216934   2.5916353  )
         9        Ni     tau(   9) = (   0.4999999   0.8658212   2.9993433  )
        10        Ni     tau(  10) = (   0.7494674   0.4333408   2.9997267  )
        11        Pd     tau(  11) = (   1.0000015   0.8662558   2.9983417  )
        12        Ni     tau(  12) = (   1.2505370   0.4333406   2.9997265  )
        13        Ni     tau(  13) = (   1.0000009   0.5783335   3.4062416  )
        14        Ni     tau(  14) = (   0.2505998   0.1446510   3.4068099  )
        15        Pd     tau(  15) = (   0.5000010   0.5778139   3.4100878  )
        16        Ni     tau(  16) = (   0.7494020   0.1446507   3.4068101  )
        17        Ni     tau(  17) = (   0.5000005   0.2885627   3.8186871  )
        18        Ni     tau(  18) = (   1.2464057   0.7258493   3.8154733  )
        19        Pd     tau(  19) = (   1.0000006   0.2906074   3.8114543  )
        20        Ni     tau(  20) = (   0.7535956   0.7258492   3.8154734  )
        21        Ni     tau(  21) = (   0.5000005   0.8623986   4.2154034  )
        22        Ni     tau(  22) = (   0.7439812   0.4392441   4.2194975  )
        23        Pd     tau(  23) = (   1.0000005   0.8738014   4.2431028  )
        24        Ni     tau(  24) = (   1.2560198   0.4392440   4.2194975  )
        25        H      tau(  25) = (   1.0000005   0.5469502   4.4110255  )

     --------------------------------------------
     DFT-D3 Dispersion Correction (3-body terms):
     --------------------------------------------
       Reference C6 values for interpolation: 

         atom   Coordination number   C6
         H          0.912             6.05
         H          0.000            15.18
         Ni         0.000          1149.49
         Ni         1.794           356.66
         Ni         6.546           257.56
         Ni         6.292           283.75
         Pd         0.000          1217.01
         Pd         1.863           573.90
         Pd         5.710           531.75

       Values used:

         atom   Coordination number  R0_AB[au]  C6      C8
         Ni         6.658            3.162    267.12  22382.81
         Ni         6.659            3.162    267.12  22382.64
         Pd         7.597            3.168    531.75  48720.73
         Ni         6.659            3.162    267.12  22382.44
         Ni         8.921            3.162    257.71  21594.62
         Ni         8.921            3.162    257.71  21594.61
         Pd        10.218            3.168    531.75  48720.73
         Ni         8.921            3.162    257.71  21594.61
         Ni         8.923            3.162    257.71  21594.57
         Ni         8.929            3.162    257.71  21594.42
         Pd        10.252            3.168    531.75  48720.73
         Ni         8.929            3.162    257.71  21594.42
         Ni         8.951            3.162    257.71  21593.88
         Ni         8.934            3.162    257.71  21594.30
         Pd        10.203            3.168    531.75  48720.73
         Ni         8.934            3.162    257.71  21594.30
         Ni         8.918            3.162    257.72  21594.68
         Ni         8.911            3.162    257.72  21594.88
         Pd        10.194            3.168    531.75  48720.73
         Ni         8.911            3.162    257.72  21594.88
         Ni         6.745            3.162    266.08  22295.54
         Ni         7.307            3.162    261.05  21874.45
         Pd         7.846            3.168    531.75  48720.73
         Ni         7.307            3.162    261.05  21874.45
         H          1.759            2.062      6.05     73.18

         Molecular C6 ( Ry / a.u.^6 ) =    185771.75


     number of k points=   400  Marzari-Vanderbilt smearing, width (Ry)=  0.0147

     Number of k-points >= 100: set verbosity='high' to print them.

     Dense  grid:   850625 G-vectors     FFT dimensions: (  72,  72, 432)

     Smooth grid:   300931 G-vectors     FFT dimensions: (  48,  48, 320)

     Estimated max dynamical RAM per process >     164.16 MB

     Estimated total dynamical RAM >      10.26 GB
 ----2D----2D----2D----2D----2D----2D----2D----2D----2D----2D----2D----2D
  The code is running with the 2D cutoff
  Please refer to:
  Sohier, T., Calandra, M., & Mauri, F. (2017), 
  Density functional perturbation theory for gated two-dimensional heterostructu
 res:
  Theoretical developments and application to flexural phonons in graphene.
  Physical Review B, 96(7), 75448. https://doi.org/10.1103/PhysRevB.96.075448
 ----2D----2D----2D----2D----2D----2D----2D----2D----2D----2D----2D----2D

     Check: negative core charge=   -0.000001
     Generating pointlists ...
     new r_m :   0.1392 (alat units)  1.3250 (a.u.) for type    1
     new r_m :   0.1516 (alat units)  1.4431 (a.u.) for type    2
     new r_m :   0.1392 (alat units)  1.3250 (a.u.) for type    3

     The potential is recalculated from file :
     /tmpu/isholek_g/isholek/MIGUEL/QE/Hydrogen/111_2x2/SAVE/Ni3Pd1_111-H_hcp_1.save/charge-density


     negative rho (up, down):  2.460E-04 1.931E-04
     Starting wfcs are  217 randomized atomic wfcs
     Checking if some PAW data can be deallocated... 

     Band Structure Calculation
     Davidson diagonalization with overlap
     c_bands:  1 eigenvalues not converged
     c_bands:  1 eigenvalues not converged
     c_bands:  1 eigenvalues not converged
     c_bands:  1 eigenvalues not converged
     c_bands:  1 eigenvalues not converged
     c_bands:  1 eigenvalues not converged
     c_bands:  1 eigenvalues not converged
     c_bands:  1 eigenvalues not converged
     c_bands:  1 eigenvalues not converged
     c_bands:  1 eigenvalues not converged
     c_bands:  1 eigenvalues not converged
     c_bands:  1 eigenvalues not converged
     c_bands:  1 eigenvalues not converged
     c_bands:  1 eigenvalues not converged
     c_bands:  1 eigenvalues not converged
     c_bands:  1 eigenvalues not converged
     c_bands:  2 eigenvalues not converged
     c_bands:  1 eigenvalues not converged
     c_bands:  1 eigenvalues not converged
     c_bands:  1 eigenvalues not converged
     c_bands:  1 eigenvalues not converged
     c_bands:  1 eigenvalues not converged

     ethr =  1.00E-13,  avg # of iterations =109.2

     total cpu time spent up to now is    78195.7 secs

     End of band structure calculation

     Number of k-points >= 100: set verbosity='high' to print the bands.

     the Fermi energy is    -5.0832 ev
     (compare with:    -5.0834 eV, computed in scf)

     Writing all to output data dir /tmpu/isholek_g/isholek/MIGUEL/QE/Hydrogen/111_2x2/SAVE/Ni3Pd1_111-H_hcp_1.save/ :
     XML data file, pseudopotentials, collected wavefunctions
 
     init_run     :      3.82s CPU      7.78s WALL (       1 calls)
     electrons    :  40312.38s CPU  77943.51s WALL (       1 calls)

     Called by init_run:
     wfcinit      :      0.00s CPU      0.03s WALL (       1 calls)
     potinit      :      1.94s CPU      3.16s WALL (       1 calls)
     hinit0       :      1.20s CPU      1.56s WALL (       1 calls)

     Called by electrons:
     c_bands      :  40311.25s CPU  77941.96s WALL (       1 calls)
     v_of_rho     :      0.72s CPU      1.13s WALL (       1 calls)
     newd         :      0.16s CPU      0.38s WALL (       1 calls)
     PAW_pot      :      0.51s CPU      1.04s WALL (       1 calls)

     Called by c_bands:
     init_us_2    :      1.32s CPU      2.11s WALL (     100 calls)
     init_us_2:cp :      1.32s CPU      2.11s WALL (     100 calls)
     cegterg      :  33198.21s CPU  64234.49s WALL (     553 calls)

     Called by *egterg:
     cdiaghg      :   3512.21s CPU   6837.10s WALL (   10526 calls)
     h_psi        :  23453.14s CPU  45533.58s WALL (   11079 calls)
     s_psi        :    922.10s CPU   1785.57s WALL (   11079 calls)
     g_psi        :     55.55s CPU    116.85s WALL (   10426 calls)

     Called by h_psi:
     h_psi:calbec :   1239.04s CPU   2384.98s WALL (   11079 calls)
     vloc_psi     :  21246.31s CPU  41275.94s WALL (   11079 calls)
     add_vuspsi   :    944.80s CPU   1806.56s WALL (   11079 calls)

     General routines
     calbec       :   1238.93s CPU   2384.79s WALL (   11079 calls)
     fft          :      0.47s CPU      0.76s WALL (      23 calls)
     ffts         :      0.02s CPU      0.03s WALL (       2 calls)
     fftw         :  19967.07s CPU  38695.19s WALL ( 2330746 calls)
     interpolate  :      0.06s CPU      0.09s WALL (       2 calls)
     davcio       :      0.05s CPU      3.12s WALL (     200 calls)
 
     Parallel routines
 
     PWSCF        :     11h22m CPU     21h59m WALL

 
   This run was terminated on:  10: 5: 7  22Mar2026            

=------------------------------------------------------------------------------=
   JOB DONE.
=------------------------------------------------------------------------------=
