
     Program PWSCF v.7.3 starts on 26Apr2026 at 23:39:36 

     This program is part of the open-source Quantum ESPRESSO suite
     for quantum simulation of materials; please cite
         "P. Giannozzi et al., J. Phys.:Condens. Matter 21 395502 (2009);
         "P. Giannozzi et al., J. Phys.:Condens. Matter 29 465901 (2017);
         "P. Giannozzi et al., J. Chem. Phys. 152 154105 (2020);
          URL http://www.quantum-espresso.org", 
     in publications or presentations arising from this work. More details at
     http://www.quantum-espresso.org/quote

     Parallel version (MPI), running on    64 processors

     MPI processes distributed on     4 nodes
     45586 MiB available memory on the printing compute node when the environment starts
 
     Reading input from /tmpu/isholek_g/isholek/MIGUEL/QE/Hydrogen/111_2x2/NSCF/Ni3Pd1_111-B1-NSCF.in

     Current dimensions of program PWSCF are:
     Max number of different atomic species (ntypx) = 10
     Max number of k-points (npk) =  40000
     Max angular momentum in pseudopotentials (lmaxx) =  4
     file Ni.upf: wavefunction(s)  4S 3D renormalized
     file Pd.upf: wavefunction(s)  5S 4D renormalized
     file H.upf: wavefunction(s)  1S renormalized

     IMPORTANT: XC functional enforced from input :
     Exchange-correlation= PBE
                           (   1   4   3   4   0   0   0)
     Any further DFT definition will be discarded
     Please, verify this is what you really want


     Atomic positions and unit cell read from directory:
     /tmpu/isholek_g/isholek/MIGUEL/QE/Hydrogen/111_2x2/SAVE/Ni3Pd1_111-B1.save/
 
 
     K-points division:     npool     =       8
     R & G space division:  proc/nbgrp/npool/nimage =       8
     Subspace diagonalization in iterative solution of the eigenvalue problem:
     one sub-group per band group will be used
     scalapack distributed-memory algorithm (size of sub-group:  2*  2 procs)

 
     Parallelization info
     --------------------
     sticks:   dense  smooth     PW     G-vecs:    dense   smooth      PW
     Min         375     188     54               106317    37608    5930
     Max         376     189     55               106344    37623    5959
     Sum        3001    1507    433               850625   300931   47527
 
     Using Slab Decomposition
 

     Title: 
     Ni3Pd1_111-B1-NSCF                                                         


     bravais-lattice index     =            0
     lattice parameter (alat)  =       9.5206  a.u.
     unit-cell volume          =    4789.0025 (a.u.)^3
     number of atoms/cell      =           25
     number of atomic types    =            3
     number of electrons       =       241.00
     number of Kohn-Sham states=          145
     kinetic-energy cutoff     =      60.0000  Ry
     charge density cutoff     =     480.0000  Ry
     Exchange-correlation= PBE
                           (   1   4   3   4   0   0   0)

     celldm(1)=   9.520593  celldm(2)=   0.000000  celldm(3)=   0.000000
     celldm(4)=   0.000000  celldm(5)=   0.000000  celldm(6)=   0.000000

     crystal axes: (cart. coord. in units of alat)
               a(1) = (   1.000000   0.000000   0.000000 )  
               a(2) = (   0.500000   0.866025   0.000000 )  
               a(3) = (   0.000000   0.000000   6.408000 )  

     reciprocal axes: (cart. coord. in units 2 pi/alat)
               b(1) = (  1.000000 -0.577350  0.000000 )  
               b(2) = (  0.000000  1.154701  0.000000 )  
               b(3) = (  0.000000  0.000000  0.156055 )  


     PseudoPot. # 1 for Ni read from file:
     /tmpu/isholek_g/isholek/MIGUEL/PP/PAW/Ni.upf
     MD5 check sum: d88365a95a5e142bd87181c2c8b16588
     Pseudo is Projector augmented-wave + core cor, Zval = 10.0
     Generated using "atomic" code by A. Dal Corso  v.5.0.2 svn rev. 9415
     Shape of augmentation charge: PSQ
     Using radial grid of 1195 points,  6 beta functions with: 
                l(1) =   0
                l(2) =   0
                l(3) =   1
                l(4) =   1
                l(5) =   2
                l(6) =   2
     Q(r) pseudized with 0 coefficients 


     PseudoPot. # 2 for Pd read from file:
     /tmpu/isholek_g/isholek/MIGUEL/PP/PAW/Pd.upf
     MD5 check sum: e9d6f14fd83b79f8105499163af174c9
     Pseudo is Projector augmented-wave + core cor, Zval = 10.0
     Generated using "atomic" code by A. Dal Corso  v.5.0.2 svn rev. 9415
     Shape of augmentation charge: PSQ
     Using radial grid of 1235 points,  6 beta functions with: 
                l(1) =   0
                l(2) =   0
                l(3) =   1
                l(4) =   1
                l(5) =   2
                l(6) =   2
     Q(r) pseudized with 0 coefficients 


     PseudoPot. # 3 for H  read from file:
     /tmpu/isholek_g/isholek/MIGUEL/PP/PAW/H.upf
     MD5 check sum: 4cbe42a24e15140179a93d5bf84f2220
     Pseudo is Projector augmented-wave, Zval =  1.0
     Generated using "atomic" code by A. Dal Corso  v.5.0.2 svn rev. 9415
     Shape of augmentation charge: PSQ
     Using radial grid of  929 points,  2 beta functions with: 
                l(1) =   0
                l(2) =   0
     Q(r) pseudized with 0 coefficients 


     atomic species   valence    mass     pseudopotential
     Ni               10.00    58.69340     Ni( 1.00)
     Pd               10.00   106.42000     Pd( 1.00)
     H                 1.00     1.00794     H ( 1.00)

     Starting magnetic structure 
     atomic species   magnetization
     Ni              0.650
     Pd              0.100
     H               0.000

     No symmetry found



   Cartesian axes

     site n.     atom                  positions (alat units)
         1        Ni     tau(   1) = (   1.0000055   0.5773497   2.1833712  )
         2        Ni     tau(   2) = (   0.2499946   0.1443334   2.1833775  )
         3        Pd     tau(   3) = (   0.5000045   0.5773498   2.1833823  )
         4        Ni     tau(   4) = (   0.7499961   0.1443432   2.1833870  )
         5        Ni     tau(   5) = (   0.5000055   0.2886746   2.5916194  )
         6        Ni     tau(   6) = (   1.2499946   0.7216837   2.5916258  )
         7        Pd     tau(   7) = (   1.0000045   0.2886747   2.5916306  )
         8        Ni     tau(   8) = (   0.7499961   0.7216934   2.5916353  )
         9        Ni     tau(   9) = (   0.5000002   0.8644891   2.9990244  )
        10        Ni     tau(  10) = (   0.7495167   0.4326942   2.9993142  )
        11        Pd     tau(  11) = (   1.0000017   0.8656103   2.9978283  )
        12        Ni     tau(  12) = (   1.2504881   0.4326942   2.9993140  )
        13        Ni     tau(  13) = (   1.0000014   0.5770240   3.4062792  )
        14        Ni     tau(  14) = (   0.2498930   0.1425981   3.4053517  )
        15        Pd     tau(  15) = (   0.5000014   0.5751266   3.4106077  )
        16        Ni     tau(  16) = (   0.7501095   0.1425981   3.4053520  )
        17        Ni     tau(  17) = (   0.5000010   0.2810834   3.8167592  )
        18        Ni     tau(  18) = (   1.2470347   0.7206896   3.8154312  )
        19        Pd     tau(  19) = (   1.0000010   0.2859488   3.8104211  )
        20        Ni     tau(  20) = (   0.7529673   0.7206897   3.8154313  )
        21        Ni     tau(  21) = (   0.5000008   0.8575028   4.2172716  )
        22        Ni     tau(  22) = (   0.7422736   0.4321846   4.2179231  )
        23        Pd     tau(  23) = (   1.0000008   0.8622797   4.2401787  )
        24        Ni     tau(  24) = (   1.2577279   0.4321845   4.2179232  )
        25        H      tau(  25) = (   1.0000008   0.4364801   4.4148897  )

     --------------------------------------------
     DFT-D3 Dispersion Correction (3-body terms):
     --------------------------------------------
       Reference C6 values for interpolation: 

         atom   Coordination number   C6
         H          0.912             6.05
         H          0.000            15.18
         Ni         0.000          1149.49
         Ni         1.794           356.66
         Ni         6.546           257.56
         Ni         6.292           283.75
         Pd         0.000          1217.01
         Pd         1.863           573.90
         Pd         5.710           531.75

       Values used:

         atom   Coordination number  R0_AB[au]  C6      C8
         Ni         6.658            3.162    267.12  22382.76
         Ni         6.659            3.162    267.12  22382.60
         Pd         7.597            3.168    531.75  48720.73
         Ni         6.659            3.162    267.12  22382.40
         Ni         8.929            3.162    257.71  21594.43
         Ni         8.929            3.162    257.71  21594.42
         Pd        10.222            3.168    531.75  48720.73
         Ni         8.929            3.162    257.71  21594.42
         Ni         8.943            3.162    257.71  21594.06
         Ni         8.934            3.162    257.71  21594.30
         Pd        10.262            3.168    531.75  48720.73
         Ni         8.934            3.162    257.71  21594.30
         Ni         8.953            3.162    257.71  21593.84
         Ni         8.942            3.162    257.71  21594.08
         Pd        10.205            3.168    531.75  48720.73
         Ni         8.942            3.162    257.71  21594.08
         Ni         8.932            3.162    257.71  21594.35
         Ni         8.920            3.162    257.71  21594.65
         Pd        10.191            3.168    531.75  48720.73
         Ni         8.920            3.162    257.71  21594.65
         Ni         6.726            3.162    266.30  22314.34
         Ni         7.452            3.162    260.25  21807.23
         Pd         7.406            3.168    531.75  48720.73
         Ni         7.452            3.162    260.25  21807.23
         H          1.559            2.062      6.06     73.20

         Molecular C6 ( Ry / a.u.^6 ) =    185734.74


     number of k points=   400  Marzari-Vanderbilt smearing, width (Ry)=  0.0147

     Number of k-points >= 100: set verbosity='high' to print them.

     Dense  grid:   850625 G-vectors     FFT dimensions: (  72,  72, 432)

     Smooth grid:   300931 G-vectors     FFT dimensions: (  48,  48, 320)

     Estimated max dynamical RAM per process >     164.16 MB

     Estimated total dynamical RAM >      10.26 GB
 ----2D----2D----2D----2D----2D----2D----2D----2D----2D----2D----2D----2D
  The code is running with the 2D cutoff
  Please refer to:
  Sohier, T., Calandra, M., & Mauri, F. (2017), 
  Density functional perturbation theory for gated two-dimensional heterostructu
 res:
  Theoretical developments and application to flexural phonons in graphene.
  Physical Review B, 96(7), 75448. https://doi.org/10.1103/PhysRevB.96.075448
 ----2D----2D----2D----2D----2D----2D----2D----2D----2D----2D----2D----2D

     Check: negative core charge=   -0.000001
     Generating pointlists ...
     new r_m :   0.1338 (alat units)  1.2740 (a.u.) for type    1
     new r_m :   0.1899 (alat units)  1.8075 (a.u.) for type    2
     new r_m :   0.1338 (alat units)  1.2740 (a.u.) for type    3

     The potential is recalculated from file :
     /tmpu/isholek_g/isholek/MIGUEL/QE/Hydrogen/111_2x2/SAVE/Ni3Pd1_111-B1.save/charge-density


     negative rho (up, down):  2.460E-04 1.936E-04
     Starting wfcs are  217 randomized atomic wfcs
     Checking if some PAW data can be deallocated... 

     Band Structure Calculation
     Davidson diagonalization with overlap
     c_bands:  1 eigenvalues not converged
     c_bands:  1 eigenvalues not converged
     c_bands:  1 eigenvalues not converged
     c_bands:  1 eigenvalues not converged
     c_bands:  1 eigenvalues not converged
     c_bands:  1 eigenvalues not converged
     c_bands:  1 eigenvalues not converged
     c_bands:  1 eigenvalues not converged
     c_bands:  2 eigenvalues not converged
     c_bands:  1 eigenvalues not converged
     c_bands:  2 eigenvalues not converged
     c_bands:  1 eigenvalues not converged
     c_bands:  1 eigenvalues not converged
     c_bands:  1 eigenvalues not converged
     c_bands:  1 eigenvalues not converged
     c_bands:  1 eigenvalues not converged
     c_bands:  2 eigenvalues not converged
     c_bands:  1 eigenvalues not converged
     c_bands:  1 eigenvalues not converged
     c_bands:  1 eigenvalues not converged
     c_bands:  2 eigenvalues not converged
     c_bands:  1 eigenvalues not converged

     ethr =  1.00E-13,  avg # of iterations =109.6

     total cpu time spent up to now is    18934.8 secs

     End of band structure calculation

     Number of k-points >= 100: set verbosity='high' to print the bands.

     the Fermi energy is    -5.0856 ev
     (compare with:    -5.0858 eV, computed in scf)

     Writing all to output data dir /tmpu/isholek_g/isholek/MIGUEL/QE/Hydrogen/111_2x2/SAVE/Ni3Pd1_111-B1.save/ :
     XML data file, pseudopotentials, collected wavefunctions
 
     init_run     :      2.04s CPU      2.89s WALL (       1 calls)
     electrons    :  18190.55s CPU  18928.02s WALL (       1 calls)

     Called by init_run:
     wfcinit      :      0.00s CPU      0.01s WALL (       1 calls)
     potinit      :      0.77s CPU      1.50s WALL (       1 calls)
     hinit0       :      0.68s CPU      0.70s WALL (       1 calls)

     Called by electrons:
     c_bands      :  18190.48s CPU  18927.81s WALL (       1 calls)
     v_of_rho     :      0.36s CPU      0.80s WALL (       1 calls)
     newd         :      0.23s CPU      0.25s WALL (       1 calls)
     PAW_pot      :      0.20s CPU      0.34s WALL (       1 calls)

     Called by c_bands:
     init_us_2    :      1.71s CPU      1.89s WALL (     100 calls)
     init_us_2:cp :      1.71s CPU      1.88s WALL (     100 calls)
     cegterg      :  14568.64s CPU  15134.22s WALL (     553 calls)

     Called by *egterg:
     cdiaghg      :    463.18s CPU    474.54s WALL (   10535 calls)
     h_psi        :   8391.78s CPU   8813.31s WALL (   11088 calls)
     s_psi        :    965.41s CPU    984.76s WALL (   11088 calls)
     g_psi        :     58.35s CPU     59.82s WALL (   10435 calls)

     Called by h_psi:
     h_psi:calbec :   1154.76s CPU   1183.19s WALL (   11088 calls)
     vloc_psi     :   6203.62s CPU   6566.72s WALL (   11088 calls)
     add_vuspsi   :    971.50s CPU    995.14s WALL (   11088 calls)

     General routines
     calbec       :   1154.67s CPU   1183.10s WALL (   11088 calls)
     fft          :      0.22s CPU      0.36s WALL (      23 calls)
     ffts         :      0.00s CPU      0.00s WALL (       2 calls)
     fftw         :   3907.39s CPU   4116.72s WALL ( 2333028 calls)
     interpolate  :      0.04s CPU      0.04s WALL (       2 calls)
     davcio       :      0.06s CPU      6.53s WALL (     200 calls)
 
     Parallel routines
 
     PWSCF        :      5h 3m CPU      5h16m WALL

 
   This run was terminated on:   4:55:40  27Apr2026            

=------------------------------------------------------------------------------=
   JOB DONE.
=------------------------------------------------------------------------------=
