
     Program PWSCF v.7.3 starts on 14May2026 at 20:44:56 

     This program is part of the open-source Quantum ESPRESSO suite
     for quantum simulation of materials; please cite
         "P. Giannozzi et al., J. Phys.:Condens. Matter 21 395502 (2009);
         "P. Giannozzi et al., J. Phys.:Condens. Matter 29 465901 (2017);
         "P. Giannozzi et al., J. Chem. Phys. 152 154105 (2020);
          URL http://www.quantum-espresso.org", 
     in publications or presentations arising from this work. More details at
     http://www.quantum-espresso.org/quote

     Parallel version (MPI), running on   128 processors

     MPI processes distributed on     8 nodes
     28751 MiB available memory on the printing compute node when the environment starts
 
     Reading input from /tmpu/isholek_g/isholek/MIGUEL/QE/Hydrogen/111_2x2/NSCF/Ni3Pd1_111-T2-NSCF.in

     Current dimensions of program PWSCF are:
     Max number of different atomic species (ntypx) = 10
     Max number of k-points (npk) =  40000
     Max angular momentum in pseudopotentials (lmaxx) =  4
     file Ni.upf: wavefunction(s)  4S 3D renormalized
     file Pd.upf: wavefunction(s)  5S 4D renormalized
     file H.upf: wavefunction(s)  1S renormalized

     IMPORTANT: XC functional enforced from input :
     Exchange-correlation= PBE
                           (   1   4   3   4   0   0   0)
     Any further DFT definition will be discarded
     Please, verify this is what you really want


     Atomic positions and unit cell read from directory:
     /tmpu/isholek_g/isholek/MIGUEL/QE/Hydrogen/111_2x2/SAVE/Ni3Pd1_111-T2.save/
 
     Message from routine find_sym:
     Not a group! Trying with lower acceptance parameter...
     Message from routine find_sym:
     Symmetry operations form a group
 
     K-points division:     npool     =       8
     R & G space division:  proc/nbgrp/npool/nimage =      16
     Subspace diagonalization in iterative solution of the eigenvalue problem:
     one sub-group per band group will be used
     scalapack distributed-memory algorithm (size of sub-group:  2*  2 procs)

 
     Parallelization info
     --------------------
     sticks:   dense  smooth     PW     G-vecs:    dense   smooth      PW
     Min         187      94     27                53151    18802    2965
     Max         188      95     28                53178    18817    2992
     Sum        3001    1507    433               850625   300931   47527
 
     Using Slab Decomposition
 

     Title: 
     Ni3Pd1_111-T2-NSCF                                                         


     bravais-lattice index     =            0
     lattice parameter (alat)  =       9.5206  a.u.
     unit-cell volume          =    4789.0025 (a.u.)^3
     number of atoms/cell      =           25
     number of atomic types    =            3
     number of electrons       =       241.00
     number of Kohn-Sham states=          145
     kinetic-energy cutoff     =      60.0000  Ry
     charge density cutoff     =     480.0000  Ry
     Exchange-correlation= PBE
                           (   1   4   3   4   0   0   0)

     celldm(1)=   9.520593  celldm(2)=   0.000000  celldm(3)=   0.000000
     celldm(4)=   0.000000  celldm(5)=   0.000000  celldm(6)=   0.000000

     crystal axes: (cart. coord. in units of alat)
               a(1) = (   1.000000   0.000000   0.000000 )  
               a(2) = (   0.500000   0.866025   0.000000 )  
               a(3) = (   0.000000   0.000000   6.408000 )  

     reciprocal axes: (cart. coord. in units 2 pi/alat)
               b(1) = (  1.000000 -0.577350  0.000000 )  
               b(2) = (  0.000000  1.154701  0.000000 )  
               b(3) = (  0.000000  0.000000  0.156055 )  


     PseudoPot. # 1 for Ni read from file:
     /tmpu/isholek_g/isholek/MIGUEL/PP/PAW/Ni.upf
     MD5 check sum: d88365a95a5e142bd87181c2c8b16588
     Pseudo is Projector augmented-wave + core cor, Zval = 10.0
     Generated using "atomic" code by A. Dal Corso  v.5.0.2 svn rev. 9415
     Shape of augmentation charge: PSQ
     Using radial grid of 1195 points,  6 beta functions with: 
                l(1) =   0
                l(2) =   0
                l(3) =   1
                l(4) =   1
                l(5) =   2
                l(6) =   2
     Q(r) pseudized with 0 coefficients 


     PseudoPot. # 2 for Pd read from file:
     /tmpu/isholek_g/isholek/MIGUEL/PP/PAW/Pd.upf
     MD5 check sum: e9d6f14fd83b79f8105499163af174c9
     Pseudo is Projector augmented-wave + core cor, Zval = 10.0
     Generated using "atomic" code by A. Dal Corso  v.5.0.2 svn rev. 9415
     Shape of augmentation charge: PSQ
     Using radial grid of 1235 points,  6 beta functions with: 
                l(1) =   0
                l(2) =   0
                l(3) =   1
                l(4) =   1
                l(5) =   2
                l(6) =   2
     Q(r) pseudized with 0 coefficients 


     PseudoPot. # 3 for H  read from file:
     /tmpu/isholek_g/isholek/MIGUEL/PP/PAW/H.upf
     MD5 check sum: 4cbe42a24e15140179a93d5bf84f2220
     Pseudo is Projector augmented-wave, Zval =  1.0
     Generated using "atomic" code by A. Dal Corso  v.5.0.2 svn rev. 9415
     Shape of augmentation charge: PSQ
     Using radial grid of  929 points,  2 beta functions with: 
                l(1) =   0
                l(2) =   0
     Q(r) pseudized with 0 coefficients 


     atomic species   valence    mass     pseudopotential
     Ni               10.00    58.69340     Ni( 1.00)
     Pd               10.00   106.42000     Pd( 1.00)
     H                 1.00     1.00794     H ( 1.00)

     Starting magnetic structure 
     atomic species   magnetization
     Ni              0.650
     Pd              0.100
     H               0.000

     No symmetry found



   Cartesian axes

     site n.     atom                  positions (alat units)
         1        Ni     tau(   1) = (   1.0000055   0.5773497   2.1833712  )
         2        Ni     tau(   2) = (   0.2499946   0.1443334   2.1833775  )
         3        Pd     tau(   3) = (   0.5000045   0.5773498   2.1833823  )
         4        Ni     tau(   4) = (   0.7499961   0.1443432   2.1833870  )
         5        Ni     tau(   5) = (   0.5000055   0.2886746   2.5916194  )
         6        Ni     tau(   6) = (   1.2499946   0.7216837   2.5916258  )
         7        Pd     tau(   7) = (   1.0000045   0.2886747   2.5916306  )
         8        Ni     tau(   8) = (   0.7499961   0.7216934   2.5916353  )
         9        Ni     tau(   9) = (   0.4999997   0.8659194   2.9980502  )
        10        Ni     tau(  10) = (   0.7499085   0.4330682   2.9980483  )
        11        Pd     tau(  11) = (   1.0000014   0.8660282   2.9986940  )
        12        Ni     tau(  12) = (   1.2500957   0.4330683   2.9980477  )
        13        Ni     tau(  13) = (   1.0000012   0.5778518   3.4075355  )
        14        Ni     tau(  14) = (   0.2504342   0.1440883   3.4075359  )
        15        Pd     tau(  15) = (   0.5000011   0.5773508   3.4045372  )
        16        Ni     tau(  16) = (   0.7495671   0.1440877   3.4075365  )
        17        Ni     tau(  17) = (   0.5000004   0.2860856   3.8142158  )
        18        Ni     tau(  18) = (   1.2477576   0.7229831   3.8142158  )
        19        Pd     tau(  19) = (   1.0000004   0.2886757   3.8134037  )
        20        Ni     tau(  20) = (   0.7522435   0.7229833   3.8142157  )
        21        Ni     tau(  21) = (   0.5000003   0.8583274   4.2173321  )
        22        Ni     tau(  22) = (   0.7433334   0.4368619   4.2173323  )
        23        Pd     tau(  23) = (   1.0000003   0.8660256   4.2435118  )
        24        Ni     tau(  24) = (   1.2566672   0.4368621   4.2173324  )
        25        H      tau(  25) = (   1.0000001   0.8660255   4.5554615  )

     --------------------------------------------
     DFT-D3 Dispersion Correction (3-body terms):
     --------------------------------------------
       Reference C6 values for interpolation: 

         atom   Coordination number   C6
         H          0.912             6.05
         H          0.000            15.18
         Ni         0.000          1149.49
         Ni         1.794           356.66
         Ni         6.546           257.56
         Ni         6.292           283.75
         Pd         0.000          1217.01
         Pd         1.863           573.90
         Pd         5.710           531.75

       Values used:

         atom   Coordination number  R0_AB[au]  C6      C8
         Ni         6.659            3.162    267.12  22382.72
         Ni         6.659            3.162    267.12  22382.56
         Pd         7.597            3.168    531.75  48720.73
         Ni         6.659            3.162    267.12  22382.37
         Ni         8.937            3.162    257.71  21594.21
         Ni         8.937            3.162    257.71  21594.21
         Pd        10.240            3.168    531.75  48720.73
         Ni         8.937            3.162    257.71  21594.21
         Ni         8.939            3.162    257.71  21594.16
         Ni         8.939            3.162    257.71  21594.16
         Pd        10.248            3.168    531.75  48720.73
         Ni         8.939            3.162    257.71  21594.16
         Ni         8.940            3.162    257.71  21594.14
         Ni         8.940            3.162    257.71  21594.14
         Pd        10.215            3.168    531.75  48720.73
         Ni         8.940            3.162    257.71  21594.14
         Ni         8.913            3.162    257.72  21594.83
         Ni         8.913            3.162    257.72  21594.83
         Pd        10.201            3.168    531.75  48720.73
         Ni         8.913            3.162    257.72  21594.83
         Ni         6.710            3.162    266.50  22330.57
         Ni         6.710            3.162    266.50  22330.57
         Pd         8.216            3.168    531.75  48720.73
         Ni         6.710            3.162    266.50  22330.57
         H          0.962            2.062      6.22     75.21

         Molecular C6 ( Ry / a.u.^6 ) =    186093.62


     number of k points=   400  Marzari-Vanderbilt smearing, width (Ry)=  0.0147

     Number of k-points >= 100: set verbosity='high' to print them.

     Dense  grid:   850625 G-vectors     FFT dimensions: (  72,  72, 432)

     Smooth grid:   300931 G-vectors     FFT dimensions: (  48,  48, 320)

     Estimated max dynamical RAM per process >      85.67 MB

     Estimated total dynamical RAM >      10.71 GB
 ----2D----2D----2D----2D----2D----2D----2D----2D----2D----2D----2D----2D
  The code is running with the 2D cutoff
  Please refer to:
  Sohier, T., Calandra, M., & Mauri, F. (2017), 
  Density functional perturbation theory for gated two-dimensional heterostructu
 res:
  Theoretical developments and application to flexural phonons in graphene.
  Physical Review B, 96(7), 75448. https://doi.org/10.1103/PhysRevB.96.075448
 ----2D----2D----2D----2D----2D----2D----2D----2D----2D----2D----2D----2D

     Check: negative core charge=   -0.000001
     Generating pointlists ...
     new r_m :   0.2007 (alat units)  1.9113 (a.u.) for type    1
     new r_m :   0.1287 (alat units)  1.2251 (a.u.) for type    2
     new r_m :   0.1287 (alat units)  1.2251 (a.u.) for type    3

     The potential is recalculated from file :
     /tmpu/isholek_g/isholek/MIGUEL/QE/Hydrogen/111_2x2/SAVE/Ni3Pd1_111-T2.save/charge-density


     negative rho (up, down):  2.420E-04 1.904E-04
     Starting wfcs are  217 randomized atomic wfcs
     Checking if some PAW data can be deallocated... 

     Band Structure Calculation
     Davidson diagonalization with overlap
     c_bands:  1 eigenvalues not converged
     c_bands:  1 eigenvalues not converged
     c_bands:  1 eigenvalues not converged
     c_bands:  1 eigenvalues not converged
     c_bands:  1 eigenvalues not converged
     c_bands:  1 eigenvalues not converged
     c_bands:  1 eigenvalues not converged
     c_bands:  1 eigenvalues not converged
     c_bands:  1 eigenvalues not converged
     c_bands:  1 eigenvalues not converged
     c_bands:  1 eigenvalues not converged
     c_bands:  1 eigenvalues not converged
     c_bands:  1 eigenvalues not converged
     c_bands:  1 eigenvalues not converged
     c_bands:  1 eigenvalues not converged
     c_bands:  1 eigenvalues not converged
     c_bands:  1 eigenvalues not converged
     c_bands:  1 eigenvalues not converged
     c_bands:  2 eigenvalues not converged
     c_bands:  1 eigenvalues not converged
     c_bands:  1 eigenvalues not converged
     c_bands:  1 eigenvalues not converged
     c_bands:  1 eigenvalues not converged
     c_bands:  2 eigenvalues not converged

     ethr =  1.00E-13,  avg # of iterations =113.6

     total cpu time spent up to now is    84188.6 secs

     End of band structure calculation

     Number of k-points >= 100: set verbosity='high' to print the bands.

     the Fermi energy is    -5.1642 ev
     (compare with:    -5.1647 eV, computed in scf)

     Writing all to output data dir /tmpu/isholek_g/isholek/MIGUEL/QE/Hydrogen/111_2x2/SAVE/Ni3Pd1_111-T2.save/ :
     XML data file, pseudopotentials, collected wavefunctions
 
     init_run     :      6.39s CPU      7.41s WALL (       1 calls)
     electrons    :  82481.68s CPU  83921.75s WALL (       1 calls)

     Called by init_run:
     wfcinit      :      0.00s CPU      0.00s WALL (       1 calls)
     potinit      :      3.81s CPU      4.64s WALL (       1 calls)
     hinit0       :      1.05s CPU      1.15s WALL (       1 calls)

     Called by electrons:
     c_bands      :  82479.99s CPU  83920.04s WALL (       1 calls)
     v_of_rho     :      0.85s CPU      0.91s WALL (       1 calls)
     newd         :      0.21s CPU      0.23s WALL (       1 calls)
     PAW_pot      :      1.30s CPU      1.35s WALL (       1 calls)

     Called by c_bands:
     init_us_2    :      0.75s CPU      0.77s WALL (     100 calls)
     init_us_2:cp :      0.75s CPU      0.77s WALL (     100 calls)
     cegterg      :  61028.78s CPU  62080.06s WALL (     592 calls)

     Called by *egterg:
     cdiaghg      :   1858.66s CPU   1899.88s WALL (   11114 calls)
     h_psi        :  51934.80s CPU  52815.64s WALL (   11706 calls)
     s_psi        :    491.91s CPU    505.81s WALL (   11706 calls)
     g_psi        :     28.32s CPU     29.40s WALL (   11014 calls)

     Called by h_psi:
     h_psi:calbec :   1827.55s CPU   1862.59s WALL (   11706 calls)
     vloc_psi     :  49599.29s CPU  50429.56s WALL (   11706 calls)
     add_vuspsi   :    499.29s CPU    513.07s WALL (   11706 calls)

     General routines
     calbec       :   1827.46s CPU   1862.49s WALL (   11706 calls)
     fft          :      0.68s CPU      0.69s WALL (      23 calls)
     ffts         :      0.07s CPU      0.07s WALL (       2 calls)
     fftw         :  48945.81s CPU  49756.89s WALL ( 2361346 calls)
     interpolate  :      0.14s CPU      0.15s WALL (       2 calls)
     davcio       :      0.03s CPU      1.89s WALL (     200 calls)
 
     Parallel routines
 
     PWSCF        :   1d 0h51m CPU   1d 1h18m WALL

 
   This run was terminated on:  22: 3:22  15May2026            

=------------------------------------------------------------------------------=
   JOB DONE.
=------------------------------------------------------------------------------=
