
     Program PWSCF v.7.3 starts on 21Mar2026 at  0:23:10 

     This program is part of the open-source Quantum ESPRESSO suite
     for quantum simulation of materials; please cite
         "P. Giannozzi et al., J. Phys.:Condens. Matter 21 395502 (2009);
         "P. Giannozzi et al., J. Phys.:Condens. Matter 29 465901 (2017);
         "P. Giannozzi et al., J. Chem. Phys. 152 154105 (2020);
          URL http://www.quantum-espresso.org", 
     in publications or presentations arising from this work. More details at
     http://www.quantum-espresso.org/quote

     Parallel version (MPI), running on    64 processors

     MPI processes distributed on     4 nodes
     236473 MiB available memory on the printing compute node when the environment starts
 
     Reading input from /tmpu/isholek_g/isholek/MIGUEL/QE/Hydrogen/111_2x2/NSCF/Ni3Pd1_111-H_hcp_2-NSCF.in

     Current dimensions of program PWSCF are:
     Max number of different atomic species (ntypx) = 10
     Max number of k-points (npk) =  40000
     Max angular momentum in pseudopotentials (lmaxx) =  4
     file Ni.upf: wavefunction(s)  4S 3D renormalized
     file Pd.upf: wavefunction(s)  5S 4D renormalized
     file H.upf: wavefunction(s)  1S renormalized

     IMPORTANT: XC functional enforced from input :
     Exchange-correlation= PBE
                           (   1   4   3   4   0   0   0)
     Any further DFT definition will be discarded
     Please, verify this is what you really want


     Atomic positions and unit cell read from directory:
     /tmpu/isholek_g/isholek/MIGUEL/QE/Hydrogen/111_2x2/SAVE/Ni3Pd1_111-H_hcp_2.save/
 
     Message from routine find_sym:
     Not a group! Trying with lower acceptance parameter...
     Message from routine find_sym:
     Symmetry operations form a group
 
     K-points division:     npool     =       8
     R & G space division:  proc/nbgrp/npool/nimage =       8
     Subspace diagonalization in iterative solution of the eigenvalue problem:
     one sub-group per band group will be used
     scalapack distributed-memory algorithm (size of sub-group:  2*  2 procs)

 
     Parallelization info
     --------------------
     sticks:   dense  smooth     PW     G-vecs:    dense   smooth      PW
     Min         375     188     54               106317    37608    5930
     Max         376     189     55               106344    37623    5959
     Sum        3001    1507    433               850625   300931   47527
 
     Using Slab Decomposition
 

     Title: 
     Ni3Pd1_111-H_hcp_2-NSCF                                                    


     bravais-lattice index     =            0
     lattice parameter (alat)  =       9.5206  a.u.
     unit-cell volume          =    4789.0025 (a.u.)^3
     number of atoms/cell      =           25
     number of atomic types    =            3
     number of electrons       =       241.00
     number of Kohn-Sham states=          145
     kinetic-energy cutoff     =      60.0000  Ry
     charge density cutoff     =     480.0000  Ry
     Exchange-correlation= PBE
                           (   1   4   3   4   0   0   0)

     celldm(1)=   9.520593  celldm(2)=   0.000000  celldm(3)=   0.000000
     celldm(4)=   0.000000  celldm(5)=   0.000000  celldm(6)=   0.000000

     crystal axes: (cart. coord. in units of alat)
               a(1) = (   1.000000   0.000000   0.000000 )  
               a(2) = (   0.500000   0.866025   0.000000 )  
               a(3) = (   0.000000   0.000000   6.408000 )  

     reciprocal axes: (cart. coord. in units 2 pi/alat)
               b(1) = (  1.000000 -0.577350  0.000000 )  
               b(2) = (  0.000000  1.154701  0.000000 )  
               b(3) = (  0.000000  0.000000  0.156055 )  


     PseudoPot. # 1 for Ni read from file:
     /tmpu/isholek_g/isholek/MIGUEL/PP/PAW/Ni.upf
     MD5 check sum: d88365a95a5e142bd87181c2c8b16588
     Pseudo is Projector augmented-wave + core cor, Zval = 10.0
     Generated using "atomic" code by A. Dal Corso  v.5.0.2 svn rev. 9415
     Shape of augmentation charge: PSQ
     Using radial grid of 1195 points,  6 beta functions with: 
                l(1) =   0
                l(2) =   0
                l(3) =   1
                l(4) =   1
                l(5) =   2
                l(6) =   2
     Q(r) pseudized with 0 coefficients 


     PseudoPot. # 2 for Pd read from file:
     /tmpu/isholek_g/isholek/MIGUEL/PP/PAW/Pd.upf
     MD5 check sum: e9d6f14fd83b79f8105499163af174c9
     Pseudo is Projector augmented-wave + core cor, Zval = 10.0
     Generated using "atomic" code by A. Dal Corso  v.5.0.2 svn rev. 9415
     Shape of augmentation charge: PSQ
     Using radial grid of 1235 points,  6 beta functions with: 
                l(1) =   0
                l(2) =   0
                l(3) =   1
                l(4) =   1
                l(5) =   2
                l(6) =   2
     Q(r) pseudized with 0 coefficients 


     PseudoPot. # 3 for H  read from file:
     /tmpu/isholek_g/isholek/MIGUEL/PP/PAW/H.upf
     MD5 check sum: 4cbe42a24e15140179a93d5bf84f2220
     Pseudo is Projector augmented-wave, Zval =  1.0
     Generated using "atomic" code by A. Dal Corso  v.5.0.2 svn rev. 9415
     Shape of augmentation charge: PSQ
     Using radial grid of  929 points,  2 beta functions with: 
                l(1) =   0
                l(2) =   0
     Q(r) pseudized with 0 coefficients 


     atomic species   valence    mass     pseudopotential
     Ni               10.00    58.69340     Ni( 1.00)
     Pd               10.00   106.42000     Pd( 1.00)
     H                 1.00     1.00794     H ( 1.00)

     Starting magnetic structure 
     atomic species   magnetization
     Ni              0.650
     Pd              0.100
     H               0.000

     No symmetry found



   Cartesian axes

     site n.     atom                  positions (alat units)
         1        Ni     tau(   1) = (   1.0000055   0.5773497   2.1833712  )
         2        Ni     tau(   2) = (   0.2499946   0.1443334   2.1833775  )
         3        Pd     tau(   3) = (   0.5000045   0.5773498   2.1833823  )
         4        Ni     tau(   4) = (   0.7499961   0.1443432   2.1833870  )
         5        Ni     tau(   5) = (   0.5000055   0.2886746   2.5916194  )
         6        Ni     tau(   6) = (   1.2499946   0.7216837   2.5916258  )
         7        Pd     tau(   7) = (   1.0000045   0.2886747   2.5916306  )
         8        Ni     tau(   8) = (   0.7499961   0.7216934   2.5916353  )
         9        Ni     tau(   9) = (   0.4999997   0.8657861   2.9996405  )
        10        Ni     tau(  10) = (   0.7497932   0.4331347   2.9996384  )
        11        Pd     tau(  11) = (   1.0000013   0.8660280   2.9983751  )
        12        Ni     tau(  12) = (   1.2502108   0.4331344   2.9996382  )
        13        Ni     tau(  13) = (   1.0000007   0.5772514   3.4074301  )
        14        Ni     tau(  14) = (   0.2499145   0.1443879   3.4074307  )
        15        Pd     tau(  15) = (   0.5000007   0.5773505   3.4096277  )
        16        Ni     tau(  16) = (   0.7500867   0.1443877   3.4074309  )
        17        Ni     tau(  17) = (   0.5000003   0.2857305   3.8153500  )
        18        Ni     tau(  18) = (   1.2474501   0.7231605   3.8153498  )
        19        Pd     tau(  19) = (   1.0000004   0.2886756   3.8172043  )
        20        Ni     tau(  20) = (   0.7525507   0.7231604   3.8153499  )
        21        Ni     tau(  21) = (   0.5000002   0.8621139   4.2216341  )
        22        Ni     tau(  22) = (   0.7466126   0.4349687   4.2216342  )
        23        Pd     tau(  23) = (   1.0000002   0.8660255   4.2347957  )
        24        Ni     tau(  24) = (   1.2533878   0.4349687   4.2216344  )
        25        H      tau(  25) = (   0.5000003   0.5773503   4.4070960  )

     --------------------------------------------
     DFT-D3 Dispersion Correction (3-body terms):
     --------------------------------------------
       Reference C6 values for interpolation: 

         atom   Coordination number   C6
         H          0.912             6.05
         H          0.000            15.18
         Ni         0.000          1149.49
         Ni         1.794           356.66
         Ni         6.546           257.56
         Ni         6.292           283.75
         Pd         0.000          1217.01
         Pd         1.863           573.90
         Pd         5.710           531.75

       Values used:

         atom   Coordination number  R0_AB[au]  C6      C8
         Ni         6.658            3.162    267.12  22382.81
         Ni         6.659            3.162    267.12  22382.65
         Pd         7.597            3.168    531.75  48720.73
         Ni         6.659            3.162    267.12  22382.45
         Ni         8.919            3.162    257.71  21594.66
         Ni         8.919            3.162    257.71  21594.66
         Pd        10.220            3.168    531.75  48720.73
         Ni         8.919            3.162    257.72  21594.66
         Ni         8.922            3.162    257.71  21594.60
         Ni         8.922            3.162    257.71  21594.60
         Pd        10.237            3.168    531.75  48720.73
         Ni         8.922            3.162    257.71  21594.60
         Ni         8.930            3.162    257.71  21594.39
         Ni         8.930            3.162    257.71  21594.39
         Pd        10.214            3.168    531.75  48720.73
         Ni         8.930            3.162    257.71  21594.39
         Ni         8.910            3.162    257.72  21594.90
         Ni         8.910            3.162    257.72  21594.90
         Pd        10.200            3.168    531.75  48720.73
         Ni         8.910            3.162    257.72  21594.90
         Ni         7.264            3.162    261.33  21897.21
         Ni         7.264            3.162    261.33  21897.21
         Pd         7.459            3.168    531.75  48720.73
         Ni         7.264            3.162    261.33  21897.21
         H          1.751            2.062      6.05     73.18

         Molecular C6 ( Ry / a.u.^6 ) =    185663.62


     number of k points=   400  Marzari-Vanderbilt smearing, width (Ry)=  0.0147

     Number of k-points >= 100: set verbosity='high' to print them.

     Dense  grid:   850625 G-vectors     FFT dimensions: (  72,  72, 432)

     Smooth grid:   300931 G-vectors     FFT dimensions: (  48,  48, 320)

     Estimated max dynamical RAM per process >     164.16 MB

     Estimated total dynamical RAM >      10.26 GB
 ----2D----2D----2D----2D----2D----2D----2D----2D----2D----2D----2D----2D
  The code is running with the 2D cutoff
  Please refer to:
  Sohier, T., Calandra, M., & Mauri, F. (2017), 
  Density functional perturbation theory for gated two-dimensional heterostructu
 res:
  Theoretical developments and application to flexural phonons in graphene.
  Physical Review B, 96(7), 75448. https://doi.org/10.1103/PhysRevB.96.075448
 ----2D----2D----2D----2D----2D----2D----2D----2D----2D----2D----2D----2D

     Check: negative core charge=   -0.000001
     Generating pointlists ...
     new r_m :   0.1402 (alat units)  1.3346 (a.u.) for type    1
     new r_m :   0.2057 (alat units)  1.9588 (a.u.) for type    2
     new r_m :   0.1402 (alat units)  1.3346 (a.u.) for type    3

     The potential is recalculated from file :
     /tmpu/isholek_g/isholek/MIGUEL/QE/Hydrogen/111_2x2/SAVE/Ni3Pd1_111-H_hcp_2.save/charge-density


     negative rho (up, down):  2.448E-04 1.924E-04
     Starting wfcs are  217 randomized atomic wfcs
     Checking if some PAW data can be deallocated... 

     Band Structure Calculation
     Davidson diagonalization with overlap
     c_bands:  2 eigenvalues not converged
     c_bands:  1 eigenvalues not converged
     c_bands:  1 eigenvalues not converged
     c_bands:  1 eigenvalues not converged
     c_bands:  1 eigenvalues not converged
     c_bands:  1 eigenvalues not converged
     c_bands:  2 eigenvalues not converged
     c_bands:  1 eigenvalues not converged
     c_bands:  1 eigenvalues not converged
     c_bands:  1 eigenvalues not converged
     c_bands:  1 eigenvalues not converged
     c_bands:  2 eigenvalues not converged
     c_bands:  1 eigenvalues not converged
     c_bands:  1 eigenvalues not converged
     c_bands:  1 eigenvalues not converged
     c_bands:  2 eigenvalues not converged
     c_bands:  1 eigenvalues not converged
     c_bands:  2 eigenvalues not converged
     c_bands:  1 eigenvalues not converged
     c_bands:  1 eigenvalues not converged
     c_bands:  1 eigenvalues not converged
     c_bands:  1 eigenvalues not converged
     c_bands:  1 eigenvalues not converged

     ethr =  1.00E-13,  avg # of iterations =108.6

     total cpu time spent up to now is    72200.8 secs

     End of band structure calculation

     Number of k-points >= 100: set verbosity='high' to print the bands.

     the Fermi energy is    -5.0781 ev
     (compare with:    -5.0781 eV, computed in scf)

     Writing all to output data dir /tmpu/isholek_g/isholek/MIGUEL/QE/Hydrogen/111_2x2/SAVE/Ni3Pd1_111-H_hcp_2.save/ :
     XML data file, pseudopotentials, collected wavefunctions
 
     init_run     :      5.10s CPU      5.52s WALL (       1 calls)
     electrons    :  71692.00s CPU  72032.94s WALL (       1 calls)

     Called by init_run:
     wfcinit      :      0.00s CPU      0.00s WALL (       1 calls)
     potinit      :      3.21s CPU      3.53s WALL (       1 calls)
     hinit0       :      0.42s CPU      0.45s WALL (       1 calls)

     Called by electrons:
     c_bands      :  71691.43s CPU  72031.68s WALL (       1 calls)
     v_of_rho     :      0.43s CPU      0.47s WALL (       1 calls)
     newd         :      0.37s CPU      0.39s WALL (       1 calls)
     PAW_pot      :      1.32s CPU      1.33s WALL (       1 calls)

     Called by c_bands:
     init_us_2    :      2.00s CPU      2.20s WALL (     100 calls)
     init_us_2:cp :      2.00s CPU      2.15s WALL (     100 calls)
     cegterg      :   9135.46s CPU   9360.33s WALL (     555 calls)

     Called by *egterg:
     cdiaghg      :    311.97s CPU    313.76s WALL (   10518 calls)
     h_psi        :   5550.13s CPU   5755.74s WALL (   11073 calls)
     s_psi        :    653.29s CPU    656.24s WALL (   11073 calls)
     g_psi        :     38.27s CPU     38.46s WALL (   10418 calls)

     Called by h_psi:
     h_psi:calbec :    624.15s CPU    627.46s WALL (   11073 calls)
     vloc_psi     :   4216.19s CPU   4411.69s WALL (   11073 calls)
     add_vuspsi   :    658.14s CPU    661.34s WALL (   11073 calls)

     General routines
     calbec       :    624.07s CPU    627.40s WALL (   11073 calls)
     fft          :      0.28s CPU      0.30s WALL (      23 calls)
     ffts         :      0.02s CPU      0.02s WALL (       2 calls)
     fftw         :   2306.75s CPU   2434.37s WALL ( 2329314 calls)
     interpolate  :      0.05s CPU      0.05s WALL (       2 calls)
     davcio       :      0.03s CPU      1.97s WALL (     200 calls)
 
     Parallel routines
 
     PWSCF        :     20h26m CPU     20h32m WALL

 
   This run was terminated on:  20:55:33  21Mar2026            

=------------------------------------------------------------------------------=
   JOB DONE.
=------------------------------------------------------------------------------=
