
     Program PWSCF v.7.3 starts on  6Sep2025 at  0:10:46 

     This program is part of the open-source Quantum ESPRESSO suite
     for quantum simulation of materials; please cite
         "P. Giannozzi et al., J. Phys.:Condens. Matter 21 395502 (2009);
         "P. Giannozzi et al., J. Phys.:Condens. Matter 29 465901 (2017);
         "P. Giannozzi et al., J. Chem. Phys. 152 154105 (2020);
          URL http://www.quantum-espresso.org", 
     in publications or presentations arising from this work. More details at
     http://www.quantum-espresso.org/quote

     Parallel version (MPI), running on    30 processors

     MPI processes distributed on     1 nodes
     222266 MiB available memory on the printing compute node when the environment starts
 
     Waiting for input...
     Reading input from standard input

     Current dimensions of program PWSCF are:
     Max number of different atomic species (ntypx) = 10
     Max number of k-points (npk) =  40000
     Max angular momentum in pseudopotentials (lmaxx) =  4
     file Ni.upf: wavefunction(s)  4S 3D renormalized

     IMPORTANT: XC functional enforced from input :
     Exchange-correlation= PBE
                           (   1   4   3   4   0   0   0)
     Any further DFT definition will be discarded
     Please, verify this is what you really want

     Found identity + ( -0.5000 -0.5000  0.0000) symmetry
     This is a supercell, fractional translations are disabled
     Message from routine setup:
     using ibrav=0 with symmetry is DISCOURAGED, use correct ibrav instead
 
     K-points division:     npool     =       2
     R & G space division:  proc/nbgrp/npool/nimage =      15
     Subspace diagonalization in iterative solution of the eigenvalue problem:
     a serial algorithm will be used

 
     Parallelization info
     --------------------
     sticks:   dense  smooth     PW     G-vecs:    dense   smooth      PW
     Min         107      53     16                 3258     1151     196
     Max         109      55     17                 3260     1152     201
     Sum        1617     805    241                48885    17269    2945
 
     Using Slab Decomposition
 

     Title: 
     Ni_k_21                                                                    


     bravais-lattice index     =            0
     lattice parameter (alat)  =       6.5025  a.u.
     unit-cell volume          =     274.8993 (a.u.)^3
     number of atoms/cell      =            4
     number of atomic types    =            1
     number of electrons       =        40.00
     number of Kohn-Sham states=           24
     kinetic-energy cutoff     =      60.0000  Ry
     charge density cutoff     =     480.0000  Ry
     scf convergence threshold =      6.4E-09
     mixing beta               =       0.5000
     number of iterations used =           10  local-TF  mixing
     Exchange-correlation= PBE
                           (   1   4   3   4   0   0   0)

     celldm(1)=   6.502548  celldm(2)=   0.000000  celldm(3)=   0.000000
     celldm(4)=   0.000000  celldm(5)=   0.000000  celldm(6)=   0.000000

     crystal axes: (cart. coord. in units of alat)
               a(1) = (   0.999941   0.000000   0.000000 )  
               a(2) = (   0.000000   0.999941   0.000000 )  
               a(3) = (   0.000000   0.000000   0.999941 )  

     reciprocal axes: (cart. coord. in units 2 pi/alat)
               b(1) = (  1.000059  0.000000  0.000000 )  
               b(2) = (  0.000000  1.000059  0.000000 )  
               b(3) = (  0.000000  0.000000  1.000059 )  


     PseudoPot. # 1 for Ni read from file:
     /tmpu/mdach_g/mdach/PP/Ni.upf
     MD5 check sum: d88365a95a5e142bd87181c2c8b16588
     Pseudo is Projector augmented-wave + core cor, Zval = 10.0
     Generated using "atomic" code by A. Dal Corso  v.5.0.2 svn rev. 9415
     Shape of augmentation charge: PSQ
     Using radial grid of 1195 points,  6 beta functions with: 
                l(1) =   0
                l(2) =   0
                l(3) =   1
                l(4) =   1
                l(5) =   2
                l(6) =   2
     Q(r) pseudized with 0 coefficients 


     atomic species   valence    mass     pseudopotential
     Ni               10.00    58.69340     Ni( 1.00)

     Starting magnetic structure 
     atomic species   magnetization
     Ni              0.200

      6 Sym. Ops. (no inversion) found



   Cartesian axes

     site n.     atom                  positions (alat units)
         1        Ni     tau(   1) = (  -0.0034654  -0.0034654  -0.0034654  )
         2        Ni     tau(   2) = (   0.4965063   0.4965063  -0.0034647  )
         3        Ni     tau(   3) = (   0.4965063  -0.0034647   0.4965063  )
         4        Ni     tau(   4) = (  -0.0034647   0.4965063   0.4965063  )

     --------------------------------------------
     DFT-D3 Dispersion Correction (3-body terms):
     --------------------------------------------
       Reference C6 values for interpolation: 

         atom   Coordination number   C6
         Ni         0.000          1149.49
         Ni         1.794           356.66
         Ni         6.546           257.56
         Ni         6.292           283.75

       Values used:

         atom   Coordination number  R0_AB[au]  C6      C8
         Ni         9.784            3.162    257.59  21584.20
         Ni         9.784            3.162    257.59  21584.20
         Ni         9.784            3.162    257.59  21584.20
         Ni         9.784            3.162    257.59  21584.20

         Molecular C6 ( Ry / a.u.^6 ) =      4121.44


     number of k points=   891  Methfessel-Paxton smearing, width (Ry)=  0.0147

     Number of k-points >= 100: set verbosity='high' to print them.

     Dense  grid:    48885 G-vectors     FFT dimensions: (  45,  45,  45)

     Smooth grid:    17269 G-vectors     FFT dimensions: (  36,  36,  36)

     Estimated max dynamical RAM per process >      57.72 MB

     Estimated total dynamical RAM >       1.66 GB
     Generating pointlists ...
     new r_m :   0.2917 (alat units)  1.8966 (a.u.) for type    1

     Initial potential from superposition of free atoms

     starting charge      39.9990, renormalised to      40.0000
     Starting wfcs are   36 atomic wfcs
     Checking if some PAW data can be deallocated... 

     total cpu time spent up to now is        9.0 secs

     Self-consistent Calculation

     iteration #  1     ecut=    60.00 Ry     beta= 0.50
     Davidson diagonalization with overlap
     ethr =  1.00E-02,  avg # of iterations =  2.0

     Threshold (ethr) on eigenvalues was too large:
     Diagonalizing with lowered threshold

     Davidson diagonalization with overlap
     ethr =  1.91E-04,  avg # of iterations =  3.2

     total cpu time spent up to now is       60.5 secs

     total energy              =    -743.11783233 Ry
     estimated scf accuracy    <       0.07200080 Ry

     total magnetization       =     3.52 Bohr mag/cell
     absolute magnetization    =     3.52 Bohr mag/cell

     iteration #  2     ecut=    60.00 Ry     beta= 0.50
     Davidson diagonalization with overlap
     ethr =  1.80E-04,  avg # of iterations =  1.0

     total cpu time spent up to now is       78.7 secs

     total energy              =    -743.14330108 Ry
     estimated scf accuracy    <       0.02670486 Ry

     total magnetization       =     3.14 Bohr mag/cell
     absolute magnetization    =     3.26 Bohr mag/cell

     iteration #  3     ecut=    60.00 Ry     beta= 0.50
     Davidson diagonalization with overlap
     ethr =  6.68E-05,  avg # of iterations =  1.0

     total cpu time spent up to now is       96.7 secs

     total energy              =    -743.15018715 Ry
     estimated scf accuracy    <       0.00046534 Ry

     total magnetization       =     2.51 Bohr mag/cell
     absolute magnetization    =     2.87 Bohr mag/cell

     iteration #  4     ecut=    60.00 Ry     beta= 0.50
     Davidson diagonalization with overlap
     ethr =  1.16E-06,  avg # of iterations =  3.6

     total cpu time spent up to now is      125.1 secs

     total energy              =    -743.15055750 Ry
     estimated scf accuracy    <       0.00004967 Ry

     total magnetization       =     2.49 Bohr mag/cell
     absolute magnetization    =     2.87 Bohr mag/cell

     iteration #  5     ecut=    60.00 Ry     beta= 0.50
     Davidson diagonalization with overlap
     ethr =  1.24E-07,  avg # of iterations =  3.0

     total cpu time spent up to now is      152.4 secs

     total energy              =    -743.15059893 Ry
     estimated scf accuracy    <       0.00001988 Ry

     total magnetization       =     2.49 Bohr mag/cell
     absolute magnetization    =     2.83 Bohr mag/cell

     iteration #  6     ecut=    60.00 Ry     beta= 0.50
     Davidson diagonalization with overlap
     ethr =  4.97E-08,  avg # of iterations =  1.8

     total cpu time spent up to now is      179.0 secs

     total energy              =    -743.15060227 Ry
     estimated scf accuracy    <       0.00000213 Ry

     total magnetization       =     2.49 Bohr mag/cell
     absolute magnetization    =     2.83 Bohr mag/cell

     iteration #  7     ecut=    60.00 Ry     beta= 0.50
     Davidson diagonalization with overlap
     ethr =  5.33E-09,  avg # of iterations =  2.8

     total cpu time spent up to now is      209.3 secs

     total energy              =    -743.15060321 Ry
     estimated scf accuracy    <       0.00000010 Ry

     total magnetization       =     2.49 Bohr mag/cell
     absolute magnetization    =     2.83 Bohr mag/cell

     iteration #  8     ecut=    60.00 Ry     beta= 0.50
     Davidson diagonalization with overlap
     ethr =  2.61E-10,  avg # of iterations =  3.1

     total cpu time spent up to now is      242.0 secs

     total energy              =    -743.15060337 Ry
     estimated scf accuracy    <       0.00000013 Ry

     total magnetization       =     2.49 Bohr mag/cell
     absolute magnetization    =     2.82 Bohr mag/cell

     iteration #  9     ecut=    60.00 Ry     beta= 0.50
     Davidson diagonalization with overlap
     ethr =  2.61E-10,  avg # of iterations =  2.5
 
     Magnetic moment per site  (integrated on atomic sphere of radius R)
     atom   1 (R=0.292)  charge=  8.6606  magn=  0.6586
     atom   2 (R=0.292)  charge=  8.6605  magn=  0.6586
     atom   3 (R=0.292)  charge=  8.6605  magn=  0.6586
     atom   4 (R=0.292)  charge=  8.6605  magn=  0.6586

     total cpu time spent up to now is      264.9 secs

     End of self-consistent calculation

     Number of k-points >= 100: set verbosity='high' to print the bands.

     the Fermi energy is    14.9485 ev

!    total energy              =    -743.15060341 Ry
     total all-electron energy =    -12166.717425 Ry
     estimated scf accuracy    <          6.3E-09 Ry
     smearing contrib. (-TS)   =      -0.00041394 Ry
     internal energy E=F+TS    =    -743.15018947 Ry

     The total energy is F=E-TS. E is the sum of the following terms:
     one-electron contribution =     -31.41577222 Ry
     hartree contribution      =      78.11066074 Ry
     xc contribution           =    -167.16405501 Ry
     ewald contribution        =    -282.05148299 Ry
     DFT-D3 Dispersion         =      -0.33998447 Ry
     one-center paw contrib.   =    -340.28955552 Ry

     total magnetization       =     2.49 Bohr mag/cell
     absolute magnetization    =     2.82 Bohr mag/cell

     convergence has been achieved in   9 iterations

     Writing all to output data dir ./Ni_k_21.save/ :
     XML data file, charge density, pseudopotentials, collected wavefunctions
 
     init_run     :      8.40s CPU      8.86s WALL (       1 calls)
     electrons    :    163.41s CPU    255.87s WALL (       1 calls)

     Called by init_run:
     wfcinit      :      7.95s CPU      8.38s WALL (       1 calls)
     potinit      :      0.27s CPU      0.29s WALL (       1 calls)
     hinit0       :      0.10s CPU      0.11s WALL (       1 calls)

     Called by electrons:
     c_bands      :    137.68s CPU    225.93s WALL (      10 calls)
     sum_band     :     23.55s CPU     27.37s WALL (      10 calls)
     v_of_rho     :      0.13s CPU      0.14s WALL (      10 calls)
     newd         :      0.05s CPU      0.09s WALL (      10 calls)
     PAW_pot      :      1.95s CPU      2.13s WALL (      10 calls)
     mix_rho      :      0.04s CPU      0.04s WALL (      10 calls)
     energy_dftd3 :      0.20s CPU      0.31s WALL (       1 calls)

     Called by c_bands:
     init_us_2    :      1.27s CPU      1.57s WALL (   18711 calls)
     init_us_2:cp :      1.22s CPU      1.51s WALL (   18711 calls)
     cegterg      :    119.21s CPU    171.60s WALL (    8910 calls)

     Called by *egterg:
     cdiaghg      :     28.38s CPU     47.93s WALL (   29964 calls)
     h_psi        :     82.12s CPU    109.93s WALL (   31746 calls)
     s_psi        :      2.00s CPU      2.92s WALL (   31746 calls)
     g_psi        :      0.32s CPU      0.44s WALL (   21945 calls)

     Called by h_psi:
     h_psi:calbec :      3.68s CPU      5.05s WALL (   31746 calls)
     vloc_psi     :     75.84s CPU    101.28s WALL (   31746 calls)
     add_vuspsi   :      2.12s CPU      2.95s WALL (   31746 calls)

     General routines
     calbec       :      5.32s CPU      6.83s WALL (   40656 calls)
     fft          :      0.10s CPU      0.11s WALL (     246 calls)
     ffts         :      0.05s CPU      0.05s WALL (     196 calls)
     fftw         :     86.70s CPU    111.67s WALL ( 1357704 calls)
     interpolate  :      0.01s CPU      0.01s WALL (      20 calls)
 
     Parallel routines
 
     PWSCF        :   2m54.21s CPU   4m31.28s WALL

 
   This run was terminated on:   0:15:17   6Sep2025            

=------------------------------------------------------------------------------=
   JOB DONE.
=------------------------------------------------------------------------------=
