
     Program PWSCF v.7.3 starts on  5Sep2025 at 23:47: 1 

     This program is part of the open-source Quantum ESPRESSO suite
     for quantum simulation of materials; please cite
         "P. Giannozzi et al., J. Phys.:Condens. Matter 21 395502 (2009);
         "P. Giannozzi et al., J. Phys.:Condens. Matter 29 465901 (2017);
         "P. Giannozzi et al., J. Chem. Phys. 152 154105 (2020);
          URL http://www.quantum-espresso.org", 
     in publications or presentations arising from this work. More details at
     http://www.quantum-espresso.org/quote

     Parallel version (MPI), running on    30 processors

     MPI processes distributed on     1 nodes
     224456 MiB available memory on the printing compute node when the environment starts
 
     Waiting for input...
     Reading input from standard input

     Current dimensions of program PWSCF are:
     Max number of different atomic species (ntypx) = 10
     Max number of k-points (npk) =  40000
     Max angular momentum in pseudopotentials (lmaxx) =  4
     file Ni.upf: wavefunction(s)  4S 3D renormalized

     IMPORTANT: XC functional enforced from input :
     Exchange-correlation= PBE
                           (   1   4   3   4   0   0   0)
     Any further DFT definition will be discarded
     Please, verify this is what you really want

     Found identity + ( -0.5000 -0.5000  0.0000) symmetry
     This is a supercell, fractional translations are disabled
     Message from routine setup:
     using ibrav=0 with symmetry is DISCOURAGED, use correct ibrav instead
 
     K-points division:     npool     =       2
     R & G space division:  proc/nbgrp/npool/nimage =      15
     Subspace diagonalization in iterative solution of the eigenvalue problem:
     a serial algorithm will be used

 
     Parallelization info
     --------------------
     sticks:   dense  smooth     PW     G-vecs:    dense   smooth      PW
     Min         107      53     16                 3258     1151     196
     Max         109      55     17                 3260     1152     201
     Sum        1617     805    241                48885    17269    2945
 
     Using Slab Decomposition
 

     Title: 
     Ni_k_12                                                                    


     bravais-lattice index     =            0
     lattice parameter (alat)  =       6.5025  a.u.
     unit-cell volume          =     274.8993 (a.u.)^3
     number of atoms/cell      =            4
     number of atomic types    =            1
     number of electrons       =        40.00
     number of Kohn-Sham states=           24
     kinetic-energy cutoff     =      60.0000  Ry
     charge density cutoff     =     480.0000  Ry
     scf convergence threshold =      6.4E-09
     mixing beta               =       0.5000
     number of iterations used =           10  local-TF  mixing
     Exchange-correlation= PBE
                           (   1   4   3   4   0   0   0)

     celldm(1)=   6.502548  celldm(2)=   0.000000  celldm(3)=   0.000000
     celldm(4)=   0.000000  celldm(5)=   0.000000  celldm(6)=   0.000000

     crystal axes: (cart. coord. in units of alat)
               a(1) = (   0.999941   0.000000   0.000000 )  
               a(2) = (   0.000000   0.999941   0.000000 )  
               a(3) = (   0.000000   0.000000   0.999941 )  

     reciprocal axes: (cart. coord. in units 2 pi/alat)
               b(1) = (  1.000059  0.000000  0.000000 )  
               b(2) = (  0.000000  1.000059  0.000000 )  
               b(3) = (  0.000000  0.000000  1.000059 )  


     PseudoPot. # 1 for Ni read from file:
     /tmpu/mdach_g/mdach/PP/Ni.upf
     MD5 check sum: d88365a95a5e142bd87181c2c8b16588
     Pseudo is Projector augmented-wave + core cor, Zval = 10.0
     Generated using "atomic" code by A. Dal Corso  v.5.0.2 svn rev. 9415
     Shape of augmentation charge: PSQ
     Using radial grid of 1195 points,  6 beta functions with: 
                l(1) =   0
                l(2) =   0
                l(3) =   1
                l(4) =   1
                l(5) =   2
                l(6) =   2
     Q(r) pseudized with 0 coefficients 


     atomic species   valence    mass     pseudopotential
     Ni               10.00    58.69340     Ni( 1.00)

     Starting magnetic structure 
     atomic species   magnetization
     Ni              0.200

      6 Sym. Ops. (no inversion) found



   Cartesian axes

     site n.     atom                  positions (alat units)
         1        Ni     tau(   1) = (  -0.0034654  -0.0034654  -0.0034654  )
         2        Ni     tau(   2) = (   0.4965063   0.4965063  -0.0034647  )
         3        Ni     tau(   3) = (   0.4965063  -0.0034647   0.4965063  )
         4        Ni     tau(   4) = (  -0.0034647   0.4965063   0.4965063  )

     --------------------------------------------
     DFT-D3 Dispersion Correction (3-body terms):
     --------------------------------------------
       Reference C6 values for interpolation: 

         atom   Coordination number   C6
         Ni         0.000          1149.49
         Ni         1.794           356.66
         Ni         6.546           257.56
         Ni         6.292           283.75

       Values used:

         atom   Coordination number  R0_AB[au]  C6      C8
         Ni         9.784            3.162    257.59  21584.20
         Ni         9.784            3.162    257.59  21584.20
         Ni         9.784            3.162    257.59  21584.20
         Ni         9.784            3.162    257.59  21584.20

         Molecular C6 ( Ry / a.u.^6 ) =      4121.44


     number of k points=   189  Methfessel-Paxton smearing, width (Ry)=  0.0147

     Number of k-points >= 100: set verbosity='high' to print them.

     Dense  grid:    48885 G-vectors     FFT dimensions: (  45,  45,  45)

     Smooth grid:    17269 G-vectors     FFT dimensions: (  36,  36,  36)

     Estimated max dynamical RAM per process >      20.95 MB

     Estimated total dynamical RAM >     598.77 MB
     Generating pointlists ...
     new r_m :   0.2917 (alat units)  1.8966 (a.u.) for type    1

     Initial potential from superposition of free atoms

     starting charge      39.9990, renormalised to      40.0000
     Starting wfcs are   36 atomic wfcs
     Checking if some PAW data can be deallocated... 

     total cpu time spent up to now is        2.6 secs

     Self-consistent Calculation

     iteration #  1     ecut=    60.00 Ry     beta= 0.50
     Davidson diagonalization with overlap
     ethr =  1.00E-02,  avg # of iterations =  2.0

     Threshold (ethr) on eigenvalues was too large:
     Diagonalizing with lowered threshold

     Davidson diagonalization with overlap
     ethr =  1.94E-04,  avg # of iterations =  3.3

     total cpu time spent up to now is       12.9 secs

     total energy              =    -743.11795579 Ry
     estimated scf accuracy    <       0.07254080 Ry

     total magnetization       =     3.51 Bohr mag/cell
     absolute magnetization    =     3.51 Bohr mag/cell

     iteration #  2     ecut=    60.00 Ry     beta= 0.50
     Davidson diagonalization with overlap
     ethr =  1.81E-04,  avg # of iterations =  1.0

     total cpu time spent up to now is       16.8 secs

     total energy              =    -743.14333990 Ry
     estimated scf accuracy    <       0.02659592 Ry

     total magnetization       =     3.13 Bohr mag/cell
     absolute magnetization    =     3.26 Bohr mag/cell

     iteration #  3     ecut=    60.00 Ry     beta= 0.50
     Davidson diagonalization with overlap
     ethr =  6.65E-05,  avg # of iterations =  1.0

     total cpu time spent up to now is       20.9 secs

     total energy              =    -743.15009064 Ry
     estimated scf accuracy    <       0.00030862 Ry

     total magnetization       =     2.56 Bohr mag/cell
     absolute magnetization    =     2.90 Bohr mag/cell

     iteration #  4     ecut=    60.00 Ry     beta= 0.50
     Davidson diagonalization with overlap
     ethr =  7.72E-07,  avg # of iterations =  3.6

     total cpu time spent up to now is       27.3 secs

     total energy              =    -743.15042893 Ry
     estimated scf accuracy    <       0.00004251 Ry

     total magnetization       =     2.53 Bohr mag/cell
     absolute magnetization    =     2.90 Bohr mag/cell

     iteration #  5     ecut=    60.00 Ry     beta= 0.50
     Davidson diagonalization with overlap
     ethr =  1.06E-07,  avg # of iterations =  2.7

     total cpu time spent up to now is       32.4 secs

     total energy              =    -743.15046200 Ry
     estimated scf accuracy    <       0.00002366 Ry

     total magnetization       =     2.53 Bohr mag/cell
     absolute magnetization    =     2.87 Bohr mag/cell

     iteration #  6     ecut=    60.00 Ry     beta= 0.50
     Davidson diagonalization with overlap
     ethr =  5.91E-08,  avg # of iterations =  1.7

     total cpu time spent up to now is       37.9 secs

     total energy              =    -743.15046538 Ry
     estimated scf accuracy    <       0.00000268 Ry

     total magnetization       =     2.53 Bohr mag/cell
     absolute magnetization    =     2.87 Bohr mag/cell

     iteration #  7     ecut=    60.00 Ry     beta= 0.50
     Davidson diagonalization with overlap
     ethr =  6.70E-09,  avg # of iterations =  2.4

     total cpu time spent up to now is       42.8 secs

     total energy              =    -743.15046578 Ry
     estimated scf accuracy    <       0.00000137 Ry

     total magnetization       =     2.53 Bohr mag/cell
     absolute magnetization    =     2.87 Bohr mag/cell

     iteration #  8     ecut=    60.00 Ry     beta= 0.50
     Davidson diagonalization with overlap
     ethr =  3.41E-09,  avg # of iterations =  2.0

     total cpu time spent up to now is       49.2 secs

     total energy              =    -743.15046631 Ry
     estimated scf accuracy    <       0.00000005 Ry

     total magnetization       =     2.53 Bohr mag/cell
     absolute magnetization    =     2.87 Bohr mag/cell

     iteration #  9     ecut=    60.00 Ry     beta= 0.50
     Davidson diagonalization with overlap
     ethr =  1.22E-10,  avg # of iterations =  3.3
 
     Magnetic moment per site  (integrated on atomic sphere of radius R)
     atom   1 (R=0.292)  charge=  8.6604  magn=  0.6689
     atom   2 (R=0.292)  charge=  8.6602  magn=  0.6689
     atom   3 (R=0.292)  charge=  8.6602  magn=  0.6689
     atom   4 (R=0.292)  charge=  8.6602  magn=  0.6689

     total cpu time spent up to now is       56.6 secs

     End of self-consistent calculation

     Number of k-points >= 100: set verbosity='high' to print the bands.

     the Fermi energy is    14.9487 ev

!    total energy              =    -743.15046643 Ry
     total all-electron energy =    -12166.717288 Ry
     estimated scf accuracy    <          4.5E-09 Ry
     smearing contrib. (-TS)   =      -0.00061539 Ry
     internal energy E=F+TS    =    -743.14985104 Ry

     The total energy is F=E-TS. E is the sum of the following terms:
     one-electron contribution =     -31.40974000 Ry
     hartree contribution      =      78.10553078 Ry
     xc contribution           =    -167.16407157 Ry
     ewald contribution        =    -282.05148299 Ry
     DFT-D3 Dispersion         =      -0.33998447 Ry
     one-center paw contrib.   =    -340.29010278 Ry

     total magnetization       =     2.53 Bohr mag/cell
     absolute magnetization    =     2.86 Bohr mag/cell

     convergence has been achieved in   9 iterations

     Writing all to output data dir ./Ni_k_12.save/ :
     XML data file, charge density, pseudopotentials, collected wavefunctions
 
     init_run     :      2.00s CPU      2.29s WALL (       1 calls)
     electrons    :     36.62s CPU     54.03s WALL (       1 calls)

     Called by init_run:
     wfcinit      :      1.78s CPU      1.84s WALL (       1 calls)
     potinit      :      0.13s CPU      0.27s WALL (       1 calls)
     hinit0       :      0.04s CPU      0.10s WALL (       1 calls)

     Called by electrons:
     c_bands      :     28.66s CPU     45.43s WALL (      10 calls)
     sum_band     :      5.37s CPU      5.89s WALL (      10 calls)
     v_of_rho     :      0.07s CPU      0.08s WALL (      10 calls)
     newd         :      0.09s CPU      0.10s WALL (      10 calls)
     PAW_pot      :      2.10s CPU      2.24s WALL (      10 calls)
     mix_rho      :      0.09s CPU      0.09s WALL (      10 calls)
     energy_dftd3 :      0.30s CPU      0.30s WALL (       1 calls)

     Called by c_bands:
     init_us_2    :      0.27s CPU      0.35s WALL (    3969 calls)
     init_us_2:cp :      0.26s CPU      0.34s WALL (    3969 calls)
     cegterg      :     25.16s CPU     32.17s WALL (    1890 calls)

     Called by *egterg:
     cdiaghg      :      5.76s CPU      9.54s WALL (    6255 calls)
     h_psi        :     17.54s CPU     20.32s WALL (    6633 calls)
     s_psi        :      0.42s CPU      0.51s WALL (    6633 calls)
     g_psi        :      0.06s CPU      0.07s WALL (    4554 calls)

     Called by h_psi:
     h_psi:calbec :      0.87s CPU      1.13s WALL (    6633 calls)
     vloc_psi     :     16.12s CPU     18.49s WALL (    6633 calls)
     add_vuspsi   :      0.45s CPU      0.58s WALL (    6633 calls)

     General routines
     calbec       :      1.22s CPU      1.47s WALL (    8523 calls)
     fft          :      0.08s CPU      0.09s WALL (     246 calls)
     ffts         :      0.04s CPU      0.04s WALL (     198 calls)
     fftw         :     18.64s CPU     21.01s WALL (  284376 calls)
     interpolate  :      0.02s CPU      0.02s WALL (      20 calls)
 
     Parallel routines
 
     PWSCF        :     39.07s CPU     57.97s WALL

 
   This run was terminated on:  23:47:59   5Sep2025            

=------------------------------------------------------------------------------=
   JOB DONE.
=------------------------------------------------------------------------------=
