
     Program PWSCF v.7.3 starts on  5Sep2025 at 23:43: 3 

     This program is part of the open-source Quantum ESPRESSO suite
     for quantum simulation of materials; please cite
         "P. Giannozzi et al., J. Phys.:Condens. Matter 21 395502 (2009);
         "P. Giannozzi et al., J. Phys.:Condens. Matter 29 465901 (2017);
         "P. Giannozzi et al., J. Chem. Phys. 152 154105 (2020);
          URL http://www.quantum-espresso.org", 
     in publications or presentations arising from this work. More details at
     http://www.quantum-espresso.org/quote

     Parallel version (MPI), running on    30 processors

     MPI processes distributed on     1 nodes
     225055 MiB available memory on the printing compute node when the environment starts
 
     Waiting for input...
     Reading input from standard input

     Current dimensions of program PWSCF are:
     Max number of different atomic species (ntypx) = 10
     Max number of k-points (npk) =  40000
     Max angular momentum in pseudopotentials (lmaxx) =  4
     file Ni.upf: wavefunction(s)  4S 3D renormalized

     IMPORTANT: XC functional enforced from input :
     Exchange-correlation= PBE
                           (   1   4   3   4   0   0   0)
     Any further DFT definition will be discarded
     Please, verify this is what you really want

     Found identity + ( -0.5000 -0.5000  0.0000) symmetry
     This is a supercell, fractional translations are disabled
     Message from routine setup:
     using ibrav=0 with symmetry is DISCOURAGED, use correct ibrav instead
 
     K-points division:     npool     =       2
     R & G space division:  proc/nbgrp/npool/nimage =      15
     Subspace diagonalization in iterative solution of the eigenvalue problem:
     a serial algorithm will be used

 
     Parallelization info
     --------------------
     sticks:   dense  smooth     PW     G-vecs:    dense   smooth      PW
     Min         107      53     15                 3258     1151     173
     Max         109      55     17                 3260     1152     174
     Sum        1617     805    233                48885    17269    2601
 
     Using Slab Decomposition
 

     Title: 
     Ni_k_3                                                                     


     bravais-lattice index     =            0
     lattice parameter (alat)  =       6.5025  a.u.
     unit-cell volume          =     274.8993 (a.u.)^3
     number of atoms/cell      =            4
     number of atomic types    =            1
     number of electrons       =        40.00
     number of Kohn-Sham states=           24
     kinetic-energy cutoff     =      60.0000  Ry
     charge density cutoff     =     480.0000  Ry
     scf convergence threshold =      6.4E-09
     mixing beta               =       0.5000
     number of iterations used =           10  local-TF  mixing
     Exchange-correlation= PBE
                           (   1   4   3   4   0   0   0)

     celldm(1)=   6.502548  celldm(2)=   0.000000  celldm(3)=   0.000000
     celldm(4)=   0.000000  celldm(5)=   0.000000  celldm(6)=   0.000000

     crystal axes: (cart. coord. in units of alat)
               a(1) = (   0.999941   0.000000   0.000000 )  
               a(2) = (   0.000000   0.999941   0.000000 )  
               a(3) = (   0.000000   0.000000   0.999941 )  

     reciprocal axes: (cart. coord. in units 2 pi/alat)
               b(1) = (  1.000059  0.000000  0.000000 )  
               b(2) = (  0.000000  1.000059  0.000000 )  
               b(3) = (  0.000000  0.000000  1.000059 )  


     PseudoPot. # 1 for Ni read from file:
     /tmpu/mdach_g/mdach/PP/Ni.upf
     MD5 check sum: d88365a95a5e142bd87181c2c8b16588
     Pseudo is Projector augmented-wave + core cor, Zval = 10.0
     Generated using "atomic" code by A. Dal Corso  v.5.0.2 svn rev. 9415
     Shape of augmentation charge: PSQ
     Using radial grid of 1195 points,  6 beta functions with: 
                l(1) =   0
                l(2) =   0
                l(3) =   1
                l(4) =   1
                l(5) =   2
                l(6) =   2
     Q(r) pseudized with 0 coefficients 


     atomic species   valence    mass     pseudopotential
     Ni               10.00    58.69340     Ni( 1.00)

     Starting magnetic structure 
     atomic species   magnetization
     Ni              0.200

      6 Sym. Ops. (no inversion) found



   Cartesian axes

     site n.     atom                  positions (alat units)
         1        Ni     tau(   1) = (  -0.0034654  -0.0034654  -0.0034654  )
         2        Ni     tau(   2) = (   0.4965063   0.4965063  -0.0034647  )
         3        Ni     tau(   3) = (   0.4965063  -0.0034647   0.4965063  )
         4        Ni     tau(   4) = (  -0.0034647   0.4965063   0.4965063  )

     --------------------------------------------
     DFT-D3 Dispersion Correction (3-body terms):
     --------------------------------------------
       Reference C6 values for interpolation: 

         atom   Coordination number   C6
         Ni         0.000          1149.49
         Ni         1.794           356.66
         Ni         6.546           257.56
         Ni         6.292           283.75

       Values used:

         atom   Coordination number  R0_AB[au]  C6      C8
         Ni         9.784            3.162    257.59  21584.20
         Ni         9.784            3.162    257.59  21584.20
         Ni         9.784            3.162    257.59  21584.20
         Ni         9.784            3.162    257.59  21584.20

         Molecular C6 ( Ry / a.u.^6 ) =      4121.44


     number of k points=     6  Methfessel-Paxton smearing, width (Ry)=  0.0147
                       cart. coord. in units 2pi/alat
        k(    1) = (   0.0000000   0.0000000   0.0000000), wk =   0.0370370
        k(    2) = (   0.0000000   0.0000000   0.3333530), wk =   0.2222222
        k(    3) = (   0.0000000   0.3333530   0.3333530), wk =   0.2222222
        k(    4) = (   0.3333530   0.3333530   0.3333530), wk =   0.0740741
        k(    5) = (  -0.3333530   0.0000000   0.3333530), wk =   0.2222222
        k(    6) = (   0.3333530  -0.3333530   0.3333530), wk =   0.2222222

     Dense  grid:    48885 G-vectors     FFT dimensions: (  45,  45,  45)

     Smooth grid:    17269 G-vectors     FFT dimensions: (  36,  36,  36)

     Estimated max dynamical RAM per process >      11.37 MB

     Estimated total dynamical RAM >     311.26 MB
     Generating pointlists ...
     new r_m :   0.2917 (alat units)  1.8966 (a.u.) for type    1

     Initial potential from superposition of free atoms

     starting charge      39.9990, renormalised to      40.0000
     Starting wfcs are   36 atomic wfcs
     Checking if some PAW data can be deallocated... 

     total cpu time spent up to now is        0.7 secs

     Self-consistent Calculation

     iteration #  1     ecut=    60.00 Ry     beta= 0.50
     Davidson diagonalization with overlap
     ethr =  1.00E-02,  avg # of iterations =  2.0

     Threshold (ethr) on eigenvalues was too large:
     Diagonalizing with lowered threshold

     Davidson diagonalization with overlap
     ethr =  3.78E-04,  avg # of iterations =  3.1

     total cpu time spent up to now is        1.6 secs

     total energy              =    -743.13528870 Ry
     estimated scf accuracy    <       0.13503618 Ry

     total magnetization       =     2.44 Bohr mag/cell
     absolute magnetization    =     2.67 Bohr mag/cell

     iteration #  2     ecut=    60.00 Ry     beta= 0.50
     Davidson diagonalization with overlap
     ethr =  3.38E-04,  avg # of iterations =  1.0

     total cpu time spent up to now is        2.1 secs

     total energy              =    -743.16295370 Ry
     estimated scf accuracy    <       0.03277757 Ry

     total magnetization       =     2.44 Bohr mag/cell
     absolute magnetization    =     2.73 Bohr mag/cell

     iteration #  3     ecut=    60.00 Ry     beta= 0.50
     Davidson diagonalization with overlap
     ethr =  8.19E-05,  avg # of iterations =  1.0

     total cpu time spent up to now is        2.4 secs

     total energy              =    -743.16411288 Ry
     estimated scf accuracy    <       0.00060313 Ry

     total magnetization       =     2.48 Bohr mag/cell
     absolute magnetization    =     2.79 Bohr mag/cell

     iteration #  4     ecut=    60.00 Ry     beta= 0.50
     Davidson diagonalization with overlap
     ethr =  1.51E-06,  avg # of iterations =  3.5

     total cpu time spent up to now is        2.9 secs

     total energy              =    -743.16448036 Ry
     estimated scf accuracy    <       0.00007354 Ry

     total magnetization       =     2.50 Bohr mag/cell
     absolute magnetization    =     2.85 Bohr mag/cell

     iteration #  5     ecut=    60.00 Ry     beta= 0.50
     Davidson diagonalization with overlap
     ethr =  1.84E-07,  avg # of iterations =  2.5

     total cpu time spent up to now is        3.4 secs

     total energy              =    -743.16452410 Ry
     estimated scf accuracy    <       0.00003191 Ry

     total magnetization       =     2.49 Bohr mag/cell
     absolute magnetization    =     2.87 Bohr mag/cell

     iteration #  6     ecut=    60.00 Ry     beta= 0.50
     Davidson diagonalization with overlap
     ethr =  7.98E-08,  avg # of iterations =  2.2

     total cpu time spent up to now is        3.8 secs

     total energy              =    -743.16452911 Ry
     estimated scf accuracy    <       0.00000109 Ry

     total magnetization       =     2.49 Bohr mag/cell
     absolute magnetization    =     2.88 Bohr mag/cell

     iteration #  7     ecut=    60.00 Ry     beta= 0.50
     Davidson diagonalization with overlap
     ethr =  2.72E-09,  avg # of iterations =  3.2

     total cpu time spent up to now is        4.3 secs

     total energy              =    -743.16452986 Ry
     estimated scf accuracy    <       0.00000112 Ry

     total magnetization       =     2.49 Bohr mag/cell
     absolute magnetization    =     2.88 Bohr mag/cell

     iteration #  8     ecut=    60.00 Ry     beta= 0.50
     Davidson diagonalization with overlap
     ethr =  2.72E-09,  avg # of iterations =  1.7

     total cpu time spent up to now is        4.7 secs

     total energy              =    -743.16453005 Ry
     estimated scf accuracy    <       0.00000011 Ry

     total magnetization       =     2.49 Bohr mag/cell
     absolute magnetization    =     2.88 Bohr mag/cell

     iteration #  9     ecut=    60.00 Ry     beta= 0.50
     Davidson diagonalization with overlap
     ethr =  2.80E-10,  avg # of iterations =  2.6

     total cpu time spent up to now is        5.2 secs

     total energy              =    -743.16453006 Ry
     estimated scf accuracy    <       0.00000002 Ry

     total magnetization       =     2.49 Bohr mag/cell
     absolute magnetization    =     2.88 Bohr mag/cell

     iteration # 10     ecut=    60.00 Ry     beta= 0.50
     Davidson diagonalization with overlap
     ethr =  5.43E-11,  avg # of iterations =  2.4

     total cpu time spent up to now is        5.7 secs

     total energy              =    -743.16453006 Ry
     estimated scf accuracy    <       0.00000005 Ry

     total magnetization       =     2.49 Bohr mag/cell
     absolute magnetization    =     2.88 Bohr mag/cell

     iteration # 11     ecut=    60.00 Ry     beta= 0.50
     Davidson diagonalization with overlap
     ethr =  5.43E-11,  avg # of iterations =  1.5
 
     Magnetic moment per site  (integrated on atomic sphere of radius R)
     atom   1 (R=0.292)  charge=  8.6629  magn=  0.6645
     atom   2 (R=0.292)  charge=  8.6628  magn=  0.6645
     atom   3 (R=0.292)  charge=  8.6628  magn=  0.6645
     atom   4 (R=0.292)  charge=  8.6628  magn=  0.6645

     total cpu time spent up to now is        6.1 secs

     End of self-consistent calculation

 ------ SPIN UP ------------


          k = 0.0000 0.0000 0.0000 (  2109 PWs)   bands (ev):

     5.2960   9.7873   9.7873   9.7873  10.3620  10.3620  10.3620  12.3490
    12.3490  12.3490  13.5887  13.5887  14.3817  14.3817  14.3817  14.5556
    14.5556  14.5556  14.5556  14.5556  14.5556  17.2958  17.2958  17.2958

          k = 0.0000 0.0000 0.3334 (  2156 PWs)   bands (ev):

     6.7552   9.5326  10.4591  10.4591  10.8268  10.9104  10.9104  11.8183
    12.5877  12.5877  12.7884  12.7884  13.1313  13.6112  13.7824  13.7854
    13.7854  13.8669  13.8669  14.1788  14.5565  14.5565  20.4923  20.4923

          k = 0.0000 0.3334 0.3334 (  2152 PWs)   bands (ev):

     8.0560  10.4169  10.4169  10.9244  11.1239  11.2096  11.2096  11.7308
    11.9655  11.9655  12.1328  12.5080  12.9504  13.1449  13.4634  13.6239
    13.6239  13.8668  13.8668  14.0598  14.2375  16.2381  16.2381  19.8854

          k = 0.3334 0.3334 0.3334 (  2151 PWs)   bands (ev):

     8.8768  10.2051  10.2051  10.2051  11.7576  11.7576  11.7576  12.2869
    12.4195  12.4195  12.4195  12.4802  12.4802  12.7831  12.7831  12.7831
    13.9851  13.9851  14.3997  14.3997  14.3997  16.6555  16.6555  16.6555

          k =-0.3334 0.0000 0.3334 (  2152 PWs)   bands (ev):

     8.0560  10.4169  10.4169  10.9244  11.1239  11.2096  11.2096  11.7308
    11.9655  11.9655  12.1328  12.5080  12.9504  13.1449  13.4634  13.6239
    13.6239  13.8668  13.8668  14.0598  14.2375  16.2381  16.2381  19.8854

          k = 0.3334-0.3334 0.3334 (  2151 PWs)   bands (ev):

     8.8768  10.2051  10.2051  10.2051  11.7576  11.7576  11.7576  12.2869
    12.4195  12.4195  12.4195  12.4802  12.4802  12.7831  12.7831  12.7831
    13.9851  13.9851  14.3997  14.3997  14.3997  16.6555  16.6555  16.6555

 ------ SPIN DOWN ----------


          k = 0.0000 0.0000 0.0000 (  2109 PWs)   bands (ev):

     5.2446  10.1668  10.1668  10.1668  10.9294  10.9294  10.9294  13.0577
    13.0577  13.0577  14.2606  14.2606  15.0857  15.0857  15.0857  15.3794
    15.3794  15.3794  15.3794  15.3794  15.3794  17.2402  17.2402  17.2402

          k = 0.0000 0.0000 0.3334 (  2156 PWs)   bands (ev):

     6.7088   9.6971  10.8685  10.8685  11.4236  11.4709  11.4709  12.4851
    13.1598  13.1598  13.5123  13.5123  13.7637  13.9358  14.4448  14.4448
    14.4619  14.6431  14.6431  14.8743  15.3804  15.3804  20.6748  20.6748

          k = 0.0000 0.3334 0.3334 (  2152 PWs)   bands (ev):

     8.0322  10.6294  10.6294  11.4527  11.5166  11.7919  11.7919  12.3636
    12.5288  12.5288  12.6930  13.1585  13.6901  13.7855  14.1101  14.2561
    14.2561  14.6471  14.6471  14.8579  14.9471  16.7639  16.7639  20.1662

          k = 0.3334 0.3334 0.3334 (  2151 PWs)   bands (ev):

     8.9713  10.5999  10.5999  10.5999  12.2041  12.2041  12.2041  12.7054
    12.9638  12.9638  12.9638  13.1410  13.1410  13.4414  13.4414  13.4414
    14.7225  14.7225  15.1729  15.1729  15.1729  17.0438  17.0438  17.0438

          k =-0.3334 0.0000 0.3334 (  2152 PWs)   bands (ev):

     8.0322  10.6294  10.6294  11.4527  11.5166  11.7919  11.7919  12.3636
    12.5288  12.5288  12.6930  13.1585  13.6901  13.7855  14.1101  14.2561
    14.2561  14.6471  14.6471  14.8579  14.9471  16.7639  16.7639  20.1662

          k = 0.3334-0.3334 0.3334 (  2151 PWs)   bands (ev):

     8.9713  10.5999  10.5999  10.5999  12.2041  12.2041  12.2041  12.7054
    12.9637  12.9638  12.9638  13.1410  13.1410  13.4414  13.4414  13.4414
    14.7225  14.7225  15.1729  15.1729  15.1729  17.0438  17.0438  17.0438

     the Fermi energy is    14.8452 ev

!    total energy              =    -743.16453007 Ry
     total all-electron energy =    -12166.731352 Ry
     estimated scf accuracy    <          2.3E-09 Ry
     smearing contrib. (-TS)   =       0.00065292 Ry
     internal energy E=F+TS    =    -743.16518298 Ry

     The total energy is F=E-TS. E is the sum of the following terms:
     one-electron contribution =     -31.46911552 Ry
     hartree contribution      =      78.15379380 Ry
     xc contribution           =    -167.17269111 Ry
     ewald contribution        =    -282.05148299 Ry
     DFT-D3 Dispersion         =      -0.33998447 Ry
     one-center paw contrib.   =    -340.28570269 Ry

     total magnetization       =     2.49 Bohr mag/cell
     absolute magnetization    =     2.88 Bohr mag/cell

     convergence has been achieved in  11 iterations

     Writing all to output data dir ./Ni_k_3.save/ :
     XML data file, charge density, pseudopotentials, collected wavefunctions
 
     init_run     :      0.46s CPU      0.51s WALL (       1 calls)
     electrons    :      4.53s CPU      5.47s WALL (       1 calls)

     Called by init_run:
     wfcinit      :      0.09s CPU      0.10s WALL (       1 calls)
     potinit      :      0.23s CPU      0.25s WALL (       1 calls)
     hinit0       :      0.08s CPU      0.08s WALL (       1 calls)

     Called by electrons:
     c_bands      :      1.19s CPU      1.55s WALL (      12 calls)
     sum_band     :      0.44s CPU      0.54s WALL (      12 calls)
     v_of_rho     :      0.14s CPU      0.17s WALL (      12 calls)
     newd         :      0.10s CPU      0.12s WALL (      12 calls)
     PAW_pot      :      2.48s CPU      2.82s WALL (      12 calls)
     mix_rho      :      0.06s CPU      0.06s WALL (      12 calls)
     energy_dftd3 :      0.32s CPU      0.32s WALL (       1 calls)

     Called by c_bands:
     init_us_2    :      0.01s CPU      0.01s WALL (     150 calls)
     init_us_2:cp :      0.01s CPU      0.01s WALL (     150 calls)
     cegterg      :      1.02s CPU      1.17s WALL (      72 calls)

     Called by *egterg:
     cdiaghg      :      0.17s CPU      0.23s WALL (     222 calls)
     h_psi        :      0.70s CPU      0.76s WALL (     234 calls)
     s_psi        :      0.01s CPU      0.02s WALL (     234 calls)
     g_psi        :      0.00s CPU      0.00s WALL (     156 calls)

     Called by h_psi:
     h_psi:calbec :      0.03s CPU      0.04s WALL (     234 calls)
     vloc_psi     :      0.65s CPU      0.70s WALL (     234 calls)
     add_vuspsi   :      0.02s CPU      0.02s WALL (     234 calls)

     General routines
     calbec       :      0.05s CPU      0.06s WALL (     306 calls)
     fft          :      0.13s CPU      0.13s WALL (     296 calls)
     ffts         :      0.04s CPU      0.04s WALL (     250 calls)
     fftw         :      0.74s CPU      0.82s WALL (    9994 calls)
     interpolate  :      0.01s CPU      0.02s WALL (      24 calls)
 
     Parallel routines
 
     PWSCF        :      5.15s CPU      6.23s WALL

 
   This run was terminated on:  23:43: 9   5Sep2025            

=------------------------------------------------------------------------------=
   JOB DONE.
=------------------------------------------------------------------------------=
