
     Program PWSCF v.7.3 starts on  5Sep2025 at 23:43:38 

     This program is part of the open-source Quantum ESPRESSO suite
     for quantum simulation of materials; please cite
         "P. Giannozzi et al., J. Phys.:Condens. Matter 21 395502 (2009);
         "P. Giannozzi et al., J. Phys.:Condens. Matter 29 465901 (2017);
         "P. Giannozzi et al., J. Chem. Phys. 152 154105 (2020);
          URL http://www.quantum-espresso.org", 
     in publications or presentations arising from this work. More details at
     http://www.quantum-espresso.org/quote

     Parallel version (MPI), running on    30 processors

     MPI processes distributed on     1 nodes
     224968 MiB available memory on the printing compute node when the environment starts
 
     Waiting for input...
     Reading input from standard input

     Current dimensions of program PWSCF are:
     Max number of different atomic species (ntypx) = 10
     Max number of k-points (npk) =  40000
     Max angular momentum in pseudopotentials (lmaxx) =  4
     file Ni.upf: wavefunction(s)  4S 3D renormalized

     IMPORTANT: XC functional enforced from input :
     Exchange-correlation= PBE
                           (   1   4   3   4   0   0   0)
     Any further DFT definition will be discarded
     Please, verify this is what you really want

     Found identity + ( -0.5000 -0.5000  0.0000) symmetry
     This is a supercell, fractional translations are disabled
     Message from routine setup:
     using ibrav=0 with symmetry is DISCOURAGED, use correct ibrav instead
 
     K-points division:     npool     =       2
     R & G space division:  proc/nbgrp/npool/nimage =      15
     Subspace diagonalization in iterative solution of the eigenvalue problem:
     a serial algorithm will be used

 
     Parallelization info
     --------------------
     sticks:   dense  smooth     PW     G-vecs:    dense   smooth      PW
     Min         107      53     16                 3258     1151     196
     Max         109      55     17                 3260     1152     201
     Sum        1617     805    241                48885    17269    2945
 
     Using Slab Decomposition
 

     Title: 
     Ni_k_6                                                                     


     bravais-lattice index     =            0
     lattice parameter (alat)  =       6.5025  a.u.
     unit-cell volume          =     274.8993 (a.u.)^3
     number of atoms/cell      =            4
     number of atomic types    =            1
     number of electrons       =        40.00
     number of Kohn-Sham states=           24
     kinetic-energy cutoff     =      60.0000  Ry
     charge density cutoff     =     480.0000  Ry
     scf convergence threshold =      6.4E-09
     mixing beta               =       0.5000
     number of iterations used =           10  local-TF  mixing
     Exchange-correlation= PBE
                           (   1   4   3   4   0   0   0)

     celldm(1)=   6.502548  celldm(2)=   0.000000  celldm(3)=   0.000000
     celldm(4)=   0.000000  celldm(5)=   0.000000  celldm(6)=   0.000000

     crystal axes: (cart. coord. in units of alat)
               a(1) = (   0.999941   0.000000   0.000000 )  
               a(2) = (   0.000000   0.999941   0.000000 )  
               a(3) = (   0.000000   0.000000   0.999941 )  

     reciprocal axes: (cart. coord. in units 2 pi/alat)
               b(1) = (  1.000059  0.000000  0.000000 )  
               b(2) = (  0.000000  1.000059  0.000000 )  
               b(3) = (  0.000000  0.000000  1.000059 )  


     PseudoPot. # 1 for Ni read from file:
     /tmpu/mdach_g/mdach/PP/Ni.upf
     MD5 check sum: d88365a95a5e142bd87181c2c8b16588
     Pseudo is Projector augmented-wave + core cor, Zval = 10.0
     Generated using "atomic" code by A. Dal Corso  v.5.0.2 svn rev. 9415
     Shape of augmentation charge: PSQ
     Using radial grid of 1195 points,  6 beta functions with: 
                l(1) =   0
                l(2) =   0
                l(3) =   1
                l(4) =   1
                l(5) =   2
                l(6) =   2
     Q(r) pseudized with 0 coefficients 


     atomic species   valence    mass     pseudopotential
     Ni               10.00    58.69340     Ni( 1.00)

     Starting magnetic structure 
     atomic species   magnetization
     Ni              0.200

      6 Sym. Ops. (no inversion) found



   Cartesian axes

     site n.     atom                  positions (alat units)
         1        Ni     tau(   1) = (  -0.0034654  -0.0034654  -0.0034654  )
         2        Ni     tau(   2) = (   0.4965063   0.4965063  -0.0034647  )
         3        Ni     tau(   3) = (   0.4965063  -0.0034647   0.4965063  )
         4        Ni     tau(   4) = (  -0.0034647   0.4965063   0.4965063  )

     --------------------------------------------
     DFT-D3 Dispersion Correction (3-body terms):
     --------------------------------------------
       Reference C6 values for interpolation: 

         atom   Coordination number   C6
         Ni         0.000          1149.49
         Ni         1.794           356.66
         Ni         6.546           257.56
         Ni         6.292           283.75

       Values used:

         atom   Coordination number  R0_AB[au]  C6      C8
         Ni         9.784            3.162    257.59  21584.20
         Ni         9.784            3.162    257.59  21584.20
         Ni         9.784            3.162    257.59  21584.20
         Ni         9.784            3.162    257.59  21584.20

         Molecular C6 ( Ry / a.u.^6 ) =      4121.44


     number of k points=    32  Methfessel-Paxton smearing, width (Ry)=  0.0147
                       cart. coord. in units 2pi/alat
        k(    1) = (   0.0000000   0.0000000   0.0000000), wk =   0.0046296
        k(    2) = (   0.0000000   0.0000000   0.1666765), wk =   0.0277778
        k(    3) = (   0.0000000   0.0000000   0.3333530), wk =   0.0277778
        k(    4) = (   0.0000000   0.0000000  -0.5000295), wk =   0.0138889
        k(    5) = (   0.0000000   0.1666765   0.1666765), wk =   0.0277778
        k(    6) = (   0.0000000   0.1666765   0.3333530), wk =   0.0555556
        k(    7) = (   0.0000000   0.1666765  -0.5000295), wk =   0.0555556
        k(    8) = (   0.0000000   0.3333530   0.3333530), wk =   0.0277778
        k(    9) = (   0.0000000   0.3333530  -0.5000295), wk =   0.0555556
        k(   10) = (   0.0000000  -0.5000295  -0.5000295), wk =   0.0138889
        k(   11) = (   0.1666765   0.1666765   0.1666765), wk =   0.0092593
        k(   12) = (   0.1666765   0.1666765   0.3333530), wk =   0.0277778
        k(   13) = (   0.1666765   0.1666765  -0.5000295), wk =   0.0277778
        k(   14) = (   0.1666765   0.3333530   0.3333530), wk =   0.0277778
        k(   15) = (   0.1666765   0.3333530  -0.5000295), wk =   0.0555556
        k(   16) = (   0.1666765  -0.5000295  -0.5000295), wk =   0.0277778
        k(   17) = (   0.3333530   0.3333530   0.3333530), wk =   0.0092593
        k(   18) = (   0.3333530   0.3333530  -0.5000295), wk =   0.0277778
        k(   19) = (   0.3333530  -0.5000295  -0.5000295), wk =   0.0277778
        k(   20) = (  -0.5000295  -0.5000295  -0.5000295), wk =   0.0046296
        k(   21) = (  -0.1666765   0.0000000   0.1666765), wk =   0.0277778
        k(   22) = (  -0.1666765   0.0000000   0.3333530), wk =   0.0555556
        k(   23) = (  -0.3333530   0.0000000   0.3333530), wk =   0.0277778
        k(   24) = (   0.1666765  -0.1666765   0.1666765), wk =   0.0277778
        k(   25) = (   0.1666765  -0.1666765   0.3333530), wk =   0.0555556
        k(   26) = (  -0.3333530   0.1666765   0.1666765), wk =   0.0277778
        k(   27) = (   0.1666765  -0.1666765  -0.5000295), wk =   0.0277778
        k(   28) = (   0.3333530  -0.1666765   0.3333530), wk =   0.0277778
        k(   29) = (  -0.3333530   0.1666765   0.3333530), wk =   0.0555556
        k(   30) = (   0.3333530  -0.1666765  -0.5000295), wk =   0.0555556
        k(   31) = (   0.3333530  -0.3333530   0.3333530), wk =   0.0277778
        k(   32) = (   0.3333530  -0.3333530  -0.5000295), wk =   0.0277778

     Dense  grid:    48885 G-vectors     FFT dimensions: (  45,  45,  45)

     Smooth grid:    17269 G-vectors     FFT dimensions: (  36,  36,  36)

     Estimated max dynamical RAM per process >      12.73 MB

     Estimated total dynamical RAM >     352.11 MB
     Generating pointlists ...
     new r_m :   0.2917 (alat units)  1.8966 (a.u.) for type    1

     Initial potential from superposition of free atoms

     starting charge      39.9990, renormalised to      40.0000
     Starting wfcs are   36 atomic wfcs
     Checking if some PAW data can be deallocated... 

     total cpu time spent up to now is        1.1 secs

     Self-consistent Calculation

     iteration #  1     ecut=    60.00 Ry     beta= 0.50
     Davidson diagonalization with overlap
     ethr =  1.00E-02,  avg # of iterations =  2.1

     Threshold (ethr) on eigenvalues was too large:
     Diagonalizing with lowered threshold

     Davidson diagonalization with overlap
     ethr =  2.15E-04,  avg # of iterations =  3.4

     total cpu time spent up to now is        3.1 secs

     total energy              =    -743.12245302 Ry
     estimated scf accuracy    <       0.07836255 Ry

     total magnetization       =     3.38 Bohr mag/cell
     absolute magnetization    =     3.40 Bohr mag/cell

     iteration #  2     ecut=    60.00 Ry     beta= 0.50
     Davidson diagonalization with overlap
     ethr =  1.96E-04,  avg # of iterations =  1.0

     total cpu time spent up to now is        3.7 secs

     total energy              =    -743.14532371 Ry
     estimated scf accuracy    <       0.02232067 Ry

     total magnetization       =     3.23 Bohr mag/cell
     absolute magnetization    =     3.34 Bohr mag/cell

     iteration #  3     ecut=    60.00 Ry     beta= 0.50
     Davidson diagonalization with overlap
     ethr =  5.58E-05,  avg # of iterations =  1.0

     total cpu time spent up to now is        4.3 secs

     total energy              =    -743.15002193 Ry
     estimated scf accuracy    <       0.00103325 Ry

     total magnetization       =     2.83 Bohr mag/cell
     absolute magnetization    =     3.12 Bohr mag/cell

     iteration #  4     ecut=    60.00 Ry     beta= 0.50
     Davidson diagonalization with overlap
     ethr =  2.58E-06,  avg # of iterations =  3.0

     total cpu time spent up to now is        5.4 secs

     total energy              =    -743.15029252 Ry
     estimated scf accuracy    <       0.00008708 Ry

     total magnetization       =     2.77 Bohr mag/cell
     absolute magnetization    =     3.11 Bohr mag/cell

     iteration #  5     ecut=    60.00 Ry     beta= 0.50
     Davidson diagonalization with overlap
     ethr =  2.18E-07,  avg # of iterations =  2.6

     total cpu time spent up to now is        6.6 secs

     total energy              =    -743.15038955 Ry
     estimated scf accuracy    <       0.00001972 Ry

     total magnetization       =     2.71 Bohr mag/cell
     absolute magnetization    =     3.06 Bohr mag/cell

     iteration #  6     ecut=    60.00 Ry     beta= 0.50
     Davidson diagonalization with overlap
     ethr =  4.93E-08,  avg # of iterations =  2.3

     total cpu time spent up to now is        7.7 secs

     total energy              =    -743.15040316 Ry
     estimated scf accuracy    <       0.00000040 Ry

     total magnetization       =     2.74 Bohr mag/cell
     absolute magnetization    =     3.07 Bohr mag/cell

     iteration #  7     ecut=    60.00 Ry     beta= 0.50
     Davidson diagonalization with overlap
     ethr =  1.01E-09,  avg # of iterations =  3.5

     total cpu time spent up to now is        8.8 secs

     total energy              =    -743.15040376 Ry
     estimated scf accuracy    <       0.00000008 Ry

     total magnetization       =     2.73 Bohr mag/cell
     absolute magnetization    =     3.07 Bohr mag/cell

     iteration #  8     ecut=    60.00 Ry     beta= 0.50
     Davidson diagonalization with overlap
     ethr =  1.89E-10,  avg # of iterations =  2.1

     total cpu time spent up to now is        9.8 secs

     total energy              =    -743.15040381 Ry
     estimated scf accuracy    <       0.00000004 Ry

     total magnetization       =     2.73 Bohr mag/cell
     absolute magnetization    =     3.07 Bohr mag/cell

     iteration #  9     ecut=    60.00 Ry     beta= 0.50
     Davidson diagonalization with overlap
     ethr =  8.94E-11,  avg # of iterations =  3.0

     total cpu time spent up to now is       11.0 secs

     total energy              =    -743.15040383 Ry
     estimated scf accuracy    <       0.00000001 Ry

     total magnetization       =     2.73 Bohr mag/cell
     absolute magnetization    =     3.07 Bohr mag/cell

     iteration # 10     ecut=    60.00 Ry     beta= 0.50
     Davidson diagonalization with overlap
     ethr =  2.53E-11,  avg # of iterations =  1.4
 
     Magnetic moment per site  (integrated on atomic sphere of radius R)
     atom   1 (R=0.292)  charge=  8.6592  magn=  0.7198
     atom   2 (R=0.292)  charge=  8.6590  magn=  0.7198
     atom   3 (R=0.292)  charge=  8.6590  magn=  0.7198
     atom   4 (R=0.292)  charge=  8.6590  magn=  0.7198

     total cpu time spent up to now is       12.0 secs

     End of self-consistent calculation

 ------ SPIN UP ------------


          k = 0.0000 0.0000 0.0000 (  2109 PWs)   bands (ev):

     5.2810   9.7752   9.7752   9.7752  10.2855  10.2855  10.2855  12.2605
    12.2605  12.2605  13.5729  13.5729  14.3657  14.3657  14.3657  14.4560
    14.4560  14.4560  14.4560  14.4560  14.4560  17.2779  17.2779  17.2779

          k = 0.0000 0.0000 0.1667 (  2140 PWs)   bands (ev):

     5.6586   9.7920   9.9743   9.9743  10.4075  10.4215  10.4215  12.1168
    12.3727  12.3727  13.4410  13.6245  13.6821  13.6821  14.1934  14.1934
    14.2595  14.2595  14.3111  14.4563  14.4563  15.7185  18.3615  18.3615

          k = 0.0000 0.0000 0.3334 (  2156 PWs)   bands (ev):

     6.7402   9.5193  10.4468  10.4468  10.7478  10.8343  10.8343  11.7333
    12.5096  12.5096  12.6984  12.6984  13.1160  13.5948  13.7666  13.7700
    13.7700  13.7718  13.7718  14.1629  14.4569  14.4569  20.4544  20.4544

          k = 0.0000 0.0000-0.5000 (  2168 PWs)   bands (ev):

     8.2874   8.2874  10.7451  10.7451  11.2298  11.2298  11.5323  11.5323
    11.5323  11.5323  12.8908  12.8908  13.1960  13.1960  13.1960  13.1960
    13.4937  13.4937  13.9632  13.9632  14.4572  14.4572  22.9373  22.9373

          k = 0.0000 0.1667 0.1667 (  2155 PWs)   bands (ev):

     6.0274  10.0060  10.0060  10.1539  10.5337  10.5337  10.5420  12.0474
    12.4233  12.4400  13.2880  13.3588  13.3588  13.4134  13.6180  14.0494
    14.1825  14.1825  14.2582  14.2582  14.3281  16.7911  16.7911  19.1965

          k = 0.0000 0.1667 0.3334 (  2157 PWs)   bands (ev):

     7.0807   9.7700  10.5271  10.5976  10.8454  10.8789  10.9146  11.7332
    12.2509  12.3998  12.5806  12.6922  12.7126  13.2221  13.6879  13.7693
    13.7779  13.8137  13.9606  14.2548  14.2625  14.8969  18.5086  21.0796

          k = 0.0000 0.1667-0.5000 (  2144 PWs)   bands (ev):

     8.5803   8.5803  10.9072  10.9072  11.2835  11.2836  11.3868  11.3868
    11.5487  11.5488  12.4967  12.4967  13.1978  13.1979  13.4375  13.4375
    13.4760  13.4760  14.1511  14.1511  14.2525  14.2525  20.4389  20.4389

          k = 0.0000 0.3334 0.3334 (  2152 PWs)   bands (ev):

     8.0382  10.3961  10.3961  10.8614  11.1038  11.1317  11.1317  11.6486
    11.9142  11.9142  12.0562  12.4507  12.8589  13.1297  13.4482  13.6085
    13.6085  13.7713  13.7713  13.9626  14.1913  16.1869  16.1869  19.8493

          k = 0.0000 0.3334-0.5000 (  2148 PWs)   bands (ev):

     9.3573   9.3573  10.9182  10.9182  11.4148  11.4148  11.4180  11.4180
    11.5714  11.5714  12.1582  12.1583  13.2358  13.2358  13.2418  13.2418
    13.3130  13.3130  13.8120  13.8120  14.8772  14.8772  17.7429  17.7429

          k = 0.0000-0.5000-0.5000 (  2160 PWs)   bands (ev):

    10.2716  10.2717  10.2717  10.2717  11.5357  11.5357  11.5357  11.5357
    11.8821  11.8821  11.8821  11.8821  13.0816  13.0816  13.0816  13.0816
    13.4283  13.4283  13.4283  13.4283  15.9639  15.9639  15.9639  15.9639

          k = 0.1667 0.1667 0.1667 (  2148 PWs)   bands (ev):

     6.3840  10.1842  10.1842  10.1842  10.6518  10.6518  10.6518  12.0031
    12.4634  12.4634  13.0135  13.0135  13.0135  13.5212  13.5212  13.7875
    13.7875  13.7875  14.3913  14.3913  14.3913  17.4654  17.4654  17.4654

          k = 0.1667 0.1667 0.3334 (  2166 PWs)   bands (ev):

     7.3966   9.9453  10.6094  10.6094  10.9646  10.9765  10.9765  11.7645
    12.2399  12.2399  12.4640  12.5493  12.6164  13.3404  13.4191  13.5120
    13.5120  13.7854  14.2816  14.2816  14.3214  15.2485  18.8682  18.8682

          k = 0.1667 0.1667-0.5000 (  2142 PWs)   bands (ev):

     8.8196   8.8196  11.0303  11.0303  11.0840  11.0840  11.3769  11.3769
    11.8102  11.8102  12.3934  12.3934  12.9175  12.9175  13.3272  13.3272
    13.9247  13.9248  14.0898  14.0898  14.2187  14.2187  20.0129  20.0129

          k = 0.1667 0.3334 0.3334 (  2170 PWs)   bands (ev):

     8.2669  10.3041  10.3041  10.6447  11.2795  11.3337  11.3337  11.7910
    12.0384  12.0384  12.1590  12.4565  12.6020  13.1247  13.1247  13.1470
    13.4859  14.0900  14.1748  14.1887  14.1887  16.2951  16.2951  19.0840

          k = 0.1667 0.3334-0.5000 (  2160 PWs)   bands (ev):

     9.4080   9.4080  10.5595  10.5595  11.5297  11.5297  11.6757  11.6757
    12.0127  12.0127  12.2022  12.2022  12.7639  12.7639  12.9963  12.9963
    13.8043  13.8043  14.0635  14.0635  14.7663  14.7663  17.6747  17.6747

          k = 0.1667-0.5000-0.5000 (  2164 PWs)   bands (ev):

    10.0363  10.0363  10.0363  10.0363  11.9696  11.9696  11.9696  11.9696
    12.0250  12.0250  12.0250  12.0250  12.7347  12.7347  12.7347  12.7347
    13.7935  13.7935  13.7935  13.7935  15.8436  15.8436  15.8436  15.8436

          k = 0.3334 0.3334 0.3334 (  2151 PWs)   bands (ev):

     8.8450  10.1460  10.1460  10.1460  11.7378  11.7378  11.7378  12.2272
    12.3462  12.3462  12.3462  12.4257  12.4257  12.7372  12.7372  12.7372
    13.9317  13.9317  14.3350  14.3350  14.3350  16.6163  16.6163  16.6163

          k = 0.3334 0.3334-0.5000 (  2178 PWs)   bands (ev):

     9.5251   9.5251  10.0763  10.0763  11.8935  11.8935  12.2192  12.2192
    12.4721  12.4721  12.4865  12.4865  12.6045  12.6045  12.6225  12.6225
    14.2476  14.2476  14.2551  14.2551  14.5979  14.5979  16.8518  16.8518

          k = 0.3334-0.5000-0.5000 (  2160 PWs)   bands (ev):

     9.7277   9.7277   9.7277   9.7277  12.1824  12.1824  12.1824  12.1824
    12.3980  12.3980  12.3980  12.3980  13.0594  13.0594  13.0594  13.0594
    14.1669  14.1669  14.1669  14.1669  15.3584  15.3584  15.3584  15.3584

          k =-0.5000-0.5000-0.5000 (  2176 PWs)   bands (ev):

     9.6082   9.6082   9.6082   9.6082  12.2748  12.2748  12.2748  12.2748
    12.2748  12.2748  12.2748  12.2748  14.3084  14.3084  14.3084  14.3084
    14.3084  14.3084  14.3084  14.3084  14.3588  14.3588  14.3588  14.3588

          k =-0.1667 0.0000 0.1667 (  2155 PWs)   bands (ev):

     6.0274  10.0060  10.0060  10.1539  10.5337  10.5337  10.5420  12.0474
    12.4233  12.4400  13.2880  13.3588  13.3588  13.4134  13.6180  14.0494
    14.1825  14.1825  14.2582  14.2582  14.3281  16.7911  16.7911  19.1965

          k =-0.1667 0.0000 0.3334 (  2157 PWs)   bands (ev):

     7.0807   9.7700  10.5271  10.5976  10.8454  10.8789  10.9146  11.7332
    12.2509  12.3998  12.5806  12.6922  12.7126  13.2221  13.6879  13.7693
    13.7779  13.8137  13.9606  14.2548  14.2625  14.8969  18.5086  21.0796

          k =-0.3334 0.0000 0.3334 (  2152 PWs)   bands (ev):

     8.0382  10.3961  10.3961  10.8614  11.1038  11.1317  11.1317  11.6486
    11.9142  11.9142  12.0562  12.4507  12.8589  13.1297  13.4482  13.6085
    13.6085  13.7713  13.7713  13.9626  14.1913  16.1869  16.1869  19.8493

          k = 0.1667-0.1667 0.1667 (  2148 PWs)   bands (ev):

     6.3840  10.1842  10.1842  10.1842  10.6518  10.6518  10.6518  12.0031
    12.4634  12.4634  13.0135  13.0135  13.0135  13.5212  13.5212  13.7875
    13.7875  13.7875  14.3913  14.3913  14.3913  17.4654  17.4654  17.4654

          k = 0.1667-0.1667 0.3334 (  2166 PWs)   bands (ev):

     7.3966   9.9453  10.6094  10.6094  10.9646  10.9765  10.9765  11.7645
    12.2399  12.2399  12.4640  12.5493  12.6164  13.3404  13.4191  13.5120
    13.5120  13.7854  14.2816  14.2816  14.3214  15.2485  18.8682  18.8682

          k =-0.3334 0.1667 0.1667 (  2166 PWs)   bands (ev):

     7.3966   9.9453  10.6094  10.6094  10.9646  10.9765  10.9765  11.7645
    12.2399  12.2399  12.4640  12.5493  12.6164  13.3404  13.4191  13.5120
    13.5120  13.7854  14.2816  14.2816  14.3214  15.2485  18.8682  18.8682

          k = 0.1667-0.1667-0.5000 (  2142 PWs)   bands (ev):

     8.8196   8.8196  11.0303  11.0303  11.0840  11.0840  11.3769  11.3769
    11.8102  11.8102  12.3934  12.3934  12.9175  12.9175  13.3272  13.3272
    13.9247  13.9248  14.0898  14.0898  14.2187  14.2187  20.0129  20.0129

          k = 0.3334-0.1667 0.3334 (  2170 PWs)   bands (ev):

     8.2669  10.3041  10.3041  10.6447  11.2795  11.3337  11.3337  11.7910
    12.0384  12.0384  12.1590  12.4565  12.6020  13.1247  13.1247  13.1470
    13.4859  14.0900  14.1748  14.1887  14.1887  16.2951  16.2951  19.0840

          k =-0.3334 0.1667 0.3334 (  2170 PWs)   bands (ev):

     8.2669  10.3041  10.3041  10.6447  11.2795  11.3337  11.3337  11.7910
    12.0384  12.0384  12.1590  12.4565  12.6020  13.1247  13.1247  13.1470
    13.4859  14.0900  14.1748  14.1887  14.1887  16.2951  16.2951  19.0840

          k = 0.3334-0.1667-0.5000 (  2160 PWs)   bands (ev):

     9.4080   9.4080  10.5595  10.5595  11.5297  11.5297  11.6757  11.6757
    12.0127  12.0127  12.2022  12.2022  12.7639  12.7639  12.9963  12.9963
    13.8043  13.8043  14.0635  14.0635  14.7663  14.7663  17.6747  17.6747

          k = 0.3334-0.3334 0.3334 (  2151 PWs)   bands (ev):

     8.8450  10.1460  10.1460  10.1460  11.7378  11.7378  11.7378  12.2272
    12.3462  12.3462  12.3462  12.4257  12.4257  12.7372  12.7372  12.7372
    13.9317  13.9317  14.3350  14.3350  14.3350  16.6163  16.6163  16.6163

          k = 0.3334-0.3334-0.5000 (  2178 PWs)   bands (ev):

     9.5251   9.5251  10.0763  10.0763  11.8935  11.8935  12.2192  12.2192
    12.4721  12.4721  12.4865  12.4865  12.6045  12.6045  12.6225  12.6225
    14.2476  14.2476  14.2551  14.2551  14.5979  14.5979  16.8518  16.8518

 ------ SPIN DOWN ----------


          k = 0.0000 0.0000 0.0000 (  2109 PWs)   bands (ev):

     5.2544  10.1474  10.1474  10.1474  10.9464  10.9464  10.9464  13.0772
    13.0772  13.0772  14.2184  14.2184  15.0411  15.0412  15.0412  15.4006
    15.4006  15.4006  15.4006  15.4006  15.4006  17.2453  17.2453  17.2453

          k = 0.0000 0.0000 0.1667 (  2140 PWs)   bands (ev):

     5.6324  10.1271  10.3546  10.3546  11.0768  11.0801  11.0801  12.9206
    13.1935  13.1935  14.0779  14.2719  14.4268  14.4268  14.8566  14.8566
    14.9843  15.1874  15.1874  15.4009  15.4009  15.8028  18.5251  18.5251

          k = 0.0000 0.0000 0.3334 (  2156 PWs)   bands (ev):

     6.7183   9.6935  10.8469  10.8469  11.4412  11.4877  11.4877  12.5039
    13.1763  13.1763  13.5321  13.5321  13.7242  13.9159  14.4036  14.4036
    14.4191  14.6636  14.6636  14.8304  15.4016  15.4016  20.6843  20.6843

          k = 0.0000 0.0000-0.5000 (  2168 PWs)   bands (ev):

     8.3003   8.3003  11.1577  11.1577  11.9595  11.9595  12.1837  12.1837
    12.1838  12.1838  13.4257  13.4257  14.0535  14.0535  14.0535  14.0535
    14.1090  14.1090  14.6231  14.6231  15.4019  15.4019  23.1601  23.1601

          k = 0.0000 0.1667 0.1667 (  2155 PWs)   bands (ev):

     6.0024  10.3512  10.3512  10.5503  11.1859  11.2001  11.2001  12.8379
    13.2494  13.2507  13.9833  14.0275  14.0275  14.0485  14.2738  14.7038
    14.8394  14.8394  15.1862  15.1862  15.2654  17.1334  17.1334  19.4136

          k = 0.0000 0.1667 0.3334 (  2157 PWs)   bands (ev):

     7.0634   9.9564  10.8999  11.0277  11.4894  11.5345  11.5742  12.4933
    12.8779  13.0593  13.2655  13.3373  13.5508  13.8650  14.3196  14.4110
    14.5015  14.5800  14.6621  15.1832  15.1941  15.5660  18.8638  21.3273

          k = 0.0000 0.1667-0.5000 (  2144 PWs)   bands (ev):

     8.6039   8.6039  11.3118  11.3118  12.0063  12.0063  12.0072  12.0073
    12.2028  12.2028  13.1341  13.1341  14.0580  14.0580  14.0952  14.0952
    14.1062  14.1062  14.8827  14.8827  15.1818  15.1818  20.7399  20.7399

          k = 0.0000 0.3334 0.3334 (  2152 PWs)   bands (ev):

     8.0418  10.6274  10.6274  11.4600  11.5022  11.8091  11.8091  12.3817
    12.5227  12.5227  12.7096  13.1531  13.7101  13.7455  14.0696  14.2167
    14.2167  14.6676  14.6676  14.8786  14.9314  16.7654  16.7654  20.1716

          k = 0.0000 0.3334-0.5000 (  2148 PWs)   bands (ev):

     9.4291   9.4291  11.2855  11.2855  11.9686  11.9686  12.1181  12.1181
    12.2340  12.2340  12.7963  12.7963  13.8450  13.8450  13.9243  13.9243
    14.1111  14.1111  14.7159  14.7159  15.6057  15.6057  18.2018  18.2019

          k = 0.0000-0.5000-0.5000 (  2160 PWs)   bands (ev):

    10.4762  10.4762  10.4762  10.4763  12.2152  12.2152  12.2152  12.2152
    12.4562  12.4562  12.4562  12.4562  13.6891  13.6891  13.6891  13.6891
    14.3129  14.3129  14.3129  14.3129  16.6003  16.6003  16.6003  16.6004

          k = 0.1667 0.1667 0.1667 (  2148 PWs)   bands (ev):

     6.3619  10.5534  10.5534  10.5534  11.2958  11.2958  11.2958  12.7747
    13.2727  13.2727  13.6549  13.6549  13.6549  14.1789  14.1789  14.5022
    14.5022  14.5022  15.2551  15.2551  15.2551  17.8268  17.8268  17.8268

          k = 0.1667 0.1667 0.3334 (  2166 PWs)   bands (ev):

     7.3889  10.1674  11.0509  11.0509  11.5467  11.5467  11.6187  12.5000
    12.8802  12.8802  13.0575  13.2929  13.3990  14.0880  14.1229  14.1781
    14.1781  14.4873  15.1209  15.1684  15.1684  15.8493  19.2115  19.2115

          k = 0.1667 0.1667-0.5000 (  2142 PWs)   bands (ev):

     8.8682   8.8682  11.4956  11.4956  11.6169  11.6169  12.0690  12.0691
    12.4678  12.4678  13.0416  13.0416  13.6810  13.6810  13.9672  13.9672
    14.6576  14.6576  14.8388  14.8388  15.1185  15.1185  20.2917  20.2917

          k = 0.1667 0.3334 0.3334 (  2170 PWs)   bands (ev):

     8.3001  10.6484  10.6484  11.2080  11.6895  11.8690  11.8690  12.4632
    12.6843  12.6843  12.8135  13.1677  13.3326  13.8165  13.8177  13.8177
    14.2273  14.8370  15.0125  15.0125  15.0387  16.8291  16.8291  19.3794

          k = 0.1667 0.3334-0.5000 (  2160 PWs)   bands (ev):

     9.5552   9.5552  11.0471  11.0471  11.9767  11.9767  12.2691  12.2691
    12.6578  12.6578  12.8664  12.8664  13.4682  13.4682  13.6567  13.6567
    14.5793  14.5794  14.9184  14.9184  15.4866  15.4866  18.0875  18.0875

          k = 0.1667-0.5000-0.5000 (  2164 PWs)   bands (ev):

    10.3639  10.3639  10.3639  10.3639  12.4195  12.4195  12.4195  12.4195
    12.7033  12.7033  12.7033  12.7033  13.4011  13.4011  13.4011  13.4011
    14.6213  14.6213  14.6213  14.6214  16.4521  16.4521  16.4521  16.4521

          k = 0.3334 0.3334 0.3334 (  2151 PWs)   bands (ev):

     8.9821  10.6120  10.6120  10.6120  12.1865  12.1865  12.1865  12.7220
    12.9778  12.9778  12.9778  13.1307  13.1307  13.4239  13.4239  13.4239
    14.7126  14.7126  15.1701  15.1701  15.1701  17.0448  17.0448  17.0448

          k = 0.3334 0.3334-0.5000 (  2178 PWs)   bands (ev):

     9.8341   9.8341  10.5724  10.5724  12.4019  12.4019  12.7388  12.7388
    13.0368  13.0368  13.1653  13.1653  13.1749  13.1749  13.2775  13.2775
    15.0587  15.0587  15.0936  15.0936  15.2683  15.2683  17.2080  17.2080

          k = 0.3334-0.5000-0.5000 (  2160 PWs)   bands (ev):

    10.1623  10.1623  10.1623  10.1623  12.8020  12.8020  12.8020  12.8020
    13.0704  13.0704  13.0704  13.0704  13.4408  13.4408  13.4408  13.4408
    14.9931  14.9931  14.9931  14.9931  15.8977  15.8977  15.8977  15.8977

          k =-0.5000-0.5000-0.5000 (  2176 PWs)   bands (ev):

    10.0716  10.0716  10.0716  10.0716  12.9461  12.9461  12.9461  12.9461
    12.9461  12.9461  12.9461  12.9461  14.3061  14.3061  14.3061  14.3061
    15.1379  15.1379  15.1379  15.1379  15.1379  15.1379  15.1379  15.1379

          k =-0.1667 0.0000 0.1667 (  2155 PWs)   bands (ev):

     6.0024  10.3512  10.3512  10.5503  11.1859  11.2001  11.2001  12.8379
    13.2494  13.2507  13.9833  14.0275  14.0275  14.0485  14.2738  14.7038
    14.8394  14.8394  15.1862  15.1862  15.2654  17.1334  17.1334  19.4136

          k =-0.1667 0.0000 0.3334 (  2157 PWs)   bands (ev):

     7.0634   9.9564  10.8999  11.0277  11.4894  11.5345  11.5742  12.4933
    12.8779  13.0593  13.2655  13.3373  13.5508  13.8650  14.3196  14.4110
    14.5015  14.5800  14.6621  15.1832  15.1941  15.5660  18.8638  21.3273

          k =-0.3334 0.0000 0.3334 (  2152 PWs)   bands (ev):

     8.0418  10.6274  10.6274  11.4600  11.5022  11.8091  11.8091  12.3817
    12.5227  12.5227  12.7096  13.1531  13.7101  13.7455  14.0696  14.2167
    14.2167  14.6676  14.6676  14.8786  14.9314  16.7654  16.7654  20.1716

          k = 0.1667-0.1667 0.1667 (  2148 PWs)   bands (ev):

     6.3619  10.5534  10.5534  10.5534  11.2958  11.2958  11.2958  12.7747
    13.2727  13.2727  13.6549  13.6549  13.6549  14.1789  14.1789  14.5022
    14.5022  14.5022  15.2551  15.2551  15.2551  17.8268  17.8268  17.8268

          k = 0.1667-0.1667 0.3334 (  2166 PWs)   bands (ev):

     7.3889  10.1674  11.0509  11.0509  11.5467  11.5467  11.6187  12.5000
    12.8802  12.8802  13.0575  13.2929  13.3990  14.0880  14.1229  14.1781
    14.1781  14.4873  15.1209  15.1684  15.1684  15.8493  19.2115  19.2115

          k =-0.3334 0.1667 0.1667 (  2166 PWs)   bands (ev):

     7.3889  10.1674  11.0509  11.0509  11.5467  11.5467  11.6187  12.5000
    12.8802  12.8802  13.0575  13.2929  13.3990  14.0880  14.1229  14.1781
    14.1781  14.4873  15.1209  15.1684  15.1684  15.8493  19.2115  19.2115

          k = 0.1667-0.1667-0.5000 (  2142 PWs)   bands (ev):

     8.8682   8.8682  11.4956  11.4956  11.6169  11.6169  12.0690  12.0691
    12.4678  12.4678  13.0416  13.0416  13.6810  13.6810  13.9672  13.9672
    14.6576  14.6576  14.8388  14.8388  15.1185  15.1185  20.2917  20.2917

          k = 0.3334-0.1667 0.3334 (  2170 PWs)   bands (ev):

     8.3001  10.6484  10.6484  11.2080  11.6895  11.8690  11.8690  12.4632
    12.6843  12.6843  12.8135  13.1677  13.3326  13.8165  13.8177  13.8177
    14.2273  14.8370  15.0125  15.0125  15.0387  16.8291  16.8291  19.3794

          k =-0.3334 0.1667 0.3334 (  2170 PWs)   bands (ev):

     8.3001  10.6484  10.6484  11.2080  11.6895  11.8690  11.8690  12.4632
    12.6843  12.6843  12.8135  13.1677  13.3326  13.8165  13.8177  13.8177
    14.2273  14.8370  15.0125  15.0125  15.0387  16.8291  16.8291  19.3794

          k = 0.3334-0.1667-0.5000 (  2160 PWs)   bands (ev):

     9.5552   9.5552  11.0471  11.0471  11.9767  11.9767  12.2691  12.2691
    12.6578  12.6578  12.8664  12.8664  13.4682  13.4682  13.6567  13.6567
    14.5793  14.5794  14.9184  14.9184  15.4866  15.4866  18.0875  18.0875

          k = 0.3334-0.3334 0.3334 (  2151 PWs)   bands (ev):

     8.9821  10.6120  10.6120  10.6120  12.1865  12.1865  12.1865  12.7220
    12.9778  12.9778  12.9778  13.1307  13.1307  13.4239  13.4239  13.4239
    14.7126  14.7126  15.1701  15.1701  15.1701  17.0448  17.0448  17.0448

          k = 0.3334-0.3334-0.5000 (  2178 PWs)   bands (ev):

     9.8341   9.8341  10.5724  10.5724  12.4019  12.4019  12.7388  12.7388
    13.0368  13.0368  13.1653  13.1653  13.1749  13.1749  13.2775  13.2775
    15.0587  15.0587  15.0936  15.0936  15.2683  15.2683  17.2080  17.2080

     the Fermi energy is    14.9401 ev

!    total energy              =    -743.15040383 Ry
     total all-electron energy =    -12166.717226 Ry
     estimated scf accuracy    <          1.8E-09 Ry
     smearing contrib. (-TS)   =       0.00006247 Ry
     internal energy E=F+TS    =    -743.15046631 Ry

     The total energy is F=E-TS. E is the sum of the following terms:
     one-electron contribution =     -31.38128506 Ry
     hartree contribution      =      78.07880176 Ry
     xc contribution           =    -167.16376828 Ry
     ewald contribution        =    -282.05148299 Ry
     DFT-D3 Dispersion         =      -0.33998447 Ry
     one-center paw contrib.   =    -340.29274727 Ry

     total magnetization       =     2.73 Bohr mag/cell
     absolute magnetization    =     3.07 Bohr mag/cell

     convergence has been achieved in  10 iterations

     Writing all to output data dir ./Ni_k_6.save/ :
     XML data file, charge density, pseudopotentials, collected wavefunctions
 
     init_run     :      0.73s CPU      0.80s WALL (       1 calls)
     electrons    :      9.76s CPU     10.94s WALL (       1 calls)

     Called by init_run:
     wfcinit      :      0.35s CPU      0.38s WALL (       1 calls)
     potinit      :      0.23s CPU      0.25s WALL (       1 calls)
     hinit0       :      0.10s CPU      0.11s WALL (       1 calls)

     Called by electrons:
     c_bands      :      6.06s CPU      6.95s WALL (      11 calls)
     sum_band     :      1.20s CPU      1.36s WALL (      11 calls)
     v_of_rho     :      0.12s CPU      0.14s WALL (      11 calls)
     newd         :      0.10s CPU      0.11s WALL (      11 calls)
     PAW_pot      :      2.10s CPU      2.18s WALL (      11 calls)
     mix_rho      :      0.05s CPU      0.05s WALL (      11 calls)
     energy_dftd3 :      0.30s CPU      0.30s WALL (       1 calls)

     Called by c_bands:
     init_us_2    :      0.05s CPU      0.05s WALL (     736 calls)
     init_us_2:cp :      0.05s CPU      0.05s WALL (     736 calls)
     cegterg      :      5.32s CPU      5.86s WALL (     352 calls)

     Called by *egterg:
     cdiaghg      :      0.90s CPU      1.17s WALL (    1117 calls)
     h_psi        :      3.90s CPU      4.13s WALL (    1181 calls)
     s_psi        :      0.07s CPU      0.08s WALL (    1181 calls)
     g_psi        :      0.01s CPU      0.01s WALL (     797 calls)

     Called by h_psi:
     h_psi:calbec :      0.20s CPU      0.22s WALL (    1181 calls)
     vloc_psi     :      3.60s CPU      3.81s WALL (    1181 calls)
     add_vuspsi   :      0.08s CPU      0.08s WALL (    1181 calls)

     General routines
     calbec       :      0.27s CPU      0.30s WALL (    1533 calls)
     fft          :      0.10s CPU      0.10s WALL (     271 calls)
     ffts         :      0.04s CPU      0.04s WALL (     229 calls)
     fftw         :      4.08s CPU      4.37s WALL (   50152 calls)
     interpolate  :      0.01s CPU      0.01s WALL (      22 calls)
 
     Parallel routines
 
     PWSCF        :     10.74s CPU     12.29s WALL

 
   This run was terminated on:  23:43:50   5Sep2025            

=------------------------------------------------------------------------------=
   JOB DONE.
=------------------------------------------------------------------------------=
