
     Program PWSCF v.7.3 starts on  6Sep2025 at  0:15:20 

     This program is part of the open-source Quantum ESPRESSO suite
     for quantum simulation of materials; please cite
         "P. Giannozzi et al., J. Phys.:Condens. Matter 21 395502 (2009);
         "P. Giannozzi et al., J. Phys.:Condens. Matter 29 465901 (2017);
         "P. Giannozzi et al., J. Chem. Phys. 152 154105 (2020);
          URL http://www.quantum-espresso.org", 
     in publications or presentations arising from this work. More details at
     http://www.quantum-espresso.org/quote

     Parallel version (MPI), running on    30 processors

     MPI processes distributed on     1 nodes
     222979 MiB available memory on the printing compute node when the environment starts
 
     Waiting for input...
     Reading input from standard input

     Current dimensions of program PWSCF are:
     Max number of different atomic species (ntypx) = 10
     Max number of k-points (npk) =  40000
     Max angular momentum in pseudopotentials (lmaxx) =  4
     file Ni.upf: wavefunction(s)  4S 3D renormalized

     IMPORTANT: XC functional enforced from input :
     Exchange-correlation= PBE
                           (   1   4   3   4   0   0   0)
     Any further DFT definition will be discarded
     Please, verify this is what you really want

     Found identity + ( -0.5000 -0.5000  0.0000) symmetry
     This is a supercell, fractional translations are disabled
     Message from routine setup:
     using ibrav=0 with symmetry is DISCOURAGED, use correct ibrav instead
 
     K-points division:     npool     =       2
     R & G space division:  proc/nbgrp/npool/nimage =      15
     Subspace diagonalization in iterative solution of the eigenvalue problem:
     a serial algorithm will be used

 
     Parallelization info
     --------------------
     sticks:   dense  smooth     PW     G-vecs:    dense   smooth      PW
     Min         107      53     16                 3258     1151     196
     Max         109      55     17                 3260     1152     201
     Sum        1617     805    241                48885    17269    2945
 
     Using Slab Decomposition
 

     Title: 
     Ni_k_22                                                                    


     bravais-lattice index     =            0
     lattice parameter (alat)  =       6.5025  a.u.
     unit-cell volume          =     274.8993 (a.u.)^3
     number of atoms/cell      =            4
     number of atomic types    =            1
     number of electrons       =        40.00
     number of Kohn-Sham states=           24
     kinetic-energy cutoff     =      60.0000  Ry
     charge density cutoff     =     480.0000  Ry
     scf convergence threshold =      6.4E-09
     mixing beta               =       0.5000
     number of iterations used =           10  local-TF  mixing
     Exchange-correlation= PBE
                           (   1   4   3   4   0   0   0)

     celldm(1)=   6.502548  celldm(2)=   0.000000  celldm(3)=   0.000000
     celldm(4)=   0.000000  celldm(5)=   0.000000  celldm(6)=   0.000000

     crystal axes: (cart. coord. in units of alat)
               a(1) = (   0.999941   0.000000   0.000000 )  
               a(2) = (   0.000000   0.999941   0.000000 )  
               a(3) = (   0.000000   0.000000   0.999941 )  

     reciprocal axes: (cart. coord. in units 2 pi/alat)
               b(1) = (  1.000059  0.000000  0.000000 )  
               b(2) = (  0.000000  1.000059  0.000000 )  
               b(3) = (  0.000000  0.000000  1.000059 )  


     PseudoPot. # 1 for Ni read from file:
     /tmpu/mdach_g/mdach/PP/Ni.upf
     MD5 check sum: d88365a95a5e142bd87181c2c8b16588
     Pseudo is Projector augmented-wave + core cor, Zval = 10.0
     Generated using "atomic" code by A. Dal Corso  v.5.0.2 svn rev. 9415
     Shape of augmentation charge: PSQ
     Using radial grid of 1195 points,  6 beta functions with: 
                l(1) =   0
                l(2) =   0
                l(3) =   1
                l(4) =   1
                l(5) =   2
                l(6) =   2
     Q(r) pseudized with 0 coefficients 


     atomic species   valence    mass     pseudopotential
     Ni               10.00    58.69340     Ni( 1.00)

     Starting magnetic structure 
     atomic species   magnetization
     Ni              0.200

      6 Sym. Ops. (no inversion) found



   Cartesian axes

     site n.     atom                  positions (alat units)
         1        Ni     tau(   1) = (  -0.0034654  -0.0034654  -0.0034654  )
         2        Ni     tau(   2) = (   0.4965063   0.4965063  -0.0034647  )
         3        Ni     tau(   3) = (   0.4965063  -0.0034647   0.4965063  )
         4        Ni     tau(   4) = (  -0.0034647   0.4965063   0.4965063  )

     --------------------------------------------
     DFT-D3 Dispersion Correction (3-body terms):
     --------------------------------------------
       Reference C6 values for interpolation: 

         atom   Coordination number   C6
         Ni         0.000          1149.49
         Ni         1.794           356.66
         Ni         6.546           257.56
         Ni         6.292           283.75

       Values used:

         atom   Coordination number  R0_AB[au]  C6      C8
         Ni         9.784            3.162    257.59  21584.20
         Ni         9.784            3.162    257.59  21584.20
         Ni         9.784            3.162    257.59  21584.20
         Ni         9.784            3.162    257.59  21584.20

         Molecular C6 ( Ry / a.u.^6 ) =      4121.44


     number of k points=  1024  Methfessel-Paxton smearing, width (Ry)=  0.0147

     Number of k-points >= 100: set verbosity='high' to print them.

     Dense  grid:    48885 G-vectors     FFT dimensions: (  45,  45,  45)

     Smooth grid:    17269 G-vectors     FFT dimensions: (  36,  36,  36)

     Estimated max dynamical RAM per process >      64.68 MB

     Estimated total dynamical RAM >       1.87 GB
     Generating pointlists ...
     new r_m :   0.2917 (alat units)  1.8966 (a.u.) for type    1

     Initial potential from superposition of free atoms

     starting charge      39.9990, renormalised to      40.0000
     Starting wfcs are   36 atomic wfcs
     Checking if some PAW data can be deallocated... 

     total cpu time spent up to now is       10.7 secs

     Self-consistent Calculation

     iteration #  1     ecut=    60.00 Ry     beta= 0.50
     Davidson diagonalization with overlap
     ethr =  1.00E-02,  avg # of iterations =  2.0

     Threshold (ethr) on eigenvalues was too large:
     Diagonalizing with lowered threshold

     Davidson diagonalization with overlap
     ethr =  1.91E-04,  avg # of iterations =  3.3

     total cpu time spent up to now is       68.4 secs

     total energy              =    -743.11776611 Ry
     estimated scf accuracy    <       0.07190338 Ry

     total magnetization       =     3.52 Bohr mag/cell
     absolute magnetization    =     3.53 Bohr mag/cell

     iteration #  2     ecut=    60.00 Ry     beta= 0.50
     Davidson diagonalization with overlap
     ethr =  1.80E-04,  avg # of iterations =  1.0

     total cpu time spent up to now is       89.3 secs

     total energy              =    -743.14328848 Ry
     estimated scf accuracy    <       0.02669179 Ry

     total magnetization       =     3.14 Bohr mag/cell
     absolute magnetization    =     3.26 Bohr mag/cell

     iteration #  3     ecut=    60.00 Ry     beta= 0.50
     Davidson diagonalization with overlap
     ethr =  6.67E-05,  avg # of iterations =  1.0

     total cpu time spent up to now is      110.0 secs

     total energy              =    -743.15020671 Ry
     estimated scf accuracy    <       0.00045564 Ry

     total magnetization       =     2.51 Bohr mag/cell
     absolute magnetization    =     2.87 Bohr mag/cell

     iteration #  4     ecut=    60.00 Ry     beta= 0.50
     Davidson diagonalization with overlap
     ethr =  1.14E-06,  avg # of iterations =  3.6

     total cpu time spent up to now is      140.0 secs

     total energy              =    -743.15057274 Ry
     estimated scf accuracy    <       0.00004950 Ry

     total magnetization       =     2.49 Bohr mag/cell
     absolute magnetization    =     2.87 Bohr mag/cell

     iteration #  5     ecut=    60.00 Ry     beta= 0.50
     Davidson diagonalization with overlap
     ethr =  1.24E-07,  avg # of iterations =  3.0

     total cpu time spent up to now is      172.2 secs

     total energy              =    -743.15061383 Ry
     estimated scf accuracy    <       0.00001957 Ry

     total magnetization       =     2.49 Bohr mag/cell
     absolute magnetization    =     2.84 Bohr mag/cell

     iteration #  6     ecut=    60.00 Ry     beta= 0.50
     Davidson diagonalization with overlap
     ethr =  4.89E-08,  avg # of iterations =  1.8

     total cpu time spent up to now is      200.6 secs

     total energy              =    -743.15061706 Ry
     estimated scf accuracy    <       0.00000228 Ry

     total magnetization       =     2.49 Bohr mag/cell
     absolute magnetization    =     2.83 Bohr mag/cell

     iteration #  7     ecut=    60.00 Ry     beta= 0.50
     Davidson diagonalization with overlap
     ethr =  5.69E-09,  avg # of iterations =  2.5

     total cpu time spent up to now is      229.1 secs

     total energy              =    -743.15061767 Ry
     estimated scf accuracy    <       0.00000063 Ry

     total magnetization       =     2.49 Bohr mag/cell
     absolute magnetization    =     2.83 Bohr mag/cell

     iteration #  8     ecut=    60.00 Ry     beta= 0.50
     Davidson diagonalization with overlap
     ethr =  1.58E-09,  avg # of iterations =  2.1

     total cpu time spent up to now is      265.9 secs

     total energy              =    -743.15061812 Ry
     estimated scf accuracy    <       0.00000014 Ry

     total magnetization       =     2.49 Bohr mag/cell
     absolute magnetization    =     2.83 Bohr mag/cell

     iteration #  9     ecut=    60.00 Ry     beta= 0.50
     Davidson diagonalization with overlap
     ethr =  3.40E-10,  avg # of iterations =  2.7

     total cpu time spent up to now is      292.5 secs

     total energy              =    -743.15061820 Ry
     estimated scf accuracy    <          9.9E-09 Ry

     total magnetization       =     2.49 Bohr mag/cell
     absolute magnetization    =     2.82 Bohr mag/cell

     iteration # 10     ecut=    60.00 Ry     beta= 0.50
     Davidson diagonalization with overlap
     ethr =  2.48E-11,  avg # of iterations =  2.5

     total cpu time spent up to now is      321.7 secs

     total energy              =    -743.15061820 Ry
     estimated scf accuracy    <       0.00000001 Ry

     total magnetization       =     2.49 Bohr mag/cell
     absolute magnetization    =     2.82 Bohr mag/cell

     iteration # 11     ecut=    60.00 Ry     beta= 0.50
     Davidson diagonalization with overlap
     ethr =  2.48E-11,  avg # of iterations =  2.6
 
     Magnetic moment per site  (integrated on atomic sphere of radius R)
     atom   1 (R=0.292)  charge=  8.6607  magn=  0.6588
     atom   2 (R=0.292)  charge=  8.6605  magn=  0.6588
     atom   3 (R=0.292)  charge=  8.6605  magn=  0.6588
     atom   4 (R=0.292)  charge=  8.6605  magn=  0.6588

     total cpu time spent up to now is      356.8 secs

     End of self-consistent calculation

     Number of k-points >= 100: set verbosity='high' to print the bands.

     the Fermi energy is    14.9488 ev

!    total energy              =    -743.15061820 Ry
     total all-electron energy =    -12166.717440 Ry
     estimated scf accuracy    <          5.4E-11 Ry
     smearing contrib. (-TS)   =      -0.00039752 Ry
     internal energy E=F+TS    =    -743.15022068 Ry

     The total energy is F=E-TS. E is the sum of the following terms:
     one-electron contribution =     -31.41648602 Ry
     hartree contribution      =      78.11159733 Ry
     xc contribution           =    -167.16434374 Ry
     ewald contribution        =    -282.05148299 Ry
     DFT-D3 Dispersion         =      -0.33998447 Ry
     one-center paw contrib.   =    -340.28952079 Ry

     total magnetization       =     2.49 Bohr mag/cell
     absolute magnetization    =     2.82 Bohr mag/cell

     convergence has been achieved in  11 iterations

     Writing all to output data dir ./Ni_k_22.save/ :
     XML data file, charge density, pseudopotentials, collected wavefunctions
 
     init_run     :     10.13s CPU     10.48s WALL (       1 calls)
     electrons    :    240.39s CPU    346.14s WALL (       1 calls)

     Called by init_run:
     wfcinit      :      5.31s CPU      5.60s WALL (       1 calls)
     potinit      :      0.25s CPU      0.28s WALL (       1 calls)
     hinit0       :      0.05s CPU      0.06s WALL (       1 calls)

     Called by electrons:
     c_bands      :    203.11s CPU    304.80s WALL (      12 calls)
     sum_band     :     34.04s CPU     37.96s WALL (      12 calls)
     v_of_rho     :      0.15s CPU      0.17s WALL (      12 calls)
     newd         :      0.13s CPU      0.13s WALL (      12 calls)
     PAW_pot      :      2.54s CPU      2.59s WALL (      12 calls)
     mix_rho      :      0.04s CPU      0.05s WALL (      12 calls)
     energy_dftd3 :      0.44s CPU      0.44s WALL (       1 calls)

     Called by c_bands:
     init_us_2    :      1.78s CPU      2.15s WALL (   25600 calls)
     init_us_2:cp :      1.70s CPU      2.09s WALL (   25600 calls)
     cegterg      :    170.06s CPU    220.50s WALL (   12288 calls)

     Called by *egterg:
     cdiaghg      :     39.02s CPU     68.28s WALL (   42210 calls)
     h_psi        :    112.39s CPU    128.76s WALL (   44258 calls)
     s_psi        :      2.75s CPU      3.61s WALL (   44258 calls)
     g_psi        :      0.43s CPU      0.48s WALL (   30946 calls)

     Called by h_psi:
     h_psi:calbec :      5.09s CPU      6.20s WALL (   44258 calls)
     vloc_psi     :    103.72s CPU    118.20s WALL (   44258 calls)
     add_vuspsi   :      2.90s CPU      3.57s WALL (   44258 calls)

     General routines
     calbec       :      7.17s CPU      8.49s WALL (   56546 calls)
     fft          :      0.10s CPU      0.10s WALL (     296 calls)
     ffts         :      0.06s CPU      0.06s WALL (     242 calls)
     fftw         :    118.40s CPU    133.57s WALL ( 1848954 calls)
     interpolate  :      0.01s CPU      0.01s WALL (      24 calls)
 
     Parallel routines
 
     PWSCF        :   4m12.65s CPU   6m 3.99s WALL

 
   This run was terminated on:   0:21:24   6Sep2025            

=------------------------------------------------------------------------------=
   JOB DONE.
=------------------------------------------------------------------------------=
