
     Program PWSCF v.7.3 starts on  5Sep2025 at 23:43:12 

     This program is part of the open-source Quantum ESPRESSO suite
     for quantum simulation of materials; please cite
         "P. Giannozzi et al., J. Phys.:Condens. Matter 21 395502 (2009);
         "P. Giannozzi et al., J. Phys.:Condens. Matter 29 465901 (2017);
         "P. Giannozzi et al., J. Chem. Phys. 152 154105 (2020);
          URL http://www.quantum-espresso.org", 
     in publications or presentations arising from this work. More details at
     http://www.quantum-espresso.org/quote

     Parallel version (MPI), running on    30 processors

     MPI processes distributed on     1 nodes
     225034 MiB available memory on the printing compute node when the environment starts
 
     Waiting for input...
     Reading input from standard input

     Current dimensions of program PWSCF are:
     Max number of different atomic species (ntypx) = 10
     Max number of k-points (npk) =  40000
     Max angular momentum in pseudopotentials (lmaxx) =  4
     file Ni.upf: wavefunction(s)  4S 3D renormalized

     IMPORTANT: XC functional enforced from input :
     Exchange-correlation= PBE
                           (   1   4   3   4   0   0   0)
     Any further DFT definition will be discarded
     Please, verify this is what you really want

     Found identity + ( -0.5000 -0.5000  0.0000) symmetry
     This is a supercell, fractional translations are disabled
     Message from routine setup:
     using ibrav=0 with symmetry is DISCOURAGED, use correct ibrav instead
 
     K-points division:     npool     =       2
     R & G space division:  proc/nbgrp/npool/nimage =      15
     Subspace diagonalization in iterative solution of the eigenvalue problem:
     a serial algorithm will be used

 
     Parallelization info
     --------------------
     sticks:   dense  smooth     PW     G-vecs:    dense   smooth      PW
     Min         107      53     16                 3258     1151     196
     Max         109      55     17                 3260     1152     201
     Sum        1617     805    241                48885    17269    2945
 
     Using Slab Decomposition
 

     Title: 
     Ni_k_4                                                                     


     bravais-lattice index     =            0
     lattice parameter (alat)  =       6.5025  a.u.
     unit-cell volume          =     274.8993 (a.u.)^3
     number of atoms/cell      =            4
     number of atomic types    =            1
     number of electrons       =        40.00
     number of Kohn-Sham states=           24
     kinetic-energy cutoff     =      60.0000  Ry
     charge density cutoff     =     480.0000  Ry
     scf convergence threshold =      6.4E-09
     mixing beta               =       0.5000
     number of iterations used =           10  local-TF  mixing
     Exchange-correlation= PBE
                           (   1   4   3   4   0   0   0)

     celldm(1)=   6.502548  celldm(2)=   0.000000  celldm(3)=   0.000000
     celldm(4)=   0.000000  celldm(5)=   0.000000  celldm(6)=   0.000000

     crystal axes: (cart. coord. in units of alat)
               a(1) = (   0.999941   0.000000   0.000000 )  
               a(2) = (   0.000000   0.999941   0.000000 )  
               a(3) = (   0.000000   0.000000   0.999941 )  

     reciprocal axes: (cart. coord. in units 2 pi/alat)
               b(1) = (  1.000059  0.000000  0.000000 )  
               b(2) = (  0.000000  1.000059  0.000000 )  
               b(3) = (  0.000000  0.000000  1.000059 )  


     PseudoPot. # 1 for Ni read from file:
     /tmpu/mdach_g/mdach/PP/Ni.upf
     MD5 check sum: d88365a95a5e142bd87181c2c8b16588
     Pseudo is Projector augmented-wave + core cor, Zval = 10.0
     Generated using "atomic" code by A. Dal Corso  v.5.0.2 svn rev. 9415
     Shape of augmentation charge: PSQ
     Using radial grid of 1195 points,  6 beta functions with: 
                l(1) =   0
                l(2) =   0
                l(3) =   1
                l(4) =   1
                l(5) =   2
                l(6) =   2
     Q(r) pseudized with 0 coefficients 


     atomic species   valence    mass     pseudopotential
     Ni               10.00    58.69340     Ni( 1.00)

     Starting magnetic structure 
     atomic species   magnetization
     Ni              0.200

      6 Sym. Ops. (no inversion) found



   Cartesian axes

     site n.     atom                  positions (alat units)
         1        Ni     tau(   1) = (  -0.0034654  -0.0034654  -0.0034654  )
         2        Ni     tau(   2) = (   0.4965063   0.4965063  -0.0034647  )
         3        Ni     tau(   3) = (   0.4965063  -0.0034647   0.4965063  )
         4        Ni     tau(   4) = (  -0.0034647   0.4965063   0.4965063  )

     --------------------------------------------
     DFT-D3 Dispersion Correction (3-body terms):
     --------------------------------------------
       Reference C6 values for interpolation: 

         atom   Coordination number   C6
         Ni         0.000          1149.49
         Ni         1.794           356.66
         Ni         6.546           257.56
         Ni         6.292           283.75

       Values used:

         atom   Coordination number  R0_AB[au]  C6      C8
         Ni         9.784            3.162    257.59  21584.20
         Ni         9.784            3.162    257.59  21584.20
         Ni         9.784            3.162    257.59  21584.20
         Ni         9.784            3.162    257.59  21584.20

         Molecular C6 ( Ry / a.u.^6 ) =      4121.44


     number of k points=    13  Methfessel-Paxton smearing, width (Ry)=  0.0147
                       cart. coord. in units 2pi/alat
        k(    1) = (   0.0000000   0.0000000   0.0000000), wk =   0.0156250
        k(    2) = (   0.0000000   0.0000000   0.2500148), wk =   0.0937500
        k(    3) = (   0.0000000   0.0000000  -0.5000295), wk =   0.0468750
        k(    4) = (   0.0000000   0.2500148   0.2500148), wk =   0.0937500
        k(    5) = (   0.0000000   0.2500148  -0.5000295), wk =   0.1875000
        k(    6) = (   0.0000000  -0.5000295  -0.5000295), wk =   0.0468750
        k(    7) = (   0.2500148   0.2500148   0.2500148), wk =   0.0312500
        k(    8) = (   0.2500148   0.2500148  -0.5000295), wk =   0.0937500
        k(    9) = (   0.2500148  -0.5000295  -0.5000295), wk =   0.0937500
        k(   10) = (  -0.5000295  -0.5000295  -0.5000295), wk =   0.0156250
        k(   11) = (  -0.2500148   0.0000000   0.2500148), wk =   0.0937500
        k(   12) = (   0.2500148  -0.2500148   0.2500148), wk =   0.0937500
        k(   13) = (   0.2500148  -0.2500148  -0.5000295), wk =   0.0937500

     Dense  grid:    48885 G-vectors     FFT dimensions: (  45,  45,  45)

     Smooth grid:    17269 G-vectors     FFT dimensions: (  36,  36,  36)

     Estimated max dynamical RAM per process >      11.74 MB

     Estimated total dynamical RAM >     322.26 MB
     Generating pointlists ...
     new r_m :   0.2917 (alat units)  1.8966 (a.u.) for type    1

     Initial potential from superposition of free atoms

     starting charge      39.9990, renormalised to      40.0000
     Starting wfcs are   36 atomic wfcs
     Checking if some PAW data can be deallocated... 

     total cpu time spent up to now is        0.8 secs

     Self-consistent Calculation

     iteration #  1     ecut=    60.00 Ry     beta= 0.50
     Davidson diagonalization with overlap
     ethr =  1.00E-02,  avg # of iterations =  1.9

     Threshold (ethr) on eigenvalues was too large:
     Diagonalizing with lowered threshold

     Davidson diagonalization with overlap
     ethr =  2.08E-04,  avg # of iterations =  3.3

     total cpu time spent up to now is        2.1 secs

     total energy              =    -743.11010619 Ry
     estimated scf accuracy    <       0.07307598 Ry

     total magnetization       =     3.52 Bohr mag/cell
     absolute magnetization    =     3.52 Bohr mag/cell

     iteration #  2     ecut=    60.00 Ry     beta= 0.50
     Davidson diagonalization with overlap
     ethr =  1.83E-04,  avg # of iterations =  1.0

     total cpu time spent up to now is        2.6 secs

     total energy              =    -743.13421253 Ry
     estimated scf accuracy    <       0.03616565 Ry

     total magnetization       =     2.82 Bohr mag/cell
     absolute magnetization    =     3.02 Bohr mag/cell

     iteration #  3     ecut=    60.00 Ry     beta= 0.50
     Davidson diagonalization with overlap
     ethr =  9.04E-05,  avg # of iterations =  1.0

     total cpu time spent up to now is        3.1 secs

     total energy              =    -743.14552948 Ry
     estimated scf accuracy    <       0.01728489 Ry

     total magnetization       =     2.90 Bohr mag/cell
     absolute magnetization    =     3.20 Bohr mag/cell

     iteration #  4     ecut=    60.00 Ry     beta= 0.50
     Davidson diagonalization with overlap
     ethr =  4.32E-05,  avg # of iterations =  1.0

     total cpu time spent up to now is        3.7 secs

     total energy              =    -743.14570519 Ry
     estimated scf accuracy    <       0.00057823 Ry

     total magnetization       =     2.85 Bohr mag/cell
     absolute magnetization    =     3.14 Bohr mag/cell

     iteration #  5     ecut=    60.00 Ry     beta= 0.50
     Davidson diagonalization with overlap
     ethr =  1.45E-06,  avg # of iterations =  3.1

     total cpu time spent up to now is        4.4 secs

     total energy              =    -743.14588534 Ry
     estimated scf accuracy    <       0.00045873 Ry

     total magnetization       =     2.85 Bohr mag/cell
     absolute magnetization    =     3.16 Bohr mag/cell

     iteration #  6     ecut=    60.00 Ry     beta= 0.50
     Davidson diagonalization with overlap
     ethr =  1.15E-06,  avg # of iterations =  1.0

     total cpu time spent up to now is        5.0 secs

     total energy              =    -743.14590835 Ry
     estimated scf accuracy    <       0.00013869 Ry

     total magnetization       =     2.85 Bohr mag/cell
     absolute magnetization    =     3.16 Bohr mag/cell

     iteration #  7     ecut=    60.00 Ry     beta= 0.50
     Davidson diagonalization with overlap
     ethr =  3.47E-07,  avg # of iterations =  1.2

     total cpu time spent up to now is        5.5 secs

     total energy              =    -743.14593381 Ry
     estimated scf accuracy    <       0.00011340 Ry

     total magnetization       =     2.85 Bohr mag/cell
     absolute magnetization    =     3.16 Bohr mag/cell

     iteration #  8     ecut=    60.00 Ry     beta= 0.50
     Davidson diagonalization with overlap
     ethr =  2.83E-07,  avg # of iterations =  2.8

     total cpu time spent up to now is        6.1 secs

     total energy              =    -743.14594830 Ry
     estimated scf accuracy    <       0.00004216 Ry

     total magnetization       =     2.85 Bohr mag/cell
     absolute magnetization    =     3.17 Bohr mag/cell

     iteration #  9     ecut=    60.00 Ry     beta= 0.50
     Davidson diagonalization with overlap
     ethr =  1.05E-07,  avg # of iterations =  2.3

     total cpu time spent up to now is        6.7 secs

     total energy              =    -743.14595623 Ry
     estimated scf accuracy    <       0.00000088 Ry

     total magnetization       =     2.85 Bohr mag/cell
     absolute magnetization    =     3.17 Bohr mag/cell

     iteration # 10     ecut=    60.00 Ry     beta= 0.50
     Davidson diagonalization with overlap
     ethr =  2.19E-09,  avg # of iterations =  3.2

     total cpu time spent up to now is        7.4 secs

     total energy              =    -743.14595642 Ry
     estimated scf accuracy    <       0.00000084 Ry

     total magnetization       =     2.85 Bohr mag/cell
     absolute magnetization    =     3.17 Bohr mag/cell

     iteration # 11     ecut=    60.00 Ry     beta= 0.50
     Davidson diagonalization with overlap
     ethr =  2.10E-09,  avg # of iterations =  2.2

     total cpu time spent up to now is        7.9 secs

     total energy              =    -743.14595659 Ry
     estimated scf accuracy    <       0.00000002 Ry

     total magnetization       =     2.85 Bohr mag/cell
     absolute magnetization    =     3.17 Bohr mag/cell

     iteration # 12     ecut=    60.00 Ry     beta= 0.50
     Davidson diagonalization with overlap
     ethr =  5.27E-11,  avg # of iterations =  3.5

     total cpu time spent up to now is        8.6 secs

     total energy              =    -743.14595660 Ry
     estimated scf accuracy    <       0.00000003 Ry

     total magnetization       =     2.85 Bohr mag/cell
     absolute magnetization    =     3.17 Bohr mag/cell

     iteration # 13     ecut=    60.00 Ry     beta= 0.50
     Davidson diagonalization with overlap
     ethr =  5.27E-11,  avg # of iterations =  1.0

     total cpu time spent up to now is        9.2 secs

     total energy              =    -743.14595659 Ry
     estimated scf accuracy    <       0.00000001 Ry

     total magnetization       =     2.85 Bohr mag/cell
     absolute magnetization    =     3.17 Bohr mag/cell

     iteration # 14     ecut=    60.00 Ry     beta= 0.50
     Davidson diagonalization with overlap
     ethr =  3.60E-11,  avg # of iterations =  2.1
 
     Magnetic moment per site  (integrated on atomic sphere of radius R)
     atom   1 (R=0.292)  charge=  8.6552  magn=  0.7477
     atom   2 (R=0.292)  charge=  8.6551  magn=  0.7477
     atom   3 (R=0.292)  charge=  8.6551  magn=  0.7477
     atom   4 (R=0.292)  charge=  8.6551  magn=  0.7477

     total cpu time spent up to now is        9.6 secs

     End of self-consistent calculation

 ------ SPIN UP ------------


          k = 0.0000 0.0000 0.0000 (  2109 PWs)   bands (ev):

     5.2761   9.7396   9.7396   9.7396  10.2417  10.2417  10.2417  12.2081
    12.2081  12.2081  13.5158  13.5158  14.3062  14.3062  14.3062  14.3964
    14.3964  14.3964  14.3964  14.3964  14.3964  17.2711  17.2711  17.2711

          k = 0.0000 0.0000 0.2500 (  2160 PWs)   bands (ev):

     6.1144   9.7123  10.1582  10.1582  10.5091  10.5490  10.5490  11.8979
    12.4576  12.4576  13.0375  13.0375  13.2364  13.6286  13.9402  13.9402
    13.9819  13.9819  14.1874  14.3970  14.3970  14.5234  19.3251  19.3251

          k = 0.0000 0.0000-0.5000 (  2168 PWs)   bands (ev):

     8.2791   8.2791  10.7060  10.7060  11.1822  11.1822  11.4883  11.4883
    11.4883  11.4883  12.8425  12.8426  13.1413  13.1413  13.1413  13.1413
    13.4389  13.4389  13.9050  13.9050  14.3976  14.3976  22.9171  22.9171

          k = 0.0000 0.2500 0.2500 (  2157 PWs)   bands (ev):

     6.9053  10.2048  10.2048  10.4892  10.7660  10.7660  10.7705  11.7925
    12.4566  12.4566  12.4720  12.5474  12.5607  13.2083  13.6901  13.7304
    13.8835  13.8835  13.9773  13.9773  14.1136  16.4204  16.4204  20.8083

          k = 0.0000 0.2500-0.5000 (  2142 PWs)   bands (ev):

     8.9135   8.9135  11.0051  11.0051  11.2340  11.2340  11.2969  11.2970
    11.5186  11.5186  12.2532  12.2532  13.1541  13.1542  13.3216  13.3216
    13.3665  13.3665  13.9839  13.9839  14.4128  14.4129  18.9605  18.9605

          k = 0.0000-0.5000-0.5000 (  2160 PWs)   bands (ev):

    10.2511  10.2511  10.2511  10.2511  11.4904  11.4904  11.4904  11.4904
    11.8357  11.8357  11.8357  11.8357  13.0275  13.0275  13.0275  13.0275
    13.3721  13.3722  13.3722  13.3722  15.9183  15.9183  15.9183  15.9183

          k = 0.2500 0.2500 0.2500 (  2169 PWs)   bands (ev):

     7.6012  10.3715  10.3715  10.3715  11.0630  11.0630  11.0630  11.8438
    12.2529  12.2529  12.2529  12.4598  12.4598  13.1835  13.1835  13.1835
    13.5891  13.5891  14.3030  14.3030  14.3030  17.2110  17.2110  17.2110

          k = 0.2500 0.2500-0.5000 (  2166 PWs)   bands (ev):

     9.2452   9.2452  10.5119  10.5119  11.4319  11.4319  11.6711  11.6711
    12.0934  12.0934  12.2245  12.2245  12.6306  12.6306  12.9169  12.9169
    14.1185  14.1185  14.1497  14.1497  14.2633  14.2634  18.3335  18.3335

          k = 0.2500-0.5000-0.5000 (  2176 PWs)   bands (ev):

     9.8359   9.8359   9.8359   9.8359  12.0366  12.0366  12.0366  12.0366
    12.4521  12.4521  12.4521  12.4521  12.4920  12.4920  12.4920  12.4920
    13.9440  13.9440  13.9440  13.9440  15.6214  15.6214  15.6214  15.6214

          k =-0.5000-0.5000-0.5000 (  2176 PWs)   bands (ev):

     9.5747   9.5747   9.5747   9.5747  12.2230  12.2230  12.2230  12.2230
    12.2230  12.2230  12.2230  12.2230  14.2493  14.2493  14.2493  14.2493
    14.2493  14.2493  14.2493  14.2493  14.3551  14.3551  14.3551  14.3551

          k =-0.2500 0.0000 0.2500 (  2157 PWs)   bands (ev):

     6.9053  10.2048  10.2048  10.4892  10.7660  10.7660  10.7705  11.7925
    12.4566  12.4566  12.4720  12.5474  12.5607  13.2083  13.6901  13.7304
    13.8835  13.8835  13.9773  13.9773  14.1136  16.4204  16.4204  20.8083

          k = 0.2500-0.2500 0.2500 (  2169 PWs)   bands (ev):

     7.6012  10.3715  10.3715  10.3715  11.0630  11.0630  11.0630  11.8438
    12.2529  12.2529  12.2529  12.4598  12.4598  13.1835  13.1835  13.1835
    13.5891  13.5891  14.3030  14.3030  14.3030  17.2110  17.2110  17.2110

          k = 0.2500-0.2500-0.5000 (  2166 PWs)   bands (ev):

     9.2452   9.2452  10.5119  10.5119  11.4319  11.4319  11.6711  11.6711
    12.0934  12.0934  12.2245  12.2245  12.6306  12.6306  12.9169  12.9169
    14.1185  14.1185  14.1497  14.1497  14.2633  14.2634  18.3335  18.3335

 ------ SPIN DOWN ----------


          k = 0.0000 0.0000 0.0000 (  2109 PWs)   bands (ev):

     5.2541  10.1316  10.1316  10.1316  10.9269  10.9269  10.9269  13.0529
    13.0529  13.0529  14.1910  14.1910  15.0121  15.0121  15.0121  15.3714
    15.3714  15.3714  15.3714  15.3714  15.3714  17.2441  17.2441  17.2441

          k = 0.0000 0.0000 0.2500 (  2160 PWs)   bands (ev):

     6.0939  10.0032  10.5682  10.5682  11.2134  11.2294  11.2294  12.7142
    13.3118  13.3118  13.7561  13.7561  13.8909  14.3080  14.6193  14.6193
    14.7233  14.8885  14.9224  14.9224  15.3721  15.3721  19.5460  19.5460

          k = 0.0000 0.0000-0.5000 (  2168 PWs)   bands (ev):

     8.2984   8.2984  11.1400  11.1400  11.9379  11.9379  12.1643  12.1643
    12.1643  12.1643  13.4028  13.4028  14.0276  14.0276  14.0276  14.0276
    14.0828  14.0828  14.5949  14.5949  15.3727  15.3727  23.1507  23.1507

          k = 0.0000 0.2500 0.2500 (  2157 PWs)   bands (ev):

     6.8918  10.5229  10.5229  10.9615  11.3781  11.4628  11.4628  12.5826
    13.0860  13.0860  13.2329  13.2677  13.4261  13.8624  14.3560  14.4561
    14.5423  14.5423  14.9189  14.9189  15.0720  16.9286  16.9286  21.0721

          k = 0.0000 0.2500-0.5000 (  2142 PWs)   bands (ev):

     8.9616   8.9616  11.4025  11.4026  11.8606  11.8606  12.0370  12.0370
    12.2008  12.2008  12.9274  12.9274  13.9744  13.9744  14.0122  14.0122
    14.0469  14.0469  14.9299  14.9300  15.1839  15.1839  19.3455  19.3455

          k = 0.0000-0.5000-0.5000 (  2160 PWs)   bands (ev):

    10.4698  10.4698  10.4698  10.4698  12.1949  12.1949  12.1949  12.1950
    12.4344  12.4344  12.4344  12.4344  13.6632  13.6632  13.6632  13.6632
    14.2860  14.2860  14.2860  14.2860  16.5770  16.5770  16.5770  16.5770

          k = 0.2500 0.2500 0.2500 (  2169 PWs)   bands (ev):

     7.6131  10.8215  10.8215  10.8215  11.6099  11.6099  11.6099  12.5646
    12.9106  12.9106  12.9106  13.2438  13.2438  13.9153  13.9153  13.9153
    14.3374  14.3374  15.1773  15.1773  15.1773  17.6573  17.6573  17.6573

          k = 0.2500 0.2500-0.5000 (  2166 PWs)   bands (ev):

     9.4030   9.4030  11.0705  11.0705  11.8845  11.8845  12.2681  12.2681
    12.7585  12.7585  12.9229  12.9229  13.3802  13.3802  13.6108  13.6108
    14.9353  14.9353  14.9941  14.9941  15.0379  15.0379  18.6592  18.6592

          k = 0.2500-0.5000-0.5000 (  2176 PWs)   bands (ev):

    10.2482  10.2482  10.2482  10.2482  12.6088  12.6088  12.6088  12.6088
    12.9832  12.9832  12.9832  12.9832  13.1918  13.1918  13.1918  13.1918
    14.7983  14.7983  14.7983  14.7983  16.2152  16.2152  16.2152  16.2152

          k =-0.5000-0.5000-0.5000 (  2176 PWs)   bands (ev):

    10.0583  10.0583  10.0583  10.0583  12.9219  12.9219  12.9219  12.9219
    12.9219  12.9219  12.9219  12.9219  14.3053  14.3053  14.3053  14.3053
    15.1091  15.1091  15.1091  15.1091  15.1091  15.1091  15.1091  15.1091

          k =-0.2500 0.0000 0.2500 (  2157 PWs)   bands (ev):

     6.8918  10.5229  10.5229  10.9615  11.3781  11.4628  11.4628  12.5826
    13.0860  13.0860  13.2329  13.2677  13.4261  13.8624  14.3560  14.4561
    14.5423  14.5423  14.9189  14.9189  15.0720  16.9286  16.9286  21.0721

          k = 0.2500-0.2500 0.2500 (  2169 PWs)   bands (ev):

     7.6131  10.8215  10.8215  10.8215  11.6099  11.6099  11.6099  12.5646
    12.9106  12.9106  12.9106  13.2438  13.2438  13.9153  13.9153  13.9153
    14.3374  14.3374  15.1773  15.1773  15.1773  17.6573  17.6573  17.6573

          k = 0.2500-0.2500-0.5000 (  2166 PWs)   bands (ev):

     9.4030   9.4030  11.0705  11.0705  11.8845  11.8845  12.2681  12.2681
    12.7585  12.7585  12.9229  12.9229  13.3802  13.3802  13.6108  13.6108
    14.9353  14.9353  14.9941  14.9941  15.0379  15.0379  18.6592  18.6592

     the Fermi energy is    14.9246 ev

!    total energy              =    -743.14595660 Ry
     total all-electron energy =    -12166.712778 Ry
     estimated scf accuracy    <          8.4E-11 Ry
     smearing contrib. (-TS)   =      -0.00247055 Ry
     internal energy E=F+TS    =    -743.14348604 Ry

     The total energy is F=E-TS. E is the sum of the following terms:
     one-electron contribution =     -31.29596255 Ry
     hartree contribution      =      77.98676018 Ry
     xc contribution           =    -167.14353869 Ry
     ewald contribution        =    -282.05148299 Ry
     DFT-D3 Dispersion         =      -0.33998447 Ry
     one-center paw contrib.   =    -340.29927752 Ry

     total magnetization       =     2.85 Bohr mag/cell
     absolute magnetization    =     3.17 Bohr mag/cell

     convergence has been achieved in  14 iterations

     Writing all to output data dir ./Ni_k_4.save/ :
     XML data file, charge density, pseudopotentials, collected wavefunctions
 
     init_run     :      0.57s CPU      0.61s WALL (       1 calls)
     electrons    :      7.61s CPU      8.88s WALL (       1 calls)

     Called by init_run:
     wfcinit      :      0.15s CPU      0.16s WALL (       1 calls)
     potinit      :      0.28s CPU      0.29s WALL (       1 calls)
     hinit0       :      0.08s CPU      0.09s WALL (       1 calls)

     Called by electrons:
     c_bands      :      3.27s CPU      4.10s WALL (      15 calls)
     sum_band     :      0.82s CPU      1.03s WALL (      15 calls)
     v_of_rho     :      0.17s CPU      0.19s WALL (      15 calls)
     newd         :      0.12s CPU      0.13s WALL (      15 calls)
     PAW_pot      :      3.01s CPU      3.15s WALL (      15 calls)
     mix_rho      :      0.07s CPU      0.09s WALL (      15 calls)
     energy_dftd3 :      0.30s CPU      0.30s WALL (       1 calls)

     Called by c_bands:
     init_us_2    :      0.03s CPU      0.03s WALL (     403 calls)
     init_us_2:cp :      0.02s CPU      0.03s WALL (     403 calls)
     cegterg      :      2.85s CPU      3.21s WALL (     195 calls)

     Called by *egterg:
     cdiaghg      :      0.45s CPU      0.55s WALL (     575 calls)
     h_psi        :      2.00s CPU      2.24s WALL (     601 calls)
     s_psi        :      0.04s CPU      0.04s WALL (     601 calls)
     g_psi        :      0.01s CPU      0.01s WALL (     393 calls)

     Called by h_psi:
     h_psi:calbec :      0.11s CPU      0.13s WALL (     601 calls)
     vloc_psi     :      1.84s CPU      2.04s WALL (     601 calls)
     add_vuspsi   :      0.04s CPU      0.05s WALL (     601 calls)

     General routines
     calbec       :      0.13s CPU      0.15s WALL (     796 calls)
     fft          :      0.16s CPU      0.18s WALL (     371 calls)
     ffts         :      0.06s CPU      0.06s WALL (     311 calls)
     fftw         :      2.11s CPU      2.38s WALL (   27196 calls)
     interpolate  :      0.03s CPU      0.03s WALL (      30 calls)
 
     Parallel routines
 
     PWSCF        :      8.36s CPU      9.83s WALL

 
   This run was terminated on:  23:43:22   5Sep2025            

=------------------------------------------------------------------------------=
   JOB DONE.
=------------------------------------------------------------------------------=
