
     Program PWSCF v.7.3 starts on  5Sep2025 at 23:42:53 

     This program is part of the open-source Quantum ESPRESSO suite
     for quantum simulation of materials; please cite
         "P. Giannozzi et al., J. Phys.:Condens. Matter 21 395502 (2009);
         "P. Giannozzi et al., J. Phys.:Condens. Matter 29 465901 (2017);
         "P. Giannozzi et al., J. Chem. Phys. 152 154105 (2020);
          URL http://www.quantum-espresso.org", 
     in publications or presentations arising from this work. More details at
     http://www.quantum-espresso.org/quote

     Parallel version (MPI), running on    30 processors

     MPI processes distributed on     1 nodes
     225018 MiB available memory on the printing compute node when the environment starts
 
     Waiting for input...
     Reading input from standard input

     Current dimensions of program PWSCF are:
     Max number of different atomic species (ntypx) = 10
     Max number of k-points (npk) =  40000
     Max angular momentum in pseudopotentials (lmaxx) =  4
     file Ni.upf: wavefunction(s)  4S 3D renormalized

     IMPORTANT: XC functional enforced from input :
     Exchange-correlation= PBE
                           (   1   4   3   4   0   0   0)
     Any further DFT definition will be discarded
     Please, verify this is what you really want

     Found identity + ( -0.5000 -0.5000  0.0000) symmetry
     This is a supercell, fractional translations are disabled
     Message from routine setup:
     using ibrav=0 with symmetry is DISCOURAGED, use correct ibrav instead
 
     K-points division:     npool     =       2
     R & G space division:  proc/nbgrp/npool/nimage =      15
     Subspace diagonalization in iterative solution of the eigenvalue problem:
     a serial algorithm will be used

 
     Parallelization info
     --------------------
     sticks:   dense  smooth     PW     G-vecs:    dense   smooth      PW
     Min         107      53     16                 3258     1151     196
     Max         109      55     17                 3260     1152     201
     Sum        1617     805    241                48885    17269    2945
 
     Using Slab Decomposition
 

     Title: 
     Ni_k_2                                                                     


     bravais-lattice index     =            0
     lattice parameter (alat)  =       6.5025  a.u.
     unit-cell volume          =     274.8993 (a.u.)^3
     number of atoms/cell      =            4
     number of atomic types    =            1
     number of electrons       =        40.00
     number of Kohn-Sham states=           24
     kinetic-energy cutoff     =      60.0000  Ry
     charge density cutoff     =     480.0000  Ry
     scf convergence threshold =      6.4E-09
     mixing beta               =       0.5000
     number of iterations used =           10  local-TF  mixing
     Exchange-correlation= PBE
                           (   1   4   3   4   0   0   0)

     celldm(1)=   6.502548  celldm(2)=   0.000000  celldm(3)=   0.000000
     celldm(4)=   0.000000  celldm(5)=   0.000000  celldm(6)=   0.000000

     crystal axes: (cart. coord. in units of alat)
               a(1) = (   0.999941   0.000000   0.000000 )  
               a(2) = (   0.000000   0.999941   0.000000 )  
               a(3) = (   0.000000   0.000000   0.999941 )  

     reciprocal axes: (cart. coord. in units 2 pi/alat)
               b(1) = (  1.000059  0.000000  0.000000 )  
               b(2) = (  0.000000  1.000059  0.000000 )  
               b(3) = (  0.000000  0.000000  1.000059 )  


     PseudoPot. # 1 for Ni read from file:
     /tmpu/mdach_g/mdach/PP/Ni.upf
     MD5 check sum: d88365a95a5e142bd87181c2c8b16588
     Pseudo is Projector augmented-wave + core cor, Zval = 10.0
     Generated using "atomic" code by A. Dal Corso  v.5.0.2 svn rev. 9415
     Shape of augmentation charge: PSQ
     Using radial grid of 1195 points,  6 beta functions with: 
                l(1) =   0
                l(2) =   0
                l(3) =   1
                l(4) =   1
                l(5) =   2
                l(6) =   2
     Q(r) pseudized with 0 coefficients 


     atomic species   valence    mass     pseudopotential
     Ni               10.00    58.69340     Ni( 1.00)

     Starting magnetic structure 
     atomic species   magnetization
     Ni              0.200

      6 Sym. Ops. (no inversion) found



   Cartesian axes

     site n.     atom                  positions (alat units)
         1        Ni     tau(   1) = (  -0.0034654  -0.0034654  -0.0034654  )
         2        Ni     tau(   2) = (   0.4965063   0.4965063  -0.0034647  )
         3        Ni     tau(   3) = (   0.4965063  -0.0034647   0.4965063  )
         4        Ni     tau(   4) = (  -0.0034647   0.4965063   0.4965063  )

     --------------------------------------------
     DFT-D3 Dispersion Correction (3-body terms):
     --------------------------------------------
       Reference C6 values for interpolation: 

         atom   Coordination number   C6
         Ni         0.000          1149.49
         Ni         1.794           356.66
         Ni         6.546           257.56
         Ni         6.292           283.75

       Values used:

         atom   Coordination number  R0_AB[au]  C6      C8
         Ni         9.784            3.162    257.59  21584.20
         Ni         9.784            3.162    257.59  21584.20
         Ni         9.784            3.162    257.59  21584.20
         Ni         9.784            3.162    257.59  21584.20

         Molecular C6 ( Ry / a.u.^6 ) =      4121.44


     number of k points=     4  Methfessel-Paxton smearing, width (Ry)=  0.0147
                       cart. coord. in units 2pi/alat
        k(    1) = (   0.0000000   0.0000000   0.0000000), wk =   0.1250000
        k(    2) = (   0.0000000   0.0000000  -0.5000295), wk =   0.3750000
        k(    3) = (   0.0000000  -0.5000295  -0.5000295), wk =   0.3750000
        k(    4) = (  -0.5000295  -0.5000295  -0.5000295), wk =   0.1250000

     Dense  grid:    48885 G-vectors     FFT dimensions: (  45,  45,  45)

     Smooth grid:    17269 G-vectors     FFT dimensions: (  36,  36,  36)

     Estimated max dynamical RAM per process >      11.27 MB

     Estimated total dynamical RAM >     308.12 MB
     Generating pointlists ...
     new r_m :   0.2917 (alat units)  1.8966 (a.u.) for type    1

     Initial potential from superposition of free atoms

     starting charge      39.9990, renormalised to      40.0000
     Starting wfcs are   36 atomic wfcs
     Checking if some PAW data can be deallocated... 

     total cpu time spent up to now is        0.8 secs

     Self-consistent Calculation

     iteration #  1     ecut=    60.00 Ry     beta= 0.50
     Davidson diagonalization with overlap
     ethr =  1.00E-02,  avg # of iterations =  2.0

     Threshold (ethr) on eigenvalues was too large:
     Diagonalizing with lowered threshold

     Davidson diagonalization with overlap
     ethr =  2.51E-04,  avg # of iterations =  3.4

     total cpu time spent up to now is        1.7 secs

     total energy              =    -743.11320115 Ry
     estimated scf accuracy    <       0.10261221 Ry

     total magnetization       =     2.94 Bohr mag/cell
     absolute magnetization    =     3.10 Bohr mag/cell

     iteration #  2     ecut=    60.00 Ry     beta= 0.50
     Davidson diagonalization with overlap
     ethr =  2.57E-04,  avg # of iterations =  1.0

     total cpu time spent up to now is        2.2 secs

     total energy              =    -743.14207915 Ry
     estimated scf accuracy    <       0.03029910 Ry

     total magnetization       =     2.75 Bohr mag/cell
     absolute magnetization    =     2.99 Bohr mag/cell

     iteration #  3     ecut=    60.00 Ry     beta= 0.50
     Davidson diagonalization with overlap
     ethr =  7.57E-05,  avg # of iterations =  1.0

     total cpu time spent up to now is        2.7 secs

     total energy              =    -743.14270981 Ry
     estimated scf accuracy    <       0.00044299 Ry

     total magnetization       =     2.77 Bohr mag/cell
     absolute magnetization    =     3.06 Bohr mag/cell

     iteration #  4     ecut=    60.00 Ry     beta= 0.50
     Davidson diagonalization with overlap
     ethr =  1.11E-06,  avg # of iterations =  3.2

     total cpu time spent up to now is        3.2 secs

     total energy              =    -743.14283956 Ry
     estimated scf accuracy    <       0.00003638 Ry

     total magnetization       =     2.76 Bohr mag/cell
     absolute magnetization    =     3.08 Bohr mag/cell

     iteration #  5     ecut=    60.00 Ry     beta= 0.50
     Davidson diagonalization with overlap
     ethr =  9.09E-08,  avg # of iterations =  2.9

     total cpu time spent up to now is        3.7 secs

     total energy              =    -743.14287698 Ry
     estimated scf accuracy    <       0.00002779 Ry

     total magnetization       =     2.76 Bohr mag/cell
     absolute magnetization    =     3.09 Bohr mag/cell

     iteration #  6     ecut=    60.00 Ry     beta= 0.50
     Davidson diagonalization with overlap
     ethr =  6.95E-08,  avg # of iterations =  1.4

     total cpu time spent up to now is        4.2 secs

     total energy              =    -743.14288172 Ry
     estimated scf accuracy    <       0.00000801 Ry

     total magnetization       =     2.76 Bohr mag/cell
     absolute magnetization    =     3.10 Bohr mag/cell

     iteration #  7     ecut=    60.00 Ry     beta= 0.50
     Davidson diagonalization with overlap
     ethr =  2.00E-08,  avg # of iterations =  1.4

     total cpu time spent up to now is        4.7 secs

     total energy              =    -743.14288212 Ry
     estimated scf accuracy    <       0.00000019 Ry

     total magnetization       =     2.76 Bohr mag/cell
     absolute magnetization    =     3.10 Bohr mag/cell

     iteration #  8     ecut=    60.00 Ry     beta= 0.50
     Davidson diagonalization with overlap
     ethr =  4.83E-10,  avg # of iterations =  3.5

     total cpu time spent up to now is        5.2 secs

     total energy              =    -743.14288229 Ry
     estimated scf accuracy    <       0.00000005 Ry

     total magnetization       =     2.76 Bohr mag/cell
     absolute magnetization    =     3.10 Bohr mag/cell

     iteration #  9     ecut=    60.00 Ry     beta= 0.50
     Davidson diagonalization with overlap
     ethr =  1.35E-10,  avg # of iterations =  1.2

     total cpu time spent up to now is        5.6 secs

     total energy              =    -743.14288229 Ry
     estimated scf accuracy    <       0.00000001 Ry

     total magnetization       =     2.76 Bohr mag/cell
     absolute magnetization    =     3.10 Bohr mag/cell

     iteration # 10     ecut=    60.00 Ry     beta= 0.50
     Davidson diagonalization with overlap
     ethr =  2.80E-11,  avg # of iterations =  2.5
 
     Magnetic moment per site  (integrated on atomic sphere of radius R)
     atom   1 (R=0.292)  charge=  8.6378  magn=  0.7262
     atom   2 (R=0.292)  charge=  8.6377  magn=  0.7262
     atom   3 (R=0.292)  charge=  8.6377  magn=  0.7262
     atom   4 (R=0.292)  charge=  8.6377  magn=  0.7262

     total cpu time spent up to now is        6.1 secs

     End of self-consistent calculation

 ------ SPIN UP ------------


          k = 0.0000 0.0000 0.0000 (  2109 PWs)   bands (ev):

     5.2672   9.6367   9.6367   9.6367  10.1024  10.1024  10.1024  12.0416
    12.0416  12.0416  13.3464  13.3464  14.1284  14.1284  14.1284  14.2039
    14.2039  14.2039  14.2039  14.2039  14.2039  17.2549  17.2549  17.2549

          k = 0.0000 0.0000-0.5000 (  2168 PWs)   bands (ev):

     8.2591   8.2591  10.5921  10.5921  11.0308  11.0308  11.3478  11.3478
    11.3478  11.3478  12.7007  12.7008  12.9661  12.9661  12.9661  12.9661
    13.2763  13.2763  13.7315  13.7315  14.2051  14.2051  22.8570  22.8570

          k = 0.0000-0.5000-0.5000 (  2160 PWs)   bands (ev):

    10.1885  10.1885  10.1885  10.1885  11.3460  11.3460  11.3460  11.3460
    11.6968  11.6968  11.6968  11.6968  12.8673  12.8673  12.8673  12.8673
    13.1920  13.1920  13.1920  13.1920  15.7785  15.7785  15.7785  15.7785

          k =-0.5000-0.5000-0.5000 (  2176 PWs)   bands (ev):

     9.4700   9.4700   9.4700   9.4700  12.0652  12.0652  12.0652  12.0652
    12.0652  12.0652  12.0652  12.0652  14.0646  14.0646  14.0646  14.0646
    14.0646  14.0646  14.0646  14.0646  14.3477  14.3477  14.3477  14.3477

 ------ SPIN DOWN ----------


          k = 0.0000 0.0000 0.0000 (  2109 PWs)   bands (ev):

     5.2404  10.0149  10.0149  10.0149  10.7816  10.7816  10.7816  12.8755
    12.8755  12.8755  13.9935  13.9935  14.8058  14.8058  14.8058  15.1680
    15.1680  15.1680  15.1680  15.1680  15.1680  17.2236  17.2236  17.2236

          k = 0.0000 0.0000-0.5000 (  2168 PWs)   bands (ev):

     8.2750   8.2750  11.0114  11.0114  11.7785  11.7785  12.0207  12.0207
    12.0207  12.0207  13.2356  13.2356  13.8420  13.8420  13.8420  13.8420
    13.8945  13.8945  14.3931  14.3932  15.1693  15.1693  23.0783  23.0783

          k = 0.0000-0.5000-0.5000 (  2160 PWs)   bands (ev):

    10.4136  10.4136  10.4136  10.4136  12.0456  12.0456  12.0456  12.0456
    12.2749  12.2749  12.2749  12.2749  13.4771  13.4772  13.4772  13.4772
    14.0949  14.0949  14.0949  14.0949  16.4127  16.4127  16.4127  16.4127

          k =-0.5000-0.5000-0.5000 (  2176 PWs)   bands (ev):

     9.9520   9.9520   9.9520   9.9520  12.7452  12.7452  12.7452  12.7452
    12.7452  12.7452  12.7452  12.7452  14.2962  14.2962  14.2962  14.2962
    14.9060  14.9060  14.9060  14.9060  14.9060  14.9060  14.9060  14.9060

     the Fermi energy is    14.7494 ev

!    total energy              =    -743.14288230 Ry
     total all-electron energy =    -12166.709704 Ry
     estimated scf accuracy    <          4.6E-10 Ry
     smearing contrib. (-TS)   =       0.00051291 Ry
     internal energy E=F+TS    =    -743.14339521 Ry

     The total energy is F=E-TS. E is the sum of the following terms:
     one-electron contribution =     -30.97105647 Ry
     hartree contribution      =      77.57340886 Ry
     xc contribution           =    -167.03764522 Ry
     ewald contribution        =    -282.05148299 Ry
     DFT-D3 Dispersion         =      -0.33998447 Ry
     one-center paw contrib.   =    -340.31663492 Ry

     total magnetization       =     2.76 Bohr mag/cell
     absolute magnetization    =     3.10 Bohr mag/cell

     convergence has been achieved in  10 iterations

     Writing all to output data dir ./Ni_k_2.save/ :
     XML data file, charge density, pseudopotentials, collected wavefunctions
 
     init_run     :      0.24s CPU      0.47s WALL (       1 calls)
     electrons    :      5.06s CPU      5.36s WALL (       1 calls)

     Called by init_run:
     wfcinit      :      0.03s CPU      0.04s WALL (       1 calls)
     potinit      :      0.13s CPU      0.27s WALL (       1 calls)
     hinit0       :      0.04s CPU      0.09s WALL (       1 calls)

     Called by electrons:
     c_bands      :      0.94s CPU      1.12s WALL (      11 calls)
     sum_band     :      0.48s CPU      0.50s WALL (      11 calls)
     v_of_rho     :      0.13s CPU      0.14s WALL (      11 calls)
     newd         :      0.15s CPU      0.16s WALL (      11 calls)
     PAW_pot      :      2.98s CPU      3.12s WALL (      11 calls)
     mix_rho      :      0.08s CPU      0.08s WALL (      11 calls)
     energy_dftd3 :      0.30s CPU      0.30s WALL (       1 calls)

     Called by c_bands:
     init_us_2    :      0.01s CPU      0.01s WALL (      92 calls)
     init_us_2:cp :      0.01s CPU      0.01s WALL (      92 calls)
     cegterg      :      0.68s CPU      0.77s WALL (      44 calls)

     Called by *egterg:
     cdiaghg      :      0.10s CPU      0.14s WALL (     130 calls)
     h_psi        :      0.43s CPU      0.47s WALL (     138 calls)
     s_psi        :      0.01s CPU      0.01s WALL (     138 calls)
     g_psi        :      0.00s CPU      0.00s WALL (      90 calls)

     Called by h_psi:
     h_psi:calbec :      0.02s CPU      0.02s WALL (     138 calls)
     vloc_psi     :      0.39s CPU      0.44s WALL (     138 calls)
     add_vuspsi   :      0.01s CPU      0.01s WALL (     138 calls)

     General routines
     calbec       :      0.03s CPU      0.03s WALL (     182 calls)
     fft          :      0.05s CPU      0.08s WALL (     271 calls)
     ffts         :      0.10s CPU      0.10s WALL (     225 calls)
     fftw         :      0.45s CPU      0.49s WALL (    6092 calls)
     interpolate  :      0.00s CPU      0.01s WALL (      22 calls)
 
     Parallel routines
 
     PWSCF        :      5.45s CPU      6.26s WALL

 
   This run was terminated on:  23:42:59   5Sep2025            

=------------------------------------------------------------------------------=
   JOB DONE.
=------------------------------------------------------------------------------=
