
     Program PWSCF v.7.3 starts on  5Sep2025 at 23:43:25 

     This program is part of the open-source Quantum ESPRESSO suite
     for quantum simulation of materials; please cite
         "P. Giannozzi et al., J. Phys.:Condens. Matter 21 395502 (2009);
         "P. Giannozzi et al., J. Phys.:Condens. Matter 29 465901 (2017);
         "P. Giannozzi et al., J. Chem. Phys. 152 154105 (2020);
          URL http://www.quantum-espresso.org", 
     in publications or presentations arising from this work. More details at
     http://www.quantum-espresso.org/quote

     Parallel version (MPI), running on    30 processors

     MPI processes distributed on     1 nodes
     225006 MiB available memory on the printing compute node when the environment starts
 
     Waiting for input...
     Reading input from standard input

     Current dimensions of program PWSCF are:
     Max number of different atomic species (ntypx) = 10
     Max number of k-points (npk) =  40000
     Max angular momentum in pseudopotentials (lmaxx) =  4
     file Ni.upf: wavefunction(s)  4S 3D renormalized

     IMPORTANT: XC functional enforced from input :
     Exchange-correlation= PBE
                           (   1   4   3   4   0   0   0)
     Any further DFT definition will be discarded
     Please, verify this is what you really want

     Found identity + ( -0.5000 -0.5000  0.0000) symmetry
     This is a supercell, fractional translations are disabled
     Message from routine setup:
     using ibrav=0 with symmetry is DISCOURAGED, use correct ibrav instead
 
     K-points division:     npool     =       2
     R & G space division:  proc/nbgrp/npool/nimage =      15
     Subspace diagonalization in iterative solution of the eigenvalue problem:
     a serial algorithm will be used

 
     Parallelization info
     --------------------
     sticks:   dense  smooth     PW     G-vecs:    dense   smooth      PW
     Min         107      53     16                 3258     1151     184
     Max         109      55     17                 3260     1152     187
     Sum        1617     805    241                48885    17269    2777
 
     Using Slab Decomposition
 

     Title: 
     Ni_k_5                                                                     


     bravais-lattice index     =            0
     lattice parameter (alat)  =       6.5025  a.u.
     unit-cell volume          =     274.8993 (a.u.)^3
     number of atoms/cell      =            4
     number of atomic types    =            1
     number of electrons       =        40.00
     number of Kohn-Sham states=           24
     kinetic-energy cutoff     =      60.0000  Ry
     charge density cutoff     =     480.0000  Ry
     scf convergence threshold =      6.4E-09
     mixing beta               =       0.5000
     number of iterations used =           10  local-TF  mixing
     Exchange-correlation= PBE
                           (   1   4   3   4   0   0   0)

     celldm(1)=   6.502548  celldm(2)=   0.000000  celldm(3)=   0.000000
     celldm(4)=   0.000000  celldm(5)=   0.000000  celldm(6)=   0.000000

     crystal axes: (cart. coord. in units of alat)
               a(1) = (   0.999941   0.000000   0.000000 )  
               a(2) = (   0.000000   0.999941   0.000000 )  
               a(3) = (   0.000000   0.000000   0.999941 )  

     reciprocal axes: (cart. coord. in units 2 pi/alat)
               b(1) = (  1.000059  0.000000  0.000000 )  
               b(2) = (  0.000000  1.000059  0.000000 )  
               b(3) = (  0.000000  0.000000  1.000059 )  


     PseudoPot. # 1 for Ni read from file:
     /tmpu/mdach_g/mdach/PP/Ni.upf
     MD5 check sum: d88365a95a5e142bd87181c2c8b16588
     Pseudo is Projector augmented-wave + core cor, Zval = 10.0
     Generated using "atomic" code by A. Dal Corso  v.5.0.2 svn rev. 9415
     Shape of augmentation charge: PSQ
     Using radial grid of 1195 points,  6 beta functions with: 
                l(1) =   0
                l(2) =   0
                l(3) =   1
                l(4) =   1
                l(5) =   2
                l(6) =   2
     Q(r) pseudized with 0 coefficients 


     atomic species   valence    mass     pseudopotential
     Ni               10.00    58.69340     Ni( 1.00)

     Starting magnetic structure 
     atomic species   magnetization
     Ni              0.200

      6 Sym. Ops. (no inversion) found



   Cartesian axes

     site n.     atom                  positions (alat units)
         1        Ni     tau(   1) = (  -0.0034654  -0.0034654  -0.0034654  )
         2        Ni     tau(   2) = (   0.4965063   0.4965063  -0.0034647  )
         3        Ni     tau(   3) = (   0.4965063  -0.0034647   0.4965063  )
         4        Ni     tau(   4) = (  -0.0034647   0.4965063   0.4965063  )

     --------------------------------------------
     DFT-D3 Dispersion Correction (3-body terms):
     --------------------------------------------
       Reference C6 values for interpolation: 

         atom   Coordination number   C6
         Ni         0.000          1149.49
         Ni         1.794           356.66
         Ni         6.546           257.56
         Ni         6.292           283.75

       Values used:

         atom   Coordination number  R0_AB[au]  C6      C8
         Ni         9.784            3.162    257.59  21584.20
         Ni         9.784            3.162    257.59  21584.20
         Ni         9.784            3.162    257.59  21584.20
         Ni         9.784            3.162    257.59  21584.20

         Molecular C6 ( Ry / a.u.^6 ) =      4121.44


     number of k points=    19  Methfessel-Paxton smearing, width (Ry)=  0.0147
                       cart. coord. in units 2pi/alat
        k(    1) = (   0.0000000   0.0000000   0.0000000), wk =   0.0080000
        k(    2) = (   0.0000000   0.0000000   0.2000118), wk =   0.0480000
        k(    3) = (   0.0000000   0.0000000   0.4000236), wk =   0.0480000
        k(    4) = (   0.0000000   0.2000118   0.2000118), wk =   0.0480000
        k(    5) = (   0.0000000   0.2000118   0.4000236), wk =   0.0960000
        k(    6) = (   0.0000000   0.4000236   0.4000236), wk =   0.0480000
        k(    7) = (   0.2000118   0.2000118   0.2000118), wk =   0.0160000
        k(    8) = (   0.2000118   0.2000118   0.4000236), wk =   0.0480000
        k(    9) = (   0.2000118   0.4000236   0.4000236), wk =   0.0480000
        k(   10) = (   0.4000236   0.4000236   0.4000236), wk =   0.0160000
        k(   11) = (  -0.2000118   0.0000000   0.2000118), wk =   0.0480000
        k(   12) = (  -0.2000118   0.0000000   0.4000236), wk =   0.0960000
        k(   13) = (  -0.4000236   0.0000000   0.4000236), wk =   0.0480000
        k(   14) = (   0.2000118  -0.2000118   0.2000118), wk =   0.0480000
        k(   15) = (   0.2000118  -0.2000118   0.4000236), wk =   0.0960000
        k(   16) = (  -0.4000236   0.2000118   0.2000118), wk =   0.0480000
        k(   17) = (   0.4000236  -0.2000118   0.4000236), wk =   0.0480000
        k(   18) = (  -0.4000236   0.2000118   0.4000236), wk =   0.0960000
        k(   19) = (   0.4000236  -0.4000236   0.4000236), wk =   0.0480000

     Dense  grid:    48885 G-vectors     FFT dimensions: (  45,  45,  45)

     Smooth grid:    17269 G-vectors     FFT dimensions: (  36,  36,  36)

     Estimated max dynamical RAM per process >      12.05 MB

     Estimated total dynamical RAM >     331.69 MB
     Generating pointlists ...
     new r_m :   0.2917 (alat units)  1.8966 (a.u.) for type    1

     Initial potential from superposition of free atoms

     starting charge      39.9990, renormalised to      40.0000
     Starting wfcs are   36 atomic wfcs
     Checking if some PAW data can be deallocated... 

     total cpu time spent up to now is        0.8 secs

     Self-consistent Calculation

     iteration #  1     ecut=    60.00 Ry     beta= 0.50
     Davidson diagonalization with overlap
     ethr =  1.00E-02,  avg # of iterations =  2.1

     Threshold (ethr) on eigenvalues was too large:
     Diagonalizing with lowered threshold

     Davidson diagonalization with overlap
     ethr =  2.56E-04,  avg # of iterations =  3.0

     total cpu time spent up to now is        2.5 secs

     total energy              =    -743.12344589 Ry
     estimated scf accuracy    <       0.09395796 Ry

     total magnetization       =     3.14 Bohr mag/cell
     absolute magnetization    =     3.17 Bohr mag/cell

     iteration #  2     ecut=    60.00 Ry     beta= 0.50
     Davidson diagonalization with overlap
     ethr =  2.35E-04,  avg # of iterations =  1.0

     total cpu time spent up to now is        3.2 secs

     total energy              =    -743.15044430 Ry
     estimated scf accuracy    <       0.02739187 Ry

     total magnetization       =     2.96 Bohr mag/cell
     absolute magnetization    =     3.09 Bohr mag/cell

     iteration #  3     ecut=    60.00 Ry     beta= 0.50
     Davidson diagonalization with overlap
     ethr =  6.85E-05,  avg # of iterations =  1.0

     total cpu time spent up to now is        3.8 secs

     total energy              =    -743.15172878 Ry
     estimated scf accuracy    <       0.00014338 Ry

     total magnetization       =     2.85 Bohr mag/cell
     absolute magnetization    =     3.10 Bohr mag/cell

     iteration #  4     ecut=    60.00 Ry     beta= 0.50
     Davidson diagonalization with overlap
     ethr =  3.58E-07,  avg # of iterations =  3.9

     total cpu time spent up to now is        4.6 secs

     total energy              =    -743.15201824 Ry
     estimated scf accuracy    <       0.00010028 Ry

     total magnetization       =     2.86 Bohr mag/cell
     absolute magnetization    =     3.14 Bohr mag/cell

     iteration #  5     ecut=    60.00 Ry     beta= 0.50
     Davidson diagonalization with overlap
     ethr =  2.51E-07,  avg # of iterations =  2.1

     total cpu time spent up to now is        5.4 secs

     total energy              =    -743.15207472 Ry
     estimated scf accuracy    <       0.00002230 Ry

     total magnetization       =     2.86 Bohr mag/cell
     absolute magnetization    =     3.17 Bohr mag/cell

     iteration #  6     ecut=    60.00 Ry     beta= 0.50
     Davidson diagonalization with overlap
     ethr =  5.57E-08,  avg # of iterations =  3.0

     total cpu time spent up to now is        6.3 secs

     total energy              =    -743.15208313 Ry
     estimated scf accuracy    <       0.00001903 Ry

     total magnetization       =     2.86 Bohr mag/cell
     absolute magnetization    =     3.18 Bohr mag/cell

     iteration #  7     ecut=    60.00 Ry     beta= 0.50
     Davidson diagonalization with overlap
     ethr =  4.76E-08,  avg # of iterations =  1.0

     total cpu time spent up to now is        6.9 secs

     total energy              =    -743.15208391 Ry
     estimated scf accuracy    <       0.00000139 Ry

     total magnetization       =     2.86 Bohr mag/cell
     absolute magnetization    =     3.18 Bohr mag/cell

     iteration #  8     ecut=    60.00 Ry     beta= 0.50
     Davidson diagonalization with overlap
     ethr =  3.47E-09,  avg # of iterations =  2.9

     total cpu time spent up to now is        7.8 secs

     total energy              =    -743.15208448 Ry
     estimated scf accuracy    <       0.00000040 Ry

     total magnetization       =     2.86 Bohr mag/cell
     absolute magnetization    =     3.18 Bohr mag/cell

     iteration #  9     ecut=    60.00 Ry     beta= 0.50
     Davidson diagonalization with overlap
     ethr =  9.90E-10,  avg # of iterations =  1.5

     total cpu time spent up to now is        8.5 secs

     total energy              =    -743.15208449 Ry
     estimated scf accuracy    <       0.00000010 Ry

     total magnetization       =     2.86 Bohr mag/cell
     absolute magnetization    =     3.18 Bohr mag/cell

     iteration # 10     ecut=    60.00 Ry     beta= 0.50
     Davidson diagonalization with overlap
     ethr =  2.38E-10,  avg # of iterations =  2.4
 
     Magnetic moment per site  (integrated on atomic sphere of radius R)
     atom   1 (R=0.292)  charge=  8.6606  magn=  0.7510
     atom   2 (R=0.292)  charge=  8.6605  magn=  0.7510
     atom   3 (R=0.292)  charge=  8.6605  magn=  0.7510
     atom   4 (R=0.292)  charge=  8.6605  magn=  0.7510

     total cpu time spent up to now is        9.3 secs

     End of self-consistent calculation

 ------ SPIN UP ------------


          k = 0.0000 0.0000 0.0000 (  2109 PWs)   bands (ev):

     5.2787   9.7855   9.7855   9.7855  10.2782  10.2782  10.2782  12.2531
    12.2531  12.2531  13.5893  13.5893  14.3832  14.3832  14.3832  14.4484
    14.4484  14.4484  14.4484  14.4484  14.4484  17.2744  17.2744  17.2744

          k = 0.0000 0.0000 0.2000 (  2152 PWs)   bands (ev):

     5.8201   9.7926  10.0664  10.0664  10.4526  10.4744  10.4744  12.0488
    12.4141  12.4141  13.4025  13.4371  13.4371  13.6630  14.1388  14.1388
    14.1716  14.1716  14.3052  14.4488  14.4489  15.2403  18.7311  18.7311

          k = 0.0000 0.0000 0.4000 (  2140 PWs)   bands (ev):

     7.3272   9.1441  10.6352  10.6352  10.9222  11.0719  11.0719  11.5310
    12.0804  12.0804  12.8732  12.8732  12.9991  13.1345  13.5336  13.5336
    13.6226  13.6227  13.8581  14.1033  14.4495  14.4495  21.4067  21.4067

          k = 0.0000 0.2000 0.2000 (  2157 PWs)   bands (ev):

     6.3427  10.1045  10.1045  10.3070  10.6283  10.6283  10.6386  11.9606
    12.4814  12.4847  12.9875  13.0004  13.0004  13.3710  13.6778  13.9492
    14.1135  14.1135  14.1690  14.1690  14.2652  16.6512  16.6512  19.8162

          k = 0.0000 0.2000 0.4000 (  2154 PWs)   bands (ev):

     7.7888   9.5195  10.7778  10.8611  11.0348  11.0392  11.1564  11.5599
    11.7918  12.0094  12.3946  12.5289  12.8888  13.2477  13.5323  13.5390
    13.6175  13.7403  14.0084  14.1646  14.1746  14.6813  18.6941  21.1137

          k = 0.0000 0.4000 0.4000 (  2152 PWs)   bands (ev):

     9.0094  10.3654  10.3654  10.8684  11.3596  11.3596  11.4153  11.5374
    11.7530  11.8053  11.8053  12.2808  13.0727  13.0810  13.2700  13.3390
    13.3390  13.5661  13.5661  13.7555  14.7181  16.0454  16.0454  18.0247

          k = 0.2000 0.2000 0.2000 (  2151 PWs)   bands (ev):

     6.8360  10.3185  10.3185  10.3185  10.8012  10.8012  10.8012  11.9277
    12.4977  12.4977  12.6567  12.6567  12.6567  13.5594  13.5594  13.5781
    13.5781  13.5781  14.3824  14.3824  14.3824  17.4170  17.4171  17.4171

          k = 0.2000 0.2000 0.4000 (  2172 PWs)   bands (ev):

     8.1772   9.7319  10.7281  10.7281  11.1953  11.1953  11.2356  11.6722
    12.0105  12.0105  12.2583  12.4736  12.6573  13.0468  13.2760  13.2760
    13.6450  13.9475  14.2330  14.2330  14.2821  14.8573  18.9136  18.9136

          k = 0.2000 0.4000 0.4000 (  2155 PWs)   bands (ev):

     9.1299  10.0991  10.0991  10.4120  11.6455  11.7744  11.7744  11.9405
    12.0686  12.0686  12.2257  12.3308  12.5740  12.8265  12.8265  12.8643
    13.6802  14.0797  14.0797  14.0981  14.5360  15.9863  15.9863  17.7270

          k = 0.4000 0.4000 0.4000 (  2188 PWs)   bands (ev):

     9.4019   9.8194   9.8194   9.8194  12.1013  12.1013  12.1013  12.3410
    12.3410  12.4526  12.4526  12.4526  12.9527  12.9527  12.9527  13.1318
    14.1610  14.1610  14.3217  14.3217  14.3217  15.8088  15.8088  15.8088

          k =-0.2000 0.0000 0.2000 (  2157 PWs)   bands (ev):

     6.3427  10.1045  10.1045  10.3070  10.6283  10.6283  10.6386  11.9606
    12.4814  12.4847  12.9875  13.0004  13.0004  13.3710  13.6778  13.9492
    14.1135  14.1135  14.1690  14.1690  14.2652  16.6512  16.6512  19.8162

          k =-0.2000 0.0000 0.4000 (  2154 PWs)   bands (ev):

     7.7888   9.5195  10.7778  10.8611  11.0348  11.0392  11.1564  11.5599
    11.7918  12.0094  12.3946  12.5289  12.8888  13.2477  13.5323  13.5390
    13.6175  13.7403  14.0084  14.1646  14.1746  14.6813  18.6941  21.1137

          k =-0.4000 0.0000 0.4000 (  2152 PWs)   bands (ev):

     9.0094  10.3654  10.3654  10.8684  11.3596  11.3596  11.4153  11.5374
    11.7530  11.8053  11.8053  12.2808  13.0727  13.0810  13.2700  13.3390
    13.3390  13.5661  13.5661  13.7555  14.7181  16.0454  16.0454  18.0247

          k = 0.2000-0.2000 0.2000 (  2151 PWs)   bands (ev):

     6.8360  10.3185  10.3185  10.3185  10.8012  10.8012  10.8012  11.9277
    12.4977  12.4977  12.6567  12.6567  12.6567  13.5594  13.5594  13.5781
    13.5781  13.5781  14.3824  14.3824  14.3824  17.4170  17.4171  17.4171

          k = 0.2000-0.2000 0.4000 (  2172 PWs)   bands (ev):

     8.1772   9.7319  10.7281  10.7281  11.1953  11.1953  11.2356  11.6722
    12.0105  12.0105  12.2583  12.4736  12.6573  13.0468  13.2760  13.2760
    13.6450  13.9475  14.2330  14.2330  14.2821  14.8573  18.9136  18.9136

          k =-0.4000 0.2000 0.2000 (  2172 PWs)   bands (ev):

     8.1772   9.7319  10.7281  10.7281  11.1953  11.1953  11.2356  11.6722
    12.0105  12.0105  12.2583  12.4736  12.6573  13.0468  13.2760  13.2760
    13.6450  13.9475  14.2330  14.2330  14.2821  14.8573  18.9136  18.9136

          k = 0.4000-0.2000 0.4000 (  2155 PWs)   bands (ev):

     9.1299  10.0991  10.0991  10.4120  11.6455  11.7744  11.7744  11.9405
    12.0686  12.0686  12.2257  12.3308  12.5740  12.8265  12.8265  12.8643
    13.6802  14.0797  14.0797  14.0981  14.5360  15.9863  15.9863  17.7270

          k =-0.4000 0.2000 0.4000 (  2155 PWs)   bands (ev):

     9.1299  10.0991  10.0991  10.4120  11.6455  11.7744  11.7744  11.9405
    12.0686  12.0686  12.2257  12.3308  12.5740  12.8265  12.8265  12.8643
    13.6802  14.0797  14.0797  14.0981  14.5360  15.9863  15.9863  17.7270

          k = 0.4000-0.4000 0.4000 (  2188 PWs)   bands (ev):

     9.4019   9.8194   9.8194   9.8194  12.1013  12.1013  12.1013  12.3410
    12.3410  12.4526  12.4526  12.4526  12.9527  12.9527  12.9527  13.1318
    14.1610  14.1610  14.3217  14.3217  14.3217  15.8088  15.8088  15.8088

 ------ SPIN DOWN ----------


          k = 0.0000 0.0000 0.0000 (  2109 PWs)   bands (ev):

     5.2587  10.1612  10.1612  10.1612  10.9796  10.9796  10.9796  13.1171
    13.1171  13.1171  14.2411  14.2411  15.0648  15.0648  15.0648  15.4461
    15.4461  15.4461  15.4461  15.4461  15.4461  17.2506  17.2506  17.2506

          k = 0.0000 0.0000 0.2000 (  2152 PWs)   bands (ev):

     5.8008  10.1114  10.4536  10.4536  11.1664  11.1723  11.1723  12.8937
    13.2843  13.2843  14.0417  14.1977  14.1977  14.3175  14.8030  14.8030
    14.9838  15.1450  15.1450  15.3711  15.4466  15.4466  18.9389  18.9389

          k = 0.0000 0.0000 0.4000 (  2140 PWs)   bands (ev):

     7.3186   9.2395  11.0464  11.0464  11.6713  11.7633  11.7633  12.3298
    12.7768  12.7768  13.5695  13.5928  13.7634  13.7634  14.2511  14.2511
    14.4606  14.4606  14.5197  14.7741  15.4473  15.4473  21.6602  21.6602

          k = 0.0000 0.2000 0.2000 (  2157 PWs)   bands (ev):

     6.3262  10.4389  10.4389  10.7249  11.3042  11.3375  11.3375  12.7865
    13.3237  13.3625  13.6663  13.6663  13.7036  14.0084  14.3560  14.6025
    14.7662  14.7662  15.1428  15.1428  15.2519  17.0879  17.0879  20.0745

          k = 0.0000 0.2000 0.4000 (  2154 PWs)   bands (ev):

     7.7911   9.6348  11.1550  11.3048  11.6595  11.7804  11.8555  12.3452
    12.4400  12.7034  13.0193  13.2556  13.7848  13.9127  14.1682  14.2474
    14.3688  14.4618  14.7469  15.1396  15.1529  15.4328  19.0890  21.4047

          k = 0.0000 0.4000 0.4000 (  2152 PWs)   bands (ev):

     9.0675  10.5818  10.5818  11.3441  11.9024  12.0802  12.0802  12.2894
    12.4264  12.4264  12.4519  12.9556  13.6971  13.8887  13.9472  13.9472
    13.9862  14.5047  14.5047  14.7111  15.4867  16.6911  16.6911  18.4868

          k = 0.2000 0.2000 0.2000 (  2151 PWs)   bands (ev):

     6.8270  10.7098  10.7098  10.7098  11.4501  11.4501  11.4501  12.7207
    13.3163  13.3163  13.3163  13.3315  13.3315  14.2494  14.2494  14.3108
    14.3109  14.3109  15.2730  15.2731  15.2731  17.8427  17.8427  17.8427

          k = 0.2000 0.2000 0.4000 (  2172 PWs)   bands (ev):

     8.2084   9.9182  11.2734  11.2734  11.6709  11.6709  11.8991  12.4055
    12.7021  12.7021  12.9119  13.1952  13.4474  13.8125  13.9535  13.9535
    14.4100  14.7062  15.1025  15.1512  15.1512  15.5391  19.2651  19.2651

          k = 0.2000 0.4000 0.4000 (  2155 PWs)   bands (ev):

     9.2847  10.4865  10.4865  10.9557  12.0936  12.2480  12.2480  12.5348
    12.7736  12.7736  12.8885  13.0341  13.2919  13.5274  13.5274  13.5496
    14.4980  14.9326  14.9327  14.9852  15.3082  16.5754  16.5755  18.1183

          k = 0.4000 0.4000 0.4000 (  2188 PWs)   bands (ev):

     9.7582  10.3151  10.3151  10.3151  12.6914  12.6914  12.6914  13.0476
    13.0476  13.1520  13.1520  13.1520  13.3631  13.4433  13.4433  13.4433
    15.0049  15.0049  15.1871  15.1871  15.1871  16.2608  16.2608  16.2608

          k =-0.2000 0.0000 0.2000 (  2157 PWs)   bands (ev):

     6.3262  10.4389  10.4389  10.7249  11.3042  11.3375  11.3376  12.7865
    13.3237  13.3625  13.6663  13.6663  13.7036  14.0084  14.3560  14.6025
    14.7662  14.7662  15.1428  15.1428  15.2519  17.0879  17.0879  20.0745

          k =-0.2000 0.0000 0.4000 (  2154 PWs)   bands (ev):

     7.7911   9.6348  11.1550  11.3048  11.6595  11.7804  11.8555  12.3452
    12.4400  12.7034  13.0193  13.2556  13.7848  13.9127  14.1682  14.2474
    14.3688  14.4618  14.7469  15.1396  15.1529  15.4328  19.0890  21.4047

          k =-0.4000 0.0000 0.4000 (  2152 PWs)   bands (ev):

     9.0675  10.5818  10.5818  11.3441  11.9024  12.0802  12.0802  12.2894
    12.4264  12.4264  12.4519  12.9556  13.6971  13.8887  13.9472  13.9472
    13.9862  14.5047  14.5047  14.7111  15.4867  16.6911  16.6911  18.4868

          k = 0.2000-0.2000 0.2000 (  2151 PWs)   bands (ev):

     6.8270  10.7098  10.7098  10.7098  11.4501  11.4501  11.4501  12.7207
    13.3163  13.3163  13.3163  13.3315  13.3315  14.2494  14.2494  14.3108
    14.3109  14.3109  15.2730  15.2731  15.2731  17.8427  17.8427  17.8427

          k = 0.2000-0.2000 0.4000 (  2172 PWs)   bands (ev):

     8.2084   9.9182  11.2734  11.2734  11.6709  11.6709  11.8991  12.4055
    12.7021  12.7021  12.9119  13.1952  13.4474  13.8125  13.9535  13.9535
    14.4100  14.7062  15.1025  15.1512  15.1512  15.5391  19.2651  19.2651

          k =-0.4000 0.2000 0.2000 (  2172 PWs)   bands (ev):

     8.2084   9.9182  11.2734  11.2734  11.6709  11.6709  11.8991  12.4055
    12.7021  12.7021  12.9119  13.1952  13.4474  13.8125  13.9535  13.9535
    14.4100  14.7062  15.1025  15.1512  15.1512  15.5391  19.2651  19.2651

          k = 0.4000-0.2000 0.4000 (  2155 PWs)   bands (ev):

     9.2847  10.4865  10.4865  10.9557  12.0936  12.2480  12.2480  12.5348
    12.7736  12.7736  12.8885  13.0341  13.2919  13.5274  13.5274  13.5496
    14.4980  14.9326  14.9327  14.9852  15.3082  16.5754  16.5755  18.1183

          k =-0.4000 0.2000 0.4000 (  2155 PWs)   bands (ev):

     9.2847  10.4865  10.4865  10.9557  12.0936  12.2480  12.2480  12.5348
    12.7736  12.7736  12.8885  13.0341  13.2919  13.5274  13.5274  13.5496
    14.4980  14.9326  14.9327  14.9852  15.3082  16.5754  16.5755  18.1183

          k = 0.4000-0.4000 0.4000 (  2188 PWs)   bands (ev):

     9.7582  10.3151  10.3151  10.3151  12.6914  12.6914  12.6914  13.0476
    13.0476  13.1520  13.1520  13.1520  13.3631  13.4433  13.4433  13.4433
    15.0049  15.0049  15.1871  15.1871  15.1871  16.2608  16.2608  16.2608

     the Fermi energy is    14.9990 ev

!    total energy              =    -743.15208450 Ry
     total all-electron energy =    -12166.718906 Ry
     estimated scf accuracy    <          8.0E-10 Ry
     smearing contrib. (-TS)   =       0.00027742 Ry
     internal energy E=F+TS    =    -743.15236192 Ry

     The total energy is F=E-TS. E is the sum of the following terms:
     one-electron contribution =     -31.40916288 Ry
     hartree contribution      =      78.11907776 Ry
     xc contribution           =    -167.17940761 Ry
     ewald contribution        =    -282.05148299 Ry
     DFT-D3 Dispersion         =      -0.33998447 Ry
     one-center paw contrib.   =    -340.29140174 Ry

     total magnetization       =     2.86 Bohr mag/cell
     absolute magnetization    =     3.18 Bohr mag/cell

     convergence has been achieved in  10 iterations

     Writing all to output data dir ./Ni_k_5.save/ :
     XML data file, charge density, pseudopotentials, collected wavefunctions
 
     init_run     :      0.62s CPU      0.67s WALL (       1 calls)
     electrons    :      6.03s CPU      8.52s WALL (       1 calls)

     Called by init_run:
     wfcinit      :      0.21s CPU      0.22s WALL (       1 calls)
     potinit      :      0.26s CPU      0.28s WALL (       1 calls)
     hinit0       :      0.09s CPU      0.09s WALL (       1 calls)

     Called by electrons:
     c_bands      :      3.14s CPU      4.73s WALL (      11 calls)
     sum_band     :      0.57s CPU      0.89s WALL (      11 calls)
     v_of_rho     :      0.09s CPU      0.15s WALL (      11 calls)
     newd         :      0.09s CPU      0.10s WALL (      11 calls)
     PAW_pot      :      1.99s CPU      2.40s WALL (      11 calls)
     mix_rho      :      0.04s CPU      0.09s WALL (      11 calls)
     energy_dftd3 :      0.31s CPU      0.31s WALL (       1 calls)

     Called by c_bands:
     init_us_2    :      0.03s CPU      0.04s WALL (     437 calls)
     init_us_2:cp :      0.03s CPU      0.04s WALL (     437 calls)
     cegterg      :      2.81s CPU      3.50s WALL (     209 calls)

     Called by *egterg:
     cdiaghg      :      0.60s CPU      0.87s WALL (     677 calls)
     h_psi        :      2.06s CPU      2.39s WALL (     715 calls)
     s_psi        :      0.05s CPU      0.07s WALL (     715 calls)
     g_psi        :      0.01s CPU      0.01s WALL (     487 calls)

     Called by h_psi:
     h_psi:calbec :      0.09s CPU      0.11s WALL (     715 calls)
     vloc_psi     :      1.91s CPU      2.22s WALL (     715 calls)
     add_vuspsi   :      0.05s CPU      0.05s WALL (     715 calls)

     General routines
     calbec       :      0.12s CPU      0.14s WALL (     924 calls)
     fft          :      0.09s CPU      0.11s WALL (     271 calls)
     ffts         :      0.03s CPU      0.04s WALL (     225 calls)
     fftw         :      2.04s CPU      2.48s WALL (   30826 calls)
     interpolate  :      0.02s CPU      0.02s WALL (      22 calls)
 
     Parallel routines
 
     PWSCF        :      6.89s CPU      9.60s WALL

 
   This run was terminated on:  23:43:35   5Sep2025            

=------------------------------------------------------------------------------=
   JOB DONE.
=------------------------------------------------------------------------------=
