
     Program PWSCF v.7.3 starts on  5Sep2025 at 23:44:46 

     This program is part of the open-source Quantum ESPRESSO suite
     for quantum simulation of materials; please cite
         "P. Giannozzi et al., J. Phys.:Condens. Matter 21 395502 (2009);
         "P. Giannozzi et al., J. Phys.:Condens. Matter 29 465901 (2017);
         "P. Giannozzi et al., J. Chem. Phys. 152 154105 (2020);
          URL http://www.quantum-espresso.org", 
     in publications or presentations arising from this work. More details at
     http://www.quantum-espresso.org/quote

     Parallel version (MPI), running on    30 processors

     MPI processes distributed on     1 nodes
     224767 MiB available memory on the printing compute node when the environment starts
 
     Waiting for input...
     Reading input from standard input

     Current dimensions of program PWSCF are:
     Max number of different atomic species (ntypx) = 10
     Max number of k-points (npk) =  40000
     Max angular momentum in pseudopotentials (lmaxx) =  4
     file Ni.upf: wavefunction(s)  4S 3D renormalized

     IMPORTANT: XC functional enforced from input :
     Exchange-correlation= PBE
                           (   1   4   3   4   0   0   0)
     Any further DFT definition will be discarded
     Please, verify this is what you really want

     Found identity + ( -0.5000 -0.5000  0.0000) symmetry
     This is a supercell, fractional translations are disabled
     Message from routine setup:
     using ibrav=0 with symmetry is DISCOURAGED, use correct ibrav instead
 
     K-points division:     npool     =       2
     R & G space division:  proc/nbgrp/npool/nimage =      15
     Subspace diagonalization in iterative solution of the eigenvalue problem:
     a serial algorithm will be used

 
     Parallelization info
     --------------------
     sticks:   dense  smooth     PW     G-vecs:    dense   smooth      PW
     Min         107      53     16                 3258     1151     192
     Max         109      55     17                 3260     1152     195
     Sum        1617     805    241                48885    17269    2897
 
     Using Slab Decomposition
 

     Title: 
     Ni_k_9                                                                     


     bravais-lattice index     =            0
     lattice parameter (alat)  =       6.5025  a.u.
     unit-cell volume          =     274.8993 (a.u.)^3
     number of atoms/cell      =            4
     number of atomic types    =            1
     number of electrons       =        40.00
     number of Kohn-Sham states=           24
     kinetic-energy cutoff     =      60.0000  Ry
     charge density cutoff     =     480.0000  Ry
     scf convergence threshold =      6.4E-09
     mixing beta               =       0.5000
     number of iterations used =           10  local-TF  mixing
     Exchange-correlation= PBE
                           (   1   4   3   4   0   0   0)

     celldm(1)=   6.502548  celldm(2)=   0.000000  celldm(3)=   0.000000
     celldm(4)=   0.000000  celldm(5)=   0.000000  celldm(6)=   0.000000

     crystal axes: (cart. coord. in units of alat)
               a(1) = (   0.999941   0.000000   0.000000 )  
               a(2) = (   0.000000   0.999941   0.000000 )  
               a(3) = (   0.000000   0.000000   0.999941 )  

     reciprocal axes: (cart. coord. in units 2 pi/alat)
               b(1) = (  1.000059  0.000000  0.000000 )  
               b(2) = (  0.000000  1.000059  0.000000 )  
               b(3) = (  0.000000  0.000000  1.000059 )  


     PseudoPot. # 1 for Ni read from file:
     /tmpu/mdach_g/mdach/PP/Ni.upf
     MD5 check sum: d88365a95a5e142bd87181c2c8b16588
     Pseudo is Projector augmented-wave + core cor, Zval = 10.0
     Generated using "atomic" code by A. Dal Corso  v.5.0.2 svn rev. 9415
     Shape of augmentation charge: PSQ
     Using radial grid of 1195 points,  6 beta functions with: 
                l(1) =   0
                l(2) =   0
                l(3) =   1
                l(4) =   1
                l(5) =   2
                l(6) =   2
     Q(r) pseudized with 0 coefficients 


     atomic species   valence    mass     pseudopotential
     Ni               10.00    58.69340     Ni( 1.00)

     Starting magnetic structure 
     atomic species   magnetization
     Ni              0.200

      6 Sym. Ops. (no inversion) found



   Cartesian axes

     site n.     atom                  positions (alat units)
         1        Ni     tau(   1) = (  -0.0034654  -0.0034654  -0.0034654  )
         2        Ni     tau(   2) = (   0.4965063   0.4965063  -0.0034647  )
         3        Ni     tau(   3) = (   0.4965063  -0.0034647   0.4965063  )
         4        Ni     tau(   4) = (  -0.0034647   0.4965063   0.4965063  )

     --------------------------------------------
     DFT-D3 Dispersion Correction (3-body terms):
     --------------------------------------------
       Reference C6 values for interpolation: 

         atom   Coordination number   C6
         Ni         0.000          1149.49
         Ni         1.794           356.66
         Ni         6.546           257.56
         Ni         6.292           283.75

       Values used:

         atom   Coordination number  R0_AB[au]  C6      C8
         Ni         9.784            3.162    257.59  21584.20
         Ni         9.784            3.162    257.59  21584.20
         Ni         9.784            3.162    257.59  21584.20
         Ni         9.784            3.162    257.59  21584.20

         Molecular C6 ( Ry / a.u.^6 ) =      4121.44


     number of k points=    85  Methfessel-Paxton smearing, width (Ry)=  0.0147
                       cart. coord. in units 2pi/alat
        k(    1) = (   0.0000000   0.0000000   0.0000000), wk =   0.0013717
        k(    2) = (   0.0000000   0.0000000   0.1111177), wk =   0.0082305
        k(    3) = (   0.0000000   0.0000000   0.2222354), wk =   0.0082305
        k(    4) = (   0.0000000   0.0000000   0.3333530), wk =   0.0082305
        k(    5) = (   0.0000000   0.0000000   0.4444707), wk =   0.0082305
        k(    6) = (   0.0000000   0.1111177   0.1111177), wk =   0.0082305
        k(    7) = (   0.0000000   0.1111177   0.2222354), wk =   0.0164609
        k(    8) = (   0.0000000   0.1111177   0.3333530), wk =   0.0164609
        k(    9) = (   0.0000000   0.1111177   0.4444707), wk =   0.0164609
        k(   10) = (   0.0000000   0.2222354   0.2222354), wk =   0.0082305
        k(   11) = (   0.0000000   0.2222354   0.3333530), wk =   0.0164609
        k(   12) = (   0.0000000   0.2222354   0.4444707), wk =   0.0164609
        k(   13) = (   0.0000000   0.3333530   0.3333530), wk =   0.0082305
        k(   14) = (   0.0000000   0.3333530   0.4444707), wk =   0.0164609
        k(   15) = (   0.0000000   0.4444707   0.4444707), wk =   0.0082305
        k(   16) = (   0.1111177   0.1111177   0.1111177), wk =   0.0027435
        k(   17) = (   0.1111177   0.1111177   0.2222354), wk =   0.0082305
        k(   18) = (   0.1111177   0.1111177   0.3333530), wk =   0.0082305
        k(   19) = (   0.1111177   0.1111177   0.4444707), wk =   0.0082305
        k(   20) = (   0.1111177   0.2222354   0.2222354), wk =   0.0082305
        k(   21) = (   0.1111177   0.2222354   0.3333530), wk =   0.0164609
        k(   22) = (   0.1111177   0.2222354   0.4444707), wk =   0.0164609
        k(   23) = (   0.1111177   0.3333530   0.3333530), wk =   0.0082305
        k(   24) = (   0.1111177   0.3333530   0.4444707), wk =   0.0164609
        k(   25) = (   0.1111177   0.4444707   0.4444707), wk =   0.0082305
        k(   26) = (   0.2222354   0.2222354   0.2222354), wk =   0.0027435
        k(   27) = (   0.2222354   0.2222354   0.3333530), wk =   0.0082305
        k(   28) = (   0.2222354   0.2222354   0.4444707), wk =   0.0082305
        k(   29) = (   0.2222354   0.3333530   0.3333530), wk =   0.0082305
        k(   30) = (   0.2222354   0.3333530   0.4444707), wk =   0.0164609
        k(   31) = (   0.2222354   0.4444707   0.4444707), wk =   0.0082305
        k(   32) = (   0.3333530   0.3333530   0.3333530), wk =   0.0027435
        k(   33) = (   0.3333530   0.3333530   0.4444707), wk =   0.0082305
        k(   34) = (   0.3333530   0.4444707   0.4444707), wk =   0.0082305
        k(   35) = (   0.4444707   0.4444707   0.4444707), wk =   0.0027435
        k(   36) = (  -0.1111177   0.0000000   0.1111177), wk =   0.0082305
        k(   37) = (  -0.1111177   0.0000000   0.2222354), wk =   0.0164609
        k(   38) = (  -0.1111177   0.0000000   0.3333530), wk =   0.0164609
        k(   39) = (  -0.1111177   0.0000000   0.4444707), wk =   0.0164609
        k(   40) = (  -0.2222354   0.0000000   0.2222354), wk =   0.0082305
        k(   41) = (  -0.2222354   0.0000000   0.3333530), wk =   0.0164609
        k(   42) = (  -0.2222354   0.0000000   0.4444707), wk =   0.0164609
        k(   43) = (  -0.3333530   0.0000000   0.3333530), wk =   0.0082305
        k(   44) = (  -0.3333530   0.0000000   0.4444707), wk =   0.0164609
        k(   45) = (  -0.4444707   0.0000000   0.4444707), wk =   0.0082305
        k(   46) = (   0.1111177  -0.1111177   0.1111177), wk =   0.0082305
        k(   47) = (   0.1111177  -0.1111177   0.2222354), wk =   0.0164609
        k(   48) = (  -0.2222354   0.1111177   0.1111177), wk =   0.0082305
        k(   49) = (   0.1111177  -0.1111177   0.3333530), wk =   0.0164609
        k(   50) = (  -0.3333530   0.1111177   0.1111177), wk =   0.0082305
        k(   51) = (   0.1111177  -0.1111177   0.4444707), wk =   0.0164609
        k(   52) = (  -0.4444707   0.1111177   0.1111177), wk =   0.0082305
        k(   53) = (   0.2222354  -0.1111177   0.2222354), wk =   0.0082305
        k(   54) = (  -0.2222354   0.1111177   0.2222354), wk =   0.0164609
        k(   55) = (   0.2222354  -0.1111177   0.3333530), wk =   0.0164609
        k(   56) = (  -0.2222354   0.1111177   0.3333530), wk =   0.0164609
        k(   57) = (  -0.3333530   0.2222354   0.1111177), wk =   0.0164609
        k(   58) = (   0.2222354  -0.1111177   0.4444707), wk =   0.0164609
        k(   59) = (  -0.2222354   0.1111177   0.4444707), wk =   0.0164609
        k(   60) = (  -0.4444707   0.2222354   0.1111177), wk =   0.0164609
        k(   61) = (   0.3333530  -0.1111177   0.3333530), wk =   0.0082305
        k(   62) = (  -0.3333530   0.1111177   0.3333530), wk =   0.0164609
        k(   63) = (   0.3333530  -0.1111177   0.4444707), wk =   0.0164609
        k(   64) = (  -0.3333530   0.1111177   0.4444707), wk =   0.0164609
        k(   65) = (  -0.4444707   0.3333530   0.1111177), wk =   0.0164609
        k(   66) = (   0.4444707  -0.1111177   0.4444707), wk =   0.0082305
        k(   67) = (  -0.4444707   0.1111177   0.4444707), wk =   0.0164609
        k(   68) = (   0.2222354  -0.2222354   0.2222354), wk =   0.0082305
        k(   69) = (   0.2222354  -0.2222354   0.3333530), wk =   0.0164609
        k(   70) = (  -0.3333530   0.2222354   0.2222354), wk =   0.0082305
        k(   71) = (   0.2222354  -0.2222354   0.4444707), wk =   0.0164609
        k(   72) = (  -0.4444707   0.2222354   0.2222354), wk =   0.0082305
        k(   73) = (   0.3333530  -0.2222354   0.3333530), wk =   0.0082305
        k(   74) = (  -0.3333530   0.2222354   0.3333530), wk =   0.0164609
        k(   75) = (   0.3333530  -0.2222354   0.4444707), wk =   0.0164609
        k(   76) = (  -0.3333530   0.2222354   0.4444707), wk =   0.0164609
        k(   77) = (  -0.4444707   0.3333530   0.2222354), wk =   0.0164609
        k(   78) = (   0.4444707  -0.2222354   0.4444707), wk =   0.0082305
        k(   79) = (  -0.4444707   0.2222354   0.4444707), wk =   0.0164609
        k(   80) = (   0.3333530  -0.3333530   0.3333530), wk =   0.0082305
        k(   81) = (   0.3333530  -0.3333530   0.4444707), wk =   0.0164609
        k(   82) = (  -0.4444707   0.3333530   0.3333530), wk =   0.0082305
        k(   83) = (   0.4444707  -0.3333530   0.4444707), wk =   0.0082305
        k(   84) = (  -0.4444707   0.3333530   0.4444707), wk =   0.0164609
        k(   85) = (   0.4444707  -0.4444707   0.4444707), wk =   0.0082305

     Dense  grid:    48885 G-vectors     FFT dimensions: (  45,  45,  45)

     Smooth grid:    17269 G-vectors     FFT dimensions: (  36,  36,  36)

     Estimated max dynamical RAM per process >      15.51 MB

     Estimated total dynamical RAM >     435.38 MB
     Generating pointlists ...
     new r_m :   0.2917 (alat units)  1.8966 (a.u.) for type    1

     Initial potential from superposition of free atoms

     starting charge      39.9990, renormalised to      40.0000
     Starting wfcs are   36 atomic wfcs
     Checking if some PAW data can be deallocated... 

     total cpu time spent up to now is        1.6 secs

     Self-consistent Calculation

     iteration #  1     ecut=    60.00 Ry     beta= 0.50
     Davidson diagonalization with overlap
     ethr =  1.00E-02,  avg # of iterations =  2.0

     Threshold (ethr) on eigenvalues was too large:
     Diagonalizing with lowered threshold

     Davidson diagonalization with overlap
     ethr =  1.95E-04,  avg # of iterations =  3.3

     total cpu time spent up to now is        6.8 secs

     total energy              =    -743.11865737 Ry
     estimated scf accuracy    <       0.07337356 Ry

     total magnetization       =     3.50 Bohr mag/cell
     absolute magnetization    =     3.50 Bohr mag/cell

     iteration #  2     ecut=    60.00 Ry     beta= 0.50
     Davidson diagonalization with overlap
     ethr =  1.83E-04,  avg # of iterations =  1.0

     total cpu time spent up to now is        8.8 secs

     total energy              =    -743.14311275 Ry
     estimated scf accuracy    <       0.02451683 Ry

     total magnetization       =     3.20 Bohr mag/cell
     absolute magnetization    =     3.31 Bohr mag/cell

     iteration #  3     ecut=    60.00 Ry     beta= 0.50
     Davidson diagonalization with overlap
     ethr =  6.13E-05,  avg # of iterations =  1.1

     total cpu time spent up to now is       10.8 secs

     total energy              =    -743.15066673 Ry
     estimated scf accuracy    <       0.00190402 Ry

     total magnetization       =     2.46 Bohr mag/cell
     absolute magnetization    =     2.83 Bohr mag/cell

     iteration #  4     ecut=    60.00 Ry     beta= 0.50
     Davidson diagonalization with overlap
     ethr =  4.76E-06,  avg # of iterations =  2.6

     total cpu time spent up to now is       13.5 secs

     total energy              =    -743.15100363 Ry
     estimated scf accuracy    <       0.00022090 Ry

     total magnetization       =     2.43 Bohr mag/cell
     absolute magnetization    =     2.82 Bohr mag/cell

     iteration #  5     ecut=    60.00 Ry     beta= 0.50
     Davidson diagonalization with overlap
     ethr =  5.52E-07,  avg # of iterations =  2.8

     total cpu time spent up to now is       16.2 secs

     total energy              =    -743.15116645 Ry
     estimated scf accuracy    <       0.00006758 Ry

     total magnetization       =     2.42 Bohr mag/cell
     absolute magnetization    =     2.78 Bohr mag/cell

     iteration #  6     ecut=    60.00 Ry     beta= 0.50
     Davidson diagonalization with overlap
     ethr =  1.69E-07,  avg # of iterations =  1.5

     total cpu time spent up to now is       18.1 secs

     total energy              =    -743.15117717 Ry
     estimated scf accuracy    <       0.00001776 Ry

     total magnetization       =     2.42 Bohr mag/cell
     absolute magnetization    =     2.77 Bohr mag/cell

     iteration #  7     ecut=    60.00 Ry     beta= 0.50
     Davidson diagonalization with overlap
     ethr =  4.44E-08,  avg # of iterations =  1.5

     total cpu time spent up to now is       20.3 secs

     total energy              =    -743.15118069 Ry
     estimated scf accuracy    <       0.00000968 Ry

     total magnetization       =     2.42 Bohr mag/cell
     absolute magnetization    =     2.77 Bohr mag/cell

     iteration #  8     ecut=    60.00 Ry     beta= 0.50
     Davidson diagonalization with overlap
     ethr =  2.42E-08,  avg # of iterations =  2.2

     total cpu time spent up to now is       23.0 secs

     total energy              =    -743.15118165 Ry
     estimated scf accuracy    <       0.00000096 Ry

     total magnetization       =     2.42 Bohr mag/cell
     absolute magnetization    =     2.77 Bohr mag/cell

     iteration #  9     ecut=    60.00 Ry     beta= 0.50
     Davidson diagonalization with overlap
     ethr =  2.40E-09,  avg # of iterations =  3.3

     total cpu time spent up to now is       26.1 secs

     total energy              =    -743.15118291 Ry
     estimated scf accuracy    <       0.00000135 Ry

     total magnetization       =     2.42 Bohr mag/cell
     absolute magnetization    =     2.76 Bohr mag/cell

     iteration # 10     ecut=    60.00 Ry     beta= 0.50
     Davidson diagonalization with overlap
     ethr =  2.40E-09,  avg # of iterations =  1.0

     total cpu time spent up to now is       28.1 secs

     total energy              =    -743.15118295 Ry
     estimated scf accuracy    <       0.00000005 Ry

     total magnetization       =     2.42 Bohr mag/cell
     absolute magnetization    =     2.76 Bohr mag/cell

     iteration # 11     ecut=    60.00 Ry     beta= 0.50
     Davidson diagonalization with overlap
     ethr =  1.22E-10,  avg # of iterations =  2.0

     total cpu time spent up to now is       31.1 secs

     total energy              =    -743.15118296 Ry
     estimated scf accuracy    <       0.00000002 Ry

     total magnetization       =     2.42 Bohr mag/cell
     absolute magnetization    =     2.76 Bohr mag/cell

     iteration # 12     ecut=    60.00 Ry     beta= 0.50
     Davidson diagonalization with overlap
     ethr =  3.83E-11,  avg # of iterations =  1.4
 
     Magnetic moment per site  (integrated on atomic sphere of radius R)
     atom   1 (R=0.292)  charge=  8.6613  magn=  0.6419
     atom   2 (R=0.292)  charge=  8.6612  magn=  0.6419
     atom   3 (R=0.292)  charge=  8.6612  magn=  0.6419
     atom   4 (R=0.292)  charge=  8.6612  magn=  0.6419

     total cpu time spent up to now is       33.3 secs

     End of self-consistent calculation

     Number of k-points >= 100: set verbosity='high' to print the bands.

     the Fermi energy is    14.9517 ev

!    total energy              =    -743.15118297 Ry
     total all-electron energy =    -12166.718005 Ry
     estimated scf accuracy    <          1.3E-09 Ry
     smearing contrib. (-TS)   =      -0.00005200 Ry
     internal energy E=F+TS    =    -743.15113097 Ry

     The total energy is F=E-TS. E is the sum of the following terms:
     one-electron contribution =     -31.43057033 Ry
     hartree contribution      =      78.12501901 Ry
     xc contribution           =    -167.16575171 Ry
     ewald contribution        =    -282.05148299 Ry
     DFT-D3 Dispersion         =      -0.33998447 Ry
     one-center paw contrib.   =    -340.28836048 Ry

     total magnetization       =     2.42 Bohr mag/cell
     absolute magnetization    =     2.76 Bohr mag/cell

     convergence has been achieved in  12 iterations

     Writing all to output data dir ./Ni_k_9.save/ :
     XML data file, charge density, pseudopotentials, collected wavefunctions
 
     init_run     :      1.31s CPU      1.39s WALL (       1 calls)
     electrons    :     26.81s CPU     31.79s WALL (       1 calls)

     Called by init_run:
     wfcinit      :      0.46s CPU      0.49s WALL (       1 calls)
     potinit      :      0.30s CPU      0.33s WALL (       1 calls)
     hinit0       :      0.05s CPU      0.06s WALL (       1 calls)

     Called by electrons:
     c_bands      :     19.97s CPU     24.34s WALL (      13 calls)
     sum_band     :      3.46s CPU      3.90s WALL (      13 calls)
     v_of_rho     :      0.15s CPU      0.16s WALL (      13 calls)
     newd         :      0.15s CPU      0.15s WALL (      13 calls)
     PAW_pot      :      2.94s CPU      3.04s WALL (      13 calls)
     mix_rho      :      0.04s CPU      0.04s WALL (      13 calls)
     energy_dftd3 :      0.30s CPU      0.31s WALL (       1 calls)

     Called by c_bands:
     init_us_2    :      0.17s CPU      0.19s WALL (    2295 calls)
     init_us_2:cp :      0.16s CPU      0.18s WALL (    2295 calls)
     cegterg      :     12.66s CPU     15.13s WALL (    1105 calls)

     Called by *egterg:
     cdiaghg      :      2.74s CPU      3.45s WALL (    3313 calls)
     h_psi        :      8.67s CPU     10.12s WALL (    3483 calls)
     s_psi        :      0.22s CPU      0.28s WALL (    3483 calls)
     g_psi        :      0.03s CPU      0.04s WALL (    2293 calls)

     Called by h_psi:
     h_psi:calbec :      0.47s CPU      0.54s WALL (    3483 calls)
     vloc_psi     :      7.92s CPU      9.24s WALL (    3483 calls)
     add_vuspsi   :      0.24s CPU      0.29s WALL (    3483 calls)

     General routines
     calbec       :      0.62s CPU      0.72s WALL (    4588 calls)
     fft          :      0.08s CPU      0.09s WALL (     321 calls)
     ffts         :      0.03s CPU      0.03s WALL (     261 calls)
     fftw         :      8.82s CPU     10.32s WALL (  154254 calls)
     interpolate  :      0.01s CPU      0.01s WALL (      26 calls)
 
     Parallel routines
 
     PWSCF        :     28.42s CPU     33.96s WALL

 
   This run was terminated on:  23:45:20   5Sep2025            

=------------------------------------------------------------------------------=
   JOB DONE.
=------------------------------------------------------------------------------=
