
     Program PWSCF v.7.3 starts on  5Sep2025 at 23:44:17 

     This program is part of the open-source Quantum ESPRESSO suite
     for quantum simulation of materials; please cite
         "P. Giannozzi et al., J. Phys.:Condens. Matter 21 395502 (2009);
         "P. Giannozzi et al., J. Phys.:Condens. Matter 29 465901 (2017);
         "P. Giannozzi et al., J. Chem. Phys. 152 154105 (2020);
          URL http://www.quantum-espresso.org", 
     in publications or presentations arising from this work. More details at
     http://www.quantum-espresso.org/quote

     Parallel version (MPI), running on    30 processors

     MPI processes distributed on     1 nodes
     224822 MiB available memory on the printing compute node when the environment starts
 
     Waiting for input...
     Reading input from standard input

     Current dimensions of program PWSCF are:
     Max number of different atomic species (ntypx) = 10
     Max number of k-points (npk) =  40000
     Max angular momentum in pseudopotentials (lmaxx) =  4
     file Ni.upf: wavefunction(s)  4S 3D renormalized

     IMPORTANT: XC functional enforced from input :
     Exchange-correlation= PBE
                           (   1   4   3   4   0   0   0)
     Any further DFT definition will be discarded
     Please, verify this is what you really want

     Found identity + ( -0.5000 -0.5000  0.0000) symmetry
     This is a supercell, fractional translations are disabled
     Message from routine setup:
     using ibrav=0 with symmetry is DISCOURAGED, use correct ibrav instead
 
     K-points division:     npool     =       2
     R & G space division:  proc/nbgrp/npool/nimage =      15
     Subspace diagonalization in iterative solution of the eigenvalue problem:
     a serial algorithm will be used

 
     Parallelization info
     --------------------
     sticks:   dense  smooth     PW     G-vecs:    dense   smooth      PW
     Min         107      53     16                 3258     1151     196
     Max         109      55     17                 3260     1152     201
     Sum        1617     805    241                48885    17269    2945
 
     Using Slab Decomposition
 

     Title: 
     Ni_k_8                                                                     


     bravais-lattice index     =            0
     lattice parameter (alat)  =       6.5025  a.u.
     unit-cell volume          =     274.8993 (a.u.)^3
     number of atoms/cell      =            4
     number of atomic types    =            1
     number of electrons       =        40.00
     number of Kohn-Sham states=           24
     kinetic-energy cutoff     =      60.0000  Ry
     charge density cutoff     =     480.0000  Ry
     scf convergence threshold =      6.4E-09
     mixing beta               =       0.5000
     number of iterations used =           10  local-TF  mixing
     Exchange-correlation= PBE
                           (   1   4   3   4   0   0   0)

     celldm(1)=   6.502548  celldm(2)=   0.000000  celldm(3)=   0.000000
     celldm(4)=   0.000000  celldm(5)=   0.000000  celldm(6)=   0.000000

     crystal axes: (cart. coord. in units of alat)
               a(1) = (   0.999941   0.000000   0.000000 )  
               a(2) = (   0.000000   0.999941   0.000000 )  
               a(3) = (   0.000000   0.000000   0.999941 )  

     reciprocal axes: (cart. coord. in units 2 pi/alat)
               b(1) = (  1.000059  0.000000  0.000000 )  
               b(2) = (  0.000000  1.000059  0.000000 )  
               b(3) = (  0.000000  0.000000  1.000059 )  


     PseudoPot. # 1 for Ni read from file:
     /tmpu/mdach_g/mdach/PP/Ni.upf
     MD5 check sum: d88365a95a5e142bd87181c2c8b16588
     Pseudo is Projector augmented-wave + core cor, Zval = 10.0
     Generated using "atomic" code by A. Dal Corso  v.5.0.2 svn rev. 9415
     Shape of augmentation charge: PSQ
     Using radial grid of 1195 points,  6 beta functions with: 
                l(1) =   0
                l(2) =   0
                l(3) =   1
                l(4) =   1
                l(5) =   2
                l(6) =   2
     Q(r) pseudized with 0 coefficients 


     atomic species   valence    mass     pseudopotential
     Ni               10.00    58.69340     Ni( 1.00)

     Starting magnetic structure 
     atomic species   magnetization
     Ni              0.200

      6 Sym. Ops. (no inversion) found



   Cartesian axes

     site n.     atom                  positions (alat units)
         1        Ni     tau(   1) = (  -0.0034654  -0.0034654  -0.0034654  )
         2        Ni     tau(   2) = (   0.4965063   0.4965063  -0.0034647  )
         3        Ni     tau(   3) = (   0.4965063  -0.0034647   0.4965063  )
         4        Ni     tau(   4) = (  -0.0034647   0.4965063   0.4965063  )

     --------------------------------------------
     DFT-D3 Dispersion Correction (3-body terms):
     --------------------------------------------
       Reference C6 values for interpolation: 

         atom   Coordination number   C6
         Ni         0.000          1149.49
         Ni         1.794           356.66
         Ni         6.546           257.56
         Ni         6.292           283.75

       Values used:

         atom   Coordination number  R0_AB[au]  C6      C8
         Ni         9.784            3.162    257.59  21584.20
         Ni         9.784            3.162    257.59  21584.20
         Ni         9.784            3.162    257.59  21584.20
         Ni         9.784            3.162    257.59  21584.20

         Molecular C6 ( Ry / a.u.^6 ) =      4121.44


     number of k points=    65  Methfessel-Paxton smearing, width (Ry)=  0.0147
                       cart. coord. in units 2pi/alat
        k(    1) = (   0.0000000   0.0000000   0.0000000), wk =   0.0019531
        k(    2) = (   0.0000000   0.0000000   0.1250074), wk =   0.0117188
        k(    3) = (   0.0000000   0.0000000   0.2500148), wk =   0.0117188
        k(    4) = (   0.0000000   0.0000000   0.3750222), wk =   0.0117188
        k(    5) = (   0.0000000   0.0000000  -0.5000295), wk =   0.0058594
        k(    6) = (   0.0000000   0.1250074   0.1250074), wk =   0.0117188
        k(    7) = (   0.0000000   0.1250074   0.2500148), wk =   0.0234375
        k(    8) = (   0.0000000   0.1250074   0.3750222), wk =   0.0234375
        k(    9) = (   0.0000000   0.1250074  -0.5000295), wk =   0.0234375
        k(   10) = (   0.0000000   0.2500148   0.2500148), wk =   0.0117188
        k(   11) = (   0.0000000   0.2500148   0.3750222), wk =   0.0234375
        k(   12) = (   0.0000000   0.2500148  -0.5000295), wk =   0.0234375
        k(   13) = (   0.0000000   0.3750222   0.3750222), wk =   0.0117188
        k(   14) = (   0.0000000   0.3750222  -0.5000295), wk =   0.0234375
        k(   15) = (   0.0000000  -0.5000295  -0.5000295), wk =   0.0058594
        k(   16) = (   0.1250074   0.1250074   0.1250074), wk =   0.0039062
        k(   17) = (   0.1250074   0.1250074   0.2500148), wk =   0.0117188
        k(   18) = (   0.1250074   0.1250074   0.3750222), wk =   0.0117188
        k(   19) = (   0.1250074   0.1250074  -0.5000295), wk =   0.0117188
        k(   20) = (   0.1250074   0.2500148   0.2500148), wk =   0.0117188
        k(   21) = (   0.1250074   0.2500148   0.3750222), wk =   0.0234375
        k(   22) = (   0.1250074   0.2500148  -0.5000295), wk =   0.0234375
        k(   23) = (   0.1250074   0.3750222   0.3750222), wk =   0.0117188
        k(   24) = (   0.1250074   0.3750222  -0.5000295), wk =   0.0234375
        k(   25) = (   0.1250074  -0.5000295  -0.5000295), wk =   0.0117188
        k(   26) = (   0.2500148   0.2500148   0.2500148), wk =   0.0039062
        k(   27) = (   0.2500148   0.2500148   0.3750222), wk =   0.0117188
        k(   28) = (   0.2500148   0.2500148  -0.5000295), wk =   0.0117188
        k(   29) = (   0.2500148   0.3750222   0.3750222), wk =   0.0117188
        k(   30) = (   0.2500148   0.3750222  -0.5000295), wk =   0.0234375
        k(   31) = (   0.2500148  -0.5000295  -0.5000295), wk =   0.0117188
        k(   32) = (   0.3750222   0.3750222   0.3750222), wk =   0.0039062
        k(   33) = (   0.3750222   0.3750222  -0.5000295), wk =   0.0117188
        k(   34) = (   0.3750222  -0.5000295  -0.5000295), wk =   0.0117188
        k(   35) = (  -0.5000295  -0.5000295  -0.5000295), wk =   0.0019531
        k(   36) = (  -0.1250074   0.0000000   0.1250074), wk =   0.0117188
        k(   37) = (  -0.1250074   0.0000000   0.2500148), wk =   0.0234375
        k(   38) = (  -0.1250074   0.0000000   0.3750222), wk =   0.0234375
        k(   39) = (  -0.2500148   0.0000000   0.2500148), wk =   0.0117188
        k(   40) = (  -0.2500148   0.0000000   0.3750222), wk =   0.0234375
        k(   41) = (  -0.3750222   0.0000000   0.3750222), wk =   0.0117188
        k(   42) = (   0.1250074  -0.1250074   0.1250074), wk =   0.0117188
        k(   43) = (   0.1250074  -0.1250074   0.2500148), wk =   0.0234375
        k(   44) = (  -0.2500148   0.1250074   0.1250074), wk =   0.0117188
        k(   45) = (   0.1250074  -0.1250074   0.3750222), wk =   0.0234375
        k(   46) = (  -0.3750222   0.1250074   0.1250074), wk =   0.0117188
        k(   47) = (   0.1250074  -0.1250074  -0.5000295), wk =   0.0117188
        k(   48) = (   0.2500148  -0.1250074   0.2500148), wk =   0.0117188
        k(   49) = (  -0.2500148   0.1250074   0.2500148), wk =   0.0234375
        k(   50) = (   0.2500148  -0.1250074   0.3750222), wk =   0.0234375
        k(   51) = (  -0.2500148   0.1250074   0.3750222), wk =   0.0234375
        k(   52) = (  -0.3750222   0.2500148   0.1250074), wk =   0.0234375
        k(   53) = (   0.2500148  -0.1250074  -0.5000295), wk =   0.0234375
        k(   54) = (   0.3750222  -0.1250074   0.3750222), wk =   0.0117188
        k(   55) = (  -0.3750222   0.1250074   0.3750222), wk =   0.0234375
        k(   56) = (   0.3750222  -0.1250074  -0.5000295), wk =   0.0234375
        k(   57) = (   0.2500148  -0.2500148   0.2500148), wk =   0.0117188
        k(   58) = (   0.2500148  -0.2500148   0.3750222), wk =   0.0234375
        k(   59) = (  -0.3750222   0.2500148   0.2500148), wk =   0.0117188
        k(   60) = (   0.2500148  -0.2500148  -0.5000295), wk =   0.0117188
        k(   61) = (   0.3750222  -0.2500148   0.3750222), wk =   0.0117188
        k(   62) = (  -0.3750222   0.2500148   0.3750222), wk =   0.0234375
        k(   63) = (   0.3750222  -0.2500148  -0.5000295), wk =   0.0234375
        k(   64) = (   0.3750222  -0.3750222   0.3750222), wk =   0.0117188
        k(   65) = (   0.3750222  -0.3750222  -0.5000295), wk =   0.0117188

     Dense  grid:    48885 G-vectors     FFT dimensions: (  45,  45,  45)

     Smooth grid:    17269 G-vectors     FFT dimensions: (  36,  36,  36)

     Estimated max dynamical RAM per process >      14.46 MB

     Estimated total dynamical RAM >     403.96 MB
     Generating pointlists ...
     new r_m :   0.2917 (alat units)  1.8966 (a.u.) for type    1

     Initial potential from superposition of free atoms

     starting charge      39.9990, renormalised to      40.0000
     Starting wfcs are   36 atomic wfcs
     Checking if some PAW data can be deallocated... 

     total cpu time spent up to now is        1.1 secs

     Self-consistent Calculation

     iteration #  1     ecut=    60.00 Ry     beta= 0.50
     Davidson diagonalization with overlap
     ethr =  1.00E-02,  avg # of iterations =  2.1

     Threshold (ethr) on eigenvalues was too large:
     Diagonalizing with lowered threshold

     Davidson diagonalization with overlap
     ethr =  2.08E-04,  avg # of iterations =  3.1

     total cpu time spent up to now is        5.1 secs

     total energy              =    -743.11991334 Ry
     estimated scf accuracy    <       0.07691556 Ry

     total magnetization       =     3.42 Bohr mag/cell
     absolute magnetization    =     3.44 Bohr mag/cell

     iteration #  2     ecut=    60.00 Ry     beta= 0.50
     Davidson diagonalization with overlap
     ethr =  1.92E-04,  avg # of iterations =  1.0

     total cpu time spent up to now is        6.7 secs

     total energy              =    -743.14392285 Ry
     estimated scf accuracy    <       0.02341261 Ry

     total magnetization       =     3.21 Bohr mag/cell
     absolute magnetization    =     3.32 Bohr mag/cell

     iteration #  3     ecut=    60.00 Ry     beta= 0.50
     Davidson diagonalization with overlap
     ethr =  5.85E-05,  avg # of iterations =  1.0

     total cpu time spent up to now is        8.3 secs

     total energy              =    -743.14983381 Ry
     estimated scf accuracy    <       0.00281320 Ry

     total magnetization       =     2.56 Bohr mag/cell
     absolute magnetization    =     2.89 Bohr mag/cell

     iteration #  4     ecut=    60.00 Ry     beta= 0.50
     Davidson diagonalization with overlap
     ethr =  7.03E-06,  avg # of iterations =  2.1

     total cpu time spent up to now is       10.3 secs

     total energy              =    -743.15041511 Ry
     estimated scf accuracy    <       0.00035299 Ry

     total magnetization       =     2.44 Bohr mag/cell
     absolute magnetization    =     2.82 Bohr mag/cell

     iteration #  5     ecut=    60.00 Ry     beta= 0.50
     Davidson diagonalization with overlap
     ethr =  8.82E-07,  avg # of iterations =  2.3

     total cpu time spent up to now is       12.3 secs

     total energy              =    -743.15057057 Ry
     estimated scf accuracy    <       0.00006786 Ry

     total magnetization       =     2.40 Bohr mag/cell
     absolute magnetization    =     2.78 Bohr mag/cell

     iteration #  6     ecut=    60.00 Ry     beta= 0.50
     Davidson diagonalization with overlap
     ethr =  1.70E-07,  avg # of iterations =  2.9

     total cpu time spent up to now is       14.5 secs

     total energy              =    -743.15061563 Ry
     estimated scf accuracy    <       0.00001996 Ry

     total magnetization       =     2.41 Bohr mag/cell
     absolute magnetization    =     2.75 Bohr mag/cell

     iteration #  7     ecut=    60.00 Ry     beta= 0.50
     Davidson diagonalization with overlap
     ethr =  4.99E-08,  avg # of iterations =  1.3

     total cpu time spent up to now is       16.2 secs

     total energy              =    -743.15061908 Ry
     estimated scf accuracy    <       0.00000515 Ry

     total magnetization       =     2.40 Bohr mag/cell
     absolute magnetization    =     2.74 Bohr mag/cell

     iteration #  8     ecut=    60.00 Ry     beta= 0.50
     Davidson diagonalization with overlap
     ethr =  1.29E-08,  avg # of iterations =  2.3

     total cpu time spent up to now is       18.0 secs

     total energy              =    -743.15062037 Ry
     estimated scf accuracy    <       0.00000045 Ry

     total magnetization       =     2.40 Bohr mag/cell
     absolute magnetization    =     2.73 Bohr mag/cell

     iteration #  9     ecut=    60.00 Ry     beta= 0.50
     Davidson diagonalization with overlap
     ethr =  1.13E-09,  avg # of iterations =  3.3

     total cpu time spent up to now is       20.5 secs

     total energy              =    -743.15062100 Ry
     estimated scf accuracy    <       0.00000049 Ry

     total magnetization       =     2.40 Bohr mag/cell
     absolute magnetization    =     2.73 Bohr mag/cell

     iteration # 10     ecut=    60.00 Ry     beta= 0.50
     Davidson diagonalization with overlap
     ethr =  1.13E-09,  avg # of iterations =  1.0

     total cpu time spent up to now is       22.0 secs

     total energy              =    -743.15062107 Ry
     estimated scf accuracy    <       0.00000007 Ry

     total magnetization       =     2.40 Bohr mag/cell
     absolute magnetization    =     2.73 Bohr mag/cell

     iteration # 11     ecut=    60.00 Ry     beta= 0.50
     Davidson diagonalization with overlap
     ethr =  1.69E-10,  avg # of iterations =  1.0

     total cpu time spent up to now is       23.5 secs

     total energy              =    -743.15062108 Ry
     estimated scf accuracy    <       0.00000003 Ry

     total magnetization       =     2.39 Bohr mag/cell
     absolute magnetization    =     2.72 Bohr mag/cell

     iteration # 12     ecut=    60.00 Ry     beta= 0.50
     Davidson diagonalization with overlap
     ethr =  8.44E-11,  avg # of iterations =  2.3
 
     Magnetic moment per site  (integrated on atomic sphere of radius R)
     atom   1 (R=0.292)  charge=  8.6609  magn=  0.6341
     atom   2 (R=0.292)  charge=  8.6607  magn=  0.6341
     atom   3 (R=0.292)  charge=  8.6607  magn=  0.6341
     atom   4 (R=0.292)  charge=  8.6607  magn=  0.6341

     total cpu time spent up to now is       25.3 secs

     End of self-consistent calculation

     Number of k-points >= 100: set verbosity='high' to print the bands.

     the Fermi energy is    14.9479 ev

!    total energy              =    -743.15062109 Ry
     total all-electron energy =    -12166.717443 Ry
     estimated scf accuracy    <          1.2E-09 Ry
     smearing contrib. (-TS)   =      -0.00038797 Ry
     internal energy E=F+TS    =    -743.15023312 Ry

     The total energy is F=E-TS. E is the sum of the following terms:
     one-electron contribution =     -31.42266469 Ry
     hartree contribution      =      78.11478691 Ry
     xc contribution           =    -167.16214883 Ry
     ewald contribution        =    -282.05148299 Ry
     DFT-D3 Dispersion         =      -0.33998447 Ry
     one-center paw contrib.   =    -340.28873905 Ry

     total magnetization       =     2.39 Bohr mag/cell
     absolute magnetization    =     2.72 Bohr mag/cell

     convergence has been achieved in  12 iterations

     Writing all to output data dir ./Ni_k_8.save/ :
     XML data file, charge density, pseudopotentials, collected wavefunctions
 
     init_run     :      0.88s CPU      0.94s WALL (       1 calls)
     electrons    :     22.26s CPU     24.23s WALL (       1 calls)

     Called by init_run:
     wfcinit      :      0.37s CPU      0.39s WALL (       1 calls)
     potinit      :      0.27s CPU      0.29s WALL (       1 calls)
     hinit0       :      0.05s CPU      0.06s WALL (       1 calls)

     Called by electrons:
     c_bands      :     16.16s CPU     17.69s WALL (      13 calls)
     sum_band     :      2.82s CPU      3.07s WALL (      13 calls)
     v_of_rho     :      0.10s CPU      0.13s WALL (      13 calls)
     newd         :      0.15s CPU      0.15s WALL (      13 calls)
     PAW_pot      :      2.84s CPU      2.97s WALL (      13 calls)
     mix_rho      :      0.04s CPU      0.04s WALL (      13 calls)
     energy_dftd3 :      0.31s CPU      0.31s WALL (       1 calls)

     Called by c_bands:
     init_us_2    :      0.13s CPU      0.14s WALL (    1755 calls)
     init_us_2:cp :      0.12s CPU      0.13s WALL (    1755 calls)
     cegterg      :      8.34s CPU      8.93s WALL (     845 calls)

     Called by *egterg:
     cdiaghg      :      1.97s CPU      2.09s WALL (    2413 calls)
     h_psi        :      5.89s CPU      6.31s WALL (    2543 calls)
     s_psi        :      0.17s CPU      0.19s WALL (    2543 calls)
     g_psi        :      0.03s CPU      0.03s WALL (    1633 calls)

     Called by h_psi:
     h_psi:calbec :      0.27s CPU      0.29s WALL (    2543 calls)
     vloc_psi     :      5.40s CPU      5.79s WALL (    2543 calls)
     add_vuspsi   :      0.18s CPU      0.19s WALL (    2543 calls)

     General routines
     calbec       :      0.36s CPU      0.38s WALL (    3388 calls)
     fft          :      0.04s CPU      0.06s WALL (     321 calls)
     ffts         :      0.05s CPU      0.06s WALL (     269 calls)
     fftw         :      5.84s CPU      6.37s WALL (  118540 calls)
     interpolate  :      0.01s CPU      0.01s WALL (      26 calls)
 
     Parallel routines
 
     PWSCF        :     23.42s CPU     25.85s WALL

 
   This run was terminated on:  23:44:43   5Sep2025            

=------------------------------------------------------------------------------=
   JOB DONE.
=------------------------------------------------------------------------------=
