
     Program PWSCF v.7.3 starts on  5Sep2025 at 23:43:53 

     This program is part of the open-source Quantum ESPRESSO suite
     for quantum simulation of materials; please cite
         "P. Giannozzi et al., J. Phys.:Condens. Matter 21 395502 (2009);
         "P. Giannozzi et al., J. Phys.:Condens. Matter 29 465901 (2017);
         "P. Giannozzi et al., J. Chem. Phys. 152 154105 (2020);
          URL http://www.quantum-espresso.org", 
     in publications or presentations arising from this work. More details at
     http://www.quantum-espresso.org/quote

     Parallel version (MPI), running on    30 processors

     MPI processes distributed on     1 nodes
     224898 MiB available memory on the printing compute node when the environment starts
 
     Waiting for input...
     Reading input from standard input

     Current dimensions of program PWSCF are:
     Max number of different atomic species (ntypx) = 10
     Max number of k-points (npk) =  40000
     Max angular momentum in pseudopotentials (lmaxx) =  4
     file Ni.upf: wavefunction(s)  4S 3D renormalized

     IMPORTANT: XC functional enforced from input :
     Exchange-correlation= PBE
                           (   1   4   3   4   0   0   0)
     Any further DFT definition will be discarded
     Please, verify this is what you really want

     Found identity + ( -0.5000 -0.5000  0.0000) symmetry
     This is a supercell, fractional translations are disabled
     Message from routine setup:
     using ibrav=0 with symmetry is DISCOURAGED, use correct ibrav instead
 
     K-points division:     npool     =       2
     R & G space division:  proc/nbgrp/npool/nimage =      15
     Subspace diagonalization in iterative solution of the eigenvalue problem:
     a serial algorithm will be used

 
     Parallelization info
     --------------------
     sticks:   dense  smooth     PW     G-vecs:    dense   smooth      PW
     Min         107      53     16                 3258     1151     186
     Max         109      55     17                 3260     1152     189
     Sum        1617     805    241                48885    17269    2801
 
     Using Slab Decomposition
 

     Title: 
     Ni_k_7                                                                     


     bravais-lattice index     =            0
     lattice parameter (alat)  =       6.5025  a.u.
     unit-cell volume          =     274.8993 (a.u.)^3
     number of atoms/cell      =            4
     number of atomic types    =            1
     number of electrons       =        40.00
     number of Kohn-Sham states=           24
     kinetic-energy cutoff     =      60.0000  Ry
     charge density cutoff     =     480.0000  Ry
     scf convergence threshold =      6.4E-09
     mixing beta               =       0.5000
     number of iterations used =           10  local-TF  mixing
     Exchange-correlation= PBE
                           (   1   4   3   4   0   0   0)

     celldm(1)=   6.502548  celldm(2)=   0.000000  celldm(3)=   0.000000
     celldm(4)=   0.000000  celldm(5)=   0.000000  celldm(6)=   0.000000

     crystal axes: (cart. coord. in units of alat)
               a(1) = (   0.999941   0.000000   0.000000 )  
               a(2) = (   0.000000   0.999941   0.000000 )  
               a(3) = (   0.000000   0.000000   0.999941 )  

     reciprocal axes: (cart. coord. in units 2 pi/alat)
               b(1) = (  1.000059  0.000000  0.000000 )  
               b(2) = (  0.000000  1.000059  0.000000 )  
               b(3) = (  0.000000  0.000000  1.000059 )  


     PseudoPot. # 1 for Ni read from file:
     /tmpu/mdach_g/mdach/PP/Ni.upf
     MD5 check sum: d88365a95a5e142bd87181c2c8b16588
     Pseudo is Projector augmented-wave + core cor, Zval = 10.0
     Generated using "atomic" code by A. Dal Corso  v.5.0.2 svn rev. 9415
     Shape of augmentation charge: PSQ
     Using radial grid of 1195 points,  6 beta functions with: 
                l(1) =   0
                l(2) =   0
                l(3) =   1
                l(4) =   1
                l(5) =   2
                l(6) =   2
     Q(r) pseudized with 0 coefficients 


     atomic species   valence    mass     pseudopotential
     Ni               10.00    58.69340     Ni( 1.00)

     Starting magnetic structure 
     atomic species   magnetization
     Ni              0.200

      6 Sym. Ops. (no inversion) found



   Cartesian axes

     site n.     atom                  positions (alat units)
         1        Ni     tau(   1) = (  -0.0034654  -0.0034654  -0.0034654  )
         2        Ni     tau(   2) = (   0.4965063   0.4965063  -0.0034647  )
         3        Ni     tau(   3) = (   0.4965063  -0.0034647   0.4965063  )
         4        Ni     tau(   4) = (  -0.0034647   0.4965063   0.4965063  )

     --------------------------------------------
     DFT-D3 Dispersion Correction (3-body terms):
     --------------------------------------------
       Reference C6 values for interpolation: 

         atom   Coordination number   C6
         Ni         0.000          1149.49
         Ni         1.794           356.66
         Ni         6.546           257.56
         Ni         6.292           283.75

       Values used:

         atom   Coordination number  R0_AB[au]  C6      C8
         Ni         9.784            3.162    257.59  21584.20
         Ni         9.784            3.162    257.59  21584.20
         Ni         9.784            3.162    257.59  21584.20
         Ni         9.784            3.162    257.59  21584.20

         Molecular C6 ( Ry / a.u.^6 ) =      4121.44


     number of k points=    44  Methfessel-Paxton smearing, width (Ry)=  0.0147
                       cart. coord. in units 2pi/alat
        k(    1) = (   0.0000000   0.0000000   0.0000000), wk =   0.0029155
        k(    2) = (   0.0000000   0.0000000   0.1428656), wk =   0.0174927
        k(    3) = (   0.0000000   0.0000000   0.2857312), wk =   0.0174927
        k(    4) = (   0.0000000   0.0000000   0.4285968), wk =   0.0174927
        k(    5) = (   0.0000000   0.1428656   0.1428656), wk =   0.0174927
        k(    6) = (   0.0000000   0.1428656   0.2857312), wk =   0.0349854
        k(    7) = (   0.0000000   0.1428656   0.4285968), wk =   0.0349854
        k(    8) = (   0.0000000   0.2857312   0.2857312), wk =   0.0174927
        k(    9) = (   0.0000000   0.2857312   0.4285968), wk =   0.0349854
        k(   10) = (   0.0000000   0.4285968   0.4285968), wk =   0.0174927
        k(   11) = (   0.1428656   0.1428656   0.1428656), wk =   0.0058309
        k(   12) = (   0.1428656   0.1428656   0.2857312), wk =   0.0174927
        k(   13) = (   0.1428656   0.1428656   0.4285968), wk =   0.0174927
        k(   14) = (   0.1428656   0.2857312   0.2857312), wk =   0.0174927
        k(   15) = (   0.1428656   0.2857312   0.4285968), wk =   0.0349854
        k(   16) = (   0.1428656   0.4285968   0.4285968), wk =   0.0174927
        k(   17) = (   0.2857312   0.2857312   0.2857312), wk =   0.0058309
        k(   18) = (   0.2857312   0.2857312   0.4285968), wk =   0.0174927
        k(   19) = (   0.2857312   0.4285968   0.4285968), wk =   0.0174927
        k(   20) = (   0.4285968   0.4285968   0.4285968), wk =   0.0058309
        k(   21) = (  -0.1428656   0.0000000   0.1428656), wk =   0.0174927
        k(   22) = (  -0.1428656   0.0000000   0.2857312), wk =   0.0349854
        k(   23) = (  -0.1428656   0.0000000   0.4285968), wk =   0.0349854
        k(   24) = (  -0.2857312   0.0000000   0.2857312), wk =   0.0174927
        k(   25) = (  -0.2857312   0.0000000   0.4285968), wk =   0.0349854
        k(   26) = (  -0.4285968   0.0000000   0.4285968), wk =   0.0174927
        k(   27) = (   0.1428656  -0.1428656   0.1428656), wk =   0.0174927
        k(   28) = (   0.1428656  -0.1428656   0.2857312), wk =   0.0349854
        k(   29) = (  -0.2857312   0.1428656   0.1428656), wk =   0.0174927
        k(   30) = (   0.1428656  -0.1428656   0.4285968), wk =   0.0349854
        k(   31) = (  -0.4285968   0.1428656   0.1428656), wk =   0.0174927
        k(   32) = (   0.2857312  -0.1428656   0.2857312), wk =   0.0174927
        k(   33) = (  -0.2857312   0.1428656   0.2857312), wk =   0.0349854
        k(   34) = (   0.2857312  -0.1428656   0.4285968), wk =   0.0349854
        k(   35) = (  -0.2857312   0.1428656   0.4285968), wk =   0.0349854
        k(   36) = (  -0.4285968   0.2857312   0.1428656), wk =   0.0349854
        k(   37) = (   0.4285968  -0.1428656   0.4285968), wk =   0.0174927
        k(   38) = (  -0.4285968   0.1428656   0.4285968), wk =   0.0349854
        k(   39) = (   0.2857312  -0.2857312   0.2857312), wk =   0.0174927
        k(   40) = (   0.2857312  -0.2857312   0.4285968), wk =   0.0349854
        k(   41) = (  -0.4285968   0.2857312   0.2857312), wk =   0.0174927
        k(   42) = (   0.4285968  -0.2857312   0.4285968), wk =   0.0174927
        k(   43) = (  -0.4285968   0.2857312   0.4285968), wk =   0.0349854
        k(   44) = (   0.4285968  -0.4285968   0.4285968), wk =   0.0174927

     Dense  grid:    48885 G-vectors     FFT dimensions: (  45,  45,  45)

     Smooth grid:    17269 G-vectors     FFT dimensions: (  36,  36,  36)

     Estimated max dynamical RAM per process >      13.36 MB

     Estimated total dynamical RAM >     370.96 MB
     Generating pointlists ...
     new r_m :   0.2917 (alat units)  1.8966 (a.u.) for type    1

     Initial potential from superposition of free atoms

     starting charge      39.9990, renormalised to      40.0000
     Starting wfcs are   36 atomic wfcs
     Checking if some PAW data can be deallocated... 

     total cpu time spent up to now is        1.2 secs

     Self-consistent Calculation

     iteration #  1     ecut=    60.00 Ry     beta= 0.50
     Davidson diagonalization with overlap
     ethr =  1.00E-02,  avg # of iterations =  2.0

     Threshold (ethr) on eigenvalues was too large:
     Diagonalizing with lowered threshold

     Davidson diagonalization with overlap
     ethr =  1.97E-04,  avg # of iterations =  3.2

     total cpu time spent up to now is        4.1 secs

     total energy              =    -743.11824491 Ry
     estimated scf accuracy    <       0.07389120 Ry

     total magnetization       =     3.48 Bohr mag/cell
     absolute magnetization    =     3.49 Bohr mag/cell

     iteration #  2     ecut=    60.00 Ry     beta= 0.50
     Davidson diagonalization with overlap
     ethr =  1.85E-04,  avg # of iterations =  1.0

     total cpu time spent up to now is        5.2 secs

     total energy              =    -743.14362274 Ry
     estimated scf accuracy    <       0.02553869 Ry

     total magnetization       =     3.15 Bohr mag/cell
     absolute magnetization    =     3.27 Bohr mag/cell

     iteration #  3     ecut=    60.00 Ry     beta= 0.50
     Davidson diagonalization with overlap
     ethr =  6.38E-05,  avg # of iterations =  1.0

     total cpu time spent up to now is        6.4 secs

     total energy              =    -743.14958514 Ry
     estimated scf accuracy    <       0.00144199 Ry

     total magnetization       =     2.40 Bohr mag/cell
     absolute magnetization    =     2.79 Bohr mag/cell

     iteration #  4     ecut=    60.00 Ry     beta= 0.50
     Davidson diagonalization with overlap
     ethr =  3.60E-06,  avg # of iterations =  2.6

     total cpu time spent up to now is        7.6 secs

     total energy              =    -743.15002198 Ry
     estimated scf accuracy    <       0.00048616 Ry

     total magnetization       =     2.29 Bohr mag/cell
     absolute magnetization    =     2.72 Bohr mag/cell

     iteration #  5     ecut=    60.00 Ry     beta= 0.50
     Davidson diagonalization with overlap
     ethr =  1.22E-06,  avg # of iterations =  1.4

     total cpu time spent up to now is        8.8 secs

     total energy              =    -743.15024324 Ry
     estimated scf accuracy    <       0.00016924 Ry

     total magnetization       =     2.22 Bohr mag/cell
     absolute magnetization    =     2.65 Bohr mag/cell

     iteration #  6     ecut=    60.00 Ry     beta= 0.50
     Davidson diagonalization with overlap
     ethr =  4.23E-07,  avg # of iterations =  2.9

     total cpu time spent up to now is       10.6 secs

     total energy              =    -743.15034661 Ry
     estimated scf accuracy    <       0.00002042 Ry

     total magnetization       =     2.20 Bohr mag/cell
     absolute magnetization    =     2.57 Bohr mag/cell

     iteration #  7     ecut=    60.00 Ry     beta= 0.50
     Davidson diagonalization with overlap
     ethr =  5.11E-08,  avg # of iterations =  2.5

     total cpu time spent up to now is       11.9 secs

     total energy              =    -743.15035257 Ry
     estimated scf accuracy    <       0.00000127 Ry

     total magnetization       =     2.19 Bohr mag/cell
     absolute magnetization    =     2.56 Bohr mag/cell

     iteration #  8     ecut=    60.00 Ry     beta= 0.50
     Davidson diagonalization with overlap
     ethr =  3.17E-09,  avg # of iterations =  3.3

     total cpu time spent up to now is       14.0 secs

     total energy              =    -743.15035353 Ry
     estimated scf accuracy    <       0.00000056 Ry

     total magnetization       =     2.19 Bohr mag/cell
     absolute magnetization    =     2.55 Bohr mag/cell

     iteration #  9     ecut=    60.00 Ry     beta= 0.50
     Davidson diagonalization with overlap
     ethr =  1.41E-09,  avg # of iterations =  2.3

     total cpu time spent up to now is       15.5 secs

     total energy              =    -743.15035384 Ry
     estimated scf accuracy    <       0.00000059 Ry

     total magnetization       =     2.19 Bohr mag/cell
     absolute magnetization    =     2.55 Bohr mag/cell

     iteration # 10     ecut=    60.00 Ry     beta= 0.50
     Davidson diagonalization with overlap
     ethr =  1.41E-09,  avg # of iterations =  1.1

     total cpu time spent up to now is       16.7 secs

     total energy              =    -743.15035393 Ry
     estimated scf accuracy    <       0.00000006 Ry

     total magnetization       =     2.19 Bohr mag/cell
     absolute magnetization    =     2.55 Bohr mag/cell

     iteration # 11     ecut=    60.00 Ry     beta= 0.50
     Davidson diagonalization with overlap
     ethr =  1.42E-10,  avg # of iterations =  3.0

     total cpu time spent up to now is       18.2 secs

     total energy              =    -743.15035394 Ry
     estimated scf accuracy    <       0.00000002 Ry

     total magnetization       =     2.19 Bohr mag/cell
     absolute magnetization    =     2.55 Bohr mag/cell

     iteration # 12     ecut=    60.00 Ry     beta= 0.50
     Davidson diagonalization with overlap
     ethr =  5.06E-11,  avg # of iterations =  1.0

     total cpu time spent up to now is       19.3 secs

     total energy              =    -743.15035394 Ry
     estimated scf accuracy    <       0.00000001 Ry

     total magnetization       =     2.19 Bohr mag/cell
     absolute magnetization    =     2.55 Bohr mag/cell

     iteration # 13     ecut=    60.00 Ry     beta= 0.50
     Davidson diagonalization with overlap
     ethr =  3.22E-11,  avg # of iterations =  1.8
 
     Magnetic moment per site  (integrated on atomic sphere of radius R)
     atom   1 (R=0.292)  charge=  8.6621  magn=  0.5851
     atom   2 (R=0.292)  charge=  8.6620  magn=  0.5851
     atom   3 (R=0.292)  charge=  8.6620  magn=  0.5851
     atom   4 (R=0.292)  charge=  8.6620  magn=  0.5851

     total cpu time spent up to now is       20.8 secs

     End of self-consistent calculation

 ------ SPIN UP ------------


          k = 0.0000 0.0000 0.0000 (  2109 PWs)   bands (ev):

     5.2941   9.8354   9.8354   9.8354  10.3687  10.3687  10.3687  12.3590
    12.3590  12.3590  13.6649  13.6649  14.4615  14.4615  14.4615  14.5678
    14.5678  14.5678  14.5678  14.5678  14.5678  17.2921  17.2921  17.2921

          k = 0.0000 0.0000 0.1429 (  2148 PWs)   bands (ev):

     5.5723   9.8496   9.9842   9.9842  10.4594  10.4684  10.4684  12.2517
    12.4420  12.4420  13.5662  13.7032  13.9441  13.9441  14.3326  14.3326
    14.4203  14.4203  14.4208  14.5680  14.5680  16.0786  18.1431  18.1431

          k = 0.0000 0.0000 0.2857 (  2148 PWs)   bands (ev):

     6.3809   9.7203  10.3656  10.3656  10.7174  10.7705  10.7705  11.9563
    12.6851  12.6851  12.9202  12.9202  13.3067  13.8111  13.9929  13.9929
    14.0367  14.0367  14.1402  14.3077  14.5685  14.5685  19.8444  19.8444

          k = 0.0000 0.0000 0.4286 (  2140 PWs)   bands (ev):

     7.6141   8.9500  10.7458  10.7458  11.1011  11.2809  11.2809  11.5428
    12.0026  12.0026  13.0230  13.0679  13.0679  13.0777  13.5455  13.5455
    13.6427  13.6427  13.9687  14.1459  14.5690  14.5690  21.8757  21.8757

          k = 0.0000 0.1429 0.1429 (  2161 PWs)   bands (ev):

     5.8458  10.0066  10.0066  10.1228  10.5538  10.5538  10.5593  12.1961
    12.4803  12.5007  13.5431  13.5972  13.6909  13.6973  13.6973  14.2199
    14.3276  14.3276  14.4195  14.4195  14.4730  16.9331  16.9331  18.8142

          k = 0.0000 0.1429 0.2857 (  2154 PWs)   bands (ev):

     6.6397   9.8994  10.4139  10.4831  10.7962  10.8251  10.8389  11.9455
    12.6524  12.6975  12.6999  12.7965  13.1065  13.3551  13.8200  13.9185
    14.0016  14.0348  14.1873  14.4175  14.4231  15.2017  18.4052  20.3472

          k = 0.0000 0.1429 0.4286 (  2154 PWs)   bands (ev):

     7.8474   9.1528  10.8417  10.8745  11.1554  11.2258  11.3175  11.5664
    11.8484  11.9833  12.6602  12.6987  13.0713  13.3419  13.5447  13.6117
    13.6482  13.7644  14.0439  14.3644  14.4140  14.4148  20.0471  21.8460

          k = 0.0000 0.2857 0.2857 (  2151 PWs)   bands (ev):

     7.3860  10.3739  10.3739  10.7673  11.0017  11.0315  11.0315  11.8461
    12.2783  12.2783  12.4251  12.6088  12.8148  13.2906  13.7044  13.8956
    13.8956  14.0245  14.0319  14.0319  14.1981  16.3992  16.3992  21.3633

          k = 0.0000 0.2857 0.4286 (  2146 PWs)   bands (ev):

     8.5053   9.6987  10.9181  11.0795  11.2175  11.3096  11.4141  11.6100
    11.6318  11.9097  12.2039  12.4618  13.1161  13.2846  13.4800  13.5542
    13.5596  13.5816  14.0383  14.0782  14.4431  15.1117  17.7296  19.3288

          k = 0.0000 0.4286 0.4286 (  2160 PWs)   bands (ev):

     9.4404  10.3678  10.3678  10.8405  11.5308  11.5308  11.6090  11.6162
    11.7539  11.9030  11.9030  12.2622  13.1426  13.2772  13.2829  13.3038
    13.3038  13.6123  13.6123  13.7778  15.0964  16.0856  16.0856  17.4134

          k = 0.1429 0.1429 0.1429 (  2148 PWs)   bands (ev):

     6.1135  10.1476  10.1476  10.1476  10.6416  10.6416  10.6416  12.1532
    12.5243  12.5243  13.3775  13.3775  13.3775  13.6118  13.6118  14.0295
    14.0295  14.0295  14.5053  14.5053  14.5053  17.5166  17.5166  17.5166

          k = 0.1429 0.1429 0.2857 (  2145 PWs)   bands (ev):

     6.8884  10.0453  10.5120  10.5120  10.8790  10.8970  10.8970  11.9474
    12.6219  12.6219  12.6419  12.6654  12.8408  13.4577  13.6615  13.7895
    13.7895  13.7947  14.4259  14.4259  14.4490  15.6085  18.7655  18.7655

          k = 0.1429 0.1429 0.4286 (  2155 PWs)   bands (ev):

     8.0609   9.3207  10.9472  10.9472  11.1886  11.1886  11.2259  11.6082
    11.9541  11.9541  12.5133  12.6196  12.9153  13.2627  13.5344  13.5344
    13.6102  14.0377  14.2766  14.3129  14.3639  14.3639  20.1634  20.1634

          k = 0.1429 0.2857 0.2857 (  2166 PWs)   bands (ev):

     7.6004  10.3990  10.3990  10.7067  11.1053  11.1336  11.1336  11.8963
    12.2880  12.2880  12.3740  12.6050  12.6940  13.4669  13.4669  13.4737
    13.4980  13.9598  14.3381  14.3590  14.3590  16.5830  16.5830  19.5077

          k = 0.1429 0.2857 0.4286 (  2151 PWs)   bands (ev):

     8.6506   9.7429  10.7461  10.8477  11.3489  11.4193  11.4536  11.7240
    11.9427  12.0850  12.2313  12.4670  12.8275  13.1023  13.2673  13.2940
    13.6602  14.0938  14.2197  14.2208  14.3613  15.0801  17.7814  19.1122

          k = 0.1429 0.4286 0.4286 (  2163 PWs)   bands (ev):

     9.4494  10.2041  10.2041  10.5597  11.7222  11.8021  11.8021  11.8491
    12.0265  12.0265  12.0956  12.3061  12.8066  12.9875  12.9875  13.0210
    13.6614  13.9409  13.9409  14.0156  14.9988  16.0253  16.0253  17.3292

          k = 0.2857 0.2857 0.2857 (  2172 PWs)   bands (ev):

     8.1968  10.4158  10.4158  10.4158  11.4370  11.4370  11.4370  12.0244
    12.2974  12.2974  12.2974  12.5805  12.5805  13.1034  13.1034  13.1034
    13.8556  13.8556  14.4548  14.4548  14.4548  17.0897  17.0897  17.0897

          k = 0.2857 0.2857 0.4286 (  2168 PWs)   bands (ev):

     9.0223   9.8318  10.4097  10.4097  11.7008  11.7008  11.8695  12.0963
    12.3023  12.3662  12.3662  12.4552  12.6075  12.7909  12.9235  12.9235
    14.1100  14.1852  14.3570  14.3570  14.4026  15.1948  17.6418  17.6418

          k = 0.2857 0.4286 0.4286 (  2172 PWs)   bands (ev):

     9.4814   9.9452   9.9452  10.1287  12.0036  12.1181  12.1181  12.3854
    12.5224  12.5778  12.5778  12.5830  12.6740  12.6740  12.6794  12.7003
    14.0591  14.2910  14.2910  14.2978  14.7005  15.8073  15.8073  16.7803

          k = 0.4286 0.4286 0.4286 (  2179 PWs)   bands (ev):

     9.5763   9.7862   9.7862   9.7862  12.2699  12.2699  12.2699  12.3979
    12.3979  12.4541  12.4541  12.4541  13.3779  13.3779  13.3779  13.6500
    14.3323  14.3323  14.4179  14.4179  14.4179  15.4584  15.4584  15.4584

          k =-0.1429 0.0000 0.1429 (  2161 PWs)   bands (ev):

     5.8458  10.0066  10.0066  10.1228  10.5538  10.5538  10.5593  12.1961
    12.4803  12.5007  13.5431  13.5972  13.6909  13.6973  13.6973  14.2199
    14.3276  14.3276  14.4195  14.4195  14.4730  16.9331  16.9331  18.8142

          k =-0.1429 0.0000 0.2857 (  2154 PWs)   bands (ev):

     6.6397   9.8994  10.4139  10.4831  10.7962  10.8251  10.8389  11.9455
    12.6524  12.6975  12.6999  12.7965  13.1065  13.3551  13.8200  13.9185
    14.0016  14.0348  14.1873  14.4175  14.4231  15.2017  18.4052  20.3472

          k =-0.1429 0.0000 0.4286 (  2154 PWs)   bands (ev):

     7.8474   9.1528  10.8417  10.8745  11.1554  11.2258  11.3175  11.5664
    11.8484  11.9833  12.6602  12.6987  13.0713  13.3419  13.5447  13.6117
    13.6482  13.7644  14.0439  14.3644  14.4140  14.4148  20.0471  21.8460

          k =-0.2857 0.0000 0.2857 (  2151 PWs)   bands (ev):

     7.3860  10.3739  10.3739  10.7673  11.0017  11.0315  11.0315  11.8461
    12.2783  12.2783  12.4251  12.6088  12.8148  13.2906  13.7044  13.8956
    13.8956  14.0245  14.0319  14.0319  14.1981  16.3992  16.3992  21.3633

          k =-0.2857 0.0000 0.4286 (  2146 PWs)   bands (ev):

     8.5053   9.6987  10.9181  11.0795  11.2175  11.3096  11.4141  11.6100
    11.6318  11.9097  12.2039  12.4618  13.1161  13.2846  13.4800  13.5542
    13.5596  13.5816  14.0383  14.0782  14.4431  15.1117  17.7296  19.3288

          k =-0.4286 0.0000 0.4286 (  2160 PWs)   bands (ev):

     9.4404  10.3678  10.3678  10.8405  11.5308  11.5308  11.6090  11.6162
    11.7539  11.9030  11.9030  12.2622  13.1426  13.2772  13.2829  13.3038
    13.3038  13.6123  13.6123  13.7778  15.0964  16.0856  16.0856  17.4134

          k = 0.1429-0.1429 0.1429 (  2148 PWs)   bands (ev):

     6.1135  10.1476  10.1476  10.1476  10.6416  10.6416  10.6416  12.1532
    12.5243  12.5243  13.3775  13.3775  13.3775  13.6118  13.6118  14.0295
    14.0295  14.0295  14.5053  14.5053  14.5053  17.5166  17.5166  17.5166

          k = 0.1429-0.1429 0.2857 (  2145 PWs)   bands (ev):

     6.8884  10.0453  10.5120  10.5120  10.8790  10.8970  10.8970  11.9474
    12.6219  12.6219  12.6419  12.6654  12.8408  13.4577  13.6615  13.7895
    13.7895  13.7947  14.4259  14.4259  14.4490  15.6085  18.7655  18.7655

          k =-0.2857 0.1429 0.1429 (  2145 PWs)   bands (ev):

     6.8884  10.0453  10.5120  10.5120  10.8790  10.8970  10.8970  11.9474
    12.6219  12.6219  12.6419  12.6654  12.8408  13.4577  13.6615  13.7895
    13.7895  13.7947  14.4259  14.4259  14.4490  15.6085  18.7655  18.7655

          k = 0.1429-0.1429 0.4286 (  2155 PWs)   bands (ev):

     8.0609   9.3207  10.9472  10.9472  11.1886  11.1886  11.2259  11.6082
    11.9541  11.9541  12.5133  12.6196  12.9153  13.2627  13.5344  13.5344
    13.6102  14.0377  14.2766  14.3129  14.3639  14.3639  20.1634  20.1634

          k =-0.4286 0.1429 0.1429 (  2155 PWs)   bands (ev):

     8.0609   9.3207  10.9472  10.9472  11.1886  11.1886  11.2259  11.6082
    11.9541  11.9541  12.5133  12.6196  12.9153  13.2627  13.5344  13.5344
    13.6102  14.0377  14.2766  14.3129  14.3639  14.3639  20.1634  20.1634

          k = 0.2857-0.1429 0.2857 (  2166 PWs)   bands (ev):

     7.6004  10.3990  10.3990  10.7067  11.1053  11.1336  11.1336  11.8963
    12.2880  12.2880  12.3740  12.6050  12.6940  13.4669  13.4669  13.4737
    13.4980  13.9598  14.3381  14.3590  14.3590  16.5830  16.5830  19.5077

          k =-0.2857 0.1429 0.2857 (  2166 PWs)   bands (ev):

     7.6004  10.3990  10.3990  10.7067  11.1053  11.1336  11.1336  11.8963
    12.2880  12.2880  12.3740  12.6050  12.6940  13.4669  13.4669  13.4737
    13.4980  13.9598  14.3381  14.3590  14.3590  16.5830  16.5830  19.5077

          k = 0.2857-0.1429 0.4286 (  2151 PWs)   bands (ev):

     8.6506   9.7429  10.7461  10.8477  11.3489  11.4193  11.4536  11.7240
    11.9427  12.0850  12.2313  12.4670  12.8275  13.1023  13.2673  13.2940
    13.6602  14.0938  14.2197  14.2208  14.3613  15.0801  17.7814  19.1122

          k =-0.2857 0.1429 0.4286 (  2151 PWs)   bands (ev):

     8.6506   9.7429  10.7461  10.8477  11.3489  11.4193  11.4536  11.7240
    11.9427  12.0850  12.2313  12.4670  12.8275  13.1023  13.2673  13.2940
    13.6602  14.0938  14.2197  14.2208  14.3613  15.0801  17.7814  19.1122

          k =-0.4286 0.2857 0.1429 (  2151 PWs)   bands (ev):

     8.6506   9.7429  10.7461  10.8477  11.3489  11.4193  11.4536  11.7240
    11.9427  12.0850  12.2313  12.4670  12.8275  13.1023  13.2673  13.2940
    13.6602  14.0938  14.2197  14.2208  14.3613  15.0801  17.7814  19.1122

          k = 0.4286-0.1429 0.4286 (  2163 PWs)   bands (ev):

     9.4494  10.2041  10.2041  10.5597  11.7222  11.8021  11.8021  11.8491
    12.0265  12.0265  12.0956  12.3061  12.8066  12.9875  12.9875  13.0210
    13.6614  13.9409  13.9409  14.0156  14.9988  16.0253  16.0253  17.3292

          k =-0.4286 0.1429 0.4286 (  2163 PWs)   bands (ev):

     9.4494  10.2041  10.2041  10.5597  11.7222  11.8021  11.8021  11.8491
    12.0265  12.0265  12.0956  12.3061  12.8066  12.9875  12.9875  13.0210
    13.6614  13.9409  13.9409  14.0156  14.9988  16.0253  16.0253  17.3292

          k = 0.2857-0.2857 0.2857 (  2172 PWs)   bands (ev):

     8.1968  10.4158  10.4158  10.4158  11.4370  11.4370  11.4370  12.0244
    12.2974  12.2974  12.2974  12.5805  12.5805  13.1034  13.1034  13.1034
    13.8556  13.8556  14.4548  14.4548  14.4548  17.0897  17.0897  17.0897

          k = 0.2857-0.2857 0.4286 (  2168 PWs)   bands (ev):

     9.0223   9.8318  10.4097  10.4097  11.7008  11.7008  11.8695  12.0963
    12.3023  12.3662  12.3662  12.4552  12.6075  12.7909  12.9235  12.9235
    14.1100  14.1852  14.3570  14.3570  14.4026  15.1948  17.6418  17.6418

          k =-0.4286 0.2857 0.2857 (  2168 PWs)   bands (ev):

     9.0223   9.8318  10.4097  10.4097  11.7008  11.7008  11.8695  12.0963
    12.3023  12.3662  12.3662  12.4552  12.6075  12.7909  12.9235  12.9235
    14.1100  14.1852  14.3570  14.3570  14.4026  15.1948  17.6418  17.6418

          k = 0.4286-0.2857 0.4286 (  2172 PWs)   bands (ev):

     9.4814   9.9452   9.9452  10.1287  12.0036  12.1181  12.1181  12.3854
    12.5224  12.5778  12.5778  12.5830  12.6740  12.6740  12.6794  12.7003
    14.0591  14.2910  14.2910  14.2978  14.7005  15.8073  15.8073  16.7803

          k =-0.4286 0.2857 0.4286 (  2172 PWs)   bands (ev):

     9.4814   9.9452   9.9452  10.1287  12.0036  12.1181  12.1181  12.3854
    12.5224  12.5778  12.5778  12.5830  12.6740  12.6740  12.6794  12.7003
    14.0591  14.2910  14.2910  14.2978  14.7005  15.8073  15.8073  16.7803

          k = 0.4286-0.4286 0.4286 (  2179 PWs)   bands (ev):

     9.5763   9.7862   9.7862   9.7862  12.2699  12.2699  12.2699  12.3979
    12.3979  12.4541  12.4541  12.4541  13.3779  13.3779  13.3779  13.6500
    14.3323  14.3323  14.4179  14.4179  14.4179  15.4584  15.4584  15.4584

 ------ SPIN DOWN ----------


          k = 0.0000 0.0000 0.0000 (  2109 PWs)   bands (ev):

     5.2453  10.1214  10.1214  10.1214  10.9085  10.9085  10.9085  13.0321
    13.0321  13.0321  14.1819  14.1819  15.0034  15.0034  15.0034  15.3496
    15.3496  15.3496  15.3496  15.3496  15.3496  17.2382  17.2382  17.2382

          k = 0.0000 0.0000 0.1429 (  2148 PWs)   bands (ev):

     5.5237  10.1134  10.2754  10.2754  11.0045  11.0067  11.0067  12.9165
    13.1175  13.1175  14.0780  14.2214  14.5738  14.5738  14.8669  14.8669
    14.9615  15.1914  15.1914  15.3499  15.3499  16.1024  18.2392  18.2392

          k = 0.0000 0.0000 0.2857 (  2148 PWs)   bands (ev):

     6.3341   9.8902  10.6700  10.6700  11.2779  11.3049  11.3049  12.5992
    13.3685  13.3685  13.4740  13.4740  13.8014  14.3187  14.3326  14.5073
    14.5073  14.7827  14.7827  14.8446  15.3504  15.3504  20.0092  20.0092

          k = 0.0000 0.0000 0.4286 (  2140 PWs)   bands (ev):

     7.5790   8.9744  11.0635  11.0635  11.6854  11.8120  11.8120  12.1565
    12.5360  12.5360  13.4441  13.4816  13.7656  13.7656  14.1373  14.1373
    14.2647  14.2647  14.4950  14.6777  15.3509  15.3509  22.0476  22.0476

          k = 0.0000 0.1429 0.1429 (  2161 PWs)   bands (ev):

     5.7979  10.2764  10.2764  10.4226  11.0904  11.0971  11.0971  12.8522
    13.1592  13.1722  14.0535  14.1814  14.2125  14.2710  14.2710  14.7482
    14.8608  14.8608  15.1907  15.1907  15.2503  17.1513  17.1513  18.9582

          k = 0.0000 0.1429 0.2857 (  2154 PWs)   bands (ev):

     6.5950  10.0767  10.7004  10.8049  11.3373  11.3542  11.3778  12.5810
    13.2222  13.3026  13.3414  13.3840  13.5697  13.8631  14.3579  14.4305
    14.5154  14.6898  14.7812  15.1888  15.1969  15.6858  18.6627  20.5274

          k = 0.0000 0.1429 0.4286 (  2154 PWs)   bands (ev):

     7.8171   9.1847  11.1493  11.1976  11.7344  11.7362  11.8515  12.1747
    12.3591  12.5166  13.1344  13.2488  13.7712  13.9020  14.1080  14.1458
    14.2651  14.2971  14.6094  14.9643  15.1863  15.1865  20.2849  22.0372

          k = 0.0000 0.2857 0.2857 (  2151 PWs)   bands (ev):

     7.3497  10.5746  10.5746  11.1571  11.4290  11.5828  11.5828  12.4623
    12.7641  12.7641  12.9586  13.2136  13.5100  13.7869  14.2078  14.3900
    14.3900  14.6064  14.7797  14.7797  14.9619  16.8305  16.8305  21.5581

          k = 0.0000 0.2857 0.4286 (  2146 PWs)   bands (ev):

     8.4947   9.7610  11.1655  11.4712  11.6069  11.8800  11.9564  12.1174
    12.2031  12.4442  12.7084  13.0068  13.7832  13.8232  13.9737  14.0497
    14.0668  14.2786  14.7890  14.8341  15.0491  15.6880  18.0928  19.6054

          k = 0.0000 0.4286 0.4286 (  2160 PWs)   bands (ev):

     9.4822  10.5127  10.5127  11.1338  12.0207  12.0863  12.0863  12.1822
    12.2955  12.3780  12.3780  12.7708  13.6285  13.7646  13.7851  13.7851
    14.0012  14.3444  14.3444  14.5208  15.6869  16.5938  16.5938  17.8109

          k = 0.1429 0.1429 0.1429 (  2148 PWs)   bands (ev):

     6.0667  10.4289  10.4289  10.4289  11.1753  11.1753  11.1753  12.7983
    13.1962  13.1962  13.9192  13.9192  13.9192  14.1327  14.1327  14.6064
    14.6064  14.6064  15.2248  15.2248  15.2248  17.7656  17.7656  17.7656

          k = 0.1429 0.1429 0.2857 (  2145 PWs)   bands (ev):

     6.8472  10.2394  10.8276  10.8276  11.3998  11.3998  11.4218  12.5699
    13.1443  13.1443  13.2851  13.3103  13.3228  13.9970  14.2754  14.3291
    14.3291  14.3412  15.1086  15.1644  15.1644  16.0522  19.0240  19.0240

          k = 0.1429 0.1429 0.4286 (  2155 PWs)   bands (ev):

     8.0395   9.3690  11.2811  11.2811  11.6667  11.6667  11.7903  12.2025
    12.4837  12.4837  13.0047  13.1695  13.5587  13.8937  14.0443  14.0443
    14.2136  14.6163  14.8919  14.8956  15.1167  15.1167  20.3881  20.3881

          k = 0.1429 0.2857 0.2857 (  2166 PWs)   bands (ev):

     7.5737  10.6538  10.6538  11.1243  11.4857  11.6194  11.6194  12.4863
    12.7893  12.7893  12.9030  13.2125  13.3234  14.0163  14.0364  14.0364
    14.0635  14.5463  15.0412  15.0412  15.0587  16.9878  16.9878  19.7417

          k = 0.1429 0.2857 0.4286 (  2151 PWs)   bands (ev):

     8.6640   9.8538  11.1008  11.3014  11.6674  11.8059  11.9612  12.2756
    12.4769  12.6187  12.7521  13.0180  13.4255  13.6856  13.7937  13.8250
    14.2686  14.7258  14.9312  14.9406  14.9707  15.6385  18.1187  19.3578

          k = 0.1429 0.4286 0.4286 (  2163 PWs)   bands (ev):

     9.5465  10.4382  10.4382  10.9231  12.0781  12.2000  12.2000  12.3364
    12.5716  12.5716  12.6164  12.8349  13.3589  13.5267  13.5267  13.5497
    14.3157  14.6168  14.6168  14.7172  15.5862  16.5128  16.5128  17.6975

          k = 0.2857 0.2857 0.2857 (  2172 PWs)   bands (ev):

     8.2060  10.7773  10.7773  10.7773  11.8022  11.8022  11.8022  12.5410
    12.8262  12.8262  12.8262  13.1764  13.1764  13.6670  13.6670  13.6670
    14.4642  14.4642  15.1431  15.1431  15.1431  17.4348  17.4348  17.4348

          k = 0.2857 0.2857 0.4286 (  2168 PWs)   bands (ev):

     9.1141  10.0590  10.8214  10.8214  12.0453  12.0453  12.2469  12.5262
    12.8474  12.8793  12.8793  13.0141  13.1876  13.3625  13.4685  13.4685
    14.7194  14.8243  15.0512  15.0512  15.0672  15.6895  17.9137  17.9137

          k = 0.2857 0.4286 0.4286 (  2172 PWs)   bands (ev):

     9.6961  10.2770  10.2770  10.5200  12.4102  12.5302  12.5302  12.8368
    12.9839  13.0333  13.0333  13.0751  13.1362  13.2021  13.2021  13.2226
    14.7191  14.9640  14.9640  14.9841  15.2925  16.2316  16.2316  17.0836

          k = 0.4286 0.4286 0.4286 (  2179 PWs)   bands (ev):

     9.8905  10.1574  10.1574  10.1574  12.7738  12.7738  12.7738  12.9462
    12.9462  12.9999  12.9999  12.9999  13.6745  13.6745  13.6745  13.7089
    15.0041  15.0041  15.0984  15.0984  15.0984  15.8181  15.8181  15.8181

          k =-0.1429 0.0000 0.1429 (  2161 PWs)   bands (ev):

     5.7979  10.2764  10.2764  10.4226  11.0904  11.0971  11.0971  12.8522
    13.1592  13.1722  14.0535  14.1814  14.2125  14.2710  14.2710  14.7482
    14.8608  14.8608  15.1907  15.1907  15.2503  17.1513  17.1513  18.9582

          k =-0.1429 0.0000 0.2857 (  2154 PWs)   bands (ev):

     6.5950  10.0767  10.7004  10.8049  11.3373  11.3542  11.3778  12.5810
    13.2222  13.3026  13.3414  13.3840  13.5697  13.8631  14.3579  14.4305
    14.5154  14.6898  14.7812  15.1888  15.1969  15.6858  18.6627  20.5274

          k =-0.1429 0.0000 0.4286 (  2154 PWs)   bands (ev):

     7.8171   9.1847  11.1493  11.1976  11.7344  11.7362  11.8515  12.1747
    12.3591  12.5166  13.1344  13.2488  13.7712  13.9020  14.1080  14.1458
    14.2651  14.2971  14.6094  14.9643  15.1863  15.1865  20.2849  22.0372

          k =-0.2857 0.0000 0.2857 (  2151 PWs)   bands (ev):

     7.3497  10.5746  10.5746  11.1571  11.4290  11.5828  11.5828  12.4623
    12.7641  12.7641  12.9586  13.2136  13.5100  13.7869  14.2078  14.3900
    14.3900  14.6064  14.7797  14.7797  14.9619  16.8305  16.8305  21.5581

          k =-0.2857 0.0000 0.4286 (  2146 PWs)   bands (ev):

     8.4947   9.7610  11.1655  11.4712  11.6069  11.8800  11.9564  12.1174
    12.2031  12.4442  12.7084  13.0068  13.7832  13.8232  13.9737  14.0497
    14.0668  14.2786  14.7890  14.8341  15.0491  15.6880  18.0928  19.6054

          k =-0.4286 0.0000 0.4286 (  2160 PWs)   bands (ev):

     9.4822  10.5127  10.5127  11.1338  12.0207  12.0863  12.0863  12.1822
    12.2955  12.3780  12.3780  12.7708  13.6285  13.7646  13.7851  13.7851
    14.0012  14.3444  14.3444  14.5208  15.6869  16.5938  16.5938  17.8109

          k = 0.1429-0.1429 0.1429 (  2148 PWs)   bands (ev):

     6.0667  10.4289  10.4289  10.4289  11.1753  11.1753  11.1753  12.7983
    13.1962  13.1962  13.9192  13.9192  13.9192  14.1327  14.1327  14.6064
    14.6064  14.6064  15.2248  15.2248  15.2248  17.7656  17.7656  17.7656

          k = 0.1429-0.1429 0.2857 (  2145 PWs)   bands (ev):

     6.8472  10.2394  10.8276  10.8276  11.3998  11.3998  11.4218  12.5699
    13.1443  13.1443  13.2851  13.3103  13.3228  13.9970  14.2754  14.3291
    14.3291  14.3412  15.1086  15.1644  15.1644  16.0522  19.0240  19.0240

          k =-0.2857 0.1429 0.1429 (  2145 PWs)   bands (ev):

     6.8472  10.2394  10.8276  10.8276  11.3998  11.3998  11.4218  12.5699
    13.1443  13.1443  13.2851  13.3103  13.3228  13.9970  14.2754  14.3291
    14.3291  14.3412  15.1086  15.1644  15.1644  16.0522  19.0240  19.0240

          k = 0.1429-0.1429 0.4286 (  2155 PWs)   bands (ev):

     8.0395   9.3690  11.2811  11.2811  11.6667  11.6667  11.7903  12.2025
    12.4837  12.4837  13.0047  13.1695  13.5587  13.8937  14.0443  14.0443
    14.2136  14.6163  14.8919  14.8956  15.1167  15.1167  20.3881  20.3881

          k =-0.4286 0.1429 0.1429 (  2155 PWs)   bands (ev):

     8.0395   9.3690  11.2811  11.2811  11.6667  11.6667  11.7903  12.2025
    12.4837  12.4837  13.0047  13.1695  13.5587  13.8937  14.0443  14.0443
    14.2136  14.6163  14.8919  14.8956  15.1167  15.1167  20.3881  20.3881

          k = 0.2857-0.1429 0.2857 (  2166 PWs)   bands (ev):

     7.5737  10.6538  10.6538  11.1243  11.4857  11.6194  11.6194  12.4863
    12.7893  12.7893  12.9030  13.2125  13.3234  14.0163  14.0364  14.0364
    14.0635  14.5463  15.0412  15.0412  15.0587  16.9878  16.9878  19.7417

          k =-0.2857 0.1429 0.2857 (  2166 PWs)   bands (ev):

     7.5737  10.6538  10.6538  11.1243  11.4857  11.6194  11.6194  12.4863
    12.7893  12.7893  12.9030  13.2125  13.3234  14.0163  14.0364  14.0364
    14.0635  14.5463  15.0412  15.0412  15.0587  16.9878  16.9878  19.7417

          k = 0.2857-0.1429 0.4286 (  2151 PWs)   bands (ev):

     8.6640   9.8538  11.1008  11.3014  11.6674  11.8059  11.9612  12.2756
    12.4769  12.6187  12.7521  13.0180  13.4255  13.6856  13.7937  13.8250
    14.2686  14.7258  14.9312  14.9406  14.9707  15.6385  18.1187  19.3578

          k =-0.2857 0.1429 0.4286 (  2151 PWs)   bands (ev):

     8.6640   9.8538  11.1008  11.3014  11.6674  11.8059  11.9612  12.2756
    12.4769  12.6187  12.7521  13.0180  13.4255  13.6856  13.7937  13.8250
    14.2686  14.7258  14.9312  14.9406  14.9707  15.6385  18.1187  19.3578

          k =-0.4286 0.2857 0.1429 (  2151 PWs)   bands (ev):

     8.6640   9.8538  11.1008  11.3014  11.6674  11.8059  11.9612  12.2756
    12.4769  12.6187  12.7521  13.0180  13.4255  13.6856  13.7937  13.8250
    14.2686  14.7258  14.9312  14.9406  14.9707  15.6385  18.1187  19.3578

          k = 0.4286-0.1429 0.4286 (  2163 PWs)   bands (ev):

     9.5465  10.4382  10.4382  10.9231  12.0781  12.2000  12.2000  12.3364
    12.5716  12.5716  12.6164  12.8349  13.3589  13.5267  13.5267  13.5497
    14.3157  14.6168  14.6168  14.7172  15.5862  16.5128  16.5128  17.6975

          k =-0.4286 0.1429 0.4286 (  2163 PWs)   bands (ev):

     9.5465  10.4382  10.4383  10.9231  12.0781  12.2000  12.2000  12.3364
    12.5716  12.5716  12.6164  12.8349  13.3589  13.5267  13.5267  13.5497
    14.3157  14.6168  14.6168  14.7172  15.5862  16.5128  16.5128  17.6975

          k = 0.2857-0.2857 0.2857 (  2172 PWs)   bands (ev):

     8.2060  10.7773  10.7773  10.7773  11.8022  11.8022  11.8022  12.5410
    12.8262  12.8262  12.8262  13.1764  13.1764  13.6670  13.6670  13.6670
    14.4642  14.4642  15.1431  15.1431  15.1431  17.4348  17.4348  17.4348

          k = 0.2857-0.2857 0.4286 (  2168 PWs)   bands (ev):

     9.1141  10.0590  10.8214  10.8214  12.0453  12.0453  12.2469  12.5262
    12.8474  12.8793  12.8793  13.0141  13.1876  13.3625  13.4685  13.4685
    14.7194  14.8243  15.0512  15.0512  15.0672  15.6895  17.9137  17.9137

          k =-0.4286 0.2857 0.2857 (  2168 PWs)   bands (ev):

     9.1141  10.0590  10.8214  10.8214  12.0453  12.0453  12.2469  12.5262
    12.8474  12.8793  12.8793  13.0141  13.1876  13.3625  13.4685  13.4685
    14.7194  14.8243  15.0512  15.0512  15.0672  15.6895  17.9137  17.9137

          k = 0.4286-0.2857 0.4286 (  2172 PWs)   bands (ev):

     9.6961  10.2770  10.2770  10.5200  12.4102  12.5302  12.5302  12.8368
    12.9839  13.0333  13.0333  13.0751  13.1362  13.2021  13.2021  13.2226
    14.7191  14.9640  14.9640  14.9841  15.2925  16.2316  16.2316  17.0836

          k =-0.4286 0.2857 0.4286 (  2172 PWs)   bands (ev):

     9.6961  10.2770  10.2770  10.5200  12.4102  12.5302  12.5302  12.8368
    12.9839  13.0333  13.0333  13.0751  13.1362  13.2021  13.2021  13.2226
    14.7191  14.9640  14.9640  14.9841  15.2925  16.2316  16.2316  17.0836

          k = 0.4286-0.4286 0.4286 (  2179 PWs)   bands (ev):

     9.8905  10.1574  10.1574  10.1574  12.7738  12.7738  12.7738  12.9462
    12.9462  12.9999  12.9999  12.9999  13.6745  13.6745  13.6745  13.7089
    15.0041  15.0041  15.0984  15.0984  15.0984  15.8181  15.8181  15.8181

     the Fermi energy is    14.9403 ev

!    total energy              =    -743.15035395 Ry
     total all-electron energy =    -12166.717176 Ry
     estimated scf accuracy    <          3.0E-10 Ry
     smearing contrib. (-TS)   =      -0.00053108 Ry
     internal energy E=F+TS    =    -743.14982287 Ry

     The total energy is F=E-TS. E is the sum of the following terms:
     one-electron contribution =     -31.45146063 Ry
     hartree contribution      =      78.14339493 Ry
     xc contribution           =    -167.16409454 Ry
     ewald contribution        =    -282.05148299 Ry
     DFT-D3 Dispersion         =      -0.33998447 Ry
     one-center paw contrib.   =    -340.28619517 Ry

     total magnetization       =     2.19 Bohr mag/cell
     absolute magnetization    =     2.55 Bohr mag/cell

     convergence has been achieved in  13 iterations

     Writing all to output data dir ./Ni_k_7.save/ :
     XML data file, charge density, pseudopotentials, collected wavefunctions
 
     init_run     :      0.86s CPU      0.90s WALL (       1 calls)
     electrons    :     14.94s CPU     19.62s WALL (       1 calls)

     Called by init_run:
     wfcinit      :      0.45s CPU      0.46s WALL (       1 calls)
     potinit      :      0.27s CPU      0.29s WALL (       1 calls)
     hinit0       :      0.08s CPU      0.08s WALL (       1 calls)

     Called by electrons:
     c_bands      :      9.98s CPU     13.84s WALL (      14 calls)
     sum_band     :      1.79s CPU      2.15s WALL (      14 calls)
     v_of_rho     :      0.16s CPU      0.17s WALL (      14 calls)
     newd         :      0.10s CPU      0.10s WALL (      14 calls)
     PAW_pot      :      2.67s CPU      3.02s WALL (      14 calls)
     mix_rho      :      0.06s CPU      0.08s WALL (      14 calls)
     energy_dftd3 :      0.30s CPU      0.30s WALL (       1 calls)

     Called by c_bands:
     init_us_2    :      0.09s CPU      0.14s WALL (    1276 calls)
     init_us_2:cp :      0.09s CPU      0.13s WALL (    1276 calls)
     cegterg      :      8.69s CPU     10.12s WALL (     616 calls)

     Called by *egterg:
     cdiaghg      :      1.57s CPU      2.11s WALL (    1852 calls)
     h_psi        :      6.12s CPU      6.89s WALL (    1940 calls)
     s_psi        :      0.13s CPU      0.15s WALL (    1940 calls)
     g_psi        :      0.02s CPU      0.02s WALL (    1280 calls)

     Called by h_psi:
     h_psi:calbec :      0.38s CPU      0.41s WALL (    1940 calls)
     vloc_psi     :      5.57s CPU      6.28s WALL (    1940 calls)
     add_vuspsi   :      0.14s CPU      0.17s WALL (    1940 calls)

     General routines
     calbec       :      0.52s CPU      0.56s WALL (    2556 calls)
     fft          :      0.10s CPU      0.12s WALL (     346 calls)
     ffts         :      0.03s CPU      0.03s WALL (     290 calls)
     fftw         :      6.25s CPU      7.14s WALL (   87666 calls)
     interpolate  :      0.03s CPU      0.03s WALL (      28 calls)
 
     Parallel routines
 
     PWSCF        :     16.04s CPU     21.13s WALL

 
   This run was terminated on:  23:44:14   5Sep2025            

=------------------------------------------------------------------------------=
   JOB DONE.
=------------------------------------------------------------------------------=
