
     Program PWSCF v.7.3 starts on  8Nov2025 at 23: 3:57 

     This program is part of the open-source Quantum ESPRESSO suite
     for quantum simulation of materials; please cite
         "P. Giannozzi et al., J. Phys.:Condens. Matter 21 395502 (2009);
         "P. Giannozzi et al., J. Phys.:Condens. Matter 29 465901 (2017);
         "P. Giannozzi et al., J. Chem. Phys. 152 154105 (2020);
          URL http://www.quantum-espresso.org", 
     in publications or presentations arising from this work. More details at
     http://www.quantum-espresso.org/quote

     Parallel version (MPI), running on    32 processors

     MPI processes distributed on     2 nodes
     111719 MiB available memory on the printing compute node when the environment starts
 
     Reading input from Ni_111_6Layer-H.in

     Current dimensions of program PWSCF are:
     Max number of different atomic species (ntypx) = 10
     Max number of k-points (npk) =  40000
     Max angular momentum in pseudopotentials (lmaxx) =  4
     file Ni.upf: wavefunction(s)  4S 3D renormalized
     file H.upf: wavefunction(s)  1S renormalized

     IMPORTANT: XC functional enforced from input :
     Exchange-correlation= PBE
                           (   1   4   3   4   0   0   0)
     Any further DFT definition will be discarded
     Please, verify this is what you really want

 
     K-points division:     npool     =       4
     R & G space division:  proc/nbgrp/npool/nimage =       8
     wavefunctions fft division:  Y-proc x Z-proc =       2      4
     wavefunctions fft division:  task group distribution
                                  #TG    x Z-proc =       2      4
     Subspace diagonalization in iterative solution of the eigenvalue problem:
     one sub-group per band group will be used
     scalapack distributed-memory algorithm (size of sub-group:  2*  2 procs)

 
     Parallelization info
     --------------------
     sticks:   dense  smooth     PW     G-vecs:    dense   smooth      PW
     Min         347     174     52                97933    34684    5435
     Max         350     175     54                98106    34731    5476
     Sum        2791    1393    421               784195   277593   43661
 
     Using Pencil Decomposition
 

     Title: 
     Ni_111_6Layer-H                                                            


     bravais-lattice index     =            0
     lattice parameter (alat)  =       9.1943  a.u.
     unit-cell volume          =    4417.6280 (a.u.)^3
     number of atoms/cell      =           25
     number of atomic types    =            2
     number of electrons       =       241.00
     number of Kohn-Sham states=          145
     kinetic-energy cutoff     =      60.0000  Ry
     charge density cutoff     =     480.0000  Ry
     scf convergence threshold =      1.0E-08
     mixing beta               =       0.2000
     number of iterations used =           12  local-TF  mixing
     energy convergence thresh.=      1.8E-05
     force convergence thresh. =      7.8E-04
     Exchange-correlation= PBE
                           (   1   4   3   4   0   0   0)
     nstep                     =           50


     celldm(1)=   9.194328  celldm(2)=   0.000000  celldm(3)=   0.000000
     celldm(4)=   0.000000  celldm(5)=   0.000000  celldm(6)=   0.000000

     crystal axes: (cart. coord. in units of alat)
               a(1) = (   1.000000   0.000000   0.000000 )  
               a(2) = (   0.500000   0.866025   0.000000 )  
               a(3) = (   0.000000   0.000000   6.562941 )  

     reciprocal axes: (cart. coord. in units 2 pi/alat)
               b(1) = (  1.000000 -0.577350  0.000000 )  
               b(2) = (  0.000000  1.154701  0.000000 )  
               b(3) = (  0.000000  0.000000  0.152371 )  


     PseudoPot. # 1 for Ni read from file:
     /tmpu/isholek_g/isholek/MIGUEL/PP/Ni.upf
     MD5 check sum: d88365a95a5e142bd87181c2c8b16588
     Pseudo is Projector augmented-wave + core cor, Zval = 10.0
     Generated using "atomic" code by A. Dal Corso  v.5.0.2 svn rev. 9415
     Shape of augmentation charge: PSQ
     Using radial grid of 1195 points,  6 beta functions with: 
                l(1) =   0
                l(2) =   0
                l(3) =   1
                l(4) =   1
                l(5) =   2
                l(6) =   2
     Q(r) pseudized with 0 coefficients 


     PseudoPot. # 2 for H  read from file:
     /tmpu/isholek_g/isholek/MIGUEL/PP/H.upf
     MD5 check sum: 4cbe42a24e15140179a93d5bf84f2220
     Pseudo is Projector augmented-wave, Zval =  1.0
     Generated using "atomic" code by A. Dal Corso  v.5.0.2 svn rev. 9415
     Shape of augmentation charge: PSQ
     Using radial grid of  929 points,  2 beta functions with: 
                l(1) =   0
                l(2) =   0
     Q(r) pseudized with 0 coefficients 


     atomic species   valence    mass     pseudopotential
     Ni               10.00    58.69340     Ni( 1.00)
     H                 1.00     1.00784     H ( 1.00)

     Starting magnetic structure 
     atomic species   magnetization
     Ni              0.065
     H               1.000

     No symmetry found



   Cartesian axes

     site n.     atom                  positions (alat units)
         1        Ni     tau(   1) = (   1.0000000   0.5773503   2.2608489  )
         2        Ni     tau(   2) = (   0.2500003   0.1443377   2.2608503  )
         3        Ni     tau(   3) = (   0.5000000   0.5773499   2.2608503  )
         4        Ni     tau(   4) = (   0.7499997   0.1443377   2.2608503  )
         5        Ni     tau(   5) = (   0.5000000   0.2886751   2.6690972  )
         6        Ni     tau(   6) = (   1.2500003   0.7216880   2.6690986  )
         7        Ni     tau(   7) = (   1.0000000   0.2886748   2.6690986  )
         8        Ni     tau(   8) = (   0.7499997   0.7216880   2.6690986  )
         9        Ni     tau(   9) = (   0.5000000   0.8661240   3.0767458  )
        10        Ni     tau(  10) = (   0.7500853   0.4329634   3.0767451  )
        11        Ni     tau(  11) = (   1.2499147   0.4329634   3.0767451  )
        12        Ni     tau(  12) = (   1.0000000   0.8660255   3.0763941  )
        13        Ni     tau(  13) = (   1.0000000   0.5772331   3.4848406  )
        14        Ni     tau(  14) = (   0.2498986   0.1443962   3.4848408  )
        15        Ni     tau(  15) = (   0.5000000   0.5773502   3.4846835  )
        16        Ni     tau(  16) = (   0.7501014   0.1443962   3.4848408  )
        17        Ni     tau(  17) = (   0.5000000   0.2887672   3.8916155  )
        18        Ni     tau(  18) = (   1.2500797   0.7216418   3.8916154  )
        19        Ni     tau(  19) = (   1.0000000   0.2886751   3.8950815  )
        20        Ni     tau(  20) = (   0.7499203   0.7216418   3.8916153  )
        21        Ni     tau(  21) = (   0.0000000   0.0018495   4.3036615  )
        22        Ni     tau(  22) = (   1.0000000   0.8660254   4.2975479  )
        23        Ni     tau(  23) = (   1.2483983   0.4320879   4.3036613  )
        24        Ni     tau(  24) = (   0.7516017   0.4320879   4.3036613  )
        25        H      tau(  25) = (   0.5000000   0.5773502   4.4980217  )

     --------------------------------------------
     DFT-D3 Dispersion Correction (3-body terms):
     --------------------------------------------
       Reference C6 values for interpolation: 

         atom   Coordination number   C6
         H          0.912             6.05
         H          0.000            15.18
         Ni         0.000          1149.49
         Ni         1.794           356.66
         Ni         6.546           257.56
         Ni         6.292           283.75

       Values used:

         atom   Coordination number  R0_AB[au]  C6      C8
         Ni         7.293            3.162    261.14  21881.52
         Ni         7.293            3.162    261.14  21881.50
         Ni         7.293            3.162    261.14  21881.50
         Ni         7.293            3.162    261.14  21881.50
         Ni         9.781            3.162    257.59  21584.21
         Ni         9.781            3.162    257.59  21584.21
         Ni         9.781            3.162    257.59  21584.21
         Ni         9.781            3.162    257.59  21584.21
         Ni         9.795            3.162    257.59  21584.15
         Ni         9.795            3.162    257.59  21584.15
         Ni         9.795            3.162    257.59  21584.15
         Ni         9.793            3.162    257.59  21584.16
         Ni         9.789            3.162    257.59  21584.18
         Ni         9.789            3.162    257.59  21584.18
         Ni         9.804            3.162    257.59  21584.11
         Ni         9.789            3.162    257.59  21584.18
         Ni         9.758            3.162    257.59  21584.32
         Ni         9.758            3.162    257.59  21584.32
         Ni         9.760            3.162    257.59  21584.31
         Ni         9.758            3.162    257.59  21584.32
         Ni         7.857            3.162    258.82  21686.96
         Ni         7.331            3.162    260.91  21862.07
         Ni         7.857            3.162    258.82  21686.95
         Ni         7.857            3.162    258.82  21686.95
         H          1.829            2.062      6.05     73.18

         Molecular C6 ( Ry / a.u.^6 ) =    150754.53


     number of k points=    52  Marzari-Vanderbilt smearing, width (Ry)=  0.0147
                       cart. coord. in units 2pi/alat
        k(    1) = (   0.0000000   0.0000000   0.0000000), wk =   0.0100000
        k(    2) = (   0.0000000   0.1154701   0.0000000), wk =   0.0200000
        k(    3) = (   0.0000000   0.2309401   0.0000000), wk =   0.0200000
        k(    4) = (   0.0000000   0.3464102   0.0000000), wk =   0.0200000
        k(    5) = (   0.0000000   0.4618802   0.0000000), wk =   0.0200000
        k(    6) = (   0.0000000  -0.5773503   0.0000000), wk =   0.0100000
        k(    7) = (   0.1000000  -0.0577350   0.0000000), wk =   0.0200000
        k(    8) = (   0.1000000   0.0577350   0.0000000), wk =   0.0200000
        k(    9) = (   0.1000000   0.1732051   0.0000000), wk =   0.0200000
        k(   10) = (   0.1000000   0.2886751   0.0000000), wk =   0.0200000
        k(   11) = (   0.1000000   0.4041452   0.0000000), wk =   0.0200000
        k(   12) = (   0.1000000  -0.6350853   0.0000000), wk =   0.0200000
        k(   13) = (   0.1000000  -0.5196152   0.0000000), wk =   0.0200000
        k(   14) = (   0.1000000  -0.4041452   0.0000000), wk =   0.0200000
        k(   15) = (   0.1000000  -0.2886751   0.0000000), wk =   0.0200000
        k(   16) = (   0.1000000  -0.1732051   0.0000000), wk =   0.0200000
        k(   17) = (   0.2000000  -0.1154701   0.0000000), wk =   0.0200000
        k(   18) = (   0.2000000  -0.0000000   0.0000000), wk =   0.0200000
        k(   19) = (   0.2000000   0.1154701   0.0000000), wk =   0.0200000
        k(   20) = (   0.2000000   0.2309401   0.0000000), wk =   0.0200000
        k(   21) = (   0.2000000   0.3464102   0.0000000), wk =   0.0200000
        k(   22) = (   0.2000000  -0.6928203   0.0000000), wk =   0.0200000
        k(   23) = (   0.2000000  -0.5773503   0.0000000), wk =   0.0200000
        k(   24) = (   0.2000000  -0.4618802   0.0000000), wk =   0.0200000
        k(   25) = (   0.2000000  -0.3464102   0.0000000), wk =   0.0200000
        k(   26) = (   0.2000000  -0.2309401   0.0000000), wk =   0.0200000
        k(   27) = (   0.3000000  -0.1732051   0.0000000), wk =   0.0200000
        k(   28) = (   0.3000000  -0.0577350   0.0000000), wk =   0.0200000
        k(   29) = (   0.3000000   0.0577350   0.0000000), wk =   0.0200000
        k(   30) = (   0.3000000   0.1732051   0.0000000), wk =   0.0200000
        k(   31) = (   0.3000000   0.2886751   0.0000000), wk =   0.0200000
        k(   32) = (   0.3000000  -0.7505553   0.0000000), wk =   0.0200000
        k(   33) = (   0.3000000  -0.6350853   0.0000000), wk =   0.0200000
        k(   34) = (   0.3000000  -0.5196152   0.0000000), wk =   0.0200000
        k(   35) = (   0.3000000  -0.4041452   0.0000000), wk =   0.0200000
        k(   36) = (   0.3000000  -0.2886751   0.0000000), wk =   0.0200000
        k(   37) = (   0.4000000  -0.2309401   0.0000000), wk =   0.0200000
        k(   38) = (   0.4000000  -0.1154701   0.0000000), wk =   0.0200000
        k(   39) = (   0.4000000  -0.0000000   0.0000000), wk =   0.0200000
        k(   40) = (   0.4000000   0.1154701   0.0000000), wk =   0.0200000
        k(   41) = (   0.4000000   0.2309401   0.0000000), wk =   0.0200000
        k(   42) = (   0.4000000  -0.8082904   0.0000000), wk =   0.0200000
        k(   43) = (   0.4000000  -0.6928203   0.0000000), wk =   0.0200000
        k(   44) = (   0.4000000  -0.5773503   0.0000000), wk =   0.0200000
        k(   45) = (   0.4000000  -0.4618802   0.0000000), wk =   0.0200000
        k(   46) = (   0.4000000  -0.3464102   0.0000000), wk =   0.0200000
        k(   47) = (  -0.5000000   0.2886751   0.0000000), wk =   0.0100000
        k(   48) = (  -0.5000000   0.4041452   0.0000000), wk =   0.0200000
        k(   49) = (  -0.5000000   0.5196152   0.0000000), wk =   0.0200000
        k(   50) = (  -0.5000000   0.6350853   0.0000000), wk =   0.0200000
        k(   51) = (  -0.5000000   0.7505553   0.0000000), wk =   0.0200000
        k(   52) = (  -0.5000000  -0.2886751   0.0000000), wk =   0.0100000

     Dense  grid:   784195 G-vectors     FFT dimensions: (  72,  72, 432)

     Smooth grid:   277593 G-vectors     FFT dimensions: (  45,  45, 300)

     Estimated max dynamical RAM per process >     515.30 MB

     Estimated total dynamical RAM >      14.42 GB
 ----2D----2D----2D----2D----2D----2D----2D----2D----2D----2D----2D----2D
  The code is running with the 2D cutoff
  Please refer to:
  Sohier, T., Calandra, M., & Mauri, F. (2017), 
  Density functional perturbation theory for gated two-dimensional heterostructu
 res:
  Theoretical developments and application to flexural phonons in graphene.
  Physical Review B, 96(7), 75448. https://doi.org/10.1103/PhysRevB.96.075448
 ----2D----2D----2D----2D----2D----2D----2D----2D----2D----2D----2D----2D
     Generating pointlists ...
     new r_m :   0.1442 (alat units)  1.3257 (a.u.) for type    1
     new r_m :   0.1442 (alat units)  1.3257 (a.u.) for type    2

     Initial potential from superposition of free atoms

     starting charge     240.9940, renormalised to     241.0000

     negative rho (up, down):  2.196E-04 1.960E-04
     Starting wfcs are  217 randomized atomic wfcs
     Checking if some PAW data can be deallocated... 

     total cpu time spent up to now is       62.9 secs

     Self-consistent Calculation

     iteration #  1     ecut=    60.00 Ry     beta= 0.20
     Davidson diagonalization with overlap
     ethr =  1.00E-02,  avg # of iterations =  2.0

     negative rho (up, down):  1.338E-05 1.199E-05

     total cpu time spent up to now is      189.9 secs

     total energy              =   -4459.31340634 Ry
     estimated scf accuracy    <       8.00438988 Ry

     total magnetization       =    13.33 Bohr mag/cell
     absolute magnetization    =    13.45 Bohr mag/cell

     iteration #  2     ecut=    60.00 Ry     beta= 0.20
     Davidson diagonalization with overlap
     ethr =  3.32E-03,  avg # of iterations =  1.3

     negative rho (up, down):  4.578E-07 3.055E-07

     total cpu time spent up to now is      301.2 secs

     total energy              =   -4459.50279736 Ry
     estimated scf accuracy    <       1.92942128 Ry

     total magnetization       =    14.17 Bohr mag/cell
     absolute magnetization    =    14.35 Bohr mag/cell

     iteration #  3     ecut=    60.00 Ry     beta= 0.20
     Davidson diagonalization with overlap
     ethr =  8.01E-04,  avg # of iterations =  1.3

     negative rho (up, down):  8.428E-08 6.135E-08

     total cpu time spent up to now is      414.6 secs

     total energy              =   -4459.59946108 Ry
     estimated scf accuracy    <       7.33386435 Ry

     total magnetization       =    14.24 Bohr mag/cell
     absolute magnetization    =    14.50 Bohr mag/cell

     iteration #  4     ecut=    60.00 Ry     beta= 0.20
     Davidson diagonalization with overlap
     ethr =  8.01E-04,  avg # of iterations =  1.0

     negative rho (up, down):  1.296E-07 1.019E-07

     total cpu time spent up to now is      522.0 secs

     total energy              =   -4459.60662087 Ry
     estimated scf accuracy    <       4.78288389 Ry

     total magnetization       =    14.51 Bohr mag/cell
     absolute magnetization    =    15.01 Bohr mag/cell

     iteration #  5     ecut=    60.00 Ry     beta= 0.20
     Davidson diagonalization with overlap
     ethr =  8.01E-04,  avg # of iterations =  1.0

     negative rho (up, down):  6.349E-07 4.682E-07

     total cpu time spent up to now is      629.1 secs

     total energy              =   -4459.51874461 Ry
     estimated scf accuracy    <       3.21081110 Ry

     total magnetization       =    14.71 Bohr mag/cell
     absolute magnetization    =    15.35 Bohr mag/cell

     iteration #  6     ecut=    60.00 Ry     beta= 0.20
     Davidson diagonalization with overlap
     ethr =  8.01E-04,  avg # of iterations =  1.2

     negative rho (up, down):  6.333E-07 4.840E-07

     total cpu time spent up to now is      740.5 secs

     total energy              =   -4459.56135246 Ry
     estimated scf accuracy    <       0.38547468 Ry

     total magnetization       =    15.10 Bohr mag/cell
     absolute magnetization    =    16.69 Bohr mag/cell

     iteration #  7     ecut=    60.00 Ry     beta= 0.20
     Davidson diagonalization with overlap
     ethr =  1.60E-04,  avg # of iterations =  1.6

     negative rho (up, down):  4.320E-07 3.365E-07

     total cpu time spent up to now is      854.1 secs

     total energy              =   -4459.57003451 Ry
     estimated scf accuracy    <       0.14718485 Ry

     total magnetization       =    15.16 Bohr mag/cell
     absolute magnetization    =    17.20 Bohr mag/cell

     iteration #  8     ecut=    60.00 Ry     beta= 0.20
     Davidson diagonalization with overlap
     ethr =  6.11E-05,  avg # of iterations =  1.7

     negative rho (up, down):  1.964E-07 1.654E-07

     total cpu time spent up to now is      968.6 secs

     total energy              =   -4459.56856821 Ry
     estimated scf accuracy    <       0.13755384 Ry

     total magnetization       =    15.21 Bohr mag/cell
     absolute magnetization    =    17.39 Bohr mag/cell

     iteration #  9     ecut=    60.00 Ry     beta= 0.20
     Davidson diagonalization with overlap
     ethr =  5.71E-05,  avg # of iterations =  1.7

     negative rho (up, down):  1.785E-07 1.532E-07

     total cpu time spent up to now is     1083.3 secs

     total energy              =   -4459.56611914 Ry
     estimated scf accuracy    <       0.11318787 Ry

     total magnetization       =    15.35 Bohr mag/cell
     absolute magnetization    =    17.63 Bohr mag/cell

     iteration # 10     ecut=    60.00 Ry     beta= 0.20
     Davidson diagonalization with overlap
     ethr =  4.70E-05,  avg # of iterations =  1.1

     negative rho (up, down):  9.019E-08 7.940E-08

     total cpu time spent up to now is     1190.9 secs

     total energy              =   -4459.56576099 Ry
     estimated scf accuracy    <       0.14622968 Ry

     total magnetization       =    15.48 Bohr mag/cell
     absolute magnetization    =    17.87 Bohr mag/cell

     iteration # 11     ecut=    60.00 Ry     beta= 0.20
     Davidson diagonalization with overlap
     ethr =  4.70E-05,  avg # of iterations =  1.1

     negative rho (up, down):  2.230E-08 2.031E-08

     total cpu time spent up to now is     1300.3 secs

     total energy              =   -4459.55731626 Ry
     estimated scf accuracy    <       0.17438439 Ry

     total magnetization       =    15.53 Bohr mag/cell
     absolute magnetization    =    17.94 Bohr mag/cell

     iteration # 12     ecut=    60.00 Ry     beta= 0.20
     Davidson diagonalization with overlap
     ethr =  4.70E-05,  avg # of iterations =  1.0

     negative rho (up, down):  6.907E-03 5.621E-03

     total cpu time spent up to now is     1407.4 secs

     total energy              =   -4459.54639902 Ry
     estimated scf accuracy    <       0.15707991 Ry

     total magnetization       =    15.53 Bohr mag/cell
     absolute magnetization    =    17.78 Bohr mag/cell

     iteration # 13     ecut=    60.00 Ry     beta= 0.20
     Davidson diagonalization with overlap
     ethr =  4.70E-05,  avg # of iterations =  1.0

     negative rho (up, down):  1.196E-02 1.024E-02

     total cpu time spent up to now is     1514.7 secs

     total energy              =   -4459.54269816 Ry
     estimated scf accuracy    <       0.07752150 Ry

     total magnetization       =    15.41 Bohr mag/cell
     absolute magnetization    =    17.60 Bohr mag/cell

     iteration # 14     ecut=    60.00 Ry     beta= 0.20
     Davidson diagonalization with overlap
     ethr =  3.22E-05,  avg # of iterations =  1.1

     negative rho (up, down):  1.832E-02 1.684E-02

     total cpu time spent up to now is     1623.2 secs

     total energy              =   -4459.53361230 Ry
     estimated scf accuracy    <       0.05600101 Ry

     total magnetization       =    15.38 Bohr mag/cell
     absolute magnetization    =    17.59 Bohr mag/cell

     iteration # 15     ecut=    60.00 Ry     beta= 0.20
     Davidson diagonalization with overlap
     ethr =  2.32E-05,  avg # of iterations =  2.7

     negative rho (up, down):  2.080E-02 2.020E-02

     total cpu time spent up to now is     1741.9 secs

     total energy              =   -4459.53169611 Ry
     estimated scf accuracy    <       0.03045331 Ry

     total magnetization       =    15.39 Bohr mag/cell
     absolute magnetization    =    17.58 Bohr mag/cell

     iteration # 16     ecut=    60.00 Ry     beta= 0.20
     Davidson diagonalization with overlap
     ethr =  1.26E-05,  avg # of iterations =  3.0

     negative rho (up, down):  2.335E-02 2.293E-02

     total cpu time spent up to now is     1861.1 secs

     total energy              =   -4459.53042877 Ry
     estimated scf accuracy    <       0.02582401 Ry

     total magnetization       =    15.28 Bohr mag/cell
     absolute magnetization    =    17.32 Bohr mag/cell

     iteration # 17     ecut=    60.00 Ry     beta= 0.20
     Davidson diagonalization with overlap
     ethr =  1.07E-05,  avg # of iterations =  2.0

     negative rho (up, down):  7.694E-03 7.564E-03

     total cpu time spent up to now is     1976.5 secs

     total energy              =   -4459.52994496 Ry
     estimated scf accuracy    <       0.03509010 Ry

     total magnetization       =    15.30 Bohr mag/cell
     absolute magnetization    =    17.30 Bohr mag/cell

     iteration # 18     ecut=    60.00 Ry     beta= 0.20
     Davidson diagonalization with overlap
     ethr =  1.07E-05,  avg # of iterations =  1.6

     total cpu time spent up to now is     2090.3 secs

     total energy              =   -4459.53392964 Ry
     estimated scf accuracy    <       0.04365720 Ry

     total magnetization       =    15.32 Bohr mag/cell
     absolute magnetization    =    17.28 Bohr mag/cell

     iteration # 19     ecut=    60.00 Ry     beta= 0.20
     Davidson diagonalization with overlap
     ethr =  1.07E-05,  avg # of iterations =  1.5

     total cpu time spent up to now is     2203.5 secs

     total energy              =   -4459.53187675 Ry
     estimated scf accuracy    <       0.01483575 Ry

     total magnetization       =    15.38 Bohr mag/cell
     absolute magnetization    =    17.46 Bohr mag/cell

     iteration # 20     ecut=    60.00 Ry     beta= 0.20
     Davidson diagonalization with overlap
     ethr =  6.16E-06,  avg # of iterations =  1.4

     negative rho (up, down):  7.772E-07 7.719E-07

     total cpu time spent up to now is     2316.1 secs

     total energy              =   -4459.52862871 Ry
     estimated scf accuracy    <       0.01647933 Ry

     total magnetization       =    15.36 Bohr mag/cell
     absolute magnetization    =    17.45 Bohr mag/cell

     iteration # 21     ecut=    60.00 Ry     beta= 0.20
     Davidson diagonalization with overlap
     ethr =  6.16E-06,  avg # of iterations =  1.8

     negative rho (up, down):  4.090E-03 3.455E-03

     total cpu time spent up to now is     2431.3 secs

     total energy              =   -4459.52265466 Ry
     estimated scf accuracy    <       0.01467859 Ry

     total magnetization       =    15.41 Bohr mag/cell
     absolute magnetization    =    17.56 Bohr mag/cell

     iteration # 22     ecut=    60.00 Ry     beta= 0.20
     Davidson diagonalization with overlap
     ethr =  6.09E-06,  avg # of iterations =  2.2

     negative rho (up, down):  3.427E-03 2.887E-03

     total cpu time spent up to now is     2550.6 secs

     total energy              =   -4459.52337834 Ry
     estimated scf accuracy    <       0.00761828 Ry

     total magnetization       =    15.42 Bohr mag/cell
     absolute magnetization    =    17.65 Bohr mag/cell

     iteration # 23     ecut=    60.00 Ry     beta= 0.20
     Davidson diagonalization with overlap
     ethr =  3.16E-06,  avg # of iterations =  2.0

     negative rho (up, down):  1.954E-03 1.922E-03

     total cpu time spent up to now is     2667.0 secs

     total energy              =   -4459.52388602 Ry
     estimated scf accuracy    <       0.00757492 Ry

     total magnetization       =    15.43 Bohr mag/cell
     absolute magnetization    =    17.67 Bohr mag/cell

     iteration # 24     ecut=    60.00 Ry     beta= 0.20
     Davidson diagonalization with overlap
     ethr =  3.14E-06,  avg # of iterations =  2.4

     negative rho (up, down):  3.739E-03 3.679E-03

     total cpu time spent up to now is     2785.9 secs

     total energy              =   -4459.52426505 Ry
     estimated scf accuracy    <       0.00474028 Ry

     total magnetization       =    15.46 Bohr mag/cell
     absolute magnetization    =    17.74 Bohr mag/cell

     iteration # 25     ecut=    60.00 Ry     beta= 0.20
     Davidson diagonalization with overlap
     c_bands:  1 eigenvalues not converged
     ethr =  1.97E-06,  avg # of iterations =  5.2

     negative rho (up, down):  3.670E-03 3.559E-03

     total cpu time spent up to now is     2916.0 secs

     total energy              =   -4459.52451184 Ry
     estimated scf accuracy    <       0.00295573 Ry

     total magnetization       =    15.49 Bohr mag/cell
     absolute magnetization    =    17.75 Bohr mag/cell

     iteration # 26     ecut=    60.00 Ry     beta= 0.20
     Davidson diagonalization with overlap
     ethr =  1.23E-06,  avg # of iterations =  2.1

     negative rho (up, down):  2.412E-03 2.274E-03

     total cpu time spent up to now is     3032.7 secs

     total energy              =   -4459.52461630 Ry
     estimated scf accuracy    <       0.00080190 Ry

     total magnetization       =    15.48 Bohr mag/cell
     absolute magnetization    =    17.70 Bohr mag/cell

     iteration # 27     ecut=    60.00 Ry     beta= 0.20
     Davidson diagonalization with overlap
     ethr =  3.33E-07,  avg # of iterations =  2.2

     negative rho (up, down):  1.260E-03 1.146E-03

     total cpu time spent up to now is     3150.1 secs

     total energy              =   -4459.52472269 Ry
     estimated scf accuracy    <       0.00043578 Ry

     total magnetization       =    15.47 Bohr mag/cell
     absolute magnetization    =    17.67 Bohr mag/cell

     iteration # 28     ecut=    60.00 Ry     beta= 0.20
     Davidson diagonalization with overlap
     ethr =  1.81E-07,  avg # of iterations =  1.4

     negative rho (up, down):  2.214E-04 2.049E-04

     total cpu time spent up to now is     3263.1 secs

     total energy              =   -4459.52487194 Ry
     estimated scf accuracy    <       0.00026549 Ry

     total magnetization       =    15.46 Bohr mag/cell
     absolute magnetization    =    17.65 Bohr mag/cell

     iteration # 29     ecut=    60.00 Ry     beta= 0.20
     Davidson diagonalization with overlap
     ethr =  1.10E-07,  avg # of iterations =  2.1

     negative rho (up, down):  1.485E-04 1.369E-04

     total cpu time spent up to now is     3379.1 secs

     total energy              =   -4459.52498658 Ry
     estimated scf accuracy    <       0.00032636 Ry

     total magnetization       =    15.46 Bohr mag/cell
     absolute magnetization    =    17.62 Bohr mag/cell

     iteration # 30     ecut=    60.00 Ry     beta= 0.20
     Davidson diagonalization with overlap
     ethr =  1.10E-07,  avg # of iterations =  1.5

     negative rho (up, down):  3.145E-04 3.025E-04

     total cpu time spent up to now is     3493.1 secs

     total energy              =   -4459.52501011 Ry
     estimated scf accuracy    <       0.00010366 Ry

     total magnetization       =    15.44 Bohr mag/cell
     absolute magnetization    =    17.59 Bohr mag/cell

     iteration # 31     ecut=    60.00 Ry     beta= 0.20
     Davidson diagonalization with overlap
     ethr =  4.30E-08,  avg # of iterations =  1.4

     negative rho (up, down):  2.408E-04 2.177E-04

     total cpu time spent up to now is     3606.6 secs

     total energy              =   -4459.52503333 Ry
     estimated scf accuracy    <       0.00010366 Ry

     total magnetization       =    15.43 Bohr mag/cell
     absolute magnetization    =    17.58 Bohr mag/cell

     iteration # 32     ecut=    60.00 Ry     beta= 0.20
     Davidson diagonalization with overlap
     ethr =  4.30E-08,  avg # of iterations =  1.1

     negative rho (up, down):  2.220E-04 1.908E-04

     total cpu time spent up to now is     3716.5 secs

     total energy              =   -4459.52503842 Ry
     estimated scf accuracy    <       0.00002320 Ry

     total magnetization       =    15.42 Bohr mag/cell
     absolute magnetization    =    17.56 Bohr mag/cell

     iteration # 33     ecut=    60.00 Ry     beta= 0.20
     Davidson diagonalization with overlap
     ethr =  9.63E-09,  avg # of iterations =  2.1

     negative rho (up, down):  2.243E-04 1.835E-04

     total cpu time spent up to now is     3834.0 secs

     total energy              =   -4459.52504079 Ry
     estimated scf accuracy    <       0.00000554 Ry

     total magnetization       =    15.42 Bohr mag/cell
     absolute magnetization    =    17.55 Bohr mag/cell

     iteration # 34     ecut=    60.00 Ry     beta= 0.20
     Davidson diagonalization with overlap
     ethr =  2.30E-09,  avg # of iterations =  3.0

     negative rho (up, down):  2.811E-04 2.349E-04

     total cpu time spent up to now is     3961.3 secs

     total energy              =   -4459.52504278 Ry
     estimated scf accuracy    <       0.00001081 Ry

     total magnetization       =    15.42 Bohr mag/cell
     absolute magnetization    =    17.55 Bohr mag/cell

     iteration # 35     ecut=    60.00 Ry     beta= 0.20
     Davidson diagonalization with overlap
     ethr =  2.30E-09,  avg # of iterations =  1.8

     negative rho (up, down):  3.112E-04 2.644E-04

     total cpu time spent up to now is     4076.2 secs

     total energy              =   -4459.52504335 Ry
     estimated scf accuracy    <       0.00000082 Ry

     total magnetization       =    15.42 Bohr mag/cell
     absolute magnetization    =    17.55 Bohr mag/cell

     iteration # 36     ecut=    60.00 Ry     beta= 0.20
     Davidson diagonalization with overlap
     ethr =  3.41E-10,  avg # of iterations =  4.2

     negative rho (up, down):  2.822E-04 2.344E-04

     total cpu time spent up to now is     4206.1 secs

     total energy              =   -4459.52504356 Ry
     estimated scf accuracy    <       0.00000050 Ry

     total magnetization       =    15.42 Bohr mag/cell
     absolute magnetization    =    17.55 Bohr mag/cell

     iteration # 37     ecut=    60.00 Ry     beta= 0.20
     Davidson diagonalization with overlap
     ethr =  2.09E-10,  avg # of iterations =  1.9

     negative rho (up, down):  2.577E-04 2.075E-04

     total cpu time spent up to now is     4322.3 secs

     total energy              =   -4459.52504376 Ry
     estimated scf accuracy    <       0.00000025 Ry

     total magnetization       =    15.42 Bohr mag/cell
     absolute magnetization    =    17.55 Bohr mag/cell

     iteration # 38     ecut=    60.00 Ry     beta= 0.20
     Davidson diagonalization with overlap
     ethr =  1.02E-10,  avg # of iterations =  2.1

     negative rho (up, down):  2.277E-04 1.763E-04

     total cpu time spent up to now is     4439.9 secs

     total energy              =   -4459.52504380 Ry
     estimated scf accuracy    <       0.00000021 Ry

     total magnetization       =    15.42 Bohr mag/cell
     absolute magnetization    =    17.55 Bohr mag/cell

     iteration # 39     ecut=    60.00 Ry     beta= 0.20
     Davidson diagonalization with overlap
     ethr =  8.64E-11,  avg # of iterations =  2.1

     negative rho (up, down):  2.294E-04 1.768E-04

     total cpu time spent up to now is     4556.8 secs

     total energy              =   -4459.52504390 Ry
     estimated scf accuracy    <       0.00000010 Ry

     total magnetization       =    15.42 Bohr mag/cell
     absolute magnetization    =    17.55 Bohr mag/cell

     iteration # 40     ecut=    60.00 Ry     beta= 0.20
     Davidson diagonalization with overlap
     ethr =  3.99E-11,  avg # of iterations =  2.0

     negative rho (up, down):  2.347E-04 1.822E-04

     total cpu time spent up to now is     4674.3 secs

     total energy              =   -4459.52504395 Ry
     estimated scf accuracy    <       0.00000012 Ry

     total magnetization       =    15.42 Bohr mag/cell
     absolute magnetization    =    17.55 Bohr mag/cell

     iteration # 41     ecut=    60.00 Ry     beta= 0.20
     Davidson diagonalization with overlap
     ethr =  3.99E-11,  avg # of iterations =  1.1

     negative rho (up, down):  2.465E-04 1.935E-04

     total cpu time spent up to now is     4783.6 secs

     total energy              =   -4459.52504406 Ry
     estimated scf accuracy    <       0.00000004 Ry

     total magnetization       =    15.42 Bohr mag/cell
     absolute magnetization    =    17.55 Bohr mag/cell

     iteration # 42     ecut=    60.00 Ry     beta= 0.20
     Davidson diagonalization with overlap
     ethr =  1.75E-11,  avg # of iterations =  2.0

     negative rho (up, down):  2.523E-04 1.982E-04

     total cpu time spent up to now is     4903.0 secs

     total energy              =   -4459.52504414 Ry
     estimated scf accuracy    <       0.00000008 Ry

     total magnetization       =    15.42 Bohr mag/cell
     absolute magnetization    =    17.55 Bohr mag/cell

     iteration # 43     ecut=    60.00 Ry     beta= 0.20
     Davidson diagonalization with overlap
     ethr =  1.75E-11,  avg # of iterations =  2.0

     negative rho (up, down):  2.633E-04 2.092E-04
 
     Magnetic moment per site  (integrated on atomic sphere of radius R)
     atom   1 (R=0.144)  charge=  6.8681  magn=  0.6748
     atom   2 (R=0.144)  charge=  6.8681  magn=  0.6748
     atom   3 (R=0.144)  charge=  6.8683  magn=  0.6731
     atom   4 (R=0.144)  charge=  6.8680  magn=  0.6748
     atom   5 (R=0.144)  charge=  6.8658  magn=  0.6763
     atom   6 (R=0.144)  charge=  6.8658  magn=  0.6763
     atom   7 (R=0.144)  charge=  6.8655  magn=  0.6867
     atom   8 (R=0.144)  charge=  6.8658  magn=  0.6763
     atom   9 (R=0.144)  charge=  6.8662  magn=  0.6370
     atom  10 (R=0.144)  charge=  6.8662  magn=  0.6370
     atom  11 (R=0.144)  charge=  6.8662  magn=  0.6370
     atom  12 (R=0.144)  charge=  6.8654  magn=  0.6543
     atom  13 (R=0.144)  charge=  6.8652  magn=  0.6449
     atom  14 (R=0.144)  charge=  6.8652  magn=  0.6449
     atom  15 (R=0.144)  charge=  6.8658  magn=  0.6364
     atom  16 (R=0.144)  charge=  6.8652  magn=  0.6449
     atom  17 (R=0.144)  charge=  6.8659  magn=  0.6862
     atom  18 (R=0.144)  charge=  6.8659  magn=  0.6862
     atom  19 (R=0.144)  charge=  6.8666  magn=  0.5840
     atom  20 (R=0.144)  charge=  6.8659  magn=  0.6862
     atom  21 (R=0.144)  charge=  6.8711  magn=  0.5290
     atom  22 (R=0.144)  charge=  6.8715  magn=  0.6904
     atom  23 (R=0.144)  charge=  6.8711  magn=  0.5290
     atom  24 (R=0.144)  charge=  6.8711  magn=  0.5290
     atom  25 (R=0.144)  charge=  0.9173  magn= -0.0060

     total cpu time spent up to now is     5018.5 secs

     End of self-consistent calculation

     Number of k-points >= 100: set verbosity='high' to print the bands.

     the Fermi energy is    -5.1234 ev

!    total energy              =   -4459.52504423 Ry
     total all-electron energy =    -73000.925971 Ry
     estimated scf accuracy    <          7.9E-09 Ry
     smearing contrib. (-TS)   =      -0.00398391 Ry
     internal energy E=F+TS    =   -4459.52106031 Ry

     The total energy is F=E-TS. E is the sum of the following terms:
     one-electron contribution =  -76138.18909697 Ry
     hartree contribution      =   38267.12760739 Ry
     xc contribution           =   -1003.09648051 Ry
     ewald contribution        =   36458.11285855 Ry
     DFT-D3 Dispersion         =      -1.80741028 Ry
     one-center paw contrib.   =   -2041.66853849 Ry

     total magnetization       =    15.42 Bohr mag/cell
     absolute magnetization    =    17.55 Bohr mag/cell

     convergence has been achieved in  43 iterations

     negative rho (up, down):  2.633E-04 2.092E-04

     Forces acting on atoms (cartesian axes, Ry/au):

     atom    1 type  1   force =    -0.00000048   -0.00022216   -0.00010774
     atom    2 type  1   force =    -0.00019174    0.00011135   -0.00010827
     atom    3 type  1   force =     0.00000060   -0.00000093   -0.00016003
     atom    4 type  1   force =     0.00019149    0.00011180   -0.00010874
     atom    5 type  1   force =     0.00000427    0.00013505   -0.00015487
     atom    6 type  1   force =     0.00011959   -0.00006364   -0.00015663
     atom    7 type  1   force =    -0.00000445   -0.00000274   -0.00036604
     atom    8 type  1   force =    -0.00011925   -0.00006862   -0.00015210
     atom    9 type  1   force =    -0.00000129    0.00005782   -0.00017184
     atom   10 type  1   force =     0.00004797   -0.00003067   -0.00017198
     atom   11 type  1   force =    -0.00004778   -0.00002931   -0.00017291
     atom   12 type  1   force =     0.00000138    0.00000228    0.00003625
     atom   13 type  1   force =    -0.00000100   -0.00003598    0.00024695
     atom   14 type  1   force =    -0.00003154    0.00001688    0.00024750
     atom   15 type  1   force =     0.00000070    0.00000064   -0.00013915
     atom   16 type  1   force =     0.00003160    0.00001803    0.00024677
     atom   17 type  1   force =     0.00000089   -0.00002986    0.00009894
     atom   18 type  1   force =    -0.00002627    0.00001533    0.00009794
     atom   19 type  1   force =    -0.00000074    0.00000010    0.00056521
     atom   20 type  1   force =     0.00002563    0.00001444    0.00009857
     atom   21 type  1   force =    -0.00000181    0.00012920   -0.00005853
     atom   22 type  1   force =     0.00000204    0.00000080    0.00030802
     atom   23 type  1   force =    -0.00011125   -0.00006356   -0.00005939
     atom   24 type  1   force =     0.00011129   -0.00006620   -0.00005660
     atom   25 type  2   force =     0.00000013   -0.00000007    0.00019867

     Total force =     0.000923     Total SCF correction =     0.000161
     SCF correction compared to forces is large: reduce conv_thr to get better values


     Computing stress (Cartesian axis) and pressure


     negative rho (up, down):  2.633E-04 2.092E-04
          total   stress  (Ry/bohr**3)                   (kbar)     P=       -5.59
  -0.00006018  -0.00000000  -0.00000000           -8.85       -0.00       -0.00
  -0.00000000  -0.00006018  -0.00000000           -0.00       -8.85       -0.00
  -0.00000000  -0.00000000   0.00000633           -0.00       -0.00        0.93


     BFGS Geometry Optimization
     Energy error            =      0.0E+00 Ry
     Gradient error          =      5.7E-04 Ry/Bohr

     bfgs converged in   1 scf cycles and   0 bfgs steps
     (criteria: energy <  1.8E-05 Ry, force <  7.8E-04 Ry/Bohr)

     End of BFGS Geometry Optimization

     Final energy             =   -4459.5250442268 Ry
Begin final coordinates

ATOMIC_POSITIONS (angstrom)
Ni               4.8654290602        2.8090567776       11.0000000000    0   0   0
Ni               1.2163587666        0.7022650613       11.0000067374    0   0   0
Ni               2.4327145301        2.8090550438       11.0000067374    0   0   0
Ni               3.6490702936        0.7022650613       11.0000067374    0   0   0
Ni               2.4327145301        1.4045283888       12.9863030962    0   0   0
Ni               6.0817878268        3.5113218389       12.9863098336    0   0   0
Ni               4.8654290602        1.4045266550       12.9863098336    0   0   0
Ni               3.6490702936        3.5113218389       12.9863098336    0   0   0
Ni               2.4327145392        4.2140648593       14.9696883260
Ni               3.6494869778        2.1065525145       14.9696850551
Ni               6.0813712186        2.1065524936       14.9696851154
Ni               4.8654291457        4.2135854881       14.9679774713
Ni               4.8654291230        2.8084866695       16.9552449570
Ni               1.2158640711        0.7025494930       16.9552455212
Ni               2.4327146316        2.8090563136       16.9544803937
Ni               3.6495650974        0.7025494392       16.9552455812
Ni               2.4327143736        1.4049764440       18.9343791298
Ni               6.0821742817        3.5110971848       18.9343785784
Ni               4.8654289178        1.4045282699       18.9512425855
Ni               3.6486837820        3.5110971307       18.9343783352
Ni               0.0000002347        0.0089987203       20.9391596443
Ni               4.8654292111        4.2135850150       20.9094144048
Ni               6.0739932153        2.1022931598       20.9391587188
Ni               3.6568649840        2.1022930225       20.9391587596
H                2.4327144939        2.8090563875       21.8848053167
End final coordinates



     Writing all to output data dir ./Ni_111_6Layer-H.save/ :
     XML data file, charge density, pseudopotentials, collected wavefunctions
 
     init_run     :     43.69s CPU     60.03s WALL (       1 calls)
     electrons    :   3899.40s CPU   4955.88s WALL (       1 calls)
     forces       :     13.36s CPU     16.37s WALL (       1 calls)
     force_dftd3  :      0.43s CPU      0.43s WALL (       1 calls)
     stress       :    290.85s CPU    324.58s WALL (       1 calls)
     stres_dftd3  :      0.24s CPU      0.24s WALL (       1 calls)

     Called by init_run:
     wfcinit      :     41.11s CPU     56.71s WALL (       1 calls)
     potinit      :      1.75s CPU      1.83s WALL (       1 calls)
     hinit0       :      0.36s CPU      0.81s WALL (       1 calls)

     Called by electrons:
     c_bands      :   3148.23s CPU   4017.39s WALL (      43 calls)
     sum_band     :    645.65s CPU    808.25s WALL (      43 calls)
     v_of_rho     :     28.51s CPU     34.62s WALL (      44 calls)
     newd         :      9.18s CPU     11.59s WALL (      44 calls)
     PAW_pot      :     25.09s CPU     29.85s WALL (      44 calls)
     mix_rho      :     40.58s CPU     50.94s WALL (      43 calls)
     energy_dftd3 :      0.07s CPU      0.14s WALL (       1 calls)

     Called by c_bands:
     init_us_2    :     20.56s CPU     26.44s WALL (    2314 calls)
     init_us_2:cp :     20.53s CPU     26.42s WALL (    2314 calls)
     cegterg      :   2833.22s CPU   3603.70s WALL (    1118 calls)

     Called by *egterg:
     cdiaghg      :     68.54s CPU     88.01s WALL (    3110 calls)
     h_psi        :   2005.76s CPU   2589.84s WALL (    3136 calls)
     s_psi        :    150.61s CPU    201.67s WALL (    3136 calls)
     g_psi        :      5.57s CPU      7.55s WALL (    1992 calls)

     Called by h_psi:
     h_psi:calbec :    217.61s CPU    274.18s WALL (    3136 calls)
     vloc_psi     :   1626.41s CPU   2083.65s WALL (    3136 calls)
     vloc_psi:tg_ :     20.46s CPU     21.77s WALL (    3136 calls)
     add_vuspsi   :    156.82s CPU    217.92s WALL (    3136 calls)

     General routines
     calbec       :    348.77s CPU    433.58s WALL (    4384 calls)
     fft          :     26.13s CPU     31.20s WALL (    1138 calls)
     ffts         :     17.63s CPU     22.10s WALL (    5338 calls)
     fftw         :   1802.91s CPU   2257.58s WALL (  419282 calls)
     interpolate  :      1.91s CPU      2.33s WALL (      88 calls)
 
     Parallel routines
     fft_scatt_xy :    269.14s CPU    377.97s WALL (  425758 calls)
     fft_scatt_yz :    638.45s CPU    754.27s WALL (  425758 calls)
     fft_scatt_tg :    348.01s CPU    385.96s WALL (  419282 calls)
 
     PWSCF        :      1h10m CPU      1h29m WALL

 
   This run was terminated on:   0:33:24   9Nov2025            

=------------------------------------------------------------------------------=
   JOB DONE.
=------------------------------------------------------------------------------=
