
     Program PWSCF v.7.3 starts on  8Nov2025 at 23: 3:58 

     This program is part of the open-source Quantum ESPRESSO suite
     for quantum simulation of materials; please cite
         "P. Giannozzi et al., J. Phys.:Condens. Matter 21 395502 (2009);
         "P. Giannozzi et al., J. Phys.:Condens. Matter 29 465901 (2017);
         "P. Giannozzi et al., J. Chem. Phys. 152 154105 (2020);
          URL http://www.quantum-espresso.org", 
     in publications or presentations arising from this work. More details at
     http://www.quantum-espresso.org/quote

     Parallel version (MPI), running on    32 processors

     MPI processes distributed on     2 nodes
     242997 MiB available memory on the printing compute node when the environment starts
 
     Reading input from Ni_111_6Layer.in

     Current dimensions of program PWSCF are:
     Max number of different atomic species (ntypx) = 10
     Max number of k-points (npk) =  40000
     Max angular momentum in pseudopotentials (lmaxx) =  4
     file Ni.upf: wavefunction(s)  4S 3D renormalized
     file H.upf: wavefunction(s)  1S renormalized

     IMPORTANT: XC functional enforced from input :
     Exchange-correlation= PBE
                           (   1   4   3   4   0   0   0)
     Any further DFT definition will be discarded
     Please, verify this is what you really want

     Found identity + ( -0.5000 -0.5000  0.0000) symmetry
     This is a supercell, fractional translations are disabled
 
     K-points division:     npool     =       4
     R & G space division:  proc/nbgrp/npool/nimage =       8
     wavefunctions fft division:  Y-proc x Z-proc =       2      4
     wavefunctions fft division:  task group distribution
                                  #TG    x Z-proc =       2      4
     Subspace diagonalization in iterative solution of the eigenvalue problem:
     one sub-group per band group will be used
     scalapack distributed-memory algorithm (size of sub-group:  2*  2 procs)

 
     Parallelization info
     --------------------
     sticks:   dense  smooth     PW     G-vecs:    dense   smooth      PW
     Min         347     174     52                97933    34684    5435
     Max         350     175     54                98106    34731    5476
     Sum        2791    1393    421               784195   277593   43661
 
     Using Pencil Decomposition
 

     Title: 
     Ni_111_6Layer                                                              


     bravais-lattice index     =            0
     lattice parameter (alat)  =       9.1943  a.u.
     unit-cell volume          =    4417.6280 (a.u.)^3
     number of atoms/cell      =           24
     number of atomic types    =            2
     number of electrons       =       240.00
     number of Kohn-Sham states=          144
     kinetic-energy cutoff     =      60.0000  Ry
     charge density cutoff     =     480.0000  Ry
     scf convergence threshold =      1.0E-08
     mixing beta               =       0.2000
     number of iterations used =           12  local-TF  mixing
     energy convergence thresh.=      1.8E-05
     force convergence thresh. =      7.8E-04
     Exchange-correlation= PBE
                           (   1   4   3   4   0   0   0)
     nstep                     =           50


     celldm(1)=   9.194328  celldm(2)=   0.000000  celldm(3)=   0.000000
     celldm(4)=   0.000000  celldm(5)=   0.000000  celldm(6)=   0.000000

     crystal axes: (cart. coord. in units of alat)
               a(1) = (   1.000000   0.000000   0.000000 )  
               a(2) = (   0.500000   0.866025   0.000000 )  
               a(3) = (   0.000000   0.000000   6.562941 )  

     reciprocal axes: (cart. coord. in units 2 pi/alat)
               b(1) = (  1.000000 -0.577350  0.000000 )  
               b(2) = (  0.000000  1.154701  0.000000 )  
               b(3) = (  0.000000  0.000000  0.152371 )  


     PseudoPot. # 1 for Ni read from file:
     /tmpu/isholek_g/isholek/MIGUEL/PP/Ni.upf
     MD5 check sum: d88365a95a5e142bd87181c2c8b16588
     Pseudo is Projector augmented-wave + core cor, Zval = 10.0
     Generated using "atomic" code by A. Dal Corso  v.5.0.2 svn rev. 9415
     Shape of augmentation charge: PSQ
     Using radial grid of 1195 points,  6 beta functions with: 
                l(1) =   0
                l(2) =   0
                l(3) =   1
                l(4) =   1
                l(5) =   2
                l(6) =   2
     Q(r) pseudized with 0 coefficients 


     PseudoPot. # 2 for H  read from file:
     /tmpu/isholek_g/isholek/MIGUEL/PP/H.upf
     MD5 check sum: 4cbe42a24e15140179a93d5bf84f2220
     Pseudo is Projector augmented-wave, Zval =  1.0
     Generated using "atomic" code by A. Dal Corso  v.5.0.2 svn rev. 9415
     Shape of augmentation charge: PSQ
     Using radial grid of  929 points,  2 beta functions with: 
                l(1) =   0
                l(2) =   0
     Q(r) pseudized with 0 coefficients 


     atomic species   valence    mass     pseudopotential
     Ni               10.00    58.69340     Ni( 1.00)
     H                 1.00     1.00784     H ( 1.00)

     Starting magnetic structure 
     atomic species   magnetization
     Ni              0.065
     H               1.000

     No symmetry found



   Cartesian axes

     site n.     atom                  positions (alat units)
         1        Ni     tau(   1) = (   1.0000000   0.5773503   2.2608489  )
         2        Ni     tau(   2) = (   0.2500003   0.1443377   2.2608503  )
         3        Ni     tau(   3) = (   0.5000000   0.5773499   2.2608503  )
         4        Ni     tau(   4) = (   0.7499997   0.1443377   2.2608503  )
         5        Ni     tau(   5) = (   0.5000000   0.2886751   2.6690972  )
         6        Ni     tau(   6) = (   1.2500003   0.7216880   2.6690986  )
         7        Ni     tau(   7) = (   1.0000000   0.2886748   2.6690986  )
         8        Ni     tau(   8) = (   0.7499997   0.7216880   2.6690986  )
         9        Ni     tau(   9) = (   0.5000000   0.8660253   3.0772317  )
        10        Ni     tau(  10) = (   0.7500000   0.4330128   3.0772324  )
        11        Ni     tau(  11) = (   1.2500000   0.4330128   3.0772325  )
        12        Ni     tau(  12) = (   1.0000000   0.8660253   3.0772324  )
        13        Ni     tau(  13) = (   1.0000000   0.5773503   3.4857110  )
        14        Ni     tau(  14) = (   0.2500002   0.1443377   3.4857118  )
        15        Ni     tau(  15) = (   0.5000000   0.5773500   3.4857118  )
        16        Ni     tau(  16) = (   0.7499998   0.1443377   3.4857119  )
        17        Ni     tau(  17) = (   0.5000001   0.2886753   3.8937693  )
        18        Ni     tau(  18) = (   1.2500002   0.7216879   3.8937703  )
        19        Ni     tau(  19) = (   0.9999999   0.2886750   3.8937704  )
        20        Ni     tau(  20) = (   0.7499997   0.7216878   3.8937703  )
        21        Ni     tau(  21) = (  -0.0000000  -0.0000000   4.3021044  )
        22        Ni     tau(  22) = (   1.0000000   0.8660253   4.3021056  )
        23        Ni     tau(  23) = (   1.2499998   0.4330128   4.3021054  )
        24        Ni     tau(  24) = (   0.7500001   0.4330127   4.3021053  )

     --------------------------------------------
     DFT-D3 Dispersion Correction (3-body terms):
     --------------------------------------------
       Reference C6 values for interpolation: 

         atom   Coordination number   C6
         H          0.912             6.05
         H          0.000            15.18
         Ni         0.000          1149.49
         Ni         1.794           356.66
         Ni         6.546           257.56
         Ni         6.292           283.75

       Values used:

         atom   Coordination number  R0_AB[au]  C6      C8
         Ni         7.293            3.162    261.14  21881.57
         Ni         7.293            3.162    261.14  21881.56
         Ni         7.293            3.162    261.14  21881.56
         Ni         7.293            3.162    261.14  21881.56
         Ni         9.773            3.162    257.59  21584.25
         Ni         9.773            3.162    257.59  21584.25
         Ni         9.773            3.162    257.59  21584.25
         Ni         9.773            3.162    257.59  21584.25
         Ni         9.781            3.162    257.59  21584.21
         Ni         9.781            3.162    257.59  21584.21
         Ni         9.781            3.162    257.59  21584.21
         Ni         9.781            3.162    257.59  21584.21
         Ni         9.782            3.162    257.59  21584.21
         Ni         9.782            3.162    257.59  21584.21
         Ni         9.782            3.162    257.59  21584.21
         Ni         9.782            3.162    257.59  21584.21
         Ni         9.772            3.162    257.59  21584.25
         Ni         9.772            3.162    257.59  21584.25
         Ni         9.772            3.162    257.59  21584.25
         Ni         9.772            3.162    257.59  21584.25
         Ni         7.292            3.162    261.15  21882.22
         Ni         7.292            3.162    261.15  21882.23
         Ni         7.292            3.162    261.15  21882.23
         Ni         7.292            3.162    261.15  21882.23

         Molecular C6 ( Ry / a.u.^6 ) =    149049.59


     number of k points=    52  Marzari-Vanderbilt smearing, width (Ry)=  0.0147
                       cart. coord. in units 2pi/alat
        k(    1) = (   0.0000000   0.0000000   0.0000000), wk =   0.0100000
        k(    2) = (   0.0000000   0.1154701   0.0000000), wk =   0.0200000
        k(    3) = (   0.0000000   0.2309401   0.0000000), wk =   0.0200000
        k(    4) = (   0.0000000   0.3464102   0.0000000), wk =   0.0200000
        k(    5) = (   0.0000000   0.4618802   0.0000000), wk =   0.0200000
        k(    6) = (   0.0000000  -0.5773503   0.0000000), wk =   0.0100000
        k(    7) = (   0.1000000  -0.0577350   0.0000000), wk =   0.0200000
        k(    8) = (   0.1000000   0.0577350   0.0000000), wk =   0.0200000
        k(    9) = (   0.1000000   0.1732051   0.0000000), wk =   0.0200000
        k(   10) = (   0.1000000   0.2886751   0.0000000), wk =   0.0200000
        k(   11) = (   0.1000000   0.4041452   0.0000000), wk =   0.0200000
        k(   12) = (   0.1000000  -0.6350853   0.0000000), wk =   0.0200000
        k(   13) = (   0.1000000  -0.5196152   0.0000000), wk =   0.0200000
        k(   14) = (   0.1000000  -0.4041452   0.0000000), wk =   0.0200000
        k(   15) = (   0.1000000  -0.2886751   0.0000000), wk =   0.0200000
        k(   16) = (   0.1000000  -0.1732051   0.0000000), wk =   0.0200000
        k(   17) = (   0.2000000  -0.1154701   0.0000000), wk =   0.0200000
        k(   18) = (   0.2000000  -0.0000000   0.0000000), wk =   0.0200000
        k(   19) = (   0.2000000   0.1154701   0.0000000), wk =   0.0200000
        k(   20) = (   0.2000000   0.2309401   0.0000000), wk =   0.0200000
        k(   21) = (   0.2000000   0.3464102   0.0000000), wk =   0.0200000
        k(   22) = (   0.2000000  -0.6928203   0.0000000), wk =   0.0200000
        k(   23) = (   0.2000000  -0.5773503   0.0000000), wk =   0.0200000
        k(   24) = (   0.2000000  -0.4618802   0.0000000), wk =   0.0200000
        k(   25) = (   0.2000000  -0.3464102   0.0000000), wk =   0.0200000
        k(   26) = (   0.2000000  -0.2309401   0.0000000), wk =   0.0200000
        k(   27) = (   0.3000000  -0.1732051   0.0000000), wk =   0.0200000
        k(   28) = (   0.3000000  -0.0577350   0.0000000), wk =   0.0200000
        k(   29) = (   0.3000000   0.0577350   0.0000000), wk =   0.0200000
        k(   30) = (   0.3000000   0.1732051   0.0000000), wk =   0.0200000
        k(   31) = (   0.3000000   0.2886751   0.0000000), wk =   0.0200000
        k(   32) = (   0.3000000  -0.7505553   0.0000000), wk =   0.0200000
        k(   33) = (   0.3000000  -0.6350853   0.0000000), wk =   0.0200000
        k(   34) = (   0.3000000  -0.5196152   0.0000000), wk =   0.0200000
        k(   35) = (   0.3000000  -0.4041452   0.0000000), wk =   0.0200000
        k(   36) = (   0.3000000  -0.2886751   0.0000000), wk =   0.0200000
        k(   37) = (   0.4000000  -0.2309401   0.0000000), wk =   0.0200000
        k(   38) = (   0.4000000  -0.1154701   0.0000000), wk =   0.0200000
        k(   39) = (   0.4000000  -0.0000000   0.0000000), wk =   0.0200000
        k(   40) = (   0.4000000   0.1154701   0.0000000), wk =   0.0200000
        k(   41) = (   0.4000000   0.2309401   0.0000000), wk =   0.0200000
        k(   42) = (   0.4000000  -0.8082904   0.0000000), wk =   0.0200000
        k(   43) = (   0.4000000  -0.6928203   0.0000000), wk =   0.0200000
        k(   44) = (   0.4000000  -0.5773503   0.0000000), wk =   0.0200000
        k(   45) = (   0.4000000  -0.4618802   0.0000000), wk =   0.0200000
        k(   46) = (   0.4000000  -0.3464102   0.0000000), wk =   0.0200000
        k(   47) = (  -0.5000000   0.2886751   0.0000000), wk =   0.0100000
        k(   48) = (  -0.5000000   0.4041452   0.0000000), wk =   0.0200000
        k(   49) = (  -0.5000000   0.5196152   0.0000000), wk =   0.0200000
        k(   50) = (  -0.5000000   0.6350853   0.0000000), wk =   0.0200000
        k(   51) = (  -0.5000000   0.7505553   0.0000000), wk =   0.0200000
        k(   52) = (  -0.5000000  -0.2886751   0.0000000), wk =   0.0100000

     Dense  grid:   784195 G-vectors     FFT dimensions: (  72,  72, 432)

     Smooth grid:   277593 G-vectors     FFT dimensions: (  45,  45, 300)

     Estimated max dynamical RAM per process >     513.38 MB

     Estimated total dynamical RAM >      14.36 GB
 ----2D----2D----2D----2D----2D----2D----2D----2D----2D----2D----2D----2D
  The code is running with the 2D cutoff
  Please refer to:
  Sohier, T., Calandra, M., & Mauri, F. (2017), 
  Density functional perturbation theory for gated two-dimensional heterostructu
 res:
  Theoretical developments and application to flexural phonons in graphene.
  Physical Review B, 96(7), 75448. https://doi.org/10.1103/PhysRevB.96.075448
 ----2D----2D----2D----2D----2D----2D----2D----2D----2D----2D----2D----2D
     Generating pointlists ...
     new r_m :   0.2062 (alat units)  1.8957 (a.u.) for type    1
     new r_m :   0.4125 (alat units)  3.7927 (a.u.) for type    2

     Initial potential from superposition of free atoms

     starting charge     239.9940, renormalised to     240.0000

     negative rho (up, down):  2.243E-04 1.969E-04
     Starting wfcs are  216 randomized atomic wfcs
     Checking if some PAW data can be deallocated... 

     total cpu time spent up to now is      153.6 secs

     Self-consistent Calculation

     iteration #  1     ecut=    60.00 Ry     beta= 0.20
     Davidson diagonalization with overlap
     ethr =  1.00E-02,  avg # of iterations =  2.0

     negative rho (up, down):  1.446E-06 1.066E-06

     total cpu time spent up to now is      455.1 secs

     total energy              =   -4458.13701862 Ry
     estimated scf accuracy    <       8.87253719 Ry

     total magnetization       =    13.62 Bohr mag/cell
     absolute magnetization    =    13.73 Bohr mag/cell

     iteration #  2     ecut=    60.00 Ry     beta= 0.20
     Davidson diagonalization with overlap
     ethr =  3.70E-03,  avg # of iterations =  1.3

     negative rho (up, down):  2.817E-07 1.898E-07

     total cpu time spent up to now is      715.2 secs

     total energy              =   -4458.31436497 Ry
     estimated scf accuracy    <       1.92827070 Ry

     total magnetization       =    14.40 Bohr mag/cell
     absolute magnetization    =    14.58 Bohr mag/cell

     iteration #  3     ecut=    60.00 Ry     beta= 0.20
     Davidson diagonalization with overlap
     ethr =  8.03E-04,  avg # of iterations =  1.3

     negative rho (up, down):  4.723E-08 3.374E-08

     total cpu time spent up to now is      983.4 secs

     total energy              =   -4458.40934559 Ry
     estimated scf accuracy    <       8.38013270 Ry

     total magnetization       =    14.57 Bohr mag/cell
     absolute magnetization    =    14.82 Bohr mag/cell

     iteration #  4     ecut=    60.00 Ry     beta= 0.20
     Davidson diagonalization with overlap
     ethr =  8.03E-04,  avg # of iterations =  1.0

     negative rho (up, down):  1.363E-07 9.121E-08

     total cpu time spent up to now is     1241.8 secs

     total energy              =   -4458.32231737 Ry
     estimated scf accuracy    <       5.19002447 Ry

     total magnetization       =    14.94 Bohr mag/cell
     absolute magnetization    =    15.44 Bohr mag/cell

     iteration #  5     ecut=    60.00 Ry     beta= 0.20
     Davidson diagonalization with overlap
     ethr =  8.03E-04,  avg # of iterations =  1.0

     negative rho (up, down):  1.930E-07 1.312E-07

     total cpu time spent up to now is     1495.8 secs

     total energy              =   -4458.33581212 Ry
     estimated scf accuracy    <       1.17149944 Ry

     total magnetization       =    15.49 Bohr mag/cell
     absolute magnetization    =    16.74 Bohr mag/cell

     iteration #  6     ecut=    60.00 Ry     beta= 0.20
     Davidson diagonalization with overlap
     ethr =  4.88E-04,  avg # of iterations =  1.1

     negative rho (up, down):  1.351E-07 8.929E-08

     total cpu time spent up to now is     1753.3 secs

     total energy              =   -4458.35536976 Ry
     estimated scf accuracy    <       0.17207096 Ry

     total magnetization       =    15.66 Bohr mag/cell
     absolute magnetization    =    17.56 Bohr mag/cell

     iteration #  7     ecut=    60.00 Ry     beta= 0.20
     Davidson diagonalization with overlap
     ethr =  7.17E-05,  avg # of iterations =  2.2

     negative rho (up, down):  5.907E-08 4.356E-08

     total cpu time spent up to now is     2057.7 secs

     total energy              =   -4458.35763623 Ry
     estimated scf accuracy    <       0.10252867 Ry

     total magnetization       =    15.66 Bohr mag/cell
     absolute magnetization    =    17.74 Bohr mag/cell

     iteration #  8     ecut=    60.00 Ry     beta= 0.20
     Davidson diagonalization with overlap
     ethr =  4.27E-05,  avg # of iterations =  1.9

     negative rho (up, down):  4.452E-08 3.804E-08

     total cpu time spent up to now is     2356.7 secs

     total energy              =   -4458.35715820 Ry
     estimated scf accuracy    <       0.08185103 Ry

     total magnetization       =    15.63 Bohr mag/cell
     absolute magnetization    =    17.88 Bohr mag/cell

     iteration #  9     ecut=    60.00 Ry     beta= 0.20
     Davidson diagonalization with overlap
     ethr =  3.41E-05,  avg # of iterations =  1.9

     negative rho (up, down):  4.395E-08 3.832E-08

     total cpu time spent up to now is     2702.1 secs

     total energy              =   -4458.35097847 Ry
     estimated scf accuracy    <       0.10596859 Ry

     total magnetization       =    15.75 Bohr mag/cell
     absolute magnetization    =    18.30 Bohr mag/cell

     iteration # 10     ecut=    60.00 Ry     beta= 0.20
     Davidson diagonalization with overlap
     ethr =  3.41E-05,  avg # of iterations =  1.4

     negative rho (up, down):  2.146E-08 1.716E-08

     total cpu time spent up to now is     2998.3 secs

     total energy              =   -4458.35265990 Ry
     estimated scf accuracy    <       0.16310373 Ry

     total magnetization       =    15.97 Bohr mag/cell
     absolute magnetization    =    18.51 Bohr mag/cell

     iteration # 11     ecut=    60.00 Ry     beta= 0.20
     Davidson diagonalization with overlap
     ethr =  3.41E-05,  avg # of iterations =  2.0

     negative rho (up, down):  6.888E-04 3.838E-04

     total cpu time spent up to now is     3292.8 secs

     total energy              =   -4458.35465332 Ry
     estimated scf accuracy    <       0.17450772 Ry

     total magnetization       =    16.06 Bohr mag/cell
     absolute magnetization    =    18.40 Bohr mag/cell

     iteration # 12     ecut=    60.00 Ry     beta= 0.20
     Davidson diagonalization with overlap
     ethr =  3.41E-05,  avg # of iterations =  1.3

     negative rho (up, down):  9.245E-03 8.332E-03

     total cpu time spent up to now is     3551.9 secs

     total energy              =   -4458.34437035 Ry
     estimated scf accuracy    <       0.17872165 Ry

     total magnetization       =    15.91 Bohr mag/cell
     absolute magnetization    =    17.96 Bohr mag/cell

     iteration # 13     ecut=    60.00 Ry     beta= 0.20
     Davidson diagonalization with overlap
     ethr =  3.41E-05,  avg # of iterations =  1.0

     negative rho (up, down):  1.098E-02 9.956E-03

     total cpu time spent up to now is     3820.7 secs

     total energy              =   -4458.34225561 Ry
     estimated scf accuracy    <       0.10822562 Ry

     total magnetization       =    15.85 Bohr mag/cell
     absolute magnetization    =    17.90 Bohr mag/cell

     iteration # 14     ecut=    60.00 Ry     beta= 0.20
     Davidson diagonalization with overlap
     ethr =  3.41E-05,  avg # of iterations =  1.0

     negative rho (up, down):  1.148E-02 1.053E-02

     total cpu time spent up to now is     4063.1 secs

     total energy              =   -4458.31844897 Ry
     estimated scf accuracy    <       0.10145793 Ry

     total magnetization       =    15.86 Bohr mag/cell
     absolute magnetization    =    17.94 Bohr mag/cell

     iteration # 15     ecut=    60.00 Ry     beta= 0.20
     Davidson diagonalization with overlap
     ethr =  3.41E-05,  avg # of iterations =  2.0

     negative rho (up, down):  1.872E-02 1.825E-02

     total cpu time spent up to now is     4337.6 secs

     total energy              =   -4458.31355772 Ry
     estimated scf accuracy    <       0.03700519 Ry

     total magnetization       =    15.86 Bohr mag/cell
     absolute magnetization    =    18.04 Bohr mag/cell

     iteration # 16     ecut=    60.00 Ry     beta= 0.20
     Davidson diagonalization with overlap
     ethr =  1.54E-05,  avg # of iterations =  2.1

     negative rho (up, down):  1.876E-02 1.833E-02

     total cpu time spent up to now is     4648.9 secs

     total energy              =   -4458.31697025 Ry
     estimated scf accuracy    <       0.04765005 Ry

     total magnetization       =    15.55 Bohr mag/cell
     absolute magnetization    =    17.52 Bohr mag/cell

     iteration # 17     ecut=    60.00 Ry     beta= 0.20
     Davidson diagonalization with overlap
     ethr =  1.54E-05,  avg # of iterations =  1.2

     negative rho (up, down):  1.122E-02 1.089E-02

     total cpu time spent up to now is     4919.9 secs

     total energy              =   -4458.31544790 Ry
     estimated scf accuracy    <       0.04624489 Ry

     total magnetization       =    15.62 Bohr mag/cell
     absolute magnetization    =    17.59 Bohr mag/cell

     iteration # 18     ecut=    60.00 Ry     beta= 0.20
     Davidson diagonalization with overlap
     ethr =  1.54E-05,  avg # of iterations =  1.4

     negative rho (up, down):  9.496E-04 8.135E-04

     total cpu time spent up to now is     5178.6 secs

     total energy              =   -4458.31808721 Ry
     estimated scf accuracy    <       0.05364630 Ry

     total magnetization       =    15.73 Bohr mag/cell
     absolute magnetization    =    17.77 Bohr mag/cell

     iteration # 19     ecut=    60.00 Ry     beta= 0.20
     Davidson diagonalization with overlap
     ethr =  1.54E-05,  avg # of iterations =  1.0

     negative rho (up, down):  6.441E-08 7.160E-08

     total cpu time spent up to now is     5443.8 secs

     total energy              =   -4458.31831773 Ry
     estimated scf accuracy    <       0.02520281 Ry

     total magnetization       =    15.71 Bohr mag/cell
     absolute magnetization    =    17.81 Bohr mag/cell

     iteration # 20     ecut=    60.00 Ry     beta= 0.20
     Davidson diagonalization with overlap
     ethr =  1.05E-05,  avg # of iterations =  1.3

     negative rho (up, down):  1.031E-02 1.023E-02

     total cpu time spent up to now is     5726.7 secs

     total energy              =   -4458.31227489 Ry
     estimated scf accuracy    <       0.02047057 Ry

     total magnetization       =    15.72 Bohr mag/cell
     absolute magnetization    =    17.85 Bohr mag/cell

     iteration # 21     ecut=    60.00 Ry     beta= 0.20
     Davidson diagonalization with overlap
     ethr =  8.53E-06,  avg # of iterations =  2.0

     negative rho (up, down):  8.925E-03 8.905E-03

     total cpu time spent up to now is     6000.2 secs

     total energy              =   -4458.31214305 Ry
     estimated scf accuracy    <       0.06075891 Ry

     total magnetization       =    15.61 Bohr mag/cell
     absolute magnetization    =    17.64 Bohr mag/cell

     iteration # 22     ecut=    60.00 Ry     beta= 0.20
     Davidson diagonalization with overlap
     ethr =  8.53E-06,  avg # of iterations =  2.1

     negative rho (up, down):  9.154E-03 9.137E-03

     total cpu time spent up to now is     6266.7 secs

     total energy              =   -4458.31210057 Ry
     estimated scf accuracy    <       0.03263955 Ry

     total magnetization       =    15.69 Bohr mag/cell
     absolute magnetization    =    17.81 Bohr mag/cell

     iteration # 23     ecut=    60.00 Ry     beta= 0.20
     Davidson diagonalization with overlap
     ethr =  8.53E-06,  avg # of iterations =  1.3

     negative rho (up, down):  4.405E-03 4.243E-03

     total cpu time spent up to now is     6527.2 secs

     total energy              =   -4458.31121342 Ry
     estimated scf accuracy    <       0.02009764 Ry

     total magnetization       =    15.73 Bohr mag/cell
     absolute magnetization    =    17.91 Bohr mag/cell

     iteration # 24     ecut=    60.00 Ry     beta= 0.20
     Davidson diagonalization with overlap
     ethr =  8.37E-06,  avg # of iterations =  1.1

     negative rho (up, down):  1.132E-03 1.130E-03

     total cpu time spent up to now is     6809.5 secs

     total energy              =   -4458.31152726 Ry
     estimated scf accuracy    <       0.00340217 Ry

     total magnetization       =    15.88 Bohr mag/cell
     absolute magnetization    =    18.20 Bohr mag/cell

     iteration # 25     ecut=    60.00 Ry     beta= 0.20
     Davidson diagonalization with overlap
     ethr =  1.42E-06,  avg # of iterations =  5.2

     negative rho (up, down):  6.889E-04 6.035E-04

     total cpu time spent up to now is     7123.2 secs

     total energy              =   -4458.31182025 Ry
     estimated scf accuracy    <       0.00221217 Ry

     total magnetization       =    15.86 Bohr mag/cell
     absolute magnetization    =    18.15 Bohr mag/cell

     iteration # 26     ecut=    60.00 Ry     beta= 0.20
     Davidson diagonalization with overlap
     ethr =  9.22E-07,  avg # of iterations =  2.5

     negative rho (up, down):  9.147E-04 6.293E-04

     total cpu time spent up to now is     7393.1 secs

     total energy              =   -4458.31191654 Ry
     estimated scf accuracy    <       0.00145891 Ry

     total magnetization       =    15.85 Bohr mag/cell
     absolute magnetization    =    18.11 Bohr mag/cell

     iteration # 27     ecut=    60.00 Ry     beta= 0.20
     Davidson diagonalization with overlap
     ethr =  6.08E-07,  avg # of iterations =  1.4

     negative rho (up, down):  1.631E-03 1.354E-03

     total cpu time spent up to now is     7652.7 secs

     total energy              =   -4458.31207332 Ry
     estimated scf accuracy    <       0.00044257 Ry

     total magnetization       =    15.86 Bohr mag/cell
     absolute magnetization    =    18.10 Bohr mag/cell

     iteration # 28     ecut=    60.00 Ry     beta= 0.20
     Davidson diagonalization with overlap
     ethr =  1.84E-07,  avg # of iterations =  3.2

     negative rho (up, down):  8.070E-04 6.777E-04

     total cpu time spent up to now is     7937.9 secs

     total energy              =   -4458.31220738 Ry
     estimated scf accuracy    <       0.00017498 Ry

     total magnetization       =    15.86 Bohr mag/cell
     absolute magnetization    =    18.10 Bohr mag/cell

     iteration # 29     ecut=    60.00 Ry     beta= 0.20
     Davidson diagonalization with overlap
     ethr =  7.29E-08,  avg # of iterations =  2.3

     negative rho (up, down):  7.255E-04 6.742E-04

     total cpu time spent up to now is     8192.5 secs

     total energy              =   -4458.31229888 Ry
     estimated scf accuracy    <       0.00010057 Ry

     total magnetization       =    15.85 Bohr mag/cell
     absolute magnetization    =    18.09 Bohr mag/cell

     iteration # 30     ecut=    60.00 Ry     beta= 0.20
     Davidson diagonalization with overlap
     ethr =  4.19E-08,  avg # of iterations =  2.8

     negative rho (up, down):  5.978E-04 5.677E-04

     total cpu time spent up to now is     8445.8 secs

     total energy              =   -4458.31232961 Ry
     estimated scf accuracy    <       0.00034457 Ry

     total magnetization       =    15.83 Bohr mag/cell
     absolute magnetization    =    18.05 Bohr mag/cell

     iteration # 31     ecut=    60.00 Ry     beta= 0.20
     Davidson diagonalization with overlap
     ethr =  4.19E-08,  avg # of iterations =  1.9

     negative rho (up, down):  4.959E-04 4.612E-04

     total cpu time spent up to now is     8689.6 secs

     total energy              =   -4458.31233403 Ry
     estimated scf accuracy    <       0.00000867 Ry

     total magnetization       =    15.84 Bohr mag/cell
     absolute magnetization    =    18.06 Bohr mag/cell

     iteration # 32     ecut=    60.00 Ry     beta= 0.20
     Davidson diagonalization with overlap
     ethr =  3.61E-09,  avg # of iterations =  5.4

     negative rho (up, down):  4.397E-04 3.969E-04

     total cpu time spent up to now is     8990.8 secs

     total energy              =   -4458.31233619 Ry
     estimated scf accuracy    <       0.00000256 Ry

     total magnetization       =    15.84 Bohr mag/cell
     absolute magnetization    =    18.06 Bohr mag/cell

     iteration # 33     ecut=    60.00 Ry     beta= 0.20
     Davidson diagonalization with overlap
     ethr =  1.07E-09,  avg # of iterations =  2.7

     negative rho (up, down):  2.535E-04 1.957E-04

     total cpu time spent up to now is     9253.0 secs

     total energy              =   -4458.31233618 Ry
     estimated scf accuracy    <       0.00000311 Ry

     total magnetization       =    15.84 Bohr mag/cell
     absolute magnetization    =    18.06 Bohr mag/cell

     iteration # 34     ecut=    60.00 Ry     beta= 0.20
     Davidson diagonalization with overlap
     ethr =  1.07E-09,  avg # of iterations =  2.3

     negative rho (up, down):  2.410E-04 1.824E-04

     total cpu time spent up to now is     9524.4 secs

     total energy              =   -4458.31233668 Ry
     estimated scf accuracy    <       0.00000179 Ry

     total magnetization       =    15.84 Bohr mag/cell
     absolute magnetization    =    18.06 Bohr mag/cell

     iteration # 35     ecut=    60.00 Ry     beta= 0.20
     Davidson diagonalization with overlap
     ethr =  7.46E-10,  avg # of iterations =  1.1

     negative rho (up, down):  2.432E-04 1.843E-04

     total cpu time spent up to now is     9764.7 secs

     total energy              =   -4458.31233673 Ry
     estimated scf accuracy    <       0.00000076 Ry

     total magnetization       =    15.84 Bohr mag/cell
     absolute magnetization    =    18.06 Bohr mag/cell

     iteration # 36     ecut=    60.00 Ry     beta= 0.20
     Davidson diagonalization with overlap
     ethr =  3.15E-10,  avg # of iterations =  1.6

     negative rho (up, down):  2.564E-04 1.985E-04

     total cpu time spent up to now is    10009.6 secs

     total energy              =   -4458.31233680 Ry
     estimated scf accuracy    <       0.00000056 Ry

     total magnetization       =    15.84 Bohr mag/cell
     absolute magnetization    =    18.06 Bohr mag/cell

     iteration # 37     ecut=    60.00 Ry     beta= 0.20
     Davidson diagonalization with overlap
     ethr =  2.35E-10,  avg # of iterations =  1.7

     negative rho (up, down):  2.675E-04 2.101E-04

     total cpu time spent up to now is    10262.8 secs

     total energy              =   -4458.31233694 Ry
     estimated scf accuracy    <       0.00000021 Ry

     total magnetization       =    15.84 Bohr mag/cell
     absolute magnetization    =    18.06 Bohr mag/cell

     iteration # 38     ecut=    60.00 Ry     beta= 0.20
     Davidson diagonalization with overlap
     ethr =  8.85E-11,  avg # of iterations =  2.5

     negative rho (up, down):  2.646E-04 2.077E-04

     total cpu time spent up to now is    10519.0 secs

     total energy              =   -4458.31233692 Ry
     estimated scf accuracy    <       0.00000008 Ry

     total magnetization       =    15.84 Bohr mag/cell
     absolute magnetization    =    18.06 Bohr mag/cell

     iteration # 39     ecut=    60.00 Ry     beta= 0.20
     Davidson diagonalization with overlap
     ethr =  3.17E-11,  avg # of iterations =  3.1

     negative rho (up, down):  2.635E-04 2.071E-04

     total cpu time spent up to now is    10783.3 secs

     total energy              =   -4458.31233691 Ry
     estimated scf accuracy    <       0.00000006 Ry

     total magnetization       =    15.84 Bohr mag/cell
     absolute magnetization    =    18.06 Bohr mag/cell

     iteration # 40     ecut=    60.00 Ry     beta= 0.20
     Davidson diagonalization with overlap
     ethr =  2.67E-11,  avg # of iterations =  1.8

     negative rho (up, down):  2.683E-04 2.117E-04

     total cpu time spent up to now is    11036.6 secs

     total energy              =   -4458.31233695 Ry
     estimated scf accuracy    <       0.00000001 Ry

     total magnetization       =    15.84 Bohr mag/cell
     absolute magnetization    =    18.06 Bohr mag/cell

     iteration # 41     ecut=    60.00 Ry     beta= 0.20
     Davidson diagonalization with overlap
     ethr =  4.26E-12,  avg # of iterations =  4.7

     negative rho (up, down):  2.647E-04 2.079E-04
 
     Magnetic moment per site  (integrated on atomic sphere of radius R)
     atom   1 (R=0.206)  charge=  8.5690  magn=  0.7137
     atom   2 (R=0.206)  charge=  8.5690  magn=  0.7137
     atom   3 (R=0.206)  charge=  8.5690  magn=  0.7137
     atom   4 (R=0.206)  charge=  8.5690  magn=  0.7137
     atom   5 (R=0.206)  charge=  8.6529  magn=  0.7135
     atom   6 (R=0.206)  charge=  8.6529  magn=  0.7135
     atom   7 (R=0.206)  charge=  8.6529  magn=  0.7135
     atom   8 (R=0.206)  charge=  8.6529  magn=  0.7135
     atom   9 (R=0.206)  charge=  8.6587  magn=  0.6708
     atom  10 (R=0.206)  charge=  8.6587  magn=  0.6708
     atom  11 (R=0.206)  charge=  8.6587  magn=  0.6708
     atom  12 (R=0.206)  charge=  8.6587  magn=  0.6708
     atom  13 (R=0.206)  charge=  8.6588  magn=  0.6708
     atom  14 (R=0.206)  charge=  8.6588  magn=  0.6708
     atom  15 (R=0.206)  charge=  8.6588  magn=  0.6708
     atom  16 (R=0.206)  charge=  8.6588  magn=  0.6708
     atom  17 (R=0.206)  charge=  8.6529  magn=  0.7135
     atom  18 (R=0.206)  charge=  8.6529  magn=  0.7135
     atom  19 (R=0.206)  charge=  8.6529  magn=  0.7135
     atom  20 (R=0.206)  charge=  8.6529  magn=  0.7135
     atom  21 (R=0.206)  charge=  8.5689  magn=  0.7136
     atom  22 (R=0.206)  charge=  8.5689  magn=  0.7136
     atom  23 (R=0.206)  charge=  8.5689  magn=  0.7136
     atom  24 (R=0.206)  charge=  8.5689  magn=  0.7136

     total cpu time spent up to now is    11373.2 secs

     End of self-consistent calculation

     Number of k-points >= 100: set verbosity='high' to print the bands.

     the Fermi energy is    -5.1257 ev

!    total energy              =   -4458.31233693 Ry
     total all-electron energy =    -72999.713268 Ry
     estimated scf accuracy    <          5.4E-09 Ry
     smearing contrib. (-TS)   =      -0.00483055 Ry
     internal energy E=F+TS    =   -4458.30750638 Ry

     The total energy is F=E-TS. E is the sum of the following terms:
     one-electron contribution =  -75795.57003024 Ry
     hartree contribution      =   38095.76420195 Ry
     xc contribution           =   -1002.31921774 Ry
     ewald contribution        =   36287.28095062 Ry
     DFT-D3 Dispersion         =      -1.79914811 Ry
     one-center paw contrib.   =   -2041.66426287 Ry

     total magnetization       =    15.84 Bohr mag/cell
     absolute magnetization    =    18.06 Bohr mag/cell

     convergence has been achieved in  41 iterations

     negative rho (up, down):  2.647E-04 2.079E-04

     Forces acting on atoms (cartesian axes, Ry/au):

     atom    1 type  1   force =     0.00000021   -0.00000037   -0.00011265
     atom    2 type  1   force =    -0.00000159   -0.00000122   -0.00011339
     atom    3 type  1   force =    -0.00000044    0.00000148   -0.00011818
     atom    4 type  1   force =     0.00000246    0.00000019   -0.00011610
     atom    5 type  1   force =     0.00000028   -0.00000121    0.00062173
     atom    6 type  1   force =    -0.00000307    0.00000008    0.00061751
     atom    7 type  1   force =     0.00000039    0.00000140    0.00061633
     atom    8 type  1   force =     0.00000187    0.00000029    0.00061765
     atom    9 type  1   force =    -0.00000109    0.00000216   -0.00060909
     atom   10 type  1   force =     0.00000145   -0.00000209   -0.00061045
     atom   11 type  1   force =    -0.00000142   -0.00000102   -0.00061128
     atom   12 type  1   force =     0.00000108    0.00000049   -0.00060939
     atom   13 type  1   force =    -0.00000022    0.00000117    0.00050246
     atom   14 type  1   force =    -0.00000025   -0.00000115    0.00049916
     atom   15 type  1   force =     0.00000010    0.00000148    0.00050046
     atom   16 type  1   force =    -0.00000097   -0.00000176    0.00049991
     atom   17 type  1   force =     0.00000101   -0.00000333   -0.00041054
     atom   18 type  1   force =    -0.00000392   -0.00000021   -0.00041423
     atom   19 type  1   force =    -0.00000083    0.00000191   -0.00041566
     atom   20 type  1   force =     0.00000439   -0.00000012   -0.00041357
     atom   21 type  1   force =     0.00000047   -0.00000025    0.00002226
     atom   22 type  1   force =     0.00000009    0.00000045    0.00001950
     atom   23 type  1   force =     0.00000160    0.00000035    0.00001854
     atom   24 type  1   force =    -0.00000162    0.00000127    0.00001904

     Total force =     0.001782     Total SCF correction =     0.000196
     SCF correction compared to forces is large: reduce conv_thr to get better values


     Computing stress (Cartesian axis) and pressure


     negative rho (up, down):  2.647E-04 2.079E-04
          total   stress  (Ry/bohr**3)                   (kbar)     P=       -6.96
  -0.00006962   0.00000000   0.00000000          -10.24        0.00        0.00
   0.00000000  -0.00006962   0.00000000            0.00      -10.24        0.00
   0.00000000   0.00000000  -0.00000271            0.00        0.00       -0.40


     BFGS Geometry Optimization
     Energy error            =      0.0E+00 Ry
     Gradient error          =      6.1E-04 Ry/Bohr

     bfgs converged in   1 scf cycles and   0 bfgs steps
     (criteria: energy <  1.8E-05 Ry, force <  7.8E-04 Ry/Bohr)

     End of BFGS Geometry Optimization

     Final energy             =   -4458.3123369318 Ry
Begin final coordinates

ATOMIC_POSITIONS (angstrom)
Ni               4.8654290602        2.8090567776       11.0000000000    0   0   0
Ni               1.2163587666        0.7022650613       11.0000067374    0   0   0
Ni               2.4327145301        2.8090550438       11.0000067374    0   0   0
Ni               3.6490702936        0.7022650613       11.0000067374    0   0   0
Ni               2.4327145301        1.4045283888       12.9863030962    0   0   0
Ni               6.0817878268        3.5113218389       12.9863098336    0   0   0
Ni               4.8654290602        1.4045266550       12.9863098336    0   0   0
Ni               3.6490702936        3.5113218389       12.9863098336    0   0   0
Ni               2.4327147368        4.2135848083       14.9720522980
Ni               3.6490718173        2.1067929453       14.9720560241
Ni               6.0817860901        2.1067930772       14.9720564448
Ni               4.8654288947        4.2135846682       14.9720558592
Ni               4.8654291404        2.8090569171       16.9594796958
Ni               1.2163583472        0.7022646973       16.9594835019
Ni               2.4327145869        2.8090555583       16.9594835531
Ni               3.6490708660        0.7022648295       16.9594838046
Ni               2.4327148964        1.4045289663       18.9448584988
Ni               6.0817874016        3.5113214154       18.9448631398
Ni               4.8654286991        1.4045275725       18.9448635601
Ni               3.6490705728        3.5113208354       18.9448630851
Ni              -0.0000001281       -0.0000001892       20.9315839629
Ni               4.8654292456        4.2135845893       20.9315897455
Ni               6.0817855862        2.1067929276       20.9315888178
Ni               3.6490724027        2.1067927520       20.9315883693
End final coordinates



     Writing all to output data dir ./Ni_111_6Layer.save/ :
     XML data file, charge density, pseudopotentials, collected wavefunctions
 
     init_run     :     67.48s CPU    137.24s WALL (       1 calls)
     electrons    :   6511.26s CPU  11220.09s WALL (       1 calls)
     forces       :     11.60s CPU     23.34s WALL (       1 calls)
     force_dftd3  :      0.53s CPU      1.04s WALL (       1 calls)
     stress       :    263.90s CPU    365.58s WALL (       1 calls)
     stres_dftd3  :      0.51s CPU      1.02s WALL (       1 calls)

     Called by init_run:
     wfcinit      :     39.40s CPU     80.83s WALL (       1 calls)
     potinit      :      1.14s CPU      2.41s WALL (       1 calls)
     hinit0       :      0.46s CPU      0.95s WALL (       1 calls)

     Called by electrons:
     c_bands      :   5247.79s CPU   9121.48s WALL (      41 calls)
     sum_band     :   1092.49s CPU   1817.28s WALL (      41 calls)
     v_of_rho     :     21.86s CPU     37.00s WALL (      42 calls)
     newd         :      9.00s CPU     15.69s WALL (      42 calls)
     PAW_pot      :     25.30s CPU     41.44s WALL (      42 calls)
     mix_rho      :    109.16s CPU    177.54s WALL (      41 calls)
     energy_dftd3 :      0.17s CPU      0.33s WALL (       1 calls)

     Called by c_bands:
     init_us_2    :     14.63s CPU     23.50s WALL (    2210 calls)
     init_us_2:cp :     14.60s CPU     23.45s WALL (    2210 calls)
     cegterg      :   3423.31s CPU   5957.31s WALL (    1066 calls)

     Called by *egterg:
     cdiaghg      :    218.98s CPU    391.45s WALL (    3262 calls)
     h_psi        :   2443.32s CPU   4281.53s WALL (    3288 calls)
     s_psi        :    149.78s CPU    273.51s WALL (    3288 calls)
     g_psi        :      4.33s CPU      6.98s WALL (    2196 calls)

     Called by h_psi:
     h_psi:calbec :    207.38s CPU    353.90s WALL (    3288 calls)
     vloc_psi     :   2080.17s CPU   3639.71s WALL (    3288 calls)
     vloc_psi:tg_ :     29.63s CPU     31.79s WALL (    3288 calls)
     add_vuspsi   :    151.73s CPU    272.70s WALL (    3288 calls)

     General routines
     calbec       :    380.92s CPU    601.34s WALL (    4484 calls)
     fft          :     17.36s CPU     29.23s WALL (    1088 calls)
     ffts         :     31.26s CPU     54.07s WALL (    5086 calls)
     fftw         :   2545.15s CPU   4460.41s WALL (  399752 calls)
     interpolate  :      1.83s CPU      3.11s WALL (      84 calls)
 
     Parallel routines
     fft_scatt_xy :    183.59s CPU    286.02s WALL (  405926 calls)
     fft_scatt_yz :   1616.02s CPU   2999.86s WALL (  405926 calls)
     fft_scatt_tg :    352.07s CPU    544.46s WALL (  399752 calls)
 
     PWSCF        :      1h55m CPU      3h17m WALL

 
   This run was terminated on:   2:21:41   9Nov2025            

=------------------------------------------------------------------------------=
   JOB DONE.
=------------------------------------------------------------------------------=
