
     Program PWSCF v.7.3 starts on  8Nov2025 at 23: 3:59 

     This program is part of the open-source Quantum ESPRESSO suite
     for quantum simulation of materials; please cite
         "P. Giannozzi et al., J. Phys.:Condens. Matter 21 395502 (2009);
         "P. Giannozzi et al., J. Phys.:Condens. Matter 29 465901 (2017);
         "P. Giannozzi et al., J. Chem. Phys. 152 154105 (2020);
          URL http://www.quantum-espresso.org", 
     in publications or presentations arising from this work. More details at
     http://www.quantum-espresso.org/quote

     Parallel version (MPI), running on    32 processors

     MPI processes distributed on     2 nodes
     239203 MiB available memory on the printing compute node when the environment starts
 
     Reading input from Ni_111_3Layer.in

     Current dimensions of program PWSCF are:
     Max number of different atomic species (ntypx) = 10
     Max number of k-points (npk) =  40000
     Max angular momentum in pseudopotentials (lmaxx) =  4
     file Ni.upf: wavefunction(s)  4S 3D renormalized
     file H.upf: wavefunction(s)  1S renormalized

     IMPORTANT: XC functional enforced from input :
     Exchange-correlation= PBE
                           (   1   4   3   4   0   0   0)
     Any further DFT definition will be discarded
     Please, verify this is what you really want

     Found identity + ( -0.5000 -0.5000  0.0000) symmetry
     This is a supercell, fractional translations are disabled
 
     K-points division:     npool     =       4
     R & G space division:  proc/nbgrp/npool/nimage =       8
     wavefunctions fft division:  Y-proc x Z-proc =       2      4
     wavefunctions fft division:  task group distribution
                                  #TG    x Z-proc =       2      4
     Subspace diagonalization in iterative solution of the eigenvalue problem:
     one sub-group per band group will be used
     scalapack distributed-memory algorithm (size of sub-group:  2*  2 procs)

 
     Parallelization info
     --------------------
     sticks:   dense  smooth     PW     G-vecs:    dense   smooth      PW
     Min         347     174     52                97933    34684    5435
     Max         350     175     54                98106    34731    5476
     Sum        2791    1393    421               784195   277593   43661
 
     Using Pencil Decomposition
 

     Title: 
     Ni_111_3Layer                                                              


     bravais-lattice index     =            0
     lattice parameter (alat)  =       9.1943  a.u.
     unit-cell volume          =    4417.6280 (a.u.)^3
     number of atoms/cell      =           12
     number of atomic types    =            2
     number of electrons       =       120.00
     number of Kohn-Sham states=           72
     kinetic-energy cutoff     =      60.0000  Ry
     charge density cutoff     =     480.0000  Ry
     scf convergence threshold =      1.0E-08
     mixing beta               =       0.2000
     number of iterations used =           12  local-TF  mixing
     energy convergence thresh.=      9.6E-06
     force convergence thresh. =      7.8E-04
     Exchange-correlation= PBE
                           (   1   4   3   4   0   0   0)
     nstep                     =           50


     celldm(1)=   9.194328  celldm(2)=   0.000000  celldm(3)=   0.000000
     celldm(4)=   0.000000  celldm(5)=   0.000000  celldm(6)=   0.000000

     crystal axes: (cart. coord. in units of alat)
               a(1) = (   1.000000   0.000000   0.000000 )  
               a(2) = (   0.500000   0.866025   0.000000 )  
               a(3) = (   0.000000   0.000000   6.562941 )  

     reciprocal axes: (cart. coord. in units 2 pi/alat)
               b(1) = (  1.000000 -0.577350  0.000000 )  
               b(2) = (  0.000000  1.154701  0.000000 )  
               b(3) = (  0.000000  0.000000  0.152371 )  


     PseudoPot. # 1 for Ni read from file:
     /tmpu/isholek_g/isholek/MIGUEL/PP/Ni.upf
     MD5 check sum: d88365a95a5e142bd87181c2c8b16588
     Pseudo is Projector augmented-wave + core cor, Zval = 10.0
     Generated using "atomic" code by A. Dal Corso  v.5.0.2 svn rev. 9415
     Shape of augmentation charge: PSQ
     Using radial grid of 1195 points,  6 beta functions with: 
                l(1) =   0
                l(2) =   0
                l(3) =   1
                l(4) =   1
                l(5) =   2
                l(6) =   2
     Q(r) pseudized with 0 coefficients 


     PseudoPot. # 2 for H  read from file:
     /tmpu/isholek_g/isholek/MIGUEL/PP/H.upf
     MD5 check sum: 4cbe42a24e15140179a93d5bf84f2220
     Pseudo is Projector augmented-wave, Zval =  1.0
     Generated using "atomic" code by A. Dal Corso  v.5.0.2 svn rev. 9415
     Shape of augmentation charge: PSQ
     Using radial grid of  929 points,  2 beta functions with: 
                l(1) =   0
                l(2) =   0
     Q(r) pseudized with 0 coefficients 


     atomic species   valence    mass     pseudopotential
     Ni               10.00    58.69340     Ni( 1.00)
     H                 1.00     1.00784     H ( 1.00)

     Starting magnetic structure 
     atomic species   magnetization
     Ni              0.065
     H               1.000

     No symmetry found



   Cartesian axes

     site n.     atom                  positions (alat units)
         1        Ni     tau(   1) = (   1.0000000   0.5773503   2.2608489  )
         2        Ni     tau(   2) = (   0.2500003   0.1443377   2.2608503  )
         3        Ni     tau(   3) = (   0.5000000   0.5773499   2.2608503  )
         4        Ni     tau(   4) = (   0.7499997   0.1443377   2.2608503  )
         5        Ni     tau(   5) = (   0.5000000   0.2886751   2.6690972  )
         6        Ni     tau(   6) = (   1.2500003   0.7216880   2.6690986  )
         7        Ni     tau(   7) = (   1.0000000   0.2886748   2.6690986  )
         8        Ni     tau(   8) = (   0.7499997   0.7216880   2.6690986  )
         9        Ni     tau(   9) = (   0.5000000   0.8660253   3.0772317  )
        10        Ni     tau(  10) = (   0.7500000   0.4330128   3.0772324  )
        11        Ni     tau(  11) = (   1.2500000   0.4330128   3.0772325  )
        12        Ni     tau(  12) = (   1.0000000   0.8660253   3.0772324  )

     --------------------------------------------
     DFT-D3 Dispersion Correction (3-body terms):
     --------------------------------------------
       Reference C6 values for interpolation: 

         atom   Coordination number   C6
         H          0.912             6.05
         H          0.000            15.18
         Ni         0.000          1149.49
         Ni         1.794           356.66
         Ni         6.546           257.56
         Ni         6.292           283.75

       Values used:

         atom   Coordination number  R0_AB[au]  C6      C8
         Ni         7.290            3.162    261.16  21883.08
         Ni         7.290            3.162    261.16  21883.06
         Ni         7.290            3.162    261.16  21883.06
         Ni         7.290            3.162    261.16  21883.06
         Ni         9.757            3.162    257.59  21584.32
         Ni         9.757            3.162    257.59  21584.32
         Ni         9.757            3.162    257.59  21584.32
         Ni         9.757            3.162    257.59  21584.32
         Ni         7.292            3.162    261.15  21882.18
         Ni         7.292            3.162    261.15  21882.19
         Ni         7.292            3.162    261.15  21882.19
         Ni         7.292            3.162    261.15  21882.19

         Molecular C6 ( Ry / a.u.^6 ) =     37433.80


     number of k points=    52  Marzari-Vanderbilt smearing, width (Ry)=  0.0147
                       cart. coord. in units 2pi/alat
        k(    1) = (   0.0000000   0.0000000   0.0000000), wk =   0.0100000
        k(    2) = (   0.0000000   0.1154701   0.0000000), wk =   0.0200000
        k(    3) = (   0.0000000   0.2309401   0.0000000), wk =   0.0200000
        k(    4) = (   0.0000000   0.3464102   0.0000000), wk =   0.0200000
        k(    5) = (   0.0000000   0.4618802   0.0000000), wk =   0.0200000
        k(    6) = (   0.0000000  -0.5773503   0.0000000), wk =   0.0100000
        k(    7) = (   0.1000000  -0.0577350   0.0000000), wk =   0.0200000
        k(    8) = (   0.1000000   0.0577350   0.0000000), wk =   0.0200000
        k(    9) = (   0.1000000   0.1732051   0.0000000), wk =   0.0200000
        k(   10) = (   0.1000000   0.2886751   0.0000000), wk =   0.0200000
        k(   11) = (   0.1000000   0.4041452   0.0000000), wk =   0.0200000
        k(   12) = (   0.1000000  -0.6350853   0.0000000), wk =   0.0200000
        k(   13) = (   0.1000000  -0.5196152   0.0000000), wk =   0.0200000
        k(   14) = (   0.1000000  -0.4041452   0.0000000), wk =   0.0200000
        k(   15) = (   0.1000000  -0.2886751   0.0000000), wk =   0.0200000
        k(   16) = (   0.1000000  -0.1732051   0.0000000), wk =   0.0200000
        k(   17) = (   0.2000000  -0.1154701   0.0000000), wk =   0.0200000
        k(   18) = (   0.2000000  -0.0000000   0.0000000), wk =   0.0200000
        k(   19) = (   0.2000000   0.1154701   0.0000000), wk =   0.0200000
        k(   20) = (   0.2000000   0.2309401   0.0000000), wk =   0.0200000
        k(   21) = (   0.2000000   0.3464102   0.0000000), wk =   0.0200000
        k(   22) = (   0.2000000  -0.6928203   0.0000000), wk =   0.0200000
        k(   23) = (   0.2000000  -0.5773503   0.0000000), wk =   0.0200000
        k(   24) = (   0.2000000  -0.4618802   0.0000000), wk =   0.0200000
        k(   25) = (   0.2000000  -0.3464102   0.0000000), wk =   0.0200000
        k(   26) = (   0.2000000  -0.2309401   0.0000000), wk =   0.0200000
        k(   27) = (   0.3000000  -0.1732051   0.0000000), wk =   0.0200000
        k(   28) = (   0.3000000  -0.0577350   0.0000000), wk =   0.0200000
        k(   29) = (   0.3000000   0.0577350   0.0000000), wk =   0.0200000
        k(   30) = (   0.3000000   0.1732051   0.0000000), wk =   0.0200000
        k(   31) = (   0.3000000   0.2886751   0.0000000), wk =   0.0200000
        k(   32) = (   0.3000000  -0.7505553   0.0000000), wk =   0.0200000
        k(   33) = (   0.3000000  -0.6350853   0.0000000), wk =   0.0200000
        k(   34) = (   0.3000000  -0.5196152   0.0000000), wk =   0.0200000
        k(   35) = (   0.3000000  -0.4041452   0.0000000), wk =   0.0200000
        k(   36) = (   0.3000000  -0.2886751   0.0000000), wk =   0.0200000
        k(   37) = (   0.4000000  -0.2309401   0.0000000), wk =   0.0200000
        k(   38) = (   0.4000000  -0.1154701   0.0000000), wk =   0.0200000
        k(   39) = (   0.4000000  -0.0000000   0.0000000), wk =   0.0200000
        k(   40) = (   0.4000000   0.1154701   0.0000000), wk =   0.0200000
        k(   41) = (   0.4000000   0.2309401   0.0000000), wk =   0.0200000
        k(   42) = (   0.4000000  -0.8082904   0.0000000), wk =   0.0200000
        k(   43) = (   0.4000000  -0.6928203   0.0000000), wk =   0.0200000
        k(   44) = (   0.4000000  -0.5773503   0.0000000), wk =   0.0200000
        k(   45) = (   0.4000000  -0.4618802   0.0000000), wk =   0.0200000
        k(   46) = (   0.4000000  -0.3464102   0.0000000), wk =   0.0200000
        k(   47) = (  -0.5000000   0.2886751   0.0000000), wk =   0.0100000
        k(   48) = (  -0.5000000   0.4041452   0.0000000), wk =   0.0200000
        k(   49) = (  -0.5000000   0.5196152   0.0000000), wk =   0.0200000
        k(   50) = (  -0.5000000   0.6350853   0.0000000), wk =   0.0200000
        k(   51) = (  -0.5000000   0.7505553   0.0000000), wk =   0.0200000
        k(   52) = (  -0.5000000  -0.2886751   0.0000000), wk =   0.0100000

     Dense  grid:   784195 G-vectors     FFT dimensions: (  72,  72, 432)

     Smooth grid:   277593 G-vectors     FFT dimensions: (  45,  45, 300)

     Estimated max dynamical RAM per process >     357.03 MB

     Estimated total dynamical RAM >       9.48 GB
 ----2D----2D----2D----2D----2D----2D----2D----2D----2D----2D----2D----2D
  The code is running with the 2D cutoff
  Please refer to:
  Sohier, T., Calandra, M., & Mauri, F. (2017), 
  Density functional perturbation theory for gated two-dimensional heterostructu
 res:
  Theoretical developments and application to flexural phonons in graphene.
  Physical Review B, 96(7), 75448. https://doi.org/10.1103/PhysRevB.96.075448
 ----2D----2D----2D----2D----2D----2D----2D----2D----2D----2D----2D----2D
     Generating pointlists ...
     new r_m :   0.2062 (alat units)  1.8960 (a.u.) for type    1
     new r_m :   0.4125 (alat units)  3.7927 (a.u.) for type    2

     Initial potential from superposition of free atoms

     starting charge     119.9970, renormalised to     120.0000

     negative rho (up, down):  2.431E-04 2.135E-04
     Starting wfcs are  108 randomized atomic wfcs
     Checking if some PAW data can be deallocated... 

     total cpu time spent up to now is       96.7 secs

     Self-consistent Calculation

     iteration #  1     ecut=    60.00 Ry     beta= 0.20
     Davidson diagonalization with overlap
     ethr =  1.00E-02,  avg # of iterations =  2.3

     negative rho (up, down):  1.611E-04 1.576E-04

     total cpu time spent up to now is      292.3 secs

     total energy              =   -2228.88336349 Ry
     estimated scf accuracy    <       2.51480089 Ry

     total magnetization       =     6.82 Bohr mag/cell
     absolute magnetization    =     6.86 Bohr mag/cell

     iteration #  2     ecut=    60.00 Ry     beta= 0.20
     Davidson diagonalization with overlap
     ethr =  2.10E-03,  avg # of iterations =  1.7

     negative rho (up, down):  9.682E-05 8.828E-05

     total cpu time spent up to now is      464.0 secs

     total energy              =   -2228.89761052 Ry
     estimated scf accuracy    <       1.13444087 Ry

     total magnetization       =     7.34 Bohr mag/cell
     absolute magnetization    =     7.41 Bohr mag/cell

     iteration #  3     ecut=    60.00 Ry     beta= 0.20
     Davidson diagonalization with overlap
     ethr =  9.45E-04,  avg # of iterations =  1.5

     negative rho (up, down):  3.069E-05 2.499E-05

     total cpu time spent up to now is      641.3 secs

     total energy              =   -2228.91395150 Ry
     estimated scf accuracy    <       1.01604475 Ry

     total magnetization       =     7.74 Bohr mag/cell
     absolute magnetization    =     7.92 Bohr mag/cell

     iteration #  4     ecut=    60.00 Ry     beta= 0.20
     Davidson diagonalization with overlap
     ethr =  8.47E-04,  avg # of iterations =  1.1

     negative rho (up, down):  7.267E-07 3.672E-07

     total cpu time spent up to now is      823.4 secs

     total energy              =   -2228.86303452 Ry
     estimated scf accuracy    <       0.49805597 Ry

     total magnetization       =     8.04 Bohr mag/cell
     absolute magnetization    =     8.32 Bohr mag/cell

     iteration #  5     ecut=    60.00 Ry     beta= 0.20
     Davidson diagonalization with overlap
     ethr =  4.15E-04,  avg # of iterations =  1.7

     negative rho (up, down):  3.623E-07 1.924E-07

     total cpu time spent up to now is     1007.3 secs

     total energy              =   -2228.86603218 Ry
     estimated scf accuracy    <       0.31765539 Ry

     total magnetization       =     8.23 Bohr mag/cell
     absolute magnetization    =     8.83 Bohr mag/cell

     iteration #  6     ecut=    60.00 Ry     beta= 0.20
     Davidson diagonalization with overlap
     ethr =  2.65E-04,  avg # of iterations =  1.1

     negative rho (up, down):  2.749E-07 1.561E-07

     total cpu time spent up to now is     1183.0 secs

     total energy              =   -2228.87626732 Ry
     estimated scf accuracy    <       0.05894375 Ry

     total magnetization       =     8.27 Bohr mag/cell
     absolute magnetization    =     9.13 Bohr mag/cell

     iteration #  7     ecut=    60.00 Ry     beta= 0.20
     Davidson diagonalization with overlap
     ethr =  4.91E-05,  avg # of iterations =  4.5

     negative rho (up, down):  4.575E-07 3.424E-07

     total cpu time spent up to now is     1404.2 secs

     total energy              =   -2228.87687234 Ry
     estimated scf accuracy    <       0.04588528 Ry

     total magnetization       =     8.28 Bohr mag/cell
     absolute magnetization    =     9.21 Bohr mag/cell

     iteration #  8     ecut=    60.00 Ry     beta= 0.20
     Davidson diagonalization with overlap
     ethr =  3.82E-05,  avg # of iterations =  2.0

     negative rho (up, down):  1.947E-06 1.790E-06

     total cpu time spent up to now is     1608.4 secs

     total energy              =   -2228.87626699 Ry
     estimated scf accuracy    <       0.05129342 Ry

     total magnetization       =     8.26 Bohr mag/cell
     absolute magnetization    =     9.22 Bohr mag/cell

     iteration #  9     ecut=    60.00 Ry     beta= 0.20
     Davidson diagonalization with overlap
     ethr =  3.82E-05,  avg # of iterations =  1.0

     negative rho (up, down):  1.623E-06 1.499E-06

     total cpu time spent up to now is     1796.8 secs

     total energy              =   -2228.87612453 Ry
     estimated scf accuracy    <       0.04467360 Ry

     total magnetization       =     8.28 Bohr mag/cell
     absolute magnetization    =     9.33 Bohr mag/cell

     iteration # 10     ecut=    60.00 Ry     beta= 0.20
     Davidson diagonalization with overlap
     ethr =  3.72E-05,  avg # of iterations =  1.0

     negative rho (up, down):  4.317E-07 3.806E-07

     total cpu time spent up to now is     1990.4 secs

     total energy              =   -2228.87417817 Ry
     estimated scf accuracy    <       0.03702179 Ry

     total magnetization       =     8.29 Bohr mag/cell
     absolute magnetization    =     9.38 Bohr mag/cell

     iteration # 11     ecut=    60.00 Ry     beta= 0.20
     Davidson diagonalization with overlap
     ethr =  3.09E-05,  avg # of iterations =  1.4

     negative rho (up, down):  3.741E-03 3.284E-03

     total cpu time spent up to now is     2181.1 secs

     total energy              =   -2228.87496277 Ry
     estimated scf accuracy    <       0.02023318 Ry

     total magnetization       =     8.32 Bohr mag/cell
     absolute magnetization    =     9.47 Bohr mag/cell

     iteration # 12     ecut=    60.00 Ry     beta= 0.20
     Davidson diagonalization with overlap
     ethr =  1.69E-05,  avg # of iterations =  1.3

     negative rho (up, down):  8.314E-03 7.654E-03

     total cpu time spent up to now is     2375.8 secs

     total energy              =   -2228.87528807 Ry
     estimated scf accuracy    <       0.02514241 Ry

     total magnetization       =     8.28 Bohr mag/cell
     absolute magnetization    =     9.32 Bohr mag/cell

     iteration # 13     ecut=    60.00 Ry     beta= 0.20
     Davidson diagonalization with overlap
     ethr =  1.69E-05,  avg # of iterations =  1.0

     negative rho (up, down):  1.023E-02 9.475E-03

     total cpu time spent up to now is     2544.4 secs

     total energy              =   -2228.87447281 Ry
     estimated scf accuracy    <       0.02145167 Ry

     total magnetization       =     8.28 Bohr mag/cell
     absolute magnetization    =     9.33 Bohr mag/cell

     iteration # 14     ecut=    60.00 Ry     beta= 0.20
     Davidson diagonalization with overlap
     ethr =  1.69E-05,  avg # of iterations =  1.0

     negative rho (up, down):  1.492E-02 1.433E-02

     total cpu time spent up to now is     2703.0 secs

     total energy              =   -2228.87112607 Ry
     estimated scf accuracy    <       0.01643639 Ry

     total magnetization       =     8.29 Bohr mag/cell
     absolute magnetization    =     9.36 Bohr mag/cell

     iteration # 15     ecut=    60.00 Ry     beta= 0.20
     Davidson diagonalization with overlap
     ethr =  1.37E-05,  avg # of iterations =  1.8

     negative rho (up, down):  1.951E-02 1.886E-02

     total cpu time spent up to now is     2871.4 secs

     total energy              =   -2228.87129520 Ry
     estimated scf accuracy    <       0.00703693 Ry

     total magnetization       =     8.32 Bohr mag/cell
     absolute magnetization    =     9.40 Bohr mag/cell

     iteration # 16     ecut=    60.00 Ry     beta= 0.20
     Davidson diagonalization with overlap
     ethr =  5.86E-06,  avg # of iterations =  1.9

     negative rho (up, down):  2.206E-02 2.159E-02

     total cpu time spent up to now is     3047.3 secs

     total energy              =   -2228.86904848 Ry
     estimated scf accuracy    <       0.00604627 Ry

     total magnetization       =     8.32 Bohr mag/cell
     absolute magnetization    =     9.41 Bohr mag/cell

     iteration # 17     ecut=    60.00 Ry     beta= 0.20
     Davidson diagonalization with overlap
     ethr =  5.04E-06,  avg # of iterations =  2.1

     negative rho (up, down):  2.525E-02 2.511E-02

     total cpu time spent up to now is     3226.8 secs

     total energy              =   -2228.86650892 Ry
     estimated scf accuracy    <       0.00480128 Ry

     total magnetization       =     8.33 Bohr mag/cell
     absolute magnetization    =     9.46 Bohr mag/cell

     iteration # 18     ecut=    60.00 Ry     beta= 0.20
     Davidson diagonalization with overlap
     ethr =  4.00E-06,  avg # of iterations =  1.9

     negative rho (up, down):  2.538E-02 2.527E-02

     total cpu time spent up to now is     3395.9 secs

     total energy              =   -2228.86584199 Ry
     estimated scf accuracy    <       0.00371981 Ry

     total magnetization       =     8.32 Bohr mag/cell
     absolute magnetization    =     9.42 Bohr mag/cell

     iteration # 19     ecut=    60.00 Ry     beta= 0.20
     Davidson diagonalization with overlap
     ethr =  3.10E-06,  avg # of iterations =  2.0

     negative rho (up, down):  1.885E-02 1.881E-02

     total cpu time spent up to now is     3583.9 secs

     total energy              =   -2228.86466094 Ry
     estimated scf accuracy    <       0.00288979 Ry

     total magnetization       =     8.33 Bohr mag/cell
     absolute magnetization    =     9.46 Bohr mag/cell

     iteration # 20     ecut=    60.00 Ry     beta= 0.20
     Davidson diagonalization with overlap
     ethr =  2.41E-06,  avg # of iterations =  2.2

     negative rho (up, down):  2.058E-02 2.057E-02

     total cpu time spent up to now is     3775.5 secs

     total energy              =   -2228.86312093 Ry
     estimated scf accuracy    <       0.00239109 Ry

     total magnetization       =     8.34 Bohr mag/cell
     absolute magnetization    =     9.48 Bohr mag/cell

     iteration # 21     ecut=    60.00 Ry     beta= 0.20
     Davidson diagonalization with overlap
     ethr =  1.99E-06,  avg # of iterations =  2.8

     negative rho (up, down):  1.839E-02 1.837E-02

     total cpu time spent up to now is     3986.9 secs

     total energy              =   -2228.86275954 Ry
     estimated scf accuracy    <       0.00105112 Ry

     total magnetization       =     8.33 Bohr mag/cell
     absolute magnetization    =     9.46 Bohr mag/cell

     iteration # 22     ecut=    60.00 Ry     beta= 0.20
     Davidson diagonalization with overlap
     ethr =  8.76E-07,  avg # of iterations =  2.3

     negative rho (up, down):  1.237E-02 1.237E-02

     total cpu time spent up to now is     4187.8 secs

     total energy              =   -2228.86252559 Ry
     estimated scf accuracy    <       0.00078826 Ry

     total magnetization       =     8.33 Bohr mag/cell
     absolute magnetization    =     9.46 Bohr mag/cell

     iteration # 23     ecut=    60.00 Ry     beta= 0.20
     Davidson diagonalization with overlap
     ethr =  6.57E-07,  avg # of iterations =  3.1

     negative rho (up, down):  9.225E-03 9.227E-03

     total cpu time spent up to now is     4403.2 secs

     total energy              =   -2228.86242920 Ry
     estimated scf accuracy    <       0.00039846 Ry

     total magnetization       =     8.34 Bohr mag/cell
     absolute magnetization    =     9.46 Bohr mag/cell

     iteration # 24     ecut=    60.00 Ry     beta= 0.20
     Davidson diagonalization with overlap
     ethr =  3.32E-07,  avg # of iterations =  2.1

     negative rho (up, down):  8.417E-03 8.418E-03

     total cpu time spent up to now is     4598.8 secs

     total energy              =   -2228.86243893 Ry
     estimated scf accuracy    <       0.00026119 Ry

     total magnetization       =     8.34 Bohr mag/cell
     absolute magnetization    =     9.46 Bohr mag/cell

     iteration # 25     ecut=    60.00 Ry     beta= 0.20
     Davidson diagonalization with overlap
     ethr =  2.18E-07,  avg # of iterations =  1.5

     negative rho (up, down):  5.698E-03 5.699E-03

     total cpu time spent up to now is     4766.4 secs

     total energy              =   -2228.86252326 Ry
     estimated scf accuracy    <       0.00021599 Ry

     total magnetization       =     8.34 Bohr mag/cell
     absolute magnetization    =     9.46 Bohr mag/cell

     iteration # 26     ecut=    60.00 Ry     beta= 0.20
     Davidson diagonalization with overlap
     ethr =  1.80E-07,  avg # of iterations =  1.8

     negative rho (up, down):  3.881E-03 3.877E-03

     total cpu time spent up to now is     4954.5 secs

     total energy              =   -2228.86253818 Ry
     estimated scf accuracy    <       0.00013197 Ry

     total magnetization       =     8.34 Bohr mag/cell
     absolute magnetization    =     9.46 Bohr mag/cell

     iteration # 27     ecut=    60.00 Ry     beta= 0.20
     Davidson diagonalization with overlap
     ethr =  1.10E-07,  avg # of iterations =  2.0

     negative rho (up, down):  2.117E-03 2.107E-03

     total cpu time spent up to now is     5137.6 secs

     total energy              =   -2228.86255240 Ry
     estimated scf accuracy    <       0.00008073 Ry

     total magnetization       =     8.34 Bohr mag/cell
     absolute magnetization    =     9.47 Bohr mag/cell

     iteration # 28     ecut=    60.00 Ry     beta= 0.20
     Davidson diagonalization with overlap
     ethr =  6.73E-08,  avg # of iterations =  2.0

     negative rho (up, down):  8.668E-04 8.444E-04

     total cpu time spent up to now is     5325.7 secs

     total energy              =   -2228.86258025 Ry
     estimated scf accuracy    <       0.00004876 Ry

     total magnetization       =     8.34 Bohr mag/cell
     absolute magnetization    =     9.47 Bohr mag/cell

     iteration # 29     ecut=    60.00 Ry     beta= 0.20
     Davidson diagonalization with overlap
     ethr =  4.06E-08,  avg # of iterations =  2.1

     negative rho (up, down):  5.302E-04 5.008E-04

     total cpu time spent up to now is     5516.0 secs

     total energy              =   -2228.86264681 Ry
     estimated scf accuracy    <       0.00003099 Ry

     total magnetization       =     8.34 Bohr mag/cell
     absolute magnetization    =     9.48 Bohr mag/cell

     iteration # 30     ecut=    60.00 Ry     beta= 0.20
     Davidson diagonalization with overlap
     ethr =  2.58E-08,  avg # of iterations =  2.3

     negative rho (up, down):  3.465E-04 2.992E-04

     total cpu time spent up to now is     5708.4 secs

     total energy              =   -2228.86265791 Ry
     estimated scf accuracy    <       0.00001433 Ry

     total magnetization       =     8.34 Bohr mag/cell
     absolute magnetization    =     9.48 Bohr mag/cell

     iteration # 31     ecut=    60.00 Ry     beta= 0.20
     Davidson diagonalization with overlap
     ethr =  1.19E-08,  avg # of iterations =  2.5

     negative rho (up, down):  2.949E-04 2.409E-04

     total cpu time spent up to now is     5893.8 secs

     total energy              =   -2228.86265976 Ry
     estimated scf accuracy    <       0.00000295 Ry

     total magnetization       =     8.34 Bohr mag/cell
     absolute magnetization    =     9.47 Bohr mag/cell

     iteration # 32     ecut=    60.00 Ry     beta= 0.20
     Davidson diagonalization with overlap
     ethr =  2.46E-09,  avg # of iterations =  3.6

     negative rho (up, down):  3.774E-04 3.275E-04

     total cpu time spent up to now is     6120.4 secs

     total energy              =   -2228.86266022 Ry
     estimated scf accuracy    <       0.00000158 Ry

     total magnetization       =     8.34 Bohr mag/cell
     absolute magnetization    =     9.48 Bohr mag/cell

     iteration # 33     ecut=    60.00 Ry     beta= 0.20
     Davidson diagonalization with overlap
     ethr =  1.31E-09,  avg # of iterations =  2.2

     negative rho (up, down):  2.393E-04 1.768E-04

     total cpu time spent up to now is     6344.3 secs

     total energy              =   -2228.86266110 Ry
     estimated scf accuracy    <       0.00000179 Ry

     total magnetization       =     8.34 Bohr mag/cell
     absolute magnetization    =     9.48 Bohr mag/cell

     iteration # 34     ecut=    60.00 Ry     beta= 0.20
     Davidson diagonalization with overlap
     ethr =  1.31E-09,  avg # of iterations =  2.3

     negative rho (up, down):  2.278E-04 1.667E-04

     total cpu time spent up to now is     6566.8 secs

     total energy              =   -2228.86266123 Ry
     estimated scf accuracy    <       0.00000070 Ry

     total magnetization       =     8.34 Bohr mag/cell
     absolute magnetization    =     9.48 Bohr mag/cell

     iteration # 35     ecut=    60.00 Ry     beta= 0.20
     Davidson diagonalization with overlap
     ethr =  5.80E-10,  avg # of iterations =  1.6

     negative rho (up, down):  2.286E-04 1.652E-04

     total cpu time spent up to now is     6766.2 secs

     total energy              =   -2228.86266063 Ry
     estimated scf accuracy    <       0.00000054 Ry

     total magnetization       =     8.34 Bohr mag/cell
     absolute magnetization    =     9.48 Bohr mag/cell

     iteration # 36     ecut=    60.00 Ry     beta= 0.20
     Davidson diagonalization with overlap
     ethr =  4.52E-10,  avg # of iterations =  2.5

     negative rho (up, down):  2.108E-04 1.495E-04

     total cpu time spent up to now is     6953.2 secs

     total energy              =   -2228.86266052 Ry
     estimated scf accuracy    <       0.00000047 Ry

     total magnetization       =     8.34 Bohr mag/cell
     absolute magnetization    =     9.48 Bohr mag/cell

     iteration # 37     ecut=    60.00 Ry     beta= 0.20
     Davidson diagonalization with overlap
     ethr =  3.93E-10,  avg # of iterations =  1.7

     negative rho (up, down):  2.022E-04 1.433E-04

     total cpu time spent up to now is     7130.2 secs

     total energy              =   -2228.86266066 Ry
     estimated scf accuracy    <       0.00000028 Ry

     total magnetization       =     8.34 Bohr mag/cell
     absolute magnetization    =     9.48 Bohr mag/cell

     iteration # 38     ecut=    60.00 Ry     beta= 0.20
     Davidson diagonalization with overlap
     ethr =  2.36E-10,  avg # of iterations =  1.4

     negative rho (up, down):  2.048E-04 1.490E-04

     total cpu time spent up to now is     7315.5 secs

     total energy              =   -2228.86266084 Ry
     estimated scf accuracy    <       0.00000019 Ry

     total magnetization       =     8.34 Bohr mag/cell
     absolute magnetization    =     9.48 Bohr mag/cell

     iteration # 39     ecut=    60.00 Ry     beta= 0.20
     Davidson diagonalization with overlap
     ethr =  1.59E-10,  avg # of iterations =  1.7

     negative rho (up, down):  2.087E-04 1.534E-04

     total cpu time spent up to now is     7508.0 secs

     total energy              =   -2228.86266096 Ry
     estimated scf accuracy    <       0.00000015 Ry

     total magnetization       =     8.34 Bohr mag/cell
     absolute magnetization    =     9.48 Bohr mag/cell

     iteration # 40     ecut=    60.00 Ry     beta= 0.20
     Davidson diagonalization with overlap
     ethr =  1.29E-10,  avg # of iterations =  1.5

     negative rho (up, down):  2.207E-04 1.636E-04

     total cpu time spent up to now is     7691.2 secs

     total energy              =   -2228.86266124 Ry
     estimated scf accuracy    <       0.00000011 Ry

     total magnetization       =     8.34 Bohr mag/cell
     absolute magnetization    =     9.48 Bohr mag/cell

     iteration # 41     ecut=    60.00 Ry     beta= 0.20
     Davidson diagonalization with overlap
     ethr =  8.77E-11,  avg # of iterations =  2.2

     negative rho (up, down):  2.433E-04 1.834E-04

     total cpu time spent up to now is     7890.0 secs

     total energy              =   -2228.86266158 Ry
     estimated scf accuracy    <       0.00000007 Ry

     total magnetization       =     8.34 Bohr mag/cell
     absolute magnetization    =     9.48 Bohr mag/cell

     iteration # 42     ecut=    60.00 Ry     beta= 0.20
     Davidson diagonalization with overlap
     ethr =  5.65E-11,  avg # of iterations =  2.2

     negative rho (up, down):  2.664E-04 2.029E-04

     total cpu time spent up to now is     8088.3 secs

     total energy              =   -2228.86266189 Ry
     estimated scf accuracy    <       0.00000004 Ry

     total magnetization       =     8.34 Bohr mag/cell
     absolute magnetization    =     9.48 Bohr mag/cell

     iteration # 43     ecut=    60.00 Ry     beta= 0.20
     Davidson diagonalization with overlap
     ethr =  2.94E-11,  avg # of iterations =  2.8

     negative rho (up, down):  2.764E-04 2.141E-04
 
     Magnetic moment per site  (integrated on atomic sphere of radius R)
     atom   1 (R=0.206)  charge=  8.5701  magn=  0.7219
     atom   2 (R=0.206)  charge=  8.5701  magn=  0.7219
     atom   3 (R=0.206)  charge=  8.5701  magn=  0.7219
     atom   4 (R=0.206)  charge=  8.5701  magn=  0.7219
     atom   5 (R=0.206)  charge=  8.6489  magn=  0.7559
     atom   6 (R=0.206)  charge=  8.6489  magn=  0.7559
     atom   7 (R=0.206)  charge=  8.6489  magn=  0.7559
     atom   8 (R=0.206)  charge=  8.6489  magn=  0.7559
     atom   9 (R=0.206)  charge=  8.5707  magn=  0.7219
     atom  10 (R=0.206)  charge=  8.5707  magn=  0.7219
     atom  11 (R=0.206)  charge=  8.5707  magn=  0.7219
     atom  12 (R=0.206)  charge=  8.5707  magn=  0.7219

     total cpu time spent up to now is     8298.1 secs

     End of self-consistent calculation

     Number of k-points >= 100: set verbosity='high' to print the bands.

     the Fermi energy is    -5.0910 ev

!    total energy              =   -2228.86266198 Ry
     total all-electron energy =    -36499.563128 Ry
     estimated scf accuracy    <          8.9E-09 Ry
     smearing contrib. (-TS)   =      -0.00187446 Ry
     internal energy E=F+TS    =   -2228.86078751 Ry

     The total energy is F=E-TS. E is the sum of the following terms:
     one-electron contribution =  -28447.91184806 Ry
     hartree contribution      =   14323.33749658 Ry
     xc contribution           =    -500.83870268 Ry
     ewald contribution        =   13418.12626162 Ry
     DFT-D3 Dispersion         =      -0.78093823 Ry
     one-center paw contrib.   =   -1020.79305673 Ry

     total magnetization       =     8.34 Bohr mag/cell
     absolute magnetization    =     9.48 Bohr mag/cell

     convergence has been achieved in  43 iterations

     negative rho (up, down):  2.764E-04 2.141E-04

     Forces acting on atoms (cartesian axes, Ry/au):

     atom    1 type  1   force =     0.00000052    0.00000242    0.00056050
     atom    2 type  1   force =    -0.00000095    0.00000003    0.00056511
     atom    3 type  1   force =     0.00000153    0.00000391    0.00055946
     atom    4 type  1   force =     0.00000055   -0.00000160    0.00055819
     atom    5 type  1   force =    -0.00000172    0.00000071   -0.00012737
     atom    6 type  1   force =     0.00000163   -0.00000102   -0.00012721
     atom    7 type  1   force =    -0.00000084    0.00000011   -0.00012764
     atom    8 type  1   force =    -0.00000125   -0.00000015   -0.00012955
     atom    9 type  1   force =     0.00000115   -0.00000210   -0.00043118
     atom   10 type  1   force =    -0.00000056   -0.00000171   -0.00043251
     atom   11 type  1   force =     0.00000055   -0.00000026   -0.00043346
     atom   12 type  1   force =    -0.00000061   -0.00000034   -0.00043433

     Total force =     0.000866     Total SCF correction =     0.000182
     SCF correction compared to forces is large: reduce conv_thr to get better values


     Computing stress (Cartesian axis) and pressure


     negative rho (up, down):  2.764E-04 2.141E-04
          total   stress  (Ry/bohr**3)                   (kbar)     P=       -6.57
  -0.00006598   0.00000000   0.00000000           -9.71        0.00        0.00
   0.00000000  -0.00006598  -0.00000000            0.00       -9.71       -0.00
   0.00000000  -0.00000000  -0.00000201            0.00       -0.00       -0.30


     BFGS Geometry Optimization
     Energy error            =      0.0E+00 Ry
     Gradient error          =      4.3E-04 Ry/Bohr

     bfgs converged in   1 scf cycles and   0 bfgs steps
     (criteria: energy <  9.6E-06 Ry, force <  7.8E-04 Ry/Bohr)

     End of BFGS Geometry Optimization

     Final energy             =   -2228.8626619780 Ry
Begin final coordinates

ATOMIC_POSITIONS (angstrom)
Ni               4.8654290602        2.8090567776       11.0000000000    0   0   0
Ni               1.2163587666        0.7022650613       11.0000067374    0   0   0
Ni               2.4327145301        2.8090550438       11.0000067374    0   0   0
Ni               3.6490702936        0.7022650613       11.0000067374    0   0   0
Ni               2.4327145301        1.4045283888       12.9863030962    0   0   0
Ni               6.0817878268        3.5113218389       12.9863098336    0   0   0
Ni               4.8654290602        1.4045266550       12.9863098336    0   0   0
Ni               3.6490702936        3.5113218389       12.9863098336    0   0   0
Ni               2.4327147368        4.2135848083       14.9720522980
Ni               3.6490718173        2.1067929453       14.9720560241
Ni               6.0817860901        2.1067930772       14.9720564448
Ni               4.8654288947        4.2135846682       14.9720558592
End final coordinates



     Writing all to output data dir ./Ni_111_3Layer.save/ :
     XML data file, charge density, pseudopotentials, collected wavefunctions
 
     init_run     :     40.56s CPU     75.44s WALL (       1 calls)
     electrons    :   4258.43s CPU   8202.02s WALL (       1 calls)
     forces       :      5.21s CPU      9.94s WALL (       1 calls)
     force_dftd3  :      0.49s CPU      0.49s WALL (       1 calls)
     stress       :     51.03s CPU     94.77s WALL (       1 calls)
     stres_dftd3  :      0.41s CPU      0.41s WALL (       1 calls)

     Called by init_run:
     wfcinit      :     35.15s CPU     64.45s WALL (       1 calls)
     potinit      :      1.00s CPU      2.10s WALL (       1 calls)
     hinit0       :      0.36s CPU      0.77s WALL (       1 calls)

     Called by electrons:
     c_bands      :   3485.16s CPU   6683.46s WALL (      43 calls)
     sum_band     :    548.19s CPU   1085.96s WALL (      43 calls)
     v_of_rho     :     24.77s CPU     48.34s WALL (      44 calls)
     newd         :      6.87s CPU     15.05s WALL (      44 calls)
     PAW_pot      :     17.01s CPU     32.49s WALL (      44 calls)
     mix_rho      :    167.29s CPU    318.95s WALL (      43 calls)
     energy_dftd3 :      0.15s CPU      0.28s WALL (       1 calls)

     Called by c_bands:
     init_us_2    :      9.02s CPU     14.45s WALL (    2314 calls)
     init_us_2:cp :      9.00s CPU     14.42s WALL (    2314 calls)
     cegterg      :   2719.43s CPU   5212.37s WALL (    1118 calls)

     Called by *egterg:
     cdiaghg      :    371.94s CPU    720.25s WALL (    3466 calls)
     h_psi        :   1818.77s CPU   3482.14s WALL (    3492 calls)
     s_psi        :     43.22s CPU     81.73s WALL (    3492 calls)
     g_psi        :      2.26s CPU      3.65s WALL (    2348 calls)

     Called by h_psi:
     h_psi:calbec :    103.25s CPU    195.93s WALL (    3492 calls)
     vloc_psi     :   1668.57s CPU   3199.90s WALL (    3492 calls)
     vloc_psi:tg_ :      9.05s CPU     11.59s WALL (    3492 calls)
     add_vuspsi   :     43.96s CPU     81.03s WALL (    3492 calls)

     General routines
     calbec       :    147.45s CPU    282.66s WALL (    4740 calls)
     fft          :     20.09s CPU     38.92s WALL (    1138 calls)
     ffts         :     42.24s CPU     84.60s WALL (    5340 calls)
     fftw         :   2001.02s CPU   3880.54s WALL (  208304 calls)
     interpolate  :      2.23s CPU      4.48s WALL (      88 calls)
 
     Parallel routines
     fft_scatt_xy :    110.34s CPU    233.12s WALL (  214782 calls)
     fft_scatt_yz :   1629.27s CPU   3226.72s WALL (  214782 calls)
     fft_scatt_tg :     74.07s CPU    117.08s WALL (  208304 calls)
 
     PWSCF        :      1h13m CPU      2h20m WALL

 
   This run was terminated on:   1:24:57   9Nov2025            

=------------------------------------------------------------------------------=
   JOB DONE.
=------------------------------------------------------------------------------=
