
     Program PWSCF v.7.3 starts on 11Apr2026 at  7:30: 8 

     This program is part of the open-source Quantum ESPRESSO suite
     for quantum simulation of materials; please cite
         "P. Giannozzi et al., J. Phys.:Condens. Matter 21 395502 (2009);
         "P. Giannozzi et al., J. Phys.:Condens. Matter 29 465901 (2017);
         "P. Giannozzi et al., J. Chem. Phys. 152 154105 (2020);
          URL http://www.quantum-espresso.org", 
     in publications or presentations arising from this work. More details at
     http://www.quantum-espresso.org/quote

     Parallel version (MPI), running on    64 processors

     MPI processes distributed on     4 nodes
     58253 MiB available memory on the printing compute node when the environment starts
 
     Reading input from /tmpu/isholek_g/isholek/MIGUEL/QE/Hydrogen/111_2x2/SCF/Ni1Pd3_111-H_hcp_2-SCF.in

     Current dimensions of program PWSCF are:
     Max number of different atomic species (ntypx) = 10
     Max number of k-points (npk) =  40000
     Max angular momentum in pseudopotentials (lmaxx) =  4
     file Ni.upf: wavefunction(s)  4S 3D renormalized
     file Pd.upf: wavefunction(s)  5S 4D renormalized
     file H.upf: wavefunction(s)  1S renormalized

     IMPORTANT: XC functional enforced from input :
     Exchange-correlation= PBE
                           (   1   4   3   4   0   0   0)
     Any further DFT definition will be discarded
     Please, verify this is what you really want

 
     K-points division:     npool     =       8
     R & G space division:  proc/nbgrp/npool/nimage =       8
     Subspace diagonalization in iterative solution of the eigenvalue problem:
     one sub-group per band group will be used
     scalapack distributed-memory algorithm (size of sub-group:  2*  2 procs)

 
     Parallelization info
     --------------------
     sticks:   dense  smooth     PW     G-vecs:    dense   smooth      PW
     Min         416     207     60               120460    42599    6636
     Max         417     208     64               120479    42626    6643
     Sum        3331    1663    499               963739   340921   53115
 
     Using Slab Decomposition
 

     Title: 
     Ni1Pd3_111-H_hcp_2-SCF                                                     


     bravais-lattice index     =            0
     lattice parameter (alat)  =      10.0481  a.u.
     unit-cell volume          =    5428.4795 (a.u.)^3
     number of atoms/cell      =           25
     number of atomic types    =            3
     number of electrons       =       241.00
     number of Kohn-Sham states=          145
     kinetic-energy cutoff     =      60.0000  Ry
     charge density cutoff     =     480.0000  Ry
     scf convergence threshold =      1.0E-10
     mixing beta               =       0.2000
     number of iterations used =           12  local-TF  mixing
     Exchange-correlation= PBE
                           (   1   4   3   4   0   0   0)

     celldm(1)=  10.048050  celldm(2)=   0.000000  celldm(3)=   0.000000
     celldm(4)=   0.000000  celldm(5)=   0.000000  celldm(6)=   0.000000

     crystal axes: (cart. coord. in units of alat)
               a(1) = (   1.000000   0.000000   0.000000 )  
               a(2) = (   0.500000   0.866025   0.000000 )  
               a(3) = (   0.000000   0.000000   6.178773 )  

     reciprocal axes: (cart. coord. in units 2 pi/alat)
               b(1) = (  1.000000 -0.577350  0.000000 )  
               b(2) = (  0.000000  1.154701  0.000000 )  
               b(3) = (  0.000000  0.000000  0.161844 )  


     PseudoPot. # 1 for Ni read from file:
     /tmpu/isholek_g/isholek/MIGUEL/PP/PAW/Ni.upf
     MD5 check sum: d88365a95a5e142bd87181c2c8b16588
     Pseudo is Projector augmented-wave + core cor, Zval = 10.0
     Generated using "atomic" code by A. Dal Corso  v.5.0.2 svn rev. 9415
     Shape of augmentation charge: PSQ
     Using radial grid of 1195 points,  6 beta functions with: 
                l(1) =   0
                l(2) =   0
                l(3) =   1
                l(4) =   1
                l(5) =   2
                l(6) =   2
     Q(r) pseudized with 0 coefficients 


     PseudoPot. # 2 for Pd read from file:
     /tmpu/isholek_g/isholek/MIGUEL/PP/PAW/Pd.upf
     MD5 check sum: e9d6f14fd83b79f8105499163af174c9
     Pseudo is Projector augmented-wave + core cor, Zval = 10.0
     Generated using "atomic" code by A. Dal Corso  v.5.0.2 svn rev. 9415
     Shape of augmentation charge: PSQ
     Using radial grid of 1235 points,  6 beta functions with: 
                l(1) =   0
                l(2) =   0
                l(3) =   1
                l(4) =   1
                l(5) =   2
                l(6) =   2
     Q(r) pseudized with 0 coefficients 


     PseudoPot. # 3 for H  read from file:
     /tmpu/isholek_g/isholek/MIGUEL/PP/PAW/H.upf
     MD5 check sum: 4cbe42a24e15140179a93d5bf84f2220
     Pseudo is Projector augmented-wave, Zval =  1.0
     Generated using "atomic" code by A. Dal Corso  v.5.0.2 svn rev. 9415
     Shape of augmentation charge: PSQ
     Using radial grid of  929 points,  2 beta functions with: 
                l(1) =   0
                l(2) =   0
     Q(r) pseudized with 0 coefficients 


     atomic species   valence    mass     pseudopotential
     Ni               10.00    58.69340     Ni( 1.00)
     Pd               10.00   106.42000     Pd( 1.00)
     H                 1.00     1.00794     H ( 1.00)

     Starting magnetic structure 
     atomic species   magnetization
     Ni              0.650
     Pd              0.100
     H               0.000

     No symmetry found



   Cartesian axes

     site n.     atom                  positions (alat units)
         1        Ni     tau(   1) = (   1.0000000   0.5773503   2.0687584  )
         2        Pd     tau(   2) = (   0.5000000   0.5773500   2.0687727  )
         3        Pd     tau(   3) = (   0.7499998   0.1443377   2.0687727  )
         4        Pd     tau(   4) = (   0.2500002   0.1443377   2.0687727  )
         5        Ni     tau(   5) = (   0.5000000   0.2886751   2.4770066  )
         6        Pd     tau(   6) = (   0.7499998   0.7216879   2.4770210  )
         7        Pd     tau(   7) = (   1.0000000   0.2886749   2.4770210  )
         8        Pd     tau(   8) = (   1.2500002   0.7216879   2.4770210  )
         9        Ni     tau(   9) = (   0.0000000   0.0005293   2.8847282  )
        10        Pd     tau(  10) = (   1.0000000   0.8664552   2.8840637  )
        11        Pd     tau(  11) = (   0.7500331   0.4333411   2.8851170  )
        12        Pd     tau(  12) = (   1.2499669   0.4333411   2.8851170  )
        13        Ni     tau(  13) = (   1.0000000   0.5773941   3.2928853  )
        14        Pd     tau(  14) = (   0.7499536   0.1443791   3.2930544  )
        15        Pd     tau(  15) = (   0.5000000   0.5771739   3.2930055  )
        16        Pd     tau(  16) = (   0.2500463   0.1443791   3.2930544  )
        17        Ni     tau(  17) = (   0.5000000   0.2868780   3.7026466  )
        18        Pd     tau(  18) = (   0.7511353   0.7188548   3.6995567  )
        19        Pd     tau(  19) = (   1.0000000   0.2873108   3.7022702  )
        20        Pd     tau(  20) = (   1.2488646   0.7188548   3.6995567  )
        21        Ni     tau(  21) = (   0.0000000  -0.0005016   4.0974112  )
        22        Pd     tau(  22) = (   1.0000000   0.8656567   4.1140357  )
        23        Pd     tau(  23) = (   0.7508128   0.4277325   4.1182711  )
        24        Pd     tau(  24) = (   1.2491872   0.4277325   4.1182712  )
        25        H      tau(  25) = (   0.5000000   0.5968694   4.2788444  )

     --------------------------------------------
     DFT-D3 Dispersion Correction (3-body terms):
     --------------------------------------------
       Reference C6 values for interpolation: 

         atom   Coordination number   C6
         H          0.912             6.05
         H          0.000            15.18
         Ni         0.000          1149.49
         Ni         1.794           356.66
         Ni         6.546           257.56
         Ni         6.292           283.75
         Pd         0.000          1217.01
         Pd         1.863           573.90
         Pd         5.710           531.75

       Values used:

         atom   Coordination number  R0_AB[au]  C6      C8
         Ni         5.893            3.162    276.72  23187.45
         Pd         6.810            3.168    531.75  48720.73
         Pd         6.810            3.168    531.75  48720.73
         Pd         6.810            3.168    531.75  48720.73
         Ni         7.884            3.162    258.75  21681.56
         Pd         9.135            3.168    531.75  48720.73
         Pd         9.133            3.168    531.75  48720.73
         Pd         9.135            3.168    531.75  48720.73
         Ni         7.890            3.162    258.74  21680.45
         Pd         9.146            3.168    531.75  48720.73
         Pd         9.146            3.168    531.75  48720.73
         Pd         9.146            3.168    531.75  48720.73
         Ni         7.911            3.162    258.69  21676.55
         Pd         9.129            3.168    531.75  48720.73
         Pd         9.139            3.168    531.75  48720.73
         Pd         9.129            3.168    531.75  48720.73
         Ni         7.756            3.162    259.09  21709.55
         Pd         9.109            3.168    531.75  48720.73
         Pd         9.127            3.168    531.75  48720.73
         Pd         9.109            3.168    531.75  48720.73
         Ni         6.619            3.162    267.61  22423.73
         Pd         6.728            3.168    531.75  48720.73
         Pd         7.260            3.168    531.75  48720.73
         Pd         7.260            3.168    531.75  48720.73
         H          1.759            2.062      6.05     73.18

         Molecular C6 ( Ry / a.u.^6 ) =    264986.85


     number of k points=   256  Marzari-Vanderbilt smearing, width (Ry)=  0.0147

     Number of k-points >= 100: set verbosity='high' to print them.

     Dense  grid:   963739 G-vectors     FFT dimensions: (  72,  72, 450)

     Smooth grid:   340921 G-vectors     FFT dimensions: (  50,  50, 320)

     Estimated max dynamical RAM per process >       1.01 GB

     Estimated total dynamical RAM >      59.77 GB
 ----2D----2D----2D----2D----2D----2D----2D----2D----2D----2D----2D----2D
  The code is running with the 2D cutoff
  Please refer to:
  Sohier, T., Calandra, M., & Mauri, F. (2017), 
  Density functional perturbation theory for gated two-dimensional heterostructu
 res:
  Theoretical developments and application to flexural phonons in graphene.
  Physical Review B, 96(7), 75448. https://doi.org/10.1103/PhysRevB.96.075448
 ----2D----2D----2D----2D----2D----2D----2D----2D----2D----2D----2D----2D

     Check: negative core charge=   -0.000002
     Generating pointlists ...
     new r_m :   0.1337 (alat units)  1.3437 (a.u.) for type    1
     new r_m :   0.1413 (alat units)  1.4196 (a.u.) for type    2
     new r_m :   0.1337 (alat units)  1.3437 (a.u.) for type    3

     Initial potential from superposition of free atoms

     starting charge     240.9891, renormalised to     241.0000

     negative rho (up, down):  2.001E-04 5.292E-05
     Starting wfcs are  217 randomized atomic wfcs
     Checking if some PAW data can be deallocated... 

     total cpu time spent up to now is      323.0 secs

     Self-consistent Calculation

     iteration #  1     ecut=    60.00 Ry     beta= 0.20
     Davidson diagonalization with overlap
     ethr =  1.00E-02,  avg # of iterations =  3.0

     negative rho (up, down):  4.391E-04 3.602E-04

     total cpu time spent up to now is     1096.2 secs

     total energy              =   -7076.16235813 Ry
     estimated scf accuracy    <      23.33784404 Ry

     total magnetization       =    10.74 Bohr mag/cell
     absolute magnetization    =    10.75 Bohr mag/cell

     iteration #  2     ecut=    60.00 Ry     beta= 0.20
     Davidson diagonalization with overlap
     ethr =  9.68E-03,  avg # of iterations =  1.0

     negative rho (up, down):  7.503E-04 6.504E-04

     total cpu time spent up to now is     1775.8 secs

     total energy              =   -7076.77252093 Ry
     estimated scf accuracy    <       6.02448184 Ry

     total magnetization       =    15.84 Bohr mag/cell
     absolute magnetization    =    15.86 Bohr mag/cell

     iteration #  3     ecut=    60.00 Ry     beta= 0.20
     Davidson diagonalization with overlap
     ethr =  2.50E-03,  avg # of iterations =  1.0

     negative rho (up, down):  6.051E-04 5.204E-04

     total cpu time spent up to now is     2443.8 secs

     total energy              =   -7076.99664016 Ry
     estimated scf accuracy    <       2.33264085 Ry

     total magnetization       =    16.74 Bohr mag/cell
     absolute magnetization    =    16.82 Bohr mag/cell

     iteration #  4     ecut=    60.00 Ry     beta= 0.20
     Davidson diagonalization with overlap
     ethr =  9.68E-04,  avg # of iterations =  1.1

     negative rho (up, down):  1.982E-04 1.447E-04

     total cpu time spent up to now is     3092.6 secs

     total energy              =   -7077.16787597 Ry
     estimated scf accuracy    <       1.63851492 Ry

     total magnetization       =    15.20 Bohr mag/cell
     absolute magnetization    =    15.33 Bohr mag/cell

     iteration #  5     ecut=    60.00 Ry     beta= 0.20
     Davidson diagonalization with overlap
     ethr =  6.80E-04,  avg # of iterations =  1.8

     negative rho (up, down):  8.488E-05 5.620E-05

     total cpu time spent up to now is     3787.8 secs

     total energy              =   -7077.31970426 Ry
     estimated scf accuracy    <       1.33503632 Ry

     total magnetization       =    11.51 Bohr mag/cell
     absolute magnetization    =    12.06 Bohr mag/cell

     iteration #  6     ecut=    60.00 Ry     beta= 0.20
     Davidson diagonalization with overlap
     ethr =  5.54E-04,  avg # of iterations =  1.1

     negative rho (up, down):  3.091E-06 2.336E-06

     total cpu time spent up to now is     4440.5 secs

     total energy              =   -7077.41149966 Ry
     estimated scf accuracy    <       0.42999828 Ry

     total magnetization       =    12.06 Bohr mag/cell
     absolute magnetization    =    12.76 Bohr mag/cell

     iteration #  7     ecut=    60.00 Ry     beta= 0.20
     Davidson diagonalization with overlap
     c_bands:  1 eigenvalues not converged
     c_bands:  1 eigenvalues not converged
     c_bands:  1 eigenvalues not converged
     c_bands:  1 eigenvalues not converged
     ethr =  1.78E-04,  avg # of iterations =  9.6

     negative rho (up, down):  1.381E-07 2.151E-07

     total cpu time spent up to now is     5213.9 secs

     total energy              =   -7077.41831892 Ry
     estimated scf accuracy    <       1.11918160 Ry

     total magnetization       =    12.40 Bohr mag/cell
     absolute magnetization    =    13.25 Bohr mag/cell

     iteration #  8     ecut=    60.00 Ry     beta= 0.20
     Davidson diagonalization with overlap
     ethr =  1.78E-04,  avg # of iterations =  1.5

     negative rho (up, down):  1.687E-08 5.644E-08

     total cpu time spent up to now is     5913.1 secs

     total energy              =   -7077.44564000 Ry
     estimated scf accuracy    <       0.12583182 Ry

     total magnetization       =    11.36 Bohr mag/cell
     absolute magnetization    =    12.22 Bohr mag/cell

     iteration #  9     ecut=    60.00 Ry     beta= 0.20
     Davidson diagonalization with overlap
     c_bands:  1 eigenvalues not converged
     c_bands:  1 eigenvalues not converged
     c_bands:  1 eigenvalues not converged
     c_bands:  1 eigenvalues not converged
     ethr =  5.22E-05,  avg # of iterations =  8.3

     negative rho (up, down):  9.702E-09 2.659E-08

     total cpu time spent up to now is     6753.0 secs

     total energy              =   -7077.45346314 Ry
     estimated scf accuracy    <       0.31393794 Ry

     total magnetization       =     9.22 Bohr mag/cell
     absolute magnetization    =    10.22 Bohr mag/cell

     iteration # 10     ecut=    60.00 Ry     beta= 0.20
     Davidson diagonalization with overlap
     ethr =  5.22E-05,  avg # of iterations =  1.6

     negative rho (up, down):  5.794E-09 1.401E-08

     total cpu time spent up to now is     7455.3 secs

     total energy              =   -7077.46142876 Ry
     estimated scf accuracy    <       0.02680778 Ry

     total magnetization       =     9.65 Bohr mag/cell
     absolute magnetization    =    10.65 Bohr mag/cell

     iteration # 11     ecut=    60.00 Ry     beta= 0.20
     Davidson diagonalization with overlap
     ethr =  1.11E-05,  avg # of iterations =  8.0

     negative rho (up, down):  4.582E-09 1.163E-08

     total cpu time spent up to now is     8272.6 secs

     total energy              =   -7077.46307439 Ry
     estimated scf accuracy    <       0.02142914 Ry

     total magnetization       =     9.70 Bohr mag/cell
     absolute magnetization    =    10.71 Bohr mag/cell

     iteration # 12     ecut=    60.00 Ry     beta= 0.20
     Davidson diagonalization with overlap
     ethr =  8.89E-06,  avg # of iterations =  1.7

     negative rho (up, down):  1.641E-08 3.451E-08

     total cpu time spent up to now is     8980.9 secs

     total energy              =   -7077.46369179 Ry
     estimated scf accuracy    <       0.02273309 Ry

     total magnetization       =     9.67 Bohr mag/cell
     absolute magnetization    =    10.65 Bohr mag/cell

     iteration # 13     ecut=    60.00 Ry     beta= 0.20
     Davidson diagonalization with overlap
     ethr =  8.89E-06,  avg # of iterations =  1.5

     negative rho (up, down):  2.880E-08 5.459E-08

     total cpu time spent up to now is     9695.4 secs

     total energy              =   -7077.46427366 Ry
     estimated scf accuracy    <       0.01591781 Ry

     total magnetization       =     9.49 Bohr mag/cell
     absolute magnetization    =    10.42 Bohr mag/cell

     iteration # 14     ecut=    60.00 Ry     beta= 0.20
     Davidson diagonalization with overlap
     ethr =  6.60E-06,  avg # of iterations =  1.1

     negative rho (up, down):  3.873E-08 6.090E-08

     total cpu time spent up to now is    10364.5 secs

     total energy              =   -7077.46423629 Ry
     estimated scf accuracy    <       0.01029495 Ry

     total magnetization       =     9.59 Bohr mag/cell
     absolute magnetization    =    10.47 Bohr mag/cell

     iteration # 15     ecut=    60.00 Ry     beta= 0.20
     Davidson diagonalization with overlap
     ethr =  4.27E-06,  avg # of iterations =  1.4

     negative rho (up, down):  6.155E-08 8.433E-08

     total cpu time spent up to now is    11086.8 secs

     total energy              =   -7077.46341208 Ry
     estimated scf accuracy    <       0.00844155 Ry

     total magnetization       =     9.64 Bohr mag/cell
     absolute magnetization    =    10.49 Bohr mag/cell

     iteration # 16     ecut=    60.00 Ry     beta= 0.20
     Davidson diagonalization with overlap
     ethr =  3.50E-06,  avg # of iterations =  2.8

     negative rho (up, down):  6.306E-08 7.558E-08

     total cpu time spent up to now is    11853.8 secs

     total energy              =   -7077.46167847 Ry
     estimated scf accuracy    <       0.00847844 Ry

     total magnetization       =     9.55 Bohr mag/cell
     absolute magnetization    =    10.38 Bohr mag/cell

     iteration # 17     ecut=    60.00 Ry     beta= 0.20
     Davidson diagonalization with overlap
     ethr =  3.50E-06,  avg # of iterations =  1.1

     negative rho (up, down):  2.107E-08 2.542E-08

     total cpu time spent up to now is    12530.1 secs

     total energy              =   -7077.46209500 Ry
     estimated scf accuracy    <       0.00418997 Ry

     total magnetization       =     9.82 Bohr mag/cell
     absolute magnetization    =    10.62 Bohr mag/cell

     iteration # 18     ecut=    60.00 Ry     beta= 0.20
     Davidson diagonalization with overlap
     ethr =  1.74E-06,  avg # of iterations =  2.8

     total cpu time spent up to now is    13259.6 secs

     total energy              =   -7077.46218792 Ry
     estimated scf accuracy    <       0.00168272 Ry

     total magnetization       =     9.66 Bohr mag/cell
     absolute magnetization    =    10.48 Bohr mag/cell

     iteration # 19     ecut=    60.00 Ry     beta= 0.20
     Davidson diagonalization with overlap
     ethr =  6.98E-07,  avg # of iterations =  2.0

     total cpu time spent up to now is    13999.2 secs

     total energy              =   -7077.46237687 Ry
     estimated scf accuracy    <       0.00150821 Ry

     total magnetization       =     9.72 Bohr mag/cell
     absolute magnetization    =    10.56 Bohr mag/cell

     iteration # 20     ecut=    60.00 Ry     beta= 0.20
     Davidson diagonalization with overlap
     ethr =  6.26E-07,  avg # of iterations =  1.4

     total cpu time spent up to now is    14706.1 secs

     total energy              =   -7077.46243072 Ry
     estimated scf accuracy    <       0.00133016 Ry

     total magnetization       =     9.74 Bohr mag/cell
     absolute magnetization    =    10.58 Bohr mag/cell

     iteration # 21     ecut=    60.00 Ry     beta= 0.20
     Davidson diagonalization with overlap
     ethr =  5.52E-07,  avg # of iterations =  1.5

     negative rho (up, down):  2.598E-07 2.250E-07

     total cpu time spent up to now is    15401.0 secs

     total energy              =   -7077.46244015 Ry
     estimated scf accuracy    <       0.00099377 Ry

     total magnetization       =     9.75 Bohr mag/cell
     absolute magnetization    =    10.60 Bohr mag/cell

     iteration # 22     ecut=    60.00 Ry     beta= 0.20
     Davidson diagonalization with overlap
     c_bands:  1 eigenvalues not converged
     ethr =  4.12E-07,  avg # of iterations =  3.7

     negative rho (up, down):  8.813E-06 7.915E-06

     total cpu time spent up to now is    16161.3 secs

     total energy              =   -7077.46236617 Ry
     estimated scf accuracy    <       0.00142130 Ry

     total magnetization       =     9.79 Bohr mag/cell
     absolute magnetization    =    10.66 Bohr mag/cell

     iteration # 23     ecut=    60.00 Ry     beta= 0.20
     Davidson diagonalization with overlap
     ethr =  4.12E-07,  avg # of iterations =  1.6

     negative rho (up, down):  7.333E-05 6.899E-05

     total cpu time spent up to now is    16826.0 secs

     total energy              =   -7077.46234070 Ry
     estimated scf accuracy    <       0.00156264 Ry

     total magnetization       =     9.82 Bohr mag/cell
     absolute magnetization    =    10.69 Bohr mag/cell

     iteration # 24     ecut=    60.00 Ry     beta= 0.20
     Davidson diagonalization with overlap
     ethr =  4.12E-07,  avg # of iterations =  1.6

     negative rho (up, down):  3.234E-05 2.846E-05

     total cpu time spent up to now is    17497.2 secs

     total energy              =   -7077.46235587 Ry
     estimated scf accuracy    <       0.00130200 Ry

     total magnetization       =     9.83 Bohr mag/cell
     absolute magnetization    =    10.70 Bohr mag/cell

     iteration # 25     ecut=    60.00 Ry     beta= 0.20
     Davidson diagonalization with overlap
     ethr =  4.12E-07,  avg # of iterations =  1.2

     negative rho (up, down):  1.266E-05 9.778E-06

     total cpu time spent up to now is    18150.9 secs

     total energy              =   -7077.46240498 Ry
     estimated scf accuracy    <       0.00128233 Ry

     total magnetization       =     9.84 Bohr mag/cell
     absolute magnetization    =    10.71 Bohr mag/cell

     iteration # 26     ecut=    60.00 Ry     beta= 0.20
     Davidson diagonalization with overlap
     ethr =  4.12E-07,  avg # of iterations =  1.0

     negative rho (up, down):  6.329E-05 6.049E-05

     total cpu time spent up to now is    18805.7 secs

     total energy              =   -7077.46240791 Ry
     estimated scf accuracy    <       0.00106888 Ry

     total magnetization       =     9.82 Bohr mag/cell
     absolute magnetization    =    10.69 Bohr mag/cell

     iteration # 27     ecut=    60.00 Ry     beta= 0.20
     Davidson diagonalization with overlap
     ethr =  4.12E-07,  avg # of iterations =  1.5

     negative rho (up, down):  2.379E-04 2.342E-04

     total cpu time spent up to now is    19510.4 secs

     total energy              =   -7077.46240609 Ry
     estimated scf accuracy    <       0.00070511 Ry

     total magnetization       =     9.82 Bohr mag/cell
     absolute magnetization    =    10.68 Bohr mag/cell

     iteration # 28     ecut=    60.00 Ry     beta= 0.20
     Davidson diagonalization with overlap
     ethr =  2.93E-07,  avg # of iterations =  1.9

     negative rho (up, down):  4.251E-04 4.125E-04

     total cpu time spent up to now is    20230.7 secs

     total energy              =   -7077.46236412 Ry
     estimated scf accuracy    <       0.00030115 Ry

     total magnetization       =     9.80 Bohr mag/cell
     absolute magnetization    =    10.65 Bohr mag/cell

     iteration # 29     ecut=    60.00 Ry     beta= 0.20
     Davidson diagonalization with overlap
     ethr =  1.25E-07,  avg # of iterations =  2.2

     negative rho (up, down):  1.875E-04 1.685E-04

     total cpu time spent up to now is    20971.5 secs

     total energy              =   -7077.46240038 Ry
     estimated scf accuracy    <       0.00026082 Ry

     total magnetization       =     9.78 Bohr mag/cell
     absolute magnetization    =    10.65 Bohr mag/cell

     iteration # 30     ecut=    60.00 Ry     beta= 0.20
     Davidson diagonalization with overlap
     ethr =  1.08E-07,  avg # of iterations =  1.4

     negative rho (up, down):  2.692E-04 2.583E-04

     total cpu time spent up to now is    21673.8 secs

     total energy              =   -7077.46239181 Ry
     estimated scf accuracy    <       0.00009652 Ry

     total magnetization       =     9.79 Bohr mag/cell
     absolute magnetization    =    10.66 Bohr mag/cell

     iteration # 31     ecut=    60.00 Ry     beta= 0.20
     Davidson diagonalization with overlap
     ethr =  4.00E-08,  avg # of iterations =  2.1

     negative rho (up, down):  2.349E-04 2.219E-04

     total cpu time spent up to now is    22371.3 secs

     total energy              =   -7077.46240140 Ry
     estimated scf accuracy    <       0.00005108 Ry

     total magnetization       =     9.78 Bohr mag/cell
     absolute magnetization    =    10.65 Bohr mag/cell

     iteration # 32     ecut=    60.00 Ry     beta= 0.20
     Davidson diagonalization with overlap
     ethr =  2.12E-08,  avg # of iterations =  1.6

     negative rho (up, down):  1.322E-04 1.124E-04

     total cpu time spent up to now is    23033.8 secs

     total energy              =   -7077.46240315 Ry
     estimated scf accuracy    <       0.00002667 Ry

     total magnetization       =     9.78 Bohr mag/cell
     absolute magnetization    =    10.65 Bohr mag/cell

     iteration # 33     ecut=    60.00 Ry     beta= 0.20
     Davidson diagonalization with overlap
     ethr =  1.11E-08,  avg # of iterations =  1.7

     negative rho (up, down):  1.111E-04 8.650E-05

     total cpu time spent up to now is    23697.0 secs

     total energy              =   -7077.46240261 Ry
     estimated scf accuracy    <       0.00000803 Ry

     total magnetization       =     9.79 Bohr mag/cell
     absolute magnetization    =    10.65 Bohr mag/cell

     iteration # 34     ecut=    60.00 Ry     beta= 0.20
     Davidson diagonalization with overlap
     ethr =  3.33E-09,  avg # of iterations =  2.9

     negative rho (up, down):  1.274E-04 1.076E-04

     total cpu time spent up to now is    24394.3 secs

     total energy              =   -7077.46240312 Ry
     estimated scf accuracy    <       0.00001116 Ry

     total magnetization       =     9.79 Bohr mag/cell
     absolute magnetization    =    10.65 Bohr mag/cell

     iteration # 35     ecut=    60.00 Ry     beta= 0.20
     Davidson diagonalization with overlap
     ethr =  3.33E-09,  avg # of iterations =  1.2

     negative rho (up, down):  1.201E-04 9.315E-05

     total cpu time spent up to now is    25057.7 secs

     total energy              =   -7077.46240375 Ry
     estimated scf accuracy    <       0.00000230 Ry

     total magnetization       =     9.78 Bohr mag/cell
     absolute magnetization    =    10.65 Bohr mag/cell

     iteration # 36     ecut=    60.00 Ry     beta= 0.20
     Davidson diagonalization with overlap
     ethr =  9.56E-10,  avg # of iterations =  2.5

     negative rho (up, down):  1.313E-04 9.961E-05

     total cpu time spent up to now is    25772.0 secs

     total energy              =   -7077.46240401 Ry
     estimated scf accuracy    <       0.00000057 Ry

     total magnetization       =     9.78 Bohr mag/cell
     absolute magnetization    =    10.64 Bohr mag/cell

     iteration # 37     ecut=    60.00 Ry     beta= 0.20
     Davidson diagonalization with overlap
     ethr =  2.36E-10,  avg # of iterations =  4.2

     negative rho (up, down):  1.490E-04 1.151E-04

     total cpu time spent up to now is    26583.4 secs

     total energy              =   -7077.46240409 Ry
     estimated scf accuracy    <       0.00000099 Ry

     total magnetization       =     9.78 Bohr mag/cell
     absolute magnetization    =    10.65 Bohr mag/cell

     iteration # 38     ecut=    60.00 Ry     beta= 0.20
     Davidson diagonalization with overlap
     ethr =  2.36E-10,  avg # of iterations =  1.3

     negative rho (up, down):  1.671E-04 1.329E-04

     total cpu time spent up to now is    27310.4 secs

     total energy              =   -7077.46240417 Ry
     estimated scf accuracy    <       0.00000026 Ry

     total magnetization       =     9.78 Bohr mag/cell
     absolute magnetization    =    10.65 Bohr mag/cell

     iteration # 39     ecut=    60.00 Ry     beta= 0.20
     Davidson diagonalization with overlap
     ethr =  1.06E-10,  avg # of iterations =  1.7

     negative rho (up, down):  1.626E-04 1.279E-04

     total cpu time spent up to now is    28031.1 secs

     total energy              =   -7077.46240418 Ry
     estimated scf accuracy    <       0.00000027 Ry

     total magnetization       =     9.78 Bohr mag/cell
     absolute magnetization    =    10.65 Bohr mag/cell

     iteration # 40     ecut=    60.00 Ry     beta= 0.20
     Davidson diagonalization with overlap
     ethr =  1.06E-10,  avg # of iterations =  1.1

     negative rho (up, down):  1.622E-04 1.272E-04

     total cpu time spent up to now is    28737.0 secs

     total energy              =   -7077.46240420 Ry
     estimated scf accuracy    <       0.00000013 Ry

     total magnetization       =     9.78 Bohr mag/cell
     absolute magnetization    =    10.65 Bohr mag/cell

     iteration # 41     ecut=    60.00 Ry     beta= 0.20
     Davidson diagonalization with overlap
     ethr =  5.51E-11,  avg # of iterations =  1.4

     negative rho (up, down):  1.585E-04 1.232E-04

     total cpu time spent up to now is    29446.0 secs

     total energy              =   -7077.46240421 Ry
     estimated scf accuracy    <       0.00000007 Ry

     total magnetization       =     9.78 Bohr mag/cell
     absolute magnetization    =    10.65 Bohr mag/cell

     iteration # 42     ecut=    60.00 Ry     beta= 0.20
     Davidson diagonalization with overlap
     ethr =  2.94E-11,  avg # of iterations =  1.4

     negative rho (up, down):  1.544E-04 1.191E-04

     total cpu time spent up to now is    30179.1 secs

     total energy              =   -7077.46240422 Ry
     estimated scf accuracy    <       0.00000003 Ry

     total magnetization       =     9.78 Bohr mag/cell
     absolute magnetization    =    10.64 Bohr mag/cell

     iteration # 43     ecut=    60.00 Ry     beta= 0.20
     Davidson diagonalization with overlap
     ethr =  1.26E-11,  avg # of iterations =  1.9

     negative rho (up, down):  1.543E-04 1.191E-04

     total cpu time spent up to now is    30911.4 secs

     total energy              =   -7077.46240423 Ry
     estimated scf accuracy    <       0.00000001 Ry

     total magnetization       =     9.78 Bohr mag/cell
     absolute magnetization    =    10.64 Bohr mag/cell

     iteration # 44     ecut=    60.00 Ry     beta= 0.20
     Davidson diagonalization with overlap
     ethr =  4.45E-12,  avg # of iterations =  3.1

     negative rho (up, down):  1.553E-04 1.200E-04

     total cpu time spent up to now is    31679.0 secs

     total energy              =   -7077.46240423 Ry
     estimated scf accuracy    <       0.00000001 Ry

     total magnetization       =     9.78 Bohr mag/cell
     absolute magnetization    =    10.64 Bohr mag/cell

     iteration # 45     ecut=    60.00 Ry     beta= 0.20
     Davidson diagonalization with overlap
     ethr =  4.45E-12,  avg # of iterations =  1.3

     negative rho (up, down):  1.555E-04 1.202E-04

     total cpu time spent up to now is    32352.2 secs

     total energy              =   -7077.46240423 Ry
     estimated scf accuracy    <          2.9E-09 Ry

     total magnetization       =     9.78 Bohr mag/cell
     absolute magnetization    =    10.64 Bohr mag/cell

     iteration # 46     ecut=    60.00 Ry     beta= 0.20
     Davidson diagonalization with overlap
     ethr =  1.20E-12,  avg # of iterations =  3.2

     negative rho (up, down):  1.543E-04 1.191E-04

     total cpu time spent up to now is    33111.3 secs

     total energy              =   -7077.46240423 Ry
     estimated scf accuracy    <          2.1E-09 Ry

     total magnetization       =     9.78 Bohr mag/cell
     absolute magnetization    =    10.64 Bohr mag/cell

     iteration # 47     ecut=    60.00 Ry     beta= 0.20
     Davidson diagonalization with overlap
     ethr =  8.67E-13,  avg # of iterations =  1.7

     negative rho (up, down):  1.542E-04 1.190E-04

     total cpu time spent up to now is    33791.1 secs

     total energy              =   -7077.46240423 Ry
     estimated scf accuracy    <          1.4E-09 Ry

     total magnetization       =     9.78 Bohr mag/cell
     absolute magnetization    =    10.64 Bohr mag/cell

     iteration # 48     ecut=    60.00 Ry     beta= 0.20
     Davidson diagonalization with overlap
     ethr =  5.97E-13,  avg # of iterations =  1.7

     negative rho (up, down):  1.544E-04 1.192E-04

     total cpu time spent up to now is    34489.0 secs

     total energy              =   -7077.46240423 Ry
     estimated scf accuracy    <          2.4E-09 Ry

     total magnetization       =     9.78 Bohr mag/cell
     absolute magnetization    =    10.64 Bohr mag/cell

     iteration # 49     ecut=    60.00 Ry     beta= 0.20
     Davidson diagonalization with overlap
     ethr =  5.97E-13,  avg # of iterations =  2.0

     negative rho (up, down):  1.559E-04 1.207E-04

     total cpu time spent up to now is    35193.9 secs

     total energy              =   -7077.46240423 Ry
     estimated scf accuracy    <          9.6E-10 Ry

     total magnetization       =     9.78 Bohr mag/cell
     absolute magnetization    =    10.64 Bohr mag/cell

     iteration # 50     ecut=    60.00 Ry     beta= 0.20
     Davidson diagonalization with overlap
     ethr =  4.00E-13,  avg # of iterations =  1.9

     negative rho (up, down):  1.560E-04 1.208E-04

     total cpu time spent up to now is    36012.5 secs

     total energy              =   -7077.46240423 Ry
     estimated scf accuracy    <          6.6E-10 Ry

     total magnetization       =     9.78 Bohr mag/cell
     absolute magnetization    =    10.64 Bohr mag/cell

     iteration # 51     ecut=    60.00 Ry     beta= 0.20
     Davidson diagonalization with overlap
     ethr =  2.72E-13,  avg # of iterations =  1.1

     negative rho (up, down):  1.563E-04 1.211E-04

     total cpu time spent up to now is    36727.9 secs

     total energy              =   -7077.46240423 Ry
     estimated scf accuracy    <          3.8E-10 Ry

     total magnetization       =     9.78 Bohr mag/cell
     absolute magnetization    =    10.64 Bohr mag/cell

     iteration # 52     ecut=    60.00 Ry     beta= 0.20
     Davidson diagonalization with overlap
     ethr =  1.57E-13,  avg # of iterations =  1.9

     negative rho (up, down):  1.556E-04 1.204E-04

     total cpu time spent up to now is    37446.1 secs

     total energy              =   -7077.46240423 Ry
     estimated scf accuracy    <          1.8E-10 Ry

     total magnetization       =     9.78 Bohr mag/cell
     absolute magnetization    =    10.64 Bohr mag/cell

     iteration # 53     ecut=    60.00 Ry     beta= 0.20
     Davidson diagonalization with overlap
     ethr =  1.00E-13,  avg # of iterations =  2.2

     negative rho (up, down):  1.557E-04 1.205E-04

     total cpu time spent up to now is    38172.1 secs

     total energy              =   -7077.46240423 Ry
     estimated scf accuracy    <          1.5E-10 Ry

     total magnetization       =     9.78 Bohr mag/cell
     absolute magnetization    =    10.64 Bohr mag/cell

     iteration # 54     ecut=    60.00 Ry     beta= 0.20
     Davidson diagonalization with overlap
     ethr =  1.00E-13,  avg # of iterations =  1.2

     negative rho (up, down):  1.554E-04 1.203E-04
 
     Magnetic moment per site  (integrated on atomic sphere of radius R)
     atom   1 (R=0.134)  charge=  6.9312  magn=  0.8702
     atom   2 (R=0.141)  charge=  5.6426  magn=  0.1978
     atom   3 (R=0.141)  charge=  5.6426  magn=  0.1998
     atom   4 (R=0.141)  charge=  5.6426  magn=  0.1998
     atom   5 (R=0.134)  charge=  6.9247  magn=  0.8501
     atom   6 (R=0.141)  charge=  5.6290  magn=  0.2553
     atom   7 (R=0.141)  charge=  5.6290  magn=  0.2540
     atom   8 (R=0.141)  charge=  5.6290  magn=  0.2553
     atom   9 (R=0.134)  charge=  6.9269  magn=  0.8018
     atom  10 (R=0.141)  charge=  5.6257  magn=  0.2573
     atom  11 (R=0.141)  charge=  5.6258  magn=  0.2448
     atom  12 (R=0.141)  charge=  5.6258  magn=  0.2448
     atom  13 (R=0.134)  charge=  6.9268  magn=  0.8032
     atom  14 (R=0.141)  charge=  5.6264  magn=  0.2405
     atom  15 (R=0.141)  charge=  5.6258  magn=  0.2443
     atom  16 (R=0.141)  charge=  5.6264  magn=  0.2405
     atom  17 (R=0.134)  charge=  6.9250  magn=  0.8425
     atom  18 (R=0.141)  charge=  5.6285  magn=  0.2447
     atom  19 (R=0.141)  charge=  5.6298  magn=  0.2071
     atom  20 (R=0.141)  charge=  5.6285  magn=  0.2447
     atom  21 (R=0.134)  charge=  6.9368  magn=  0.6639
     atom  22 (R=0.141)  charge=  5.6470  magn=  0.1831
     atom  23 (R=0.141)  charge=  5.6393  magn=  0.1303
     atom  24 (R=0.141)  charge=  5.6393  magn=  0.1303
     atom  25 (R=0.134)  charge=  0.9145  magn= -0.0064

     total cpu time spent up to now is    38877.6 secs

     End of self-consistent calculation

     Number of k-points >= 100: set verbosity='high' to print the bands.

     the Fermi energy is    -5.1587 ev

!    total energy              =   -7077.46240423 Ry
     total all-electron energy =   -199909.898974 Ry
     estimated scf accuracy    <          5.3E-11 Ry
     smearing contrib. (-TS)   =       0.00085666 Ry
     internal energy E=F+TS    =   -7077.46326089 Ry

     The total energy is F=E-TS. E is the sum of the following terms:
     one-electron contribution =  -61220.06656752 Ry
     hartree contribution      =   30797.53955901 Ry
     xc contribution           =    -835.55679259 Ry
     ewald contribution        =   29314.78164181 Ry
     DFT-D3 Dispersion         =      -2.53269898 Ry
     one-center paw contrib.   =   -5131.62840262 Ry

     total magnetization       =     9.78 Bohr mag/cell
     absolute magnetization    =    10.64 Bohr mag/cell

     convergence has been achieved in  54 iterations

     negative rho (up, down):  1.554E-04 1.203E-04

     Forces acting on atoms (cartesian axes, Ry/au):

     atom    1 type  1   force =    -0.00000002   -0.00009693    0.01604973
     atom    2 type  2   force =     0.00000001   -0.01420614   -0.00894406
     atom    3 type  2   force =    -0.01239588    0.00717088   -0.00940823
     atom    4 type  2   force =     0.01239587    0.00717085   -0.00940825
     atom    5 type  1   force =     0.00000001    0.00037741    0.00065469
     atom    6 type  2   force =    -0.00087074   -0.00004585    0.00515008
     atom    7 type  2   force =    -0.00000001   -0.00028366    0.00559402
     atom    8 type  2   force =     0.00087072   -0.00004582    0.00515014
     atom    9 type  1   force =    -0.00000003   -0.00025376   -0.00037875
     atom   10 type  2   force =     0.00000001    0.00008679   -0.00058864
     atom   11 type  2   force =    -0.00010568    0.00001254   -0.00075440
     atom   12 type  2   force =     0.00010571    0.00001252   -0.00075446
     atom   13 type  1   force =     0.00000002   -0.00012228   -0.00050385
     atom   14 type  2   force =     0.00016591   -0.00016748   -0.00035253
     atom   15 type  2   force =     0.00000000   -0.00034211   -0.00017463
     atom   16 type  2   force =    -0.00016591   -0.00016747   -0.00035257
     atom   17 type  1   force =    -0.00000002    0.00014622   -0.00024888
     atom   18 type  2   force =    -0.00027011   -0.00011548    0.00037143
     atom   19 type  2   force =     0.00000002    0.00011521   -0.00018592
     atom   20 type  2   force =     0.00027013   -0.00011553    0.00037143
     atom   21 type  1   force =    -0.00000002   -0.00027474   -0.00058844
     atom   22 type  2   force =    -0.00000000    0.00049483   -0.00056265
     atom   23 type  2   force =    -0.00026849    0.00019930   -0.00003794
     atom   24 type  2   force =     0.00026850    0.00019930   -0.00003802
     atom   25 type  3   force =    -0.00000001    0.00025140   -0.00005931

     Total force =     0.002087     Total SCF correction =     0.000048


     Computing stress (Cartesian axis) and pressure


     negative rho (up, down):  1.554E-04 1.203E-04
          total   stress  (Ry/bohr**3)                   (kbar)     P=       -7.16
  -0.00006979  -0.00000000  -0.00000000          -10.27       -0.00       -0.00
  -0.00000000  -0.00007925   0.00000197           -0.00      -11.66        0.29
  -0.00000000   0.00000197   0.00000294           -0.00        0.29        0.43


     Writing all to output data dir /tmpu/isholek_g/isholek/MIGUEL/QE/Hydrogen/111_2x2/SAVE/Ni1Pd3_111-H_hcp_2.save/ :
     XML data file, charge density, pseudopotentials, collected wavefunctions
 
     init_run     :    298.18s CPU    316.01s WALL (       1 calls)
     electrons    :  35455.40s CPU  38554.85s WALL (       1 calls)
     forces       :     74.91s CPU     81.65s WALL (       1 calls)
     force_dftd3  :      0.87s CPU      0.87s WALL (       1 calls)
     stress       :    778.94s CPU    830.90s WALL (       1 calls)
     stres_dftd3  :      0.96s CPU      0.96s WALL (       1 calls)

     Called by init_run:
     wfcinit      :    206.95s CPU    220.95s WALL (       1 calls)
     potinit      :      1.57s CPU      2.15s WALL (       1 calls)
     hinit0       :      0.66s CPU      0.95s WALL (       1 calls)

     Called by electrons:
     c_bands      :  28822.78s CPU  31394.26s WALL (      54 calls)
     sum_band     :   6425.07s CPU   6930.88s WALL (      54 calls)
     v_of_rho     :     43.45s CPU     48.83s WALL (      55 calls)
     newd         :     15.19s CPU     19.26s WALL (      55 calls)
     PAW_pot      :     44.00s CPU     46.12s WALL (      55 calls)
     mix_rho      :     97.26s CPU    106.86s WALL (      54 calls)
     energy_dftd3 :      0.17s CPU      0.17s WALL (       1 calls)

     Called by c_bands:
     init_us_2    :    126.77s CPU    138.76s WALL (    7104 calls)
     init_us_2:cp :    126.65s CPU    138.67s WALL (    7104 calls)
     cegterg      :  17506.09s CPU  19169.00s WALL (    3456 calls)

     Called by *egterg:
     cdiaghg      :    362.86s CPU    396.87s WALL (   11091 calls)
     h_psi        :  12225.95s CPU  13425.12s WALL (   11155 calls)
     s_psi        :    969.02s CPU   1044.42s WALL (   11155 calls)
     g_psi        :     31.26s CPU     34.58s WALL (    7635 calls)

     Called by h_psi:
     h_psi:calbec :   1441.84s CPU   1555.18s WALL (   11155 calls)
     vloc_psi     :   9773.73s CPU  10712.71s WALL (   11155 calls)
     add_vuspsi   :    988.14s CPU   1087.43s WALL (   11155 calls)

     General routines
     calbec       :   2175.33s CPU   2342.27s WALL (   14931 calls)
     fft          :     33.90s CPU     37.46s WALL (    1413 calls)
     ffts         :     30.89s CPU     34.58s WALL (    6737 calls)
     fftw         :   9613.33s CPU  10369.46s WALL ( 2570248 calls)
     interpolate  :      2.72s CPU      3.05s WALL (     110 calls)
 
     Parallel routines
 
     PWSCF        :     10h10m CPU     11h 3m WALL

 
   This run was terminated on:  18:33:59  11Apr2026            

=------------------------------------------------------------------------------=
   JOB DONE.
=------------------------------------------------------------------------------=
