
     Program PWSCF v.7.3 starts on  1May2026 at  8:15:39 

     This program is part of the open-source Quantum ESPRESSO suite
     for quantum simulation of materials; please cite
         "P. Giannozzi et al., J. Phys.:Condens. Matter 21 395502 (2009);
         "P. Giannozzi et al., J. Phys.:Condens. Matter 29 465901 (2017);
         "P. Giannozzi et al., J. Chem. Phys. 152 154105 (2020);
          URL http://www.quantum-espresso.org", 
     in publications or presentations arising from this work. More details at
     http://www.quantum-espresso.org/quote

     Parallel version (MPI), running on    64 processors

     MPI processes distributed on     4 nodes
     53163 MiB available memory on the printing compute node when the environment starts
 
     Reading input from /tmpu/isholek_g/isholek/MIGUEL/QE/Hydrogen/111_2x2/SCF/Ni1Pd3_111-T1-SCF.in

     Current dimensions of program PWSCF are:
     Max number of different atomic species (ntypx) = 10
     Max number of k-points (npk) =  40000
     Max angular momentum in pseudopotentials (lmaxx) =  4
     file Ni.upf: wavefunction(s)  4S 3D renormalized
     file Pd.upf: wavefunction(s)  5S 4D renormalized
     file H.upf: wavefunction(s)  1S renormalized

     IMPORTANT: XC functional enforced from input :
     Exchange-correlation= PBE
                           (   1   4   3   4   0   0   0)
     Any further DFT definition will be discarded
     Please, verify this is what you really want

 
     K-points division:     npool     =       8
     R & G space division:  proc/nbgrp/npool/nimage =       8
     Subspace diagonalization in iterative solution of the eigenvalue problem:
     one sub-group per band group will be used
     scalapack distributed-memory algorithm (size of sub-group:  2*  2 procs)

 
     Parallelization info
     --------------------
     sticks:   dense  smooth     PW     G-vecs:    dense   smooth      PW
     Min         416     207     60               120460    42599    6636
     Max         417     208     64               120479    42626    6643
     Sum        3331    1663    499               963739   340921   53115
 
     Using Slab Decomposition
 

     Title: 
     Ni1Pd3_111-T1-SCF                                                          


     bravais-lattice index     =            0
     lattice parameter (alat)  =      10.0481  a.u.
     unit-cell volume          =    5428.4795 (a.u.)^3
     number of atoms/cell      =           25
     number of atomic types    =            3
     number of electrons       =       241.00
     number of Kohn-Sham states=          145
     kinetic-energy cutoff     =      60.0000  Ry
     charge density cutoff     =     480.0000  Ry
     scf convergence threshold =      1.0E-10
     mixing beta               =       0.2000
     number of iterations used =           12  local-TF  mixing
     Exchange-correlation= PBE
                           (   1   4   3   4   0   0   0)

     celldm(1)=  10.048050  celldm(2)=   0.000000  celldm(3)=   0.000000
     celldm(4)=   0.000000  celldm(5)=   0.000000  celldm(6)=   0.000000

     crystal axes: (cart. coord. in units of alat)
               a(1) = (   1.000000   0.000000   0.000000 )  
               a(2) = (   0.500000   0.866025   0.000000 )  
               a(3) = (   0.000000   0.000000   6.178773 )  

     reciprocal axes: (cart. coord. in units 2 pi/alat)
               b(1) = (  1.000000 -0.577350  0.000000 )  
               b(2) = (  0.000000  1.154701  0.000000 )  
               b(3) = (  0.000000  0.000000  0.161844 )  


     PseudoPot. # 1 for Ni read from file:
     /tmpu/isholek_g/isholek/MIGUEL/PP/PAW/Ni.upf
     MD5 check sum: d88365a95a5e142bd87181c2c8b16588
     Pseudo is Projector augmented-wave + core cor, Zval = 10.0
     Generated using "atomic" code by A. Dal Corso  v.5.0.2 svn rev. 9415
     Shape of augmentation charge: PSQ
     Using radial grid of 1195 points,  6 beta functions with: 
                l(1) =   0
                l(2) =   0
                l(3) =   1
                l(4) =   1
                l(5) =   2
                l(6) =   2
     Q(r) pseudized with 0 coefficients 


     PseudoPot. # 2 for Pd read from file:
     /tmpu/isholek_g/isholek/MIGUEL/PP/PAW/Pd.upf
     MD5 check sum: e9d6f14fd83b79f8105499163af174c9
     Pseudo is Projector augmented-wave + core cor, Zval = 10.0
     Generated using "atomic" code by A. Dal Corso  v.5.0.2 svn rev. 9415
     Shape of augmentation charge: PSQ
     Using radial grid of 1235 points,  6 beta functions with: 
                l(1) =   0
                l(2) =   0
                l(3) =   1
                l(4) =   1
                l(5) =   2
                l(6) =   2
     Q(r) pseudized with 0 coefficients 


     PseudoPot. # 3 for H  read from file:
     /tmpu/isholek_g/isholek/MIGUEL/PP/PAW/H.upf
     MD5 check sum: 4cbe42a24e15140179a93d5bf84f2220
     Pseudo is Projector augmented-wave, Zval =  1.0
     Generated using "atomic" code by A. Dal Corso  v.5.0.2 svn rev. 9415
     Shape of augmentation charge: PSQ
     Using radial grid of  929 points,  2 beta functions with: 
                l(1) =   0
                l(2) =   0
     Q(r) pseudized with 0 coefficients 


     atomic species   valence    mass     pseudopotential
     Ni               10.00    58.69340     Ni( 1.00)
     Pd               10.00   106.42000     Pd( 1.00)
     H                 1.00     1.00794     H ( 1.00)

     Starting magnetic structure 
     atomic species   magnetization
     Ni              0.650
     Pd              0.100
     H               0.000

     No symmetry found



   Cartesian axes

     site n.     atom                  positions (alat units)
         1        Ni     tau(   1) = (   1.0000000   0.5773503   2.0687584  )
         2        Pd     tau(   2) = (   0.5000000   0.5773500   2.0687727  )
         3        Pd     tau(   3) = (   0.7499998   0.1443377   2.0687727  )
         4        Pd     tau(   4) = (   0.2500002   0.1443377   2.0687727  )
         5        Ni     tau(   5) = (   0.5000000   0.2886751   2.4770066  )
         6        Pd     tau(   6) = (   0.7499998   0.7216879   2.4770210  )
         7        Pd     tau(   7) = (   1.0000000   0.2886749   2.4770210  )
         8        Pd     tau(   8) = (   1.2500002   0.7216879   2.4770210  )
         9        Ni     tau(   9) = (  -0.0005649  -0.0003261   2.8837020  )
        10        Pd     tau(  10) = (   1.0008835   0.8664334   2.8838806  )
        11        Pd     tau(  11) = (   0.7507157   0.4334259   2.8865074  )
        12        Pd     tau(  12) = (   1.2507951   0.4335738   2.8838806  )
        13        Ni     tau(  13) = (   0.9990619   0.5768087   3.2943777  )
        14        Pd     tau(  14) = (   0.7472148   0.1434817   3.2953976  )
        15        Pd     tau(  15) = (   0.4978662   0.5753662   3.2953976  )
        16        Pd     tau(  16) = (   0.2467710   0.1424733   3.2874999  )
        17        Ni     tau(  17) = (   0.4996495   0.2884728   3.7034729  )
        18        Pd     tau(  18) = (   0.7524027   0.7222612   3.7003645  )
        19        Pd     tau(  19) = (   1.0016979   0.2904693   3.7003645  )
        20        Pd     tau(  20) = (   1.2500664   0.7217262   3.7022258  )
        21        Ni     tau(  21) = (   0.0041424   0.0023917   4.0950302  )
        22        Pd     tau(  22) = (   1.0037316   0.8712362   4.1172770  )
        23        Pd     tau(  23) = (   0.7537282   0.4351652   4.1193379  )
        24        Pd     tau(  24) = (   1.2563785   0.4336390   4.1172770  )
        25        H      tau(  25) = (   0.7480776   0.4319029   4.4118337  )

     --------------------------------------------
     DFT-D3 Dispersion Correction (3-body terms):
     --------------------------------------------
       Reference C6 values for interpolation: 

         atom   Coordination number   C6
         H          0.912             6.05
         H          0.000            15.18
         Ni         0.000          1149.49
         Ni         1.794           356.66
         Ni         6.546           257.56
         Ni         6.292           283.75
         Pd         0.000          1217.01
         Pd         1.863           573.90
         Pd         5.710           531.75

       Values used:

         atom   Coordination number  R0_AB[au]  C6      C8
         Ni         5.893            3.162    276.72  23187.45
         Pd         6.810            3.168    531.75  48720.73
         Pd         6.810            3.168    531.75  48720.73
         Pd         6.810            3.168    531.75  48720.73
         Ni         7.884            3.162    258.75  21681.54
         Pd         9.134            3.168    531.75  48720.73
         Pd         9.134            3.168    531.75  48720.73
         Pd         9.154            3.168    531.75  48720.73
         Ni         7.893            3.162    258.73  21679.85
         Pd         9.150            3.168    531.75  48720.73
         Pd         9.117            3.168    531.75  48720.73
         Pd         9.150            3.168    531.75  48720.73
         Ni         7.900            3.162    258.72  21678.66
         Pd         9.113            3.168    531.75  48720.73
         Pd         9.113            3.168    531.75  48720.73
         Pd         9.110            3.168    531.75  48720.73
         Ni         7.740            3.162    259.13  21713.53
         Pd         9.108            3.168    531.75  48720.73
         Pd         9.108            3.168    531.75  48720.73
         Pd         9.140            3.168    531.75  48720.73
         Ni         6.113            3.162    274.21  22976.47
         Pd         6.698            3.168    531.75  48720.73
         Pd         7.588            3.168    531.75  48720.73
         Pd         6.698            3.168    531.75  48720.73
         H          0.972            2.062      6.21     75.06

         Molecular C6 ( Ry / a.u.^6 ) =    265215.47


     number of k points=   256  Marzari-Vanderbilt smearing, width (Ry)=  0.0147

     Number of k-points >= 100: set verbosity='high' to print them.

     Dense  grid:   963739 G-vectors     FFT dimensions: (  72,  72, 450)

     Smooth grid:   340921 G-vectors     FFT dimensions: (  50,  50, 320)

     Estimated max dynamical RAM per process >     279.53 MB

     Estimated total dynamical RAM >      12.64 GB
 ----2D----2D----2D----2D----2D----2D----2D----2D----2D----2D----2D----2D
  The code is running with the 2D cutoff
  Please refer to:
  Sohier, T., Calandra, M., & Mauri, F. (2017), 
  Density functional perturbation theory for gated two-dimensional heterostructu
 res:
  Theoretical developments and application to flexural phonons in graphene.
  Physical Review B, 96(7), 75448. https://doi.org/10.1103/PhysRevB.96.075448
 ----2D----2D----2D----2D----2D----2D----2D----2D----2D----2D----2D----2D

     Check: negative core charge=   -0.000002
     Generating pointlists ...
     new r_m :   0.2016 (alat units)  2.0253 (a.u.) for type    1
     new r_m :   0.1207 (alat units)  1.2126 (a.u.) for type    2
     new r_m :   0.1207 (alat units)  1.2126 (a.u.) for type    3

     Initial potential from superposition of free atoms

     starting charge     240.9891, renormalised to     241.0000

     negative rho (up, down):  1.940E-04 4.975E-05
     Starting wfcs are  217 randomized atomic wfcs
     Checking if some PAW data can be deallocated... 

     total cpu time spent up to now is      231.9 secs

     Self-consistent Calculation

     iteration #  1     ecut=    60.00 Ry     beta= 0.20
     Davidson diagonalization with overlap
     ethr =  1.00E-02,  avg # of iterations =  3.0

     negative rho (up, down):  3.057E-04 2.163E-04

     total cpu time spent up to now is      726.4 secs

     total energy              =   -7076.10651523 Ry
     estimated scf accuracy    <      23.46329295 Ry

     total magnetization       =    10.70 Bohr mag/cell
     absolute magnetization    =    10.71 Bohr mag/cell

     iteration #  2     ecut=    60.00 Ry     beta= 0.20
     Davidson diagonalization with overlap
     ethr =  9.74E-03,  avg # of iterations =  1.0

     negative rho (up, down):  5.954E-04 5.550E-04

     total cpu time spent up to now is     1150.4 secs

     total energy              =   -7076.72517400 Ry
     estimated scf accuracy    <       5.77240138 Ry

     total magnetization       =    15.89 Bohr mag/cell
     absolute magnetization    =    15.91 Bohr mag/cell

     iteration #  3     ecut=    60.00 Ry     beta= 0.20
     Davidson diagonalization with overlap
     ethr =  2.40E-03,  avg # of iterations =  1.0

     negative rho (up, down):  4.464E-04 3.902E-04

     total cpu time spent up to now is     1572.5 secs

     total energy              =   -7076.96594995 Ry
     estimated scf accuracy    <       1.80199613 Ry

     total magnetization       =    16.61 Bohr mag/cell
     absolute magnetization    =    16.69 Bohr mag/cell

     iteration #  4     ecut=    60.00 Ry     beta= 0.20
     Davidson diagonalization with overlap
     ethr =  7.48E-04,  avg # of iterations =  1.5

     negative rho (up, down):  2.653E-04 2.637E-04

     total cpu time spent up to now is     2016.4 secs

     total energy              =   -7077.16958708 Ry
     estimated scf accuracy    <       2.01551763 Ry

     total magnetization       =    14.26 Bohr mag/cell
     absolute magnetization    =    14.42 Bohr mag/cell

     iteration #  5     ecut=    60.00 Ry     beta= 0.20
     Davidson diagonalization with overlap
     ethr =  7.48E-04,  avg # of iterations =  1.3

     negative rho (up, down):  1.628E-05 2.617E-05

     total cpu time spent up to now is     2456.4 secs

     total energy              =   -7077.25848308 Ry
     estimated scf accuracy    <       1.02848911 Ry

     total magnetization       =    11.40 Bohr mag/cell
     absolute magnetization    =    11.99 Bohr mag/cell

     iteration #  6     ecut=    60.00 Ry     beta= 0.20
     Davidson diagonalization with overlap
     ethr =  4.27E-04,  avg # of iterations =  2.3

     negative rho (up, down):  3.685E-06 9.423E-06

     total cpu time spent up to now is     2940.7 secs

     total energy              =   -7077.41259905 Ry
     estimated scf accuracy    <       3.28621777 Ry

     total magnetization       =    12.88 Bohr mag/cell
     absolute magnetization    =    13.74 Bohr mag/cell

     iteration #  7     ecut=    60.00 Ry     beta= 0.20
     Davidson diagonalization with overlap
     ethr =  4.27E-04,  avg # of iterations =  1.2

     negative rho (up, down):  1.028E-07 3.397E-07

     total cpu time spent up to now is     3380.8 secs

     total energy              =   -7077.38066753 Ry
     estimated scf accuracy    <       1.56049648 Ry

     total magnetization       =    12.56 Bohr mag/cell
     absolute magnetization    =    13.42 Bohr mag/cell

     iteration #  8     ecut=    60.00 Ry     beta= 0.20
     Davidson diagonalization with overlap
     ethr =  4.27E-04,  avg # of iterations =  1.3

     negative rho (up, down):  8.463E-09 4.485E-08

     total cpu time spent up to now is     3815.6 secs

     total energy              =   -7077.41200124 Ry
     estimated scf accuracy    <       0.21088100 Ry

     total magnetization       =    11.51 Bohr mag/cell
     absolute magnetization    =    12.38 Bohr mag/cell

     iteration #  9     ecut=    60.00 Ry     beta= 0.20
     Davidson diagonalization with overlap
     c_bands:  1 eigenvalues not converged
     c_bands:  1 eigenvalues not converged
     c_bands:  1 eigenvalues not converged
     c_bands:  1 eigenvalues not converged
     c_bands:  1 eigenvalues not converged
     c_bands:  1 eigenvalues not converged
     c_bands:  1 eigenvalues not converged
     c_bands:  1 eigenvalues not converged
     c_bands:  1 eigenvalues not converged
     ethr =  8.75E-05,  avg # of iterations = 11.9

     negative rho (up, down):  4.457E-09 2.197E-08

     total cpu time spent up to now is     4381.4 secs

     total energy              =   -7077.42448162 Ry
     estimated scf accuracy    <       0.14937746 Ry

     total magnetization       =    10.01 Bohr mag/cell
     absolute magnetization    =    10.99 Bohr mag/cell

     iteration # 10     ecut=    60.00 Ry     beta= 0.20
     Davidson diagonalization with overlap
     ethr =  6.20E-05,  avg # of iterations =  1.8

     total cpu time spent up to now is     4835.7 secs

     total energy              =   -7077.42517532 Ry
     estimated scf accuracy    <       0.06843705 Ry

     total magnetization       =     9.66 Bohr mag/cell
     absolute magnetization    =    10.67 Bohr mag/cell

     iteration # 11     ecut=    60.00 Ry     beta= 0.20
     Davidson diagonalization with overlap
     c_bands:  1 eigenvalues not converged
     ethr =  2.84E-05,  avg # of iterations =  4.4

     total cpu time spent up to now is     5291.4 secs

     total energy              =   -7077.42639697 Ry
     estimated scf accuracy    <       0.02705698 Ry

     total magnetization       =     9.56 Bohr mag/cell
     absolute magnetization    =    10.57 Bohr mag/cell

     iteration # 12     ecut=    60.00 Ry     beta= 0.20
     Davidson diagonalization with overlap
     ethr =  1.12E-05,  avg # of iterations =  6.1

     total cpu time spent up to now is     5788.5 secs

     total energy              =   -7077.42707774 Ry
     estimated scf accuracy    <       0.01903697 Ry

     total magnetization       =     9.69 Bohr mag/cell
     absolute magnetization    =    10.68 Bohr mag/cell

     iteration # 13     ecut=    60.00 Ry     beta= 0.20
     Davidson diagonalization with overlap
     ethr =  7.90E-06,  avg # of iterations =  2.2

     total cpu time spent up to now is     6235.9 secs

     total energy              =   -7077.42765948 Ry
     estimated scf accuracy    <       0.04532273 Ry

     total magnetization       =     9.82 Bohr mag/cell
     absolute magnetization    =    10.78 Bohr mag/cell

     iteration # 14     ecut=    60.00 Ry     beta= 0.20
     Davidson diagonalization with overlap
     ethr =  7.90E-06,  avg # of iterations =  1.3

     negative rho (up, down):  1.777E-08 3.379E-08

     total cpu time spent up to now is     6662.6 secs

     total energy              =   -7077.42652883 Ry
     estimated scf accuracy    <       0.03428577 Ry

     total magnetization       =     9.75 Bohr mag/cell
     absolute magnetization    =    10.68 Bohr mag/cell

     iteration # 15     ecut=    60.00 Ry     beta= 0.20
     Davidson diagonalization with overlap
     ethr =  7.90E-06,  avg # of iterations =  1.6

     negative rho (up, down):  4.182E-08 5.895E-08

     total cpu time spent up to now is     7103.2 secs

     total energy              =   -7077.42573248 Ry
     estimated scf accuracy    <       0.01124713 Ry

     total magnetization       =     9.62 Bohr mag/cell
     absolute magnetization    =    10.48 Bohr mag/cell

     iteration # 16     ecut=    60.00 Ry     beta= 0.20
     Davidson diagonalization with overlap
     ethr =  4.67E-06,  avg # of iterations =  2.0

     negative rho (up, down):  5.459E-08 6.342E-08

     total cpu time spent up to now is     7534.8 secs

     total energy              =   -7077.42480731 Ry
     estimated scf accuracy    <       0.01157461 Ry

     total magnetization       =     9.88 Bohr mag/cell
     absolute magnetization    =    10.70 Bohr mag/cell

     iteration # 17     ecut=    60.00 Ry     beta= 0.20
     Davidson diagonalization with overlap
     ethr =  4.67E-06,  avg # of iterations =  2.7

     negative rho (up, down):  1.625E-08 1.891E-08

     total cpu time spent up to now is     8000.8 secs

     total energy              =   -7077.42516421 Ry
     estimated scf accuracy    <       0.00306370 Ry

     total magnetization       =     9.87 Bohr mag/cell
     absolute magnetization    =    10.69 Bohr mag/cell

     iteration # 18     ecut=    60.00 Ry     beta= 0.20
     Davidson diagonalization with overlap
     c_bands:  1 eigenvalues not converged
     ethr =  1.27E-06,  avg # of iterations =  5.7

     total cpu time spent up to now is     8485.8 secs

     total energy              =   -7077.42527957 Ry
     estimated scf accuracy    <       0.00177984 Ry

     total magnetization       =     9.79 Bohr mag/cell
     absolute magnetization    =    10.63 Bohr mag/cell

     iteration # 19     ecut=    60.00 Ry     beta= 0.20
     Davidson diagonalization with overlap
     ethr =  7.39E-07,  avg # of iterations =  2.3

     total cpu time spent up to now is     8936.8 secs

     total energy              =   -7077.42531717 Ry
     estimated scf accuracy    <       0.00133654 Ry

     total magnetization       =     9.79 Bohr mag/cell
     absolute magnetization    =    10.66 Bohr mag/cell

     iteration # 20     ecut=    60.00 Ry     beta= 0.20
     Davidson diagonalization with overlap
     ethr =  5.55E-07,  avg # of iterations =  1.8

     total cpu time spent up to now is     9377.8 secs

     total energy              =   -7077.42544931 Ry
     estimated scf accuracy    <       0.00189633 Ry

     total magnetization       =     9.93 Bohr mag/cell
     absolute magnetization    =    10.80 Bohr mag/cell

     iteration # 21     ecut=    60.00 Ry     beta= 0.20
     Davidson diagonalization with overlap
     ethr =  5.55E-07,  avg # of iterations =  1.6

     negative rho (up, down):  1.193E-05 1.175E-05

     total cpu time spent up to now is     9828.4 secs

     total energy              =   -7077.42542062 Ry
     estimated scf accuracy    <       0.00133111 Ry

     total magnetization       =     9.90 Bohr mag/cell
     absolute magnetization    =    10.78 Bohr mag/cell

     iteration # 22     ecut=    60.00 Ry     beta= 0.20
     Davidson diagonalization with overlap
     c_bands:  2 eigenvalues not converged
     ethr =  5.52E-07,  avg # of iterations =  2.6

     negative rho (up, down):  1.132E-05 1.101E-05

     total cpu time spent up to now is    10289.5 secs

     total energy              =   -7077.42549533 Ry
     estimated scf accuracy    <       0.00169584 Ry

     total magnetization       =     9.98 Bohr mag/cell
     absolute magnetization    =    10.87 Bohr mag/cell

     iteration # 23     ecut=    60.00 Ry     beta= 0.20
     Davidson diagonalization with overlap
     ethr =  5.52E-07,  avg # of iterations =  1.2

     negative rho (up, down):  8.652E-06 8.098E-06

     total cpu time spent up to now is    10717.9 secs

     total energy              =   -7077.42549203 Ry
     estimated scf accuracy    <       0.00149987 Ry

     total magnetization       =     9.99 Bohr mag/cell
     absolute magnetization    =    10.88 Bohr mag/cell

     iteration # 24     ecut=    60.00 Ry     beta= 0.20
     Davidson diagonalization with overlap
     ethr =  5.52E-07,  avg # of iterations =  2.3

     negative rho (up, down):  8.232E-05 8.097E-05

     total cpu time spent up to now is    11172.0 secs

     total energy              =   -7077.42549351 Ry
     estimated scf accuracy    <       0.00129354 Ry

     total magnetization       =     9.99 Bohr mag/cell
     absolute magnetization    =    10.89 Bohr mag/cell

     iteration # 25     ecut=    60.00 Ry     beta= 0.20
     Davidson diagonalization with overlap
     ethr =  5.37E-07,  avg # of iterations =  1.7

     negative rho (up, down):  3.320E-04 3.257E-04

     total cpu time spent up to now is    11621.6 secs

     total energy              =   -7077.42543064 Ry
     estimated scf accuracy    <       0.00085925 Ry

     total magnetization       =     9.98 Bohr mag/cell
     absolute magnetization    =    10.88 Bohr mag/cell

     iteration # 26     ecut=    60.00 Ry     beta= 0.20
     Davidson diagonalization with overlap
     ethr =  3.57E-07,  avg # of iterations =  2.5

     negative rho (up, down):  3.359E-05 3.110E-05

     total cpu time spent up to now is    12085.2 secs

     total energy              =   -7077.42544830 Ry
     estimated scf accuracy    <       0.00080968 Ry

     total magnetization       =    10.01 Bohr mag/cell
     absolute magnetization    =    10.90 Bohr mag/cell

     iteration # 27     ecut=    60.00 Ry     beta= 0.20
     Davidson diagonalization with overlap
     ethr =  3.36E-07,  avg # of iterations =  1.7

     negative rho (up, down):  5.577E-05 5.081E-05

     total cpu time spent up to now is    12513.9 secs

     total energy              =   -7077.42543635 Ry
     estimated scf accuracy    <       0.00046435 Ry

     total magnetization       =     9.97 Bohr mag/cell
     absolute magnetization    =    10.86 Bohr mag/cell

     iteration # 28     ecut=    60.00 Ry     beta= 0.20
     Davidson diagonalization with overlap
     ethr =  1.93E-07,  avg # of iterations =  1.5

     negative rho (up, down):  1.877E-04 1.834E-04

     total cpu time spent up to now is    12962.9 secs

     total energy              =   -7077.42541222 Ry
     estimated scf accuracy    <       0.00041928 Ry

     total magnetization       =     9.96 Bohr mag/cell
     absolute magnetization    =    10.86 Bohr mag/cell

     iteration # 29     ecut=    60.00 Ry     beta= 0.20
     Davidson diagonalization with overlap
     ethr =  1.74E-07,  avg # of iterations =  1.2

     negative rho (up, down):  3.840E-04 3.786E-04

     total cpu time spent up to now is    13390.4 secs

     total energy              =   -7077.42542300 Ry
     estimated scf accuracy    <       0.00009149 Ry

     total magnetization       =     9.93 Bohr mag/cell
     absolute magnetization    =    10.83 Bohr mag/cell

     iteration # 30     ecut=    60.00 Ry     beta= 0.20
     Davidson diagonalization with overlap
     ethr =  3.80E-08,  avg # of iterations =  2.2

     negative rho (up, down):  2.356E-04 2.234E-04

     total cpu time spent up to now is    13850.2 secs

     total energy              =   -7077.42543430 Ry
     estimated scf accuracy    <       0.00004790 Ry

     total magnetization       =     9.94 Bohr mag/cell
     absolute magnetization    =    10.84 Bohr mag/cell

     iteration # 31     ecut=    60.00 Ry     beta= 0.20
     Davidson diagonalization with overlap
     ethr =  1.99E-08,  avg # of iterations =  1.6

     negative rho (up, down):  9.891E-05 7.591E-05

     total cpu time spent up to now is    14295.9 secs

     total energy              =   -7077.42544235 Ry
     estimated scf accuracy    <       0.00002821 Ry

     total magnetization       =     9.95 Bohr mag/cell
     absolute magnetization    =    10.85 Bohr mag/cell

     iteration # 32     ecut=    60.00 Ry     beta= 0.20
     Davidson diagonalization with overlap
     ethr =  1.17E-08,  avg # of iterations =  1.8

     negative rho (up, down):  6.230E-05 3.839E-05

     total cpu time spent up to now is    14750.3 secs

     total energy              =   -7077.42544669 Ry
     estimated scf accuracy    <       0.00001509 Ry

     total magnetization       =     9.95 Bohr mag/cell
     absolute magnetization    =    10.85 Bohr mag/cell

     iteration # 33     ecut=    60.00 Ry     beta= 0.20
     Davidson diagonalization with overlap
     ethr =  6.26E-09,  avg # of iterations =  1.6

     negative rho (up, down):  1.144E-04 8.296E-05

     total cpu time spent up to now is    15181.7 secs

     total energy              =   -7077.42544720 Ry
     estimated scf accuracy    <       0.00001429 Ry

     total magnetization       =     9.95 Bohr mag/cell
     absolute magnetization    =    10.85 Bohr mag/cell

     iteration # 34     ecut=    60.00 Ry     beta= 0.20
     Davidson diagonalization with overlap
     ethr =  5.93E-09,  avg # of iterations =  1.6

     negative rho (up, down):  1.575E-04 1.242E-04

     total cpu time spent up to now is    15628.0 secs

     total energy              =   -7077.42544725 Ry
     estimated scf accuracy    <       0.00000272 Ry

     total magnetization       =     9.95 Bohr mag/cell
     absolute magnetization    =    10.84 Bohr mag/cell

     iteration # 35     ecut=    60.00 Ry     beta= 0.20
     Davidson diagonalization with overlap
     ethr =  1.13E-09,  avg # of iterations =  3.6

     negative rho (up, down):  1.640E-04 1.290E-04

     total cpu time spent up to now is    16149.5 secs

     total energy              =   -7077.42544777 Ry
     estimated scf accuracy    <       0.00000054 Ry

     total magnetization       =     9.95 Bohr mag/cell
     absolute magnetization    =    10.85 Bohr mag/cell

     iteration # 36     ecut=    60.00 Ry     beta= 0.20
     Davidson diagonalization with overlap
     ethr =  2.24E-10,  avg # of iterations =  4.3

     negative rho (up, down):  1.514E-04 1.156E-04

     total cpu time spent up to now is    16642.3 secs

     total energy              =   -7077.42544793 Ry
     estimated scf accuracy    <       0.00000022 Ry

     total magnetization       =     9.95 Bohr mag/cell
     absolute magnetization    =    10.85 Bohr mag/cell

     iteration # 37     ecut=    60.00 Ry     beta= 0.20
     Davidson diagonalization with overlap
     ethr =  9.31E-11,  avg # of iterations =  2.1

     negative rho (up, down):  1.576E-04 1.219E-04

     total cpu time spent up to now is    17113.4 secs

     total energy              =   -7077.42544800 Ry
     estimated scf accuracy    <       0.00000012 Ry

     total magnetization       =     9.95 Bohr mag/cell
     absolute magnetization    =    10.85 Bohr mag/cell

     iteration # 38     ecut=    60.00 Ry     beta= 0.20
     Davidson diagonalization with overlap
     ethr =  4.78E-11,  avg # of iterations =  2.1

     negative rho (up, down):  1.587E-04 1.229E-04

     total cpu time spent up to now is    17585.5 secs

     total energy              =   -7077.42544803 Ry
     estimated scf accuracy    <       0.00000023 Ry

     total magnetization       =     9.95 Bohr mag/cell
     absolute magnetization    =    10.84 Bohr mag/cell

     iteration # 39     ecut=    60.00 Ry     beta= 0.20
     Davidson diagonalization with overlap
     ethr =  4.78E-11,  avg # of iterations =  1.1

     negative rho (up, down):  1.465E-04 1.106E-04

     total cpu time spent up to now is    18013.0 secs

     total energy              =   -7077.42544801 Ry
     estimated scf accuracy    <       0.00000024 Ry

     total magnetization       =     9.95 Bohr mag/cell
     absolute magnetization    =    10.84 Bohr mag/cell

     iteration # 40     ecut=    60.00 Ry     beta= 0.20
     Davidson diagonalization with overlap
     ethr =  4.78E-11,  avg # of iterations =  1.0

     negative rho (up, down):  1.437E-04 1.078E-04

     total cpu time spent up to now is    18444.6 secs

     total energy              =   -7077.42544801 Ry
     estimated scf accuracy    <       0.00000012 Ry

     total magnetization       =     9.95 Bohr mag/cell
     absolute magnetization    =    10.84 Bohr mag/cell

     iteration # 41     ecut=    60.00 Ry     beta= 0.20
     Davidson diagonalization with overlap
     ethr =  4.78E-11,  avg # of iterations =  1.0

     negative rho (up, down):  1.448E-04 1.090E-04

     total cpu time spent up to now is    18862.4 secs

     total energy              =   -7077.42544801 Ry
     estimated scf accuracy    <       0.00000008 Ry

     total magnetization       =     9.95 Bohr mag/cell
     absolute magnetization    =    10.84 Bohr mag/cell

     iteration # 42     ecut=    60.00 Ry     beta= 0.20
     Davidson diagonalization with overlap
     ethr =  3.50E-11,  avg # of iterations =  1.0

     negative rho (up, down):  1.421E-04 1.064E-04

     total cpu time spent up to now is    19284.3 secs

     total energy              =   -7077.42544801 Ry
     estimated scf accuracy    <       0.00000004 Ry

     total magnetization       =     9.95 Bohr mag/cell
     absolute magnetization    =    10.84 Bohr mag/cell

     iteration # 43     ecut=    60.00 Ry     beta= 0.20
     Davidson diagonalization with overlap
     ethr =  1.83E-11,  avg # of iterations =  1.0

     negative rho (up, down):  1.401E-04 1.044E-04

     total cpu time spent up to now is    19707.4 secs

     total energy              =   -7077.42544802 Ry
     estimated scf accuracy    <       0.00000004 Ry

     total magnetization       =     9.95 Bohr mag/cell
     absolute magnetization    =    10.84 Bohr mag/cell

     iteration # 44     ecut=    60.00 Ry     beta= 0.20
     Davidson diagonalization with overlap
     ethr =  1.55E-11,  avg # of iterations =  1.0

     negative rho (up, down):  1.371E-04 1.015E-04

     total cpu time spent up to now is    20131.4 secs

     total energy              =   -7077.42544803 Ry
     estimated scf accuracy    <       0.00000005 Ry

     total magnetization       =     9.95 Bohr mag/cell
     absolute magnetization    =    10.84 Bohr mag/cell

     iteration # 45     ecut=    60.00 Ry     beta= 0.20
     Davidson diagonalization with overlap
     ethr =  1.55E-11,  avg # of iterations =  1.0

     negative rho (up, down):  1.386E-04 1.030E-04

     total cpu time spent up to now is    20552.0 secs

     total energy              =   -7077.42544803 Ry
     estimated scf accuracy    <       0.00000004 Ry

     total magnetization       =     9.95 Bohr mag/cell
     absolute magnetization    =    10.84 Bohr mag/cell

     iteration # 46     ecut=    60.00 Ry     beta= 0.20
     Davidson diagonalization with overlap
     ethr =  1.50E-11,  avg # of iterations =  1.0

     negative rho (up, down):  1.524E-04 1.165E-04

     total cpu time spent up to now is    20975.9 secs

     total energy              =   -7077.42544803 Ry
     estimated scf accuracy    <       0.00000003 Ry

     total magnetization       =     9.95 Bohr mag/cell
     absolute magnetization    =    10.84 Bohr mag/cell

     iteration # 47     ecut=    60.00 Ry     beta= 0.20
     Davidson diagonalization with overlap
     ethr =  1.40E-11,  avg # of iterations =  2.0

     negative rho (up, down):  1.555E-04 1.196E-04

     total cpu time spent up to now is    21465.6 secs

     total energy              =   -7077.42544804 Ry
     estimated scf accuracy    <       0.00000002 Ry

     total magnetization       =     9.95 Bohr mag/cell
     absolute magnetization    =    10.84 Bohr mag/cell

     iteration # 48     ecut=    60.00 Ry     beta= 0.20
     Davidson diagonalization with overlap
     ethr =  8.08E-12,  avg # of iterations =  1.0

     negative rho (up, down):  1.550E-04 1.191E-04

     total cpu time spent up to now is    21890.3 secs

     total energy              =   -7077.42544804 Ry
     estimated scf accuracy    <          6.9E-09 Ry

     total magnetization       =     9.95 Bohr mag/cell
     absolute magnetization    =    10.84 Bohr mag/cell

     iteration # 49     ecut=    60.00 Ry     beta= 0.20
     Davidson diagonalization with overlap
     ethr =  2.86E-12,  avg # of iterations =  1.3

     negative rho (up, down):  1.561E-04 1.200E-04

     total cpu time spent up to now is    22334.3 secs

     total energy              =   -7077.42544806 Ry
     estimated scf accuracy    <          3.8E-09 Ry

     total magnetization       =     9.95 Bohr mag/cell
     absolute magnetization    =    10.84 Bohr mag/cell

     iteration # 50     ecut=    60.00 Ry     beta= 0.20
     Davidson diagonalization with overlap
     ethr =  1.56E-12,  avg # of iterations =  2.1

     negative rho (up, down):  1.557E-04 1.196E-04

     total cpu time spent up to now is    22814.5 secs

     total energy              =   -7077.42544806 Ry
     estimated scf accuracy    <          1.6E-09 Ry

     total magnetization       =     9.95 Bohr mag/cell
     absolute magnetization    =    10.84 Bohr mag/cell

     iteration # 51     ecut=    60.00 Ry     beta= 0.20
     Davidson diagonalization with overlap
     ethr =  6.84E-13,  avg # of iterations =  2.5

     negative rho (up, down):  1.556E-04 1.195E-04

     total cpu time spent up to now is    23290.3 secs

     total energy              =   -7077.42544806 Ry
     estimated scf accuracy    <          5.0E-10 Ry

     total magnetization       =     9.94 Bohr mag/cell
     absolute magnetization    =    10.84 Bohr mag/cell

     iteration # 52     ecut=    60.00 Ry     beta= 0.20
     Davidson diagonalization with overlap
     ethr =  2.08E-13,  avg # of iterations =  3.9

     negative rho (up, down):  1.554E-04 1.193E-04

     total cpu time spent up to now is    23796.0 secs

     total energy              =   -7077.42544806 Ry
     estimated scf accuracy    <          2.2E-10 Ry

     total magnetization       =     9.94 Bohr mag/cell
     absolute magnetization    =    10.84 Bohr mag/cell

     iteration # 53     ecut=    60.00 Ry     beta= 0.20
     Davidson diagonalization with overlap
     ethr =  1.00E-13,  avg # of iterations =  2.2

     negative rho (up, down):  1.552E-04 1.191E-04

     total cpu time spent up to now is    24240.9 secs

     total energy              =   -7077.42544806 Ry
     estimated scf accuracy    <          3.2E-10 Ry

     total magnetization       =     9.94 Bohr mag/cell
     absolute magnetization    =    10.84 Bohr mag/cell

     iteration # 54     ecut=    60.00 Ry     beta= 0.20
     Davidson diagonalization with overlap
     ethr =  1.00E-13,  avg # of iterations =  1.6

     negative rho (up, down):  1.549E-04 1.188E-04

     total cpu time spent up to now is    24681.3 secs

     total energy              =   -7077.42544806 Ry
     estimated scf accuracy    <          1.2E-10 Ry

     total magnetization       =     9.94 Bohr mag/cell
     absolute magnetization    =    10.84 Bohr mag/cell

     iteration # 55     ecut=    60.00 Ry     beta= 0.20
     Davidson diagonalization with overlap
     ethr =  1.00E-13,  avg # of iterations =  1.0

     negative rho (up, down):  1.545E-04 1.184E-04
 
     Magnetic moment per site  (integrated on atomic sphere of radius R)
     atom   1 (R=0.202)  charge=  8.7422  magn=  0.9567
     atom   2 (R=0.121)  charge=  4.4778  magn=  0.1641
     atom   3 (R=0.121)  charge=  4.4778  magn=  0.1641
     atom   4 (R=0.121)  charge=  4.4779  magn=  0.1616
     atom   5 (R=0.202)  charge=  8.8173  magn=  0.9308
     atom   6 (R=0.121)  charge=  4.4690  magn=  0.2078
     atom   7 (R=0.121)  charge=  4.4690  magn=  0.2078
     atom   8 (R=0.121)  charge=  4.4681  magn=  0.2085
     atom   9 (R=0.202)  charge=  8.8310  magn=  0.8754
     atom  10 (R=0.121)  charge=  4.4667  magn=  0.2049
     atom  11 (R=0.121)  charge=  4.4668  magn=  0.2000
     atom  12 (R=0.121)  charge=  4.4667  magn=  0.2049
     atom  13 (R=0.202)  charge=  8.8336  magn=  0.8590
     atom  14 (R=0.121)  charge=  4.4658  magn=  0.1960
     atom  15 (R=0.121)  charge=  4.4658  magn=  0.1960
     atom  16 (R=0.121)  charge=  4.4695  magn=  0.1990
     atom  17 (R=0.202)  charge=  8.8161  magn=  0.8710
     atom  18 (R=0.121)  charge=  4.4680  magn=  0.1862
     atom  19 (R=0.121)  charge=  4.4680  magn=  0.1862
     atom  20 (R=0.121)  charge=  4.4679  magn=  0.2029
     atom  21 (R=0.202)  charge=  8.7586  magn=  0.9190
     atom  22 (R=0.121)  charge=  4.4789  magn=  0.1404
     atom  23 (R=0.121)  charge=  4.4490  magn=  0.0702
     atom  24 (R=0.121)  charge=  4.4789  magn=  0.1404
     atom  25 (R=0.121)  charge=  0.7190  magn= -0.0064

     total cpu time spent up to now is    25101.1 secs

     End of self-consistent calculation

     Number of k-points >= 100: set verbosity='high' to print the bands.

     the Fermi energy is    -5.1810 ev

!    total energy              =   -7077.42544806 Ry
     total all-electron energy =   -199909.862018 Ry
     estimated scf accuracy    <          6.8E-11 Ry
     smearing contrib. (-TS)   =       0.00038280 Ry
     internal energy E=F+TS    =   -7077.42583086 Ry

     The total energy is F=E-TS. E is the sum of the following terms:
     one-electron contribution =  -61114.41925105 Ry
     hartree contribution      =   30744.43604222 Ry
     xc contribution           =    -835.46641949 Ry
     ewald contribution        =   29262.17486172 Ry
     DFT-D3 Dispersion         =      -2.53118615 Ry
     one-center paw contrib.   =   -5131.61987811 Ry

     total magnetization       =     9.94 Bohr mag/cell
     absolute magnetization    =    10.84 Bohr mag/cell

     convergence has been achieved in  55 iterations

     negative rho (up, down):  1.545E-04 1.184E-04

     Forces acting on atoms (cartesian axes, Ry/au):

     atom    1 type  1   force =    -0.00006958   -0.00004017    0.01614249
     atom    2 type  2   force =    -0.00035524   -0.01429734   -0.00898591
     atom    3 type  2   force =    -0.01255947    0.00684103   -0.00898591
     atom    4 type  2   force =     0.01239063    0.00715374   -0.00968550
     atom    5 type  1   force =     0.00063180    0.00036478   -0.00004044
     atom    6 type  2   force =    -0.00020273   -0.00075631    0.00506280
     atom    7 type  2   force =    -0.00075632    0.00020260    0.00506281
     atom    8 type  2   force =     0.00099523    0.00057458    0.00540932
     atom    9 type  1   force =     0.00017591    0.00010157    0.00020550
     atom   10 type  2   force =     0.00025200   -0.00017781   -0.00078452
     atom   11 type  2   force =    -0.00049663   -0.00028675   -0.00049989
     atom   12 type  2   force =    -0.00002799    0.00030713   -0.00078465
     atom   13 type  1   force =    -0.00003994   -0.00002305    0.00016506
     atom   14 type  2   force =     0.00058900    0.00018518   -0.00016847
     atom   15 type  2   force =     0.00045486    0.00041753   -0.00016846
     atom   16 type  2   force =     0.00068075    0.00039304    0.00020634
     atom   17 type  1   force =     0.00001728    0.00001001   -0.00055756
     atom   18 type  2   force =    -0.00055039   -0.00020242    0.00029556
     atom   19 type  2   force =    -0.00045044   -0.00037541    0.00029558
     atom   20 type  2   force =     0.00007193    0.00004149    0.00015660
     atom   21 type  1   force =     0.00031939    0.00018440   -0.00065242
     atom   22 type  2   force =    -0.00001908    0.00058249   -0.00065139
     atom   23 type  2   force =     0.00041351    0.00023872   -0.00015987
     atom   24 type  2   force =     0.00049488   -0.00030780   -0.00065141
     atom   25 type  3   force =    -0.00195934   -0.00113123   -0.00022565

     Total force =     0.002682     Total SCF correction =     0.000039


     Computing stress (Cartesian axis) and pressure


     negative rho (up, down):  1.545E-04 1.184E-04
          total   stress  (Ry/bohr**3)                   (kbar)     P=       -8.50
  -0.00008868  -0.00000126  -0.00000306          -13.05       -0.19       -0.45
  -0.00000126  -0.00008723  -0.00000177           -0.19      -12.83       -0.26
  -0.00000306  -0.00000177   0.00000252           -0.45       -0.26        0.37


     Writing all to output data dir /tmpu/isholek_g/isholek/MIGUEL/QE/Hydrogen/111_2x2/SAVE/Ni1Pd3_111-T1.save/ :
     XML data file, charge density, pseudopotentials, collected wavefunctions
 
     init_run     :    225.19s CPU    231.17s WALL (       1 calls)
     electrons    :  23364.90s CPU  24869.77s WALL (       1 calls)
     forces       :     65.23s CPU     66.35s WALL (       1 calls)
     force_dftd3  :      0.15s CPU      0.38s WALL (       1 calls)
     stress       :    576.68s CPU    601.39s WALL (       1 calls)
     stres_dftd3  :      0.54s CPU      0.54s WALL (       1 calls)

     Called by init_run:
     wfcinit      :    134.90s CPU    140.22s WALL (       1 calls)
     potinit      :      1.26s CPU      1.53s WALL (       1 calls)
     hinit0       :      0.88s CPU      0.96s WALL (       1 calls)

     Called by electrons:
     c_bands      :  18742.85s CPU  19996.41s WALL (      55 calls)
     sum_band     :   4460.83s CPU   4697.35s WALL (      55 calls)
     v_of_rho     :     39.67s CPU     43.78s WALL (      56 calls)
     newd         :     13.30s CPU     14.99s WALL (      56 calls)
     PAW_pot      :     22.92s CPU     23.52s WALL (      56 calls)
     mix_rho      :     79.84s CPU     86.93s WALL (      55 calls)
     energy_dftd3 :      0.07s CPU      0.07s WALL (       1 calls)

     Called by c_bands:
     init_us_2    :    134.72s CPU    147.72s WALL (    7232 calls)
     init_us_2:cp :    134.62s CPU    147.63s WALL (    7232 calls)
     cegterg      :  14556.13s CPU  15598.03s WALL (    3520 calls)

     Called by *egterg:
     cdiaghg      :    325.12s CPU    343.16s WALL (   11226 calls)
     h_psi        :  10078.56s CPU  10861.87s WALL (   11290 calls)
     s_psi        :    989.74s CPU   1033.75s WALL (   11290 calls)
     g_psi        :     32.01s CPU     34.23s WALL (    7706 calls)

     Called by h_psi:
     h_psi:calbec :   1277.34s CPU   1340.55s WALL (   11290 calls)
     vloc_psi     :   7755.86s CPU   8385.69s WALL (   11290 calls)
     add_vuspsi   :   1001.87s CPU   1056.47s WALL (   11290 calls)

     General routines
     calbec       :   1892.86s CPU   1983.18s WALL (   15130 calls)
     fft          :     29.40s CPU     32.75s WALL (    1438 calls)
     ffts         :     23.28s CPU     25.61s WALL (    6864 calls)
     fftw         :   6898.83s CPU   7325.51s WALL ( 2623122 calls)
     interpolate  :      2.32s CPU      2.62s WALL (     112 calls)
     davcio       :      1.58s CPU    115.11s WALL (   12170 calls)
 
     Parallel routines
 
     PWSCF        :      6h43m CPU      7h 9m WALL

 
   This run was terminated on:  15:25:28   1May2026            

=------------------------------------------------------------------------------=
   JOB DONE.
=------------------------------------------------------------------------------=
