
     Program PWSCF v.7.3 starts on  3Apr2026 at  2:28:11 

     This program is part of the open-source Quantum ESPRESSO suite
     for quantum simulation of materials; please cite
         "P. Giannozzi et al., J. Phys.:Condens. Matter 21 395502 (2009);
         "P. Giannozzi et al., J. Phys.:Condens. Matter 29 465901 (2017);
         "P. Giannozzi et al., J. Chem. Phys. 152 154105 (2020);
          URL http://www.quantum-espresso.org", 
     in publications or presentations arising from this work. More details at
     http://www.quantum-espresso.org/quote

     Parallel version (MPI), running on    64 processors

     MPI processes distributed on     4 nodes
     52550 MiB available memory on the printing compute node when the environment starts
 
     Reading input from /tmpu/isholek_g/isholek/MIGUEL/QE/Hydrogen/111_2x2/SCF/Ni1Pd3_111-H_hcp_1-SCF.in

     Current dimensions of program PWSCF are:
     Max number of different atomic species (ntypx) = 10
     Max number of k-points (npk) =  40000
     Max angular momentum in pseudopotentials (lmaxx) =  4
     file Ni.upf: wavefunction(s)  4S 3D renormalized
     file Pd.upf: wavefunction(s)  5S 4D renormalized
     file H.upf: wavefunction(s)  1S renormalized

     IMPORTANT: XC functional enforced from input :
     Exchange-correlation= PBE
                           (   1   4   3   4   0   0   0)
     Any further DFT definition will be discarded
     Please, verify this is what you really want

 
     K-points division:     npool     =       8
     R & G space division:  proc/nbgrp/npool/nimage =       8
     Subspace diagonalization in iterative solution of the eigenvalue problem:
     one sub-group per band group will be used
     scalapack distributed-memory algorithm (size of sub-group:  2*  2 procs)

 
     Parallelization info
     --------------------
     sticks:   dense  smooth     PW     G-vecs:    dense   smooth      PW
     Min         416     207     60               120460    42599    6636
     Max         417     208     64               120479    42626    6643
     Sum        3331    1663    499               963739   340921   53115
 
     Using Slab Decomposition
 

     Title: 
     Ni1Pd3_111-H_hcp_1-SCF                                                     


     bravais-lattice index     =            0
     lattice parameter (alat)  =      10.0481  a.u.
     unit-cell volume          =    5428.4795 (a.u.)^3
     number of atoms/cell      =           25
     number of atomic types    =            3
     number of electrons       =       241.00
     number of Kohn-Sham states=          145
     kinetic-energy cutoff     =      60.0000  Ry
     charge density cutoff     =     480.0000  Ry
     scf convergence threshold =      1.0E-10
     mixing beta               =       0.2000
     number of iterations used =           12  local-TF  mixing
     Exchange-correlation= PBE
                           (   1   4   3   4   0   0   0)

     celldm(1)=  10.048050  celldm(2)=   0.000000  celldm(3)=   0.000000
     celldm(4)=   0.000000  celldm(5)=   0.000000  celldm(6)=   0.000000

     crystal axes: (cart. coord. in units of alat)
               a(1) = (   1.000000   0.000000   0.000000 )  
               a(2) = (   0.500000   0.866025   0.000000 )  
               a(3) = (   0.000000   0.000000   6.178773 )  

     reciprocal axes: (cart. coord. in units 2 pi/alat)
               b(1) = (  1.000000 -0.577350  0.000000 )  
               b(2) = (  0.000000  1.154701  0.000000 )  
               b(3) = (  0.000000  0.000000  0.161844 )  


     PseudoPot. # 1 for Ni read from file:
     /tmpu/isholek_g/isholek/MIGUEL/PP/PAW/Ni.upf
     MD5 check sum: d88365a95a5e142bd87181c2c8b16588
     Pseudo is Projector augmented-wave + core cor, Zval = 10.0
     Generated using "atomic" code by A. Dal Corso  v.5.0.2 svn rev. 9415
     Shape of augmentation charge: PSQ
     Using radial grid of 1195 points,  6 beta functions with: 
                l(1) =   0
                l(2) =   0
                l(3) =   1
                l(4) =   1
                l(5) =   2
                l(6) =   2
     Q(r) pseudized with 0 coefficients 


     PseudoPot. # 2 for Pd read from file:
     /tmpu/isholek_g/isholek/MIGUEL/PP/PAW/Pd.upf
     MD5 check sum: e9d6f14fd83b79f8105499163af174c9
     Pseudo is Projector augmented-wave + core cor, Zval = 10.0
     Generated using "atomic" code by A. Dal Corso  v.5.0.2 svn rev. 9415
     Shape of augmentation charge: PSQ
     Using radial grid of 1235 points,  6 beta functions with: 
                l(1) =   0
                l(2) =   0
                l(3) =   1
                l(4) =   1
                l(5) =   2
                l(6) =   2
     Q(r) pseudized with 0 coefficients 


     PseudoPot. # 3 for H  read from file:
     /tmpu/isholek_g/isholek/MIGUEL/PP/PAW/H.upf
     MD5 check sum: 4cbe42a24e15140179a93d5bf84f2220
     Pseudo is Projector augmented-wave, Zval =  1.0
     Generated using "atomic" code by A. Dal Corso  v.5.0.2 svn rev. 9415
     Shape of augmentation charge: PSQ
     Using radial grid of  929 points,  2 beta functions with: 
                l(1) =   0
                l(2) =   0
     Q(r) pseudized with 0 coefficients 


     atomic species   valence    mass     pseudopotential
     Ni               10.00    58.69340     Ni( 1.00)
     Pd               10.00   106.42000     Pd( 1.00)
     H                 1.00     1.00794     H ( 1.00)

     Starting magnetic structure 
     atomic species   magnetization
     Ni              0.650
     Pd              0.100
     H               0.000

     No symmetry found



   Cartesian axes

     site n.     atom                  positions (alat units)
         1        Ni     tau(   1) = (   1.0000000   0.5773503   2.0687584  )
         2        Pd     tau(   2) = (   0.5000000   0.5773500   2.0687727  )
         3        Pd     tau(   3) = (   0.7499998   0.1443377   2.0687727  )
         4        Pd     tau(   4) = (   0.2500002   0.1443377   2.0687727  )
         5        Ni     tau(   5) = (   0.5000000   0.2886751   2.4770066  )
         6        Pd     tau(   6) = (   0.7499998   0.7216879   2.4770210  )
         7        Pd     tau(   7) = (   1.0000000   0.2886749   2.4770210  )
         8        Pd     tau(   8) = (   1.2500002   0.7216879   2.4770210  )
         9        Ni     tau(   9) = (  -0.0000000  -0.0000000   2.8834673  )
        10        Pd     tau(  10) = (   1.0000000   0.8661567   2.8844593  )
        11        Pd     tau(  11) = (   0.7498863   0.4329471   2.8844594  )
        12        Pd     tau(  12) = (   1.2501137   0.4329471   2.8844593  )
        13        Ni     tau(  13) = (   1.0000000   0.5773503   3.2926807  )
        14        Pd     tau(  14) = (   0.7499544   0.1443639   3.2927006  )
        15        Pd     tau(  15) = (   0.5000000   0.5772975   3.2927006  )
        16        Pd     tau(  16) = (   0.2500456   0.1443639   3.2927006  )
        17        Ni     tau(  17) = (   0.5000000   0.2886751   3.7029857  )
        18        Pd     tau(  18) = (   0.7511460   0.7210262   3.7003050  )
        19        Pd     tau(  19) = (   1.0000000   0.2899984   3.7003050  )
        20        Pd     tau(  20) = (   1.2488540   0.7210262   3.7003050  )
        21        Ni     tau(  21) = (  -0.0000000   0.0000000   4.0936977  )
        22        Pd     tau(  22) = (   1.0000000   0.8711588   4.1179365  )
        23        Pd     tau(  23) = (   0.7455543   0.4304460   4.1179365  )
        24        Pd     tau(  24) = (   1.2544456   0.4304460   4.1179365  )
        25        H      tau(  25) = (   1.0000000   0.5773503   4.2903153  )

     --------------------------------------------
     DFT-D3 Dispersion Correction (3-body terms):
     --------------------------------------------
       Reference C6 values for interpolation: 

         atom   Coordination number   C6
         H          0.912             6.05
         H          0.000            15.18
         Ni         0.000          1149.49
         Ni         1.794           356.66
         Ni         6.546           257.56
         Ni         6.292           283.75
         Pd         0.000          1217.01
         Pd         1.863           573.90
         Pd         5.710           531.75

       Values used:

         atom   Coordination number  R0_AB[au]  C6      C8
         Ni         5.893            3.162    276.72  23187.43
         Pd         6.810            3.168    531.75  48720.73
         Pd         6.810            3.168    531.75  48720.73
         Pd         6.810            3.168    531.75  48720.73
         Ni         7.892            3.162    258.73  21680.11
         Pd         9.145            3.168    531.75  48720.73
         Pd         9.145            3.168    531.75  48720.73
         Pd         9.145            3.168    531.75  48720.73
         Ni         7.897            3.162    258.72  21679.17
         Pd         9.151            3.168    531.75  48720.73
         Pd         9.151            3.168    531.75  48720.73
         Pd         9.151            3.168    531.75  48720.73
         Ni         7.909            3.162    258.70  21676.93
         Pd         9.121            3.168    531.75  48720.73
         Pd         9.121            3.168    531.75  48720.73
         Pd         9.121            3.168    531.75  48720.73
         Ni         7.781            3.162    259.01  21703.48
         Pd         9.105            3.168    531.75  48720.73
         Pd         9.105            3.168    531.75  48720.73
         Pd         9.105            3.168    531.75  48720.73
         Ni         6.119            3.162    274.13  22970.15
         Pd         7.272            3.168    531.75  48720.73
         Pd         7.272            3.168    531.75  48720.73
         Pd         7.272            3.168    531.75  48720.73
         H          1.867            2.062      6.05     73.18

         Molecular C6 ( Ry / a.u.^6 ) =    265174.58


     number of k points=   256  Marzari-Vanderbilt smearing, width (Ry)=  0.0147

     Number of k-points >= 100: set verbosity='high' to print them.

     Dense  grid:   963739 G-vectors     FFT dimensions: (  72,  72, 450)

     Smooth grid:   340921 G-vectors     FFT dimensions: (  50,  50, 320)

     Estimated max dynamical RAM per process >       1.01 GB

     Estimated total dynamical RAM >      59.77 GB
 ----2D----2D----2D----2D----2D----2D----2D----2D----2D----2D----2D----2D
  The code is running with the 2D cutoff
  Please refer to:
  Sohier, T., Calandra, M., & Mauri, F. (2017), 
  Density functional perturbation theory for gated two-dimensional heterostructu
 res:
  Theoretical developments and application to flexural phonons in graphene.
  Physical Review B, 96(7), 75448. https://doi.org/10.1103/PhysRevB.96.075448
 ----2D----2D----2D----2D----2D----2D----2D----2D----2D----2D----2D----2D

     Check: negative core charge=   -0.000002
     Generating pointlists ...
     new r_m :   0.2016 (alat units)  2.0257 (a.u.) for type    1
     new r_m :   0.1405 (alat units)  1.4119 (a.u.) for type    2
     new r_m :   0.1405 (alat units)  1.4119 (a.u.) for type    3

     Initial potential from superposition of free atoms

     starting charge     240.9891, renormalised to     241.0000

     negative rho (up, down):  1.995E-04 5.220E-05
     Starting wfcs are  217 randomized atomic wfcs
     Checking if some PAW data can be deallocated... 

     total cpu time spent up to now is      235.0 secs

     Self-consistent Calculation

     iteration #  1     ecut=    60.00 Ry     beta= 0.20
     Davidson diagonalization with overlap
     ethr =  1.00E-02,  avg # of iterations =  3.0

     negative rho (up, down):  3.856E-04 2.959E-04

     total cpu time spent up to now is      765.7 secs

     total energy              =   -7076.14090889 Ry
     estimated scf accuracy    <      23.47933365 Ry

     total magnetization       =    10.76 Bohr mag/cell
     absolute magnetization    =    10.78 Bohr mag/cell

     iteration #  2     ecut=    60.00 Ry     beta= 0.20
     Davidson diagonalization with overlap
     ethr =  9.74E-03,  avg # of iterations =  1.0

     negative rho (up, down):  5.457E-04 4.329E-04

     total cpu time spent up to now is     1196.6 secs

     total energy              =   -7076.76989584 Ry
     estimated scf accuracy    <       5.71438438 Ry

     total magnetization       =    15.96 Bohr mag/cell
     absolute magnetization    =    16.00 Bohr mag/cell

     iteration #  3     ecut=    60.00 Ry     beta= 0.20
     Davidson diagonalization with overlap
     ethr =  2.37E-03,  avg # of iterations =  1.0

     negative rho (up, down):  3.410E-04 2.346E-04

     total cpu time spent up to now is     1624.1 secs

     total energy              =   -7076.99988752 Ry
     estimated scf accuracy    <       1.89239246 Ry

     total magnetization       =    16.65 Bohr mag/cell
     absolute magnetization    =    16.76 Bohr mag/cell

     iteration #  4     ecut=    60.00 Ry     beta= 0.20
     Davidson diagonalization with overlap
     ethr =  7.85E-04,  avg # of iterations =  1.4

     negative rho (up, down):  8.059E-05 4.249E-05

     total cpu time spent up to now is     2067.8 secs

     total energy              =   -7077.19849598 Ry
     estimated scf accuracy    <       2.03021661 Ry

     total magnetization       =    14.21 Bohr mag/cell
     absolute magnetization    =    14.40 Bohr mag/cell

     iteration #  5     ecut=    60.00 Ry     beta= 0.20
     Davidson diagonalization with overlap
     ethr =  7.85E-04,  avg # of iterations =  1.3

     negative rho (up, down):  1.835E-05 1.880E-05

     total cpu time spent up to now is     2495.6 secs

     total energy              =   -7077.30546694 Ry
     estimated scf accuracy    <       1.00092832 Ry

     total magnetization       =    11.50 Bohr mag/cell
     absolute magnetization    =    12.07 Bohr mag/cell

     iteration #  6     ecut=    60.00 Ry     beta= 0.20
     Davidson diagonalization with overlap
     ethr =  4.15E-04,  avg # of iterations =  2.3

     negative rho (up, down):  1.360E-06 2.050E-06

     total cpu time spent up to now is     2980.5 secs

     total energy              =   -7077.43402852 Ry
     estimated scf accuracy    <       2.33671168 Ry

     total magnetization       =    12.77 Bohr mag/cell
     absolute magnetization    =    13.59 Bohr mag/cell

     iteration #  7     ecut=    60.00 Ry     beta= 0.20
     Davidson diagonalization with overlap
     ethr =  4.15E-04,  avg # of iterations =  1.3

     negative rho (up, down):  1.574E-07 3.466E-07

     total cpu time spent up to now is     3423.2 secs

     total energy              =   -7077.42156591 Ry
     estimated scf accuracy    <       1.04676849 Ry

     total magnetization       =    12.34 Bohr mag/cell
     absolute magnetization    =    13.18 Bohr mag/cell

     iteration #  8     ecut=    60.00 Ry     beta= 0.20
     Davidson diagonalization with overlap
     ethr =  4.15E-04,  avg # of iterations =  1.4

     negative rho (up, down):  8.214E-09 5.621E-08

     total cpu time spent up to now is     3849.7 secs

     total energy              =   -7077.44349840 Ry
     estimated scf accuracy    <       0.16007963 Ry

     total magnetization       =    11.48 Bohr mag/cell
     absolute magnetization    =    12.32 Bohr mag/cell

     iteration #  9     ecut=    60.00 Ry     beta= 0.20
     Davidson diagonalization with overlap
     c_bands:  1 eigenvalues not converged
     c_bands:  1 eigenvalues not converged
     c_bands:  1 eigenvalues not converged
     c_bands:  1 eigenvalues not converged
     c_bands:  1 eigenvalues not converged
     ethr =  6.64E-05,  avg # of iterations = 13.4

     negative rho (up, down):  3.478E-09 2.536E-08

     total cpu time spent up to now is     4421.8 secs

     total energy              =   -7077.45588796 Ry
     estimated scf accuracy    <       0.13216787 Ry

     total magnetization       =     9.92 Bohr mag/cell
     absolute magnetization    =    10.88 Bohr mag/cell

     iteration # 10     ecut=    60.00 Ry     beta= 0.20
     Davidson diagonalization with overlap
     ethr =  5.48E-05,  avg # of iterations =  1.5

     total cpu time spent up to now is     4868.0 secs

     total energy              =   -7077.45873645 Ry
     estimated scf accuracy    <       0.03648223 Ry

     total magnetization       =     9.69 Bohr mag/cell
     absolute magnetization    =    10.69 Bohr mag/cell

     iteration # 11     ecut=    60.00 Ry     beta= 0.20
     Davidson diagonalization with overlap
     ethr =  1.51E-05,  avg # of iterations =  5.0

     total cpu time spent up to now is     5351.3 secs

     total energy              =   -7077.45942172 Ry
     estimated scf accuracy    <       0.02868672 Ry

     total magnetization       =     9.59 Bohr mag/cell
     absolute magnetization    =    10.59 Bohr mag/cell

     iteration # 12     ecut=    60.00 Ry     beta= 0.20
     Davidson diagonalization with overlap
     ethr =  1.19E-05,  avg # of iterations =  1.7

     negative rho (up, down):  4.399E-09 1.088E-08

     total cpu time spent up to now is     5794.2 secs

     total energy              =   -7077.46040927 Ry
     estimated scf accuracy    <       0.02653897 Ry

     total magnetization       =     9.66 Bohr mag/cell
     absolute magnetization    =    10.64 Bohr mag/cell

     iteration # 13     ecut=    60.00 Ry     beta= 0.20
     Davidson diagonalization with overlap
     ethr =  1.10E-05,  avg # of iterations =  1.3

     negative rho (up, down):  1.193E-08 2.759E-08

     total cpu time spent up to now is     6238.7 secs

     total energy              =   -7077.46046005 Ry
     estimated scf accuracy    <       0.05541655 Ry

     total magnetization       =     9.82 Bohr mag/cell
     absolute magnetization    =    10.73 Bohr mag/cell

     iteration # 14     ecut=    60.00 Ry     beta= 0.20
     Davidson diagonalization with overlap
     ethr =  1.10E-05,  avg # of iterations =  1.1

     negative rho (up, down):  2.034E-08 3.311E-08

     total cpu time spent up to now is     6671.3 secs

     total energy              =   -7077.45955510 Ry
     estimated scf accuracy    <       0.02026760 Ry

     total magnetization       =     9.67 Bohr mag/cell
     absolute magnetization    =    10.53 Bohr mag/cell

     iteration # 15     ecut=    60.00 Ry     beta= 0.20
     Davidson diagonalization with overlap
     ethr =  8.41E-06,  avg # of iterations =  1.1

     negative rho (up, down):  2.911E-08 3.787E-08

     total cpu time spent up to now is     7105.0 secs

     total energy              =   -7077.45904956 Ry
     estimated scf accuracy    <       0.01083931 Ry

     total magnetization       =     9.75 Bohr mag/cell
     absolute magnetization    =    10.59 Bohr mag/cell

     iteration # 16     ecut=    60.00 Ry     beta= 0.20
     Davidson diagonalization with overlap
     ethr =  4.50E-06,  avg # of iterations =  1.6

     negative rho (up, down):  3.736E-08 4.518E-08

     total cpu time spent up to now is     7547.9 secs

     total energy              =   -7077.45842201 Ry
     estimated scf accuracy    <       0.00994877 Ry

     total magnetization       =     9.85 Bohr mag/cell
     absolute magnetization    =    10.67 Bohr mag/cell

     iteration # 17     ecut=    60.00 Ry     beta= 0.20
     Davidson diagonalization with overlap
     c_bands:  1 eigenvalues not converged
     ethr =  4.13E-06,  avg # of iterations =  2.1

     negative rho (up, down):  2.324E-08 2.658E-08

     total cpu time spent up to now is     8006.5 secs

     total energy              =   -7077.45835539 Ry
     estimated scf accuracy    <       0.00402580 Ry

     total magnetization       =     9.77 Bohr mag/cell
     absolute magnetization    =    10.59 Bohr mag/cell

     iteration # 18     ecut=    60.00 Ry     beta= 0.20
     Davidson diagonalization with overlap
     ethr =  1.67E-06,  avg # of iterations =  3.6

     negative rho (up, down):  9.750E-09 1.124E-08

     total cpu time spent up to now is     8465.9 secs

     total energy              =   -7077.45847840 Ry
     estimated scf accuracy    <       0.00211135 Ry

     total magnetization       =     9.77 Bohr mag/cell
     absolute magnetization    =    10.61 Bohr mag/cell

     iteration # 19     ecut=    60.00 Ry     beta= 0.20
     Davidson diagonalization with overlap
     ethr =  8.76E-07,  avg # of iterations =  2.0

     total cpu time spent up to now is     8927.4 secs

     total energy              =   -7077.45863041 Ry
     estimated scf accuracy    <       0.00143774 Ry

     total magnetization       =     9.77 Bohr mag/cell
     absolute magnetization    =    10.64 Bohr mag/cell

     iteration # 20     ecut=    60.00 Ry     beta= 0.20
     Davidson diagonalization with overlap
     ethr =  5.97E-07,  avg # of iterations =  2.2

     total cpu time spent up to now is     9372.4 secs

     total energy              =   -7077.45870228 Ry
     estimated scf accuracy    <       0.00120255 Ry

     total magnetization       =     9.82 Bohr mag/cell
     absolute magnetization    =    10.69 Bohr mag/cell

     iteration # 21     ecut=    60.00 Ry     beta= 0.20
     Davidson diagonalization with overlap
     ethr =  4.99E-07,  avg # of iterations =  1.1

     negative rho (up, down):  1.688E-06 1.595E-06

     total cpu time spent up to now is     9810.9 secs

     total energy              =   -7077.45847393 Ry
     estimated scf accuracy    <       0.00108039 Ry

     total magnetization       =     9.82 Bohr mag/cell
     absolute magnetization    =    10.70 Bohr mag/cell

     iteration # 22     ecut=    60.00 Ry     beta= 0.20
     Davidson diagonalization with overlap
     ethr =  4.48E-07,  avg # of iterations =  2.5

     negative rho (up, down):  1.877E-04 1.827E-04

     total cpu time spent up to now is    10296.0 secs

     total energy              =   -7077.45855463 Ry
     estimated scf accuracy    <       0.00120041 Ry

     total magnetization       =     9.93 Bohr mag/cell
     absolute magnetization    =    10.81 Bohr mag/cell

     iteration # 23     ecut=    60.00 Ry     beta= 0.20
     Davidson diagonalization with overlap
     ethr =  4.48E-07,  avg # of iterations =  2.2

     negative rho (up, down):  2.137E-04 2.086E-04

     total cpu time spent up to now is    10758.4 secs

     total energy              =   -7077.45857647 Ry
     estimated scf accuracy    <       0.00169879 Ry

     total magnetization       =     9.95 Bohr mag/cell
     absolute magnetization    =    10.85 Bohr mag/cell

     iteration # 24     ecut=    60.00 Ry     beta= 0.20
     Davidson diagonalization with overlap
     ethr =  4.48E-07,  avg # of iterations =  1.1

     negative rho (up, down):  9.690E-04 9.638E-04

     total cpu time spent up to now is    11191.7 secs

     total energy              =   -7077.45852784 Ry
     estimated scf accuracy    <       0.00148281 Ry

     total magnetization       =     9.95 Bohr mag/cell
     absolute magnetization    =    10.85 Bohr mag/cell

     iteration # 25     ecut=    60.00 Ry     beta= 0.20
     Davidson diagonalization with overlap
     ethr =  4.48E-07,  avg # of iterations =  2.0

     negative rho (up, down):  4.534E-04 4.448E-04

     total cpu time spent up to now is    11656.5 secs

     total energy              =   -7077.45860875 Ry
     estimated scf accuracy    <       0.00085735 Ry

     total magnetization       =     9.96 Bohr mag/cell
     absolute magnetization    =    10.86 Bohr mag/cell

     iteration # 26     ecut=    60.00 Ry     beta= 0.20
     Davidson diagonalization with overlap
     ethr =  3.56E-07,  avg # of iterations =  1.1

     negative rho (up, down):  2.549E-04 2.404E-04

     total cpu time spent up to now is    12095.1 secs

     total energy              =   -7077.45858898 Ry
     estimated scf accuracy    <       0.00065405 Ry

     total magnetization       =     9.95 Bohr mag/cell
     absolute magnetization    =    10.85 Bohr mag/cell

     iteration # 27     ecut=    60.00 Ry     beta= 0.20
     Davidson diagonalization with overlap
     ethr =  2.71E-07,  avg # of iterations =  1.3

     negative rho (up, down):  1.578E-04 1.519E-04

     total cpu time spent up to now is    12528.9 secs

     total energy              =   -7077.45853192 Ry
     estimated scf accuracy    <       0.00066883 Ry

     total magnetization       =     9.93 Bohr mag/cell
     absolute magnetization    =    10.84 Bohr mag/cell

     iteration # 28     ecut=    60.00 Ry     beta= 0.20
     Davidson diagonalization with overlap
     ethr =  2.71E-07,  avg # of iterations =  1.2

     negative rho (up, down):  2.670E-04 2.582E-04

     total cpu time spent up to now is    12964.9 secs

     total energy              =   -7077.45856805 Ry
     estimated scf accuracy    <       0.00009007 Ry

     total magnetization       =     9.89 Bohr mag/cell
     absolute magnetization    =    10.79 Bohr mag/cell

     iteration # 29     ecut=    60.00 Ry     beta= 0.20
     Davidson diagonalization with overlap
     ethr =  3.74E-08,  avg # of iterations =  2.5

     negative rho (up, down):  2.090E-04 1.983E-04

     total cpu time spent up to now is    13445.0 secs

     total energy              =   -7077.45857796 Ry
     estimated scf accuracy    <       0.00003757 Ry

     total magnetization       =     9.89 Bohr mag/cell
     absolute magnetization    =    10.78 Bohr mag/cell

     iteration # 30     ecut=    60.00 Ry     beta= 0.20
     Davidson diagonalization with overlap
     ethr =  1.56E-08,  avg # of iterations =  2.7

     negative rho (up, down):  1.994E-04 1.769E-04

     total cpu time spent up to now is    13919.5 secs

     total energy              =   -7077.45857457 Ry
     estimated scf accuracy    <       0.00003397 Ry

     total magnetization       =     9.89 Bohr mag/cell
     absolute magnetization    =    10.78 Bohr mag/cell

     iteration # 31     ecut=    60.00 Ry     beta= 0.20
     Davidson diagonalization with overlap
     ethr =  1.41E-08,  avg # of iterations =  1.6

     negative rho (up, down):  1.499E-04 1.210E-04

     total cpu time spent up to now is    14343.2 secs

     total energy              =   -7077.45857592 Ry
     estimated scf accuracy    <       0.00002054 Ry

     total magnetization       =     9.90 Bohr mag/cell
     absolute magnetization    =    10.80 Bohr mag/cell

     iteration # 32     ecut=    60.00 Ry     beta= 0.20
     Davidson diagonalization with overlap
     ethr =  8.52E-09,  avg # of iterations =  1.2

     negative rho (up, down):  1.599E-04 1.279E-04

     total cpu time spent up to now is    14780.4 secs

     total energy              =   -7077.45857706 Ry
     estimated scf accuracy    <       0.00000196 Ry

     total magnetization       =     9.89 Bohr mag/cell
     absolute magnetization    =    10.79 Bohr mag/cell

     iteration # 33     ecut=    60.00 Ry     beta= 0.20
     Davidson diagonalization with overlap
     ethr =  8.12E-10,  avg # of iterations =  5.9

     negative rho (up, down):  1.718E-04 1.387E-04

     total cpu time spent up to now is    15320.6 secs

     total energy              =   -7077.45857747 Ry
     estimated scf accuracy    <       0.00000103 Ry

     total magnetization       =     9.89 Bohr mag/cell
     absolute magnetization    =    10.79 Bohr mag/cell

     iteration # 34     ecut=    60.00 Ry     beta= 0.20
     Davidson diagonalization with overlap
     ethr =  4.29E-10,  avg # of iterations =  1.6

     negative rho (up, down):  1.623E-04 1.274E-04

     total cpu time spent up to now is    15752.2 secs

     total energy              =   -7077.45857768 Ry
     estimated scf accuracy    <       0.00000061 Ry

     total magnetization       =     9.89 Bohr mag/cell
     absolute magnetization    =    10.79 Bohr mag/cell

     iteration # 35     ecut=    60.00 Ry     beta= 0.20
     Davidson diagonalization with overlap
     ethr =  2.53E-10,  avg # of iterations =  1.7

     negative rho (up, down):  1.544E-04 1.186E-04

     total cpu time spent up to now is    16202.9 secs

     total energy              =   -7077.45857778 Ry
     estimated scf accuracy    <       0.00000045 Ry

     total magnetization       =     9.89 Bohr mag/cell
     absolute magnetization    =    10.78 Bohr mag/cell

     iteration # 36     ecut=    60.00 Ry     beta= 0.20
     Davidson diagonalization with overlap
     ethr =  1.88E-10,  avg # of iterations =  1.2

     negative rho (up, down):  1.456E-04 1.092E-04

     total cpu time spent up to now is    16637.0 secs

     total energy              =   -7077.45857782 Ry
     estimated scf accuracy    <       0.00000020 Ry

     total magnetization       =     9.89 Bohr mag/cell
     absolute magnetization    =    10.78 Bohr mag/cell

     iteration # 37     ecut=    60.00 Ry     beta= 0.20
     Davidson diagonalization with overlap
     ethr =  8.37E-11,  avg # of iterations =  1.8

     negative rho (up, down):  1.415E-04 1.058E-04

     total cpu time spent up to now is    17094.1 secs

     total energy              =   -7077.45857787 Ry
     estimated scf accuracy    <       0.00000014 Ry

     total magnetization       =     9.89 Bohr mag/cell
     absolute magnetization    =    10.78 Bohr mag/cell

     iteration # 38     ecut=    60.00 Ry     beta= 0.20
     Davidson diagonalization with overlap
     ethr =  5.85E-11,  avg # of iterations =  1.6

     negative rho (up, down):  1.398E-04 1.039E-04

     total cpu time spent up to now is    17578.7 secs

     total energy              =   -7077.45857789 Ry
     estimated scf accuracy    <       0.00000005 Ry

     total magnetization       =     9.89 Bohr mag/cell
     absolute magnetization    =    10.78 Bohr mag/cell

     iteration # 39     ecut=    60.00 Ry     beta= 0.20
     Davidson diagonalization with overlap
     ethr =  2.10E-11,  avg # of iterations =  2.2

     negative rho (up, down):  1.401E-04 1.038E-04

     total cpu time spent up to now is    18059.1 secs

     total energy              =   -7077.45857790 Ry
     estimated scf accuracy    <       0.00000006 Ry

     total magnetization       =     9.89 Bohr mag/cell
     absolute magnetization    =    10.78 Bohr mag/cell

     iteration # 40     ecut=    60.00 Ry     beta= 0.20
     Davidson diagonalization with overlap
     ethr =  2.10E-11,  avg # of iterations =  1.6

     negative rho (up, down):  1.462E-04 1.097E-04

     total cpu time spent up to now is    18488.8 secs

     total energy              =   -7077.45857791 Ry
     estimated scf accuracy    <       0.00000004 Ry

     total magnetization       =     9.89 Bohr mag/cell
     absolute magnetization    =    10.78 Bohr mag/cell

     iteration # 41     ecut=    60.00 Ry     beta= 0.20
     Davidson diagonalization with overlap
     ethr =  1.50E-11,  avg # of iterations =  1.5

     negative rho (up, down):  1.524E-04 1.157E-04

     total cpu time spent up to now is    18933.4 secs

     total energy              =   -7077.45857791 Ry
     estimated scf accuracy    <       0.00000001 Ry

     total magnetization       =     9.88 Bohr mag/cell
     absolute magnetization    =    10.78 Bohr mag/cell

     iteration # 42     ecut=    60.00 Ry     beta= 0.20
     Davidson diagonalization with overlap
     ethr =  4.60E-12,  avg # of iterations =  2.9

     negative rho (up, down):  1.547E-04 1.180E-04

     total cpu time spent up to now is    19408.6 secs

     total energy              =   -7077.45857792 Ry
     estimated scf accuracy    <          5.3E-09 Ry

     total magnetization       =     9.88 Bohr mag/cell
     absolute magnetization    =    10.78 Bohr mag/cell

     iteration # 43     ecut=    60.00 Ry     beta= 0.20
     Davidson diagonalization with overlap
     ethr =  2.20E-12,  avg # of iterations =  2.6

     negative rho (up, down):  1.550E-04 1.183E-04

     total cpu time spent up to now is    19901.6 secs

     total energy              =   -7077.45857792 Ry
     estimated scf accuracy    <          4.8E-09 Ry

     total magnetization       =     9.88 Bohr mag/cell
     absolute magnetization    =    10.78 Bohr mag/cell

     iteration # 44     ecut=    60.00 Ry     beta= 0.20
     Davidson diagonalization with overlap
     ethr =  2.01E-12,  avg # of iterations =  1.1

     negative rho (up, down):  1.554E-04 1.187E-04

     total cpu time spent up to now is    20333.4 secs

     total energy              =   -7077.45857792 Ry
     estimated scf accuracy    <          1.5E-09 Ry

     total magnetization       =     9.88 Bohr mag/cell
     absolute magnetization    =    10.78 Bohr mag/cell

     iteration # 45     ecut=    60.00 Ry     beta= 0.20
     Davidson diagonalization with overlap
     ethr =  6.28E-13,  avg # of iterations =  2.3

     negative rho (up, down):  1.552E-04 1.184E-04

     total cpu time spent up to now is    20805.5 secs

     total energy              =   -7077.45857792 Ry
     estimated scf accuracy    <          8.7E-10 Ry

     total magnetization       =     9.88 Bohr mag/cell
     absolute magnetization    =    10.78 Bohr mag/cell

     iteration # 46     ecut=    60.00 Ry     beta= 0.20
     Davidson diagonalization with overlap
     ethr =  3.63E-13,  avg # of iterations =  2.0

     negative rho (up, down):  1.558E-04 1.190E-04

     total cpu time spent up to now is    21271.9 secs

     total energy              =   -7077.45857792 Ry
     estimated scf accuracy    <          6.1E-10 Ry

     total magnetization       =     9.88 Bohr mag/cell
     absolute magnetization    =    10.78 Bohr mag/cell

     iteration # 47     ecut=    60.00 Ry     beta= 0.20
     Davidson diagonalization with overlap
     ethr =  2.52E-13,  avg # of iterations =  2.0

     negative rho (up, down):  1.563E-04 1.195E-04

     total cpu time spent up to now is    21741.0 secs

     total energy              =   -7077.45857792 Ry
     estimated scf accuracy    <          5.7E-10 Ry

     total magnetization       =     9.88 Bohr mag/cell
     absolute magnetization    =    10.78 Bohr mag/cell

     iteration # 48     ecut=    60.00 Ry     beta= 0.20
     Davidson diagonalization with overlap
     ethr =  2.36E-13,  avg # of iterations =  1.8

     negative rho (up, down):  1.561E-04 1.194E-04

     total cpu time spent up to now is    22198.2 secs

     total energy              =   -7077.45857792 Ry
     estimated scf accuracy    <          3.0E-10 Ry

     total magnetization       =     9.88 Bohr mag/cell
     absolute magnetization    =    10.78 Bohr mag/cell

     iteration # 49     ecut=    60.00 Ry     beta= 0.20
     Davidson diagonalization with overlap
     ethr =  1.26E-13,  avg # of iterations =  2.6

     negative rho (up, down):  1.562E-04 1.194E-04

     total cpu time spent up to now is    22679.5 secs

     total energy              =   -7077.45857792 Ry
     estimated scf accuracy    <          1.1E-10 Ry

     total magnetization       =     9.88 Bohr mag/cell
     absolute magnetization    =    10.78 Bohr mag/cell

     iteration # 50     ecut=    60.00 Ry     beta= 0.20
     Davidson diagonalization with overlap
     ethr =  1.00E-13,  avg # of iterations =  1.9

     negative rho (up, down):  1.562E-04 1.195E-04
 
     Magnetic moment per site  (integrated on atomic sphere of radius R)
     atom   1 (R=0.202)  charge=  8.7437  magn=  0.9494
     atom   2 (R=0.141)  charge=  5.6024  magn=  0.1983
     atom   3 (R=0.141)  charge=  5.6024  magn=  0.1983
     atom   4 (R=0.141)  charge=  5.6024  magn=  0.1983
     atom   5 (R=0.202)  charge=  8.8191  magn=  0.9264
     atom   6 (R=0.141)  charge=  5.5886  magn=  0.2529
     atom   7 (R=0.141)  charge=  5.5886  magn=  0.2529
     atom   8 (R=0.141)  charge=  5.5886  magn=  0.2529
     atom   9 (R=0.202)  charge=  8.8308  magn=  0.8853
     atom  10 (R=0.141)  charge=  5.5856  magn=  0.2454
     atom  11 (R=0.141)  charge=  5.5856  magn=  0.2454
     atom  12 (R=0.141)  charge=  5.5856  magn=  0.2454
     atom  13 (R=0.202)  charge=  8.8344  magn=  0.8783
     atom  14 (R=0.141)  charge=  5.5863  magn=  0.2382
     atom  15 (R=0.141)  charge=  5.5863  magn=  0.2382
     atom  16 (R=0.141)  charge=  5.5863  magn=  0.2382
     atom  17 (R=0.202)  charge=  8.8249  magn=  0.8263
     atom  18 (R=0.141)  charge=  5.5890  magn=  0.2448
     atom  19 (R=0.141)  charge=  5.5890  magn=  0.2448
     atom  20 (R=0.141)  charge=  5.5890  magn=  0.2448
     atom  21 (R=0.202)  charge=  8.7637  magn=  0.9340
     atom  22 (R=0.141)  charge=  5.5992  magn=  0.1338
     atom  23 (R=0.141)  charge=  5.5992  magn=  0.1338
     atom  24 (R=0.141)  charge=  5.5992  magn=  0.1338
     atom  25 (R=0.141)  charge=  1.0179  magn= -0.0032

     total cpu time spent up to now is    23140.8 secs

     End of self-consistent calculation

     Number of k-points >= 100: set verbosity='high' to print the bands.

     the Fermi energy is    -5.1486 ev

!    total energy              =   -7077.45857792 Ry
     total all-electron energy =   -199909.895148 Ry
     estimated scf accuracy    <          5.5E-11 Ry
     smearing contrib. (-TS)   =       0.00081677 Ry
     internal energy E=F+TS    =   -7077.45939469 Ry

     The total energy is F=E-TS. E is the sum of the following terms:
     one-electron contribution =  -61214.23839542 Ry
     hartree contribution      =   30794.64604614 Ry
     xc contribution           =    -835.56329442 Ry
     ewald contribution        =   29311.85762402 Ry
     DFT-D3 Dispersion         =      -2.53353480 Ry
     one-center paw contrib.   =   -5131.62784021 Ry

     total magnetization       =     9.88 Bohr mag/cell
     absolute magnetization    =    10.78 Bohr mag/cell

     convergence has been achieved in  50 iterations

     negative rho (up, down):  1.562E-04 1.195E-04

     Forces acting on atoms (cartesian axes, Ry/au):

     atom    1 type  1   force =     0.00000007    0.00000005    0.01608174
     atom    2 type  2   force =    -0.00000002   -0.01437287   -0.00933677
     atom    3 type  2   force =    -0.01244729    0.00718642   -0.00933695
     atom    4 type  2   force =     0.01244727    0.00718642   -0.00933666
     atom    5 type  1   force =    -0.00000004   -0.00000001    0.00026453
     atom    6 type  2   force =    -0.00023431    0.00013529    0.00465772
     atom    7 type  2   force =     0.00000004   -0.00027057    0.00465773
     atom    8 type  2   force =     0.00023433    0.00013526    0.00465761
     atom    9 type  1   force =     0.00000004   -0.00000000    0.00016473
     atom   10 type  2   force =    -0.00000003   -0.00015869    0.00016271
     atom   11 type  2   force =     0.00013738    0.00007933    0.00016266
     atom   12 type  2   force =    -0.00013739    0.00007930    0.00016273
     atom   13 type  1   force =     0.00000001    0.00000004    0.00022245
     atom   14 type  2   force =    -0.00005431    0.00003132   -0.00026487
     atom   15 type  2   force =    -0.00000001   -0.00006264   -0.00026486
     atom   16 type  2   force =     0.00005429    0.00003133   -0.00026483
     atom   17 type  1   force =    -0.00000001    0.00000000   -0.00057891
     atom   18 type  2   force =     0.00007270   -0.00004201   -0.00050228
     atom   19 type  2   force =    -0.00000004    0.00008394   -0.00050242
     atom   20 type  2   force =    -0.00007270   -0.00004196   -0.00050229
     atom   21 type  1   force =     0.00000000   -0.00000007    0.00005898
     atom   22 type  2   force =    -0.00000004   -0.00027882    0.00000507
     atom   23 type  2   force =     0.00024157    0.00013952    0.00000504
     atom   24 type  2   force =    -0.00024149    0.00013945    0.00000510
     atom   25 type  3   force =    -0.00000001   -0.00000002   -0.00037794

     Total force =     0.001395     Total SCF correction =     0.000037


     Computing stress (Cartesian axis) and pressure


     negative rho (up, down):  1.562E-04 1.195E-04
          total   stress  (Ry/bohr**3)                   (kbar)     P=       -6.59
  -0.00006925  -0.00000000  -0.00000000          -10.19       -0.00       -0.00
  -0.00000000  -0.00006925  -0.00000000           -0.00      -10.19       -0.00
  -0.00000000  -0.00000000   0.00000419           -0.00       -0.00        0.62


     Writing all to output data dir /tmpu/isholek_g/isholek/MIGUEL/QE/Hydrogen/111_2x2/SAVE/Ni1Pd3_111-H_hcp_1.save/ :
     XML data file, charge density, pseudopotentials, collected wavefunctions
 
     init_run     :    215.27s CPU    233.87s WALL (       1 calls)
     electrons    :  21209.77s CPU  22906.25s WALL (       1 calls)
     forces       :     66.01s CPU     67.31s WALL (       1 calls)
     force_dftd3  :      0.16s CPU      0.32s WALL (       1 calls)
     stress       :    612.79s CPU    618.68s WALL (       1 calls)
     stres_dftd3  :      0.16s CPU      0.16s WALL (       1 calls)

     Called by init_run:
     wfcinit      :    212.83s CPU    230.90s WALL (       1 calls)
     potinit      :      1.23s CPU      1.61s WALL (       1 calls)
     hinit0       :      0.57s CPU      0.60s WALL (       1 calls)

     Called by electrons:
     c_bands      :  17051.96s CPU  18436.66s WALL (      50 calls)
     sum_band     :   3999.21s CPU   4297.61s WALL (      50 calls)
     v_of_rho     :     38.32s CPU     42.48s WALL (      51 calls)
     newd         :     11.23s CPU     12.91s WALL (      51 calls)
     PAW_pot      :     18.40s CPU     19.05s WALL (      51 calls)
     mix_rho      :     85.27s CPU     90.99s WALL (      50 calls)
     energy_dftd3 :      0.09s CPU      0.09s WALL (       1 calls)

     Called by c_bands:
     init_us_2    :    119.73s CPU    135.82s WALL (    6592 calls)
     init_us_2:cp :    119.63s CPU    135.75s WALL (    6592 calls)
     cegterg      :  15561.42s CPU  16851.33s WALL (    3200 calls)

     Called by *egterg:
     cdiaghg      :    322.72s CPU    347.24s WALL (   10008 calls)
     h_psi        :  10894.34s CPU  11861.95s WALL (   10072 calls)
     s_psi        :    896.76s CPU    953.52s WALL (   10072 calls)
     g_psi        :     29.02s CPU     31.84s WALL (    6808 calls)

     Called by h_psi:
     h_psi:calbec :   1300.96s CPU   1389.34s WALL (   10072 calls)
     vloc_psi     :   8649.36s CPU   9424.13s WALL (   10072 calls)
     add_vuspsi   :    910.86s CPU    985.64s WALL (   10072 calls)

     General routines
     calbec       :   1934.92s CPU   2061.44s WALL (   13592 calls)
     fft          :     29.12s CPU     32.50s WALL (    1313 calls)
     ffts         :     25.36s CPU     27.73s WALL (    6229 calls)
     fftw         :   8381.42s CPU   8919.62s WALL ( 2386958 calls)
     interpolate  :      2.37s CPU      2.71s WALL (     102 calls)
 
     Parallel routines
 
     PWSCF        :      6h 8m CPU      6h37m WALL

 
   This run was terminated on:   9: 5:39   3Apr2026            

=------------------------------------------------------------------------------=
   JOB DONE.
=------------------------------------------------------------------------------=
