
     Program PWSCF v.7.3 starts on 21Apr2026 at  0: 8:32 

     This program is part of the open-source Quantum ESPRESSO suite
     for quantum simulation of materials; please cite
         "P. Giannozzi et al., J. Phys.:Condens. Matter 21 395502 (2009);
         "P. Giannozzi et al., J. Phys.:Condens. Matter 29 465901 (2017);
         "P. Giannozzi et al., J. Chem. Phys. 152 154105 (2020);
          URL http://www.quantum-espresso.org", 
     in publications or presentations arising from this work. More details at
     http://www.quantum-espresso.org/quote

     Parallel version (MPI), running on    64 processors

     MPI processes distributed on     4 nodes
     53355 MiB available memory on the printing compute node when the environment starts
 
     Reading input from /tmpu/isholek_g/isholek/MIGUEL/QE/Hydrogen/111_2x2/SCF/Ni1Pd3_111-T2-SCF.in

     Current dimensions of program PWSCF are:
     Max number of different atomic species (ntypx) = 10
     Max number of k-points (npk) =  40000
     Max angular momentum in pseudopotentials (lmaxx) =  4
     file Ni.upf: wavefunction(s)  4S 3D renormalized
     file Pd.upf: wavefunction(s)  5S 4D renormalized
     file H.upf: wavefunction(s)  1S renormalized

     IMPORTANT: XC functional enforced from input :
     Exchange-correlation= PBE
                           (   1   4   3   4   0   0   0)
     Any further DFT definition will be discarded
     Please, verify this is what you really want

 
     K-points division:     npool     =       8
     R & G space division:  proc/nbgrp/npool/nimage =       8
     Subspace diagonalization in iterative solution of the eigenvalue problem:
     one sub-group per band group will be used
     scalapack distributed-memory algorithm (size of sub-group:  2*  2 procs)

 
     Parallelization info
     --------------------
     sticks:   dense  smooth     PW     G-vecs:    dense   smooth      PW
     Min         416     207     60               120460    42599    6636
     Max         417     208     64               120479    42626    6643
     Sum        3331    1663    499               963739   340921   53115
 
     Using Slab Decomposition
 

     Title: 
     Ni1Pd3_111-T2-SCF                                                          


     bravais-lattice index     =            0
     lattice parameter (alat)  =      10.0481  a.u.
     unit-cell volume          =    5428.4795 (a.u.)^3
     number of atoms/cell      =           25
     number of atomic types    =            3
     number of electrons       =       241.00
     number of Kohn-Sham states=          145
     kinetic-energy cutoff     =      60.0000  Ry
     charge density cutoff     =     480.0000  Ry
     scf convergence threshold =      1.0E-10
     mixing beta               =       0.2000
     number of iterations used =           12  local-TF  mixing
     Exchange-correlation= PBE
                           (   1   4   3   4   0   0   0)

     celldm(1)=  10.048050  celldm(2)=   0.000000  celldm(3)=   0.000000
     celldm(4)=   0.000000  celldm(5)=   0.000000  celldm(6)=   0.000000

     crystal axes: (cart. coord. in units of alat)
               a(1) = (   1.000000   0.000000   0.000000 )  
               a(2) = (   0.500000   0.866025   0.000000 )  
               a(3) = (   0.000000   0.000000   6.178773 )  

     reciprocal axes: (cart. coord. in units 2 pi/alat)
               b(1) = (  1.000000 -0.577350  0.000000 )  
               b(2) = (  0.000000  1.154701  0.000000 )  
               b(3) = (  0.000000  0.000000  0.161844 )  


     PseudoPot. # 1 for Ni read from file:
     /tmpu/isholek_g/isholek/MIGUEL/PP/PAW/Ni.upf
     MD5 check sum: d88365a95a5e142bd87181c2c8b16588
     Pseudo is Projector augmented-wave + core cor, Zval = 10.0
     Generated using "atomic" code by A. Dal Corso  v.5.0.2 svn rev. 9415
     Shape of augmentation charge: PSQ
     Using radial grid of 1195 points,  6 beta functions with: 
                l(1) =   0
                l(2) =   0
                l(3) =   1
                l(4) =   1
                l(5) =   2
                l(6) =   2
     Q(r) pseudized with 0 coefficients 


     PseudoPot. # 2 for Pd read from file:
     /tmpu/isholek_g/isholek/MIGUEL/PP/PAW/Pd.upf
     MD5 check sum: e9d6f14fd83b79f8105499163af174c9
     Pseudo is Projector augmented-wave + core cor, Zval = 10.0
     Generated using "atomic" code by A. Dal Corso  v.5.0.2 svn rev. 9415
     Shape of augmentation charge: PSQ
     Using radial grid of 1235 points,  6 beta functions with: 
                l(1) =   0
                l(2) =   0
                l(3) =   1
                l(4) =   1
                l(5) =   2
                l(6) =   2
     Q(r) pseudized with 0 coefficients 


     PseudoPot. # 3 for H  read from file:
     /tmpu/isholek_g/isholek/MIGUEL/PP/PAW/H.upf
     MD5 check sum: 4cbe42a24e15140179a93d5bf84f2220
     Pseudo is Projector augmented-wave, Zval =  1.0
     Generated using "atomic" code by A. Dal Corso  v.5.0.2 svn rev. 9415
     Shape of augmentation charge: PSQ
     Using radial grid of  929 points,  2 beta functions with: 
                l(1) =   0
                l(2) =   0
     Q(r) pseudized with 0 coefficients 


     atomic species   valence    mass     pseudopotential
     Ni               10.00    58.69340     Ni( 1.00)
     Pd               10.00   106.42000     Pd( 1.00)
     H                 1.00     1.00794     H ( 1.00)

     Starting magnetic structure 
     atomic species   magnetization
     Ni              0.650
     Pd              0.100
     H               0.000

     No symmetry found



   Cartesian axes

     site n.     atom                  positions (alat units)
         1        Ni     tau(   1) = (   1.0000000   0.5773503   2.0687584  )
         2        Pd     tau(   2) = (   0.5000000   0.5773500   2.0687727  )
         3        Pd     tau(   3) = (   0.7499998   0.1443377   2.0687727  )
         4        Pd     tau(   4) = (   0.2500002   0.1443377   2.0687727  )
         5        Ni     tau(   5) = (   0.5000000   0.2886751   2.4770066  )
         6        Pd     tau(   6) = (   0.7499998   0.7216879   2.4770210  )
         7        Pd     tau(   7) = (   1.0000000   0.2886749   2.4770210  )
         8        Pd     tau(   8) = (   1.2500002   0.7216879   2.4770210  )
         9        Ni     tau(   9) = (  -0.0000000  -0.0000000   2.8854997  )
        10        Pd     tau(  10) = (   1.0000000   0.8662609   2.8848562  )
        11        Pd     tau(  11) = (   0.7497960   0.4328949   2.8848562  )
        12        Pd     tau(  12) = (   1.2502040   0.4328949   2.8848562  )
        13        Ni     tau(  13) = (   1.0000000   0.5773503   3.2884461  )
        14        Pd     tau(  14) = (   0.7497559   0.1444785   3.2945309  )
        15        Pd     tau(  15) = (   0.5000000   0.5770684   3.2945309  )
        16        Pd     tau(  16) = (   0.2502441   0.1444785   3.2945309  )
        17        Ni     tau(  17) = (   0.5000000   0.2886751   3.7049712  )
        18        Pd     tau(  18) = (   0.7515721   0.7207802   3.7007125  )
        19        Pd     tau(  19) = (   1.0000000   0.2904904   3.7007125  )
        20        Pd     tau(  20) = (   1.2484279   0.7207802   3.7007125  )
        21        Ni     tau(  21) = (  -0.0000000   0.0000000   4.0949821  )
        22        Pd     tau(  22) = (   0.9999999   0.8679614   4.1165259  )
        23        Pd     tau(  23) = (   0.7483234   0.4320447   4.1165259  )
        24        Pd     tau(  24) = (   1.2516765   0.4320447   4.1165259  )
        25        H      tau(  25) = (  -0.0000000   0.0000001   4.3696046  )

     --------------------------------------------
     DFT-D3 Dispersion Correction (3-body terms):
     --------------------------------------------
       Reference C6 values for interpolation: 

         atom   Coordination number   C6
         H          0.912             6.05
         H          0.000            15.18
         Ni         0.000          1149.49
         Ni         1.794           356.66
         Ni         6.546           257.56
         Ni         6.292           283.75
         Pd         0.000          1217.01
         Pd         1.863           573.90
         Pd         5.710           531.75

       Values used:

         atom   Coordination number  R0_AB[au]  C6      C8
         Ni         5.893            3.162    276.72  23187.46
         Pd         6.810            3.168    531.75  48720.73
         Pd         6.810            3.168    531.75  48720.73
         Pd         6.810            3.168    531.75  48720.73
         Ni         7.885            3.162    258.75  21681.37
         Pd         9.128            3.168    531.75  48720.73
         Pd         9.128            3.168    531.75  48720.73
         Pd         9.128            3.168    531.75  48720.73
         Ni         7.861            3.162    258.81  21686.18
         Pd         9.159            3.168    531.75  48720.73
         Pd         9.159            3.168    531.75  48720.73
         Pd         9.159            3.168    531.75  48720.73
         Ni         7.911            3.162    258.69  21676.61
         Pd         9.119            3.168    531.75  48720.73
         Pd         9.119            3.168    531.75  48720.73
         Pd         9.119            3.168    531.75  48720.73
         Ni         7.802            3.162    258.96  21698.66
         Pd         9.116            3.168    531.75  48720.73
         Pd         9.116            3.168    531.75  48720.73
         Pd         9.116            3.168    531.75  48720.73
         Ni         7.062            3.162    262.85  22025.06
         Pd         6.713            3.168    531.75  48720.73
         Pd         6.713            3.168    531.75  48720.73
         Pd         6.713            3.168    531.75  48720.73
         H          0.977            2.062      6.20     75.00

         Molecular C6 ( Ry / a.u.^6 ) =    264874.01


     number of k points=   256  Marzari-Vanderbilt smearing, width (Ry)=  0.0147

     Number of k-points >= 100: set verbosity='high' to print them.

     Dense  grid:   963739 G-vectors     FFT dimensions: (  72,  72, 450)

     Smooth grid:   340921 G-vectors     FFT dimensions: (  50,  50, 320)

     Estimated max dynamical RAM per process >       1.01 GB

     Estimated total dynamical RAM >      59.77 GB
 ----2D----2D----2D----2D----2D----2D----2D----2D----2D----2D----2D----2D
  The code is running with the 2D cutoff
  Please refer to:
  Sohier, T., Calandra, M., & Mauri, F. (2017), 
  Density functional perturbation theory for gated two-dimensional heterostructu
 res:
  Theoretical developments and application to flexural phonons in graphene.
  Physical Review B, 96(7), 75448. https://doi.org/10.1103/PhysRevB.96.075448
 ----2D----2D----2D----2D----2D----2D----2D----2D----2D----2D----2D----2D

     Check: negative core charge=   -0.000002
     Generating pointlists ...
     new r_m :   0.1133 (alat units)  1.1383 (a.u.) for type    1
     new r_m :   0.2020 (alat units)  2.0298 (a.u.) for type    2
     new r_m :   0.1133 (alat units)  1.1383 (a.u.) for type    3

     Initial potential from superposition of free atoms

     starting charge     240.9891, renormalised to     241.0000

     negative rho (up, down):  1.961E-04 5.061E-05
     Starting wfcs are  217 randomized atomic wfcs
     Checking if some PAW data can be deallocated... 

     total cpu time spent up to now is      231.9 secs

     Self-consistent Calculation

     iteration #  1     ecut=    60.00 Ry     beta= 0.20
     Davidson diagonalization with overlap
     ethr =  1.00E-02,  avg # of iterations =  3.0

     negative rho (up, down):  3.253E-04 2.374E-04

     total cpu time spent up to now is      748.8 secs

     total energy              =   -7076.16108706 Ry
     estimated scf accuracy    <      23.15453328 Ry

     total magnetization       =    10.79 Bohr mag/cell
     absolute magnetization    =    10.81 Bohr mag/cell

     iteration #  2     ecut=    60.00 Ry     beta= 0.20
     Davidson diagonalization with overlap
     ethr =  9.61E-03,  avg # of iterations =  1.0

     negative rho (up, down):  3.638E-04 2.521E-04

     total cpu time spent up to now is     1176.3 secs

     total energy              =   -7076.73648435 Ry
     estimated scf accuracy    <       6.39963777 Ry

     total magnetization       =    15.59 Bohr mag/cell
     absolute magnetization    =    15.65 Bohr mag/cell

     iteration #  3     ecut=    60.00 Ry     beta= 0.20
     Davidson diagonalization with overlap
     ethr =  2.66E-03,  avg # of iterations =  1.0

     negative rho (up, down):  2.178E-04 1.288E-04

     total cpu time spent up to now is     1601.4 secs

     total energy              =   -7076.98753127 Ry
     estimated scf accuracy    <       1.79942708 Ry

     total magnetization       =    16.57 Bohr mag/cell
     absolute magnetization    =    16.72 Bohr mag/cell

     iteration #  4     ecut=    60.00 Ry     beta= 0.20
     Davidson diagonalization with overlap
     ethr =  7.47E-04,  avg # of iterations =  1.5

     negative rho (up, down):  1.074E-04 6.550E-05

     total cpu time spent up to now is     2054.6 secs

     total energy              =   -7077.14778713 Ry
     estimated scf accuracy    <       1.83009876 Ry

     total magnetization       =    14.30 Bohr mag/cell
     absolute magnetization    =    14.48 Bohr mag/cell

     iteration #  5     ecut=    60.00 Ry     beta= 0.20
     Davidson diagonalization with overlap
     ethr =  7.47E-04,  avg # of iterations =  1.2

     negative rho (up, down):  8.114E-06 7.650E-06

     total cpu time spent up to now is     2493.8 secs

     total energy              =   -7077.29796411 Ry
     estimated scf accuracy    <       0.94577389 Ry

     total magnetization       =    12.94 Bohr mag/cell
     absolute magnetization    =    13.43 Bohr mag/cell

     iteration #  6     ecut=    60.00 Ry     beta= 0.20
     Davidson diagonalization with overlap
     ethr =  3.92E-04,  avg # of iterations =  2.3

     negative rho (up, down):  3.196E-07 4.753E-07

     total cpu time spent up to now is     2965.8 secs

     total energy              =   -7077.36200723 Ry
     estimated scf accuracy    <       0.74821979 Ry

     total magnetization       =    12.28 Bohr mag/cell
     absolute magnetization    =    13.11 Bohr mag/cell

     iteration #  7     ecut=    60.00 Ry     beta= 0.20
     Davidson diagonalization with overlap
     ethr =  3.10E-04,  avg # of iterations =  1.8

     negative rho (up, down):  2.618E-08 6.812E-08

     total cpu time spent up to now is     3427.6 secs

     total energy              =   -7077.39760064 Ry
     estimated scf accuracy    <       0.20135405 Ry

     total magnetization       =    11.60 Bohr mag/cell
     absolute magnetization    =    12.43 Bohr mag/cell

     iteration #  8     ecut=    60.00 Ry     beta= 0.20
     Davidson diagonalization with overlap
     c_bands:  1 eigenvalues not converged
     c_bands:  1 eigenvalues not converged
     c_bands:  1 eigenvalues not converged
     c_bands:  1 eigenvalues not converged
     c_bands:  1 eigenvalues not converged
     c_bands:  1 eigenvalues not converged
     c_bands:  1 eigenvalues not converged
     ethr =  8.35E-05,  avg # of iterations = 12.2

     negative rho (up, down):  3.174E-09 3.575E-08

     total cpu time spent up to now is     3988.7 secs

     total energy              =   -7077.41506057 Ry
     estimated scf accuracy    <       0.18272342 Ry

     total magnetization       =    10.55 Bohr mag/cell
     absolute magnetization    =    11.45 Bohr mag/cell

     iteration #  9     ecut=    60.00 Ry     beta= 0.20
     Davidson diagonalization with overlap
     ethr =  7.58E-05,  avg # of iterations =  1.9

     negative rho (up, down):  2.194E-09 1.974E-08

     total cpu time spent up to now is     4455.7 secs

     total energy              =   -7077.42653579 Ry
     estimated scf accuracy    <       0.05709032 Ry

     total magnetization       =     9.89 Bohr mag/cell
     absolute magnetization    =    10.91 Bohr mag/cell

     iteration # 10     ecut=    60.00 Ry     beta= 0.20
     Davidson diagonalization with overlap
     ethr =  2.37E-05,  avg # of iterations =  4.8

     negative rho (up, down):  8.776E-10 1.270E-08

     total cpu time spent up to now is     4926.4 secs

     total energy              =   -7077.42652913 Ry
     estimated scf accuracy    <       0.04816862 Ry

     total magnetization       =    10.01 Bohr mag/cell
     absolute magnetization    =    11.03 Bohr mag/cell

     iteration # 11     ecut=    60.00 Ry     beta= 0.20
     Davidson diagonalization with overlap
     ethr =  2.00E-05,  avg # of iterations =  1.8

     total cpu time spent up to now is     5375.7 secs

     total energy              =   -7077.42860784 Ry
     estimated scf accuracy    <       0.02044703 Ry

     total magnetization       =     9.65 Bohr mag/cell
     absolute magnetization    =    10.67 Bohr mag/cell

     iteration # 12     ecut=    60.00 Ry     beta= 0.20
     Davidson diagonalization with overlap
     c_bands:  1 eigenvalues not converged
     ethr =  8.48E-06,  avg # of iterations =  4.6

     negative rho (up, down):  1.297E-08 2.931E-08

     total cpu time spent up to now is     5876.3 secs

     total energy              =   -7077.42756302 Ry
     estimated scf accuracy    <       0.03097701 Ry

     total magnetization       =     9.45 Bohr mag/cell
     absolute magnetization    =    10.43 Bohr mag/cell

     iteration # 13     ecut=    60.00 Ry     beta= 0.20
     Davidson diagonalization with overlap
     ethr =  8.48E-06,  avg # of iterations =  2.2

     negative rho (up, down):  2.170E-08 4.002E-08

     total cpu time spent up to now is     6339.8 secs

     total energy              =   -7077.42851664 Ry
     estimated scf accuracy    <       0.00942690 Ry

     total magnetization       =     9.69 Bohr mag/cell
     absolute magnetization    =    10.55 Bohr mag/cell

     iteration # 14     ecut=    60.00 Ry     beta= 0.20
     Davidson diagonalization with overlap
     ethr =  3.91E-06,  avg # of iterations =  3.7

     negative rho (up, down):  2.155E-08 3.410E-08

     total cpu time spent up to now is     6816.8 secs

     total energy              =   -7077.42734308 Ry
     estimated scf accuracy    <       0.01496995 Ry

     total magnetization       =     9.44 Bohr mag/cell
     absolute magnetization    =    10.24 Bohr mag/cell

     iteration # 15     ecut=    60.00 Ry     beta= 0.20
     Davidson diagonalization with overlap
     ethr =  3.91E-06,  avg # of iterations =  1.4

     negative rho (up, down):  2.177E-08 2.946E-08

     total cpu time spent up to now is     7254.1 secs

     total energy              =   -7077.42734737 Ry
     estimated scf accuracy    <       0.01734130 Ry

     total magnetization       =     9.31 Bohr mag/cell
     absolute magnetization    =    10.11 Bohr mag/cell

     iteration # 16     ecut=    60.00 Ry     beta= 0.20
     Davidson diagonalization with overlap
     ethr =  3.91E-06,  avg # of iterations =  1.2

     negative rho (up, down):  2.048E-08 2.450E-08

     total cpu time spent up to now is     7669.2 secs

     total energy              =   -7077.42702871 Ry
     estimated scf accuracy    <       0.00618931 Ry

     total magnetization       =     9.43 Bohr mag/cell
     absolute magnetization    =    10.21 Bohr mag/cell

     iteration # 17     ecut=    60.00 Ry     beta= 0.20
     Davidson diagonalization with overlap
     ethr =  2.57E-06,  avg # of iterations =  2.4

     negative rho (up, down):  1.735E-08 1.897E-08

     total cpu time spent up to now is     8135.5 secs

     total energy              =   -7077.42690224 Ry
     estimated scf accuracy    <       0.00231548 Ry

     total magnetization       =     9.40 Bohr mag/cell
     absolute magnetization    =    10.18 Bohr mag/cell

     iteration # 18     ecut=    60.00 Ry     beta= 0.20
     Davidson diagonalization with overlap
     ethr =  9.61E-07,  avg # of iterations =  2.5

     total cpu time spent up to now is     8601.2 secs

     total energy              =   -7077.42697143 Ry
     estimated scf accuracy    <       0.00127590 Ry

     total magnetization       =     9.41 Bohr mag/cell
     absolute magnetization    =    10.20 Bohr mag/cell

     iteration # 19     ecut=    60.00 Ry     beta= 0.20
     Davidson diagonalization with overlap
     ethr =  5.29E-07,  avg # of iterations =  1.6

     total cpu time spent up to now is     9056.3 secs

     total energy              =   -7077.42706645 Ry
     estimated scf accuracy    <       0.00231238 Ry

     total magnetization       =     9.45 Bohr mag/cell
     absolute magnetization    =    10.26 Bohr mag/cell

     iteration # 20     ecut=    60.00 Ry     beta= 0.20
     Davidson diagonalization with overlap
     ethr =  5.29E-07,  avg # of iterations =  1.8

     total cpu time spent up to now is     9483.7 secs

     total energy              =   -7077.42710014 Ry
     estimated scf accuracy    <       0.00102085 Ry

     total magnetization       =     9.46 Bohr mag/cell
     absolute magnetization    =    10.28 Bohr mag/cell

     iteration # 21     ecut=    60.00 Ry     beta= 0.20
     Davidson diagonalization with overlap
     c_bands:  1 eigenvalues not converged
     ethr =  4.24E-07,  avg # of iterations =  2.0

     negative rho (up, down):  7.488E-06 7.585E-06

     total cpu time spent up to now is     9929.6 secs

     total energy              =   -7077.42714549 Ry
     estimated scf accuracy    <       0.00152536 Ry

     total magnetization       =     9.56 Bohr mag/cell
     absolute magnetization    =    10.38 Bohr mag/cell

     iteration # 22     ecut=    60.00 Ry     beta= 0.20
     Davidson diagonalization with overlap
     c_bands:  1 eigenvalues not converged
     ethr =  4.24E-07,  avg # of iterations =  2.6

     negative rho (up, down):  6.273E-06 6.033E-06

     total cpu time spent up to now is    10391.0 secs

     total energy              =   -7077.42712740 Ry
     estimated scf accuracy    <       0.00103074 Ry

     total magnetization       =     9.61 Bohr mag/cell
     absolute magnetization    =    10.46 Bohr mag/cell

     iteration # 23     ecut=    60.00 Ry     beta= 0.20
     Davidson diagonalization with overlap
     ethr =  4.24E-07,  avg # of iterations =  1.1

     negative rho (up, down):  7.721E-07 6.067E-07

     total cpu time spent up to now is    10822.4 secs

     total energy              =   -7077.42714114 Ry
     estimated scf accuracy    <       0.00123790 Ry

     total magnetization       =     9.62 Bohr mag/cell
     absolute magnetization    =    10.47 Bohr mag/cell

     iteration # 24     ecut=    60.00 Ry     beta= 0.20
     Davidson diagonalization with overlap
     ethr =  4.24E-07,  avg # of iterations =  1.6

     negative rho (up, down):  2.268E-04 2.238E-04

     total cpu time spent up to now is    11267.2 secs

     total energy              =   -7077.42707494 Ry
     estimated scf accuracy    <       0.00105478 Ry

     total magnetization       =     9.60 Bohr mag/cell
     absolute magnetization    =    10.46 Bohr mag/cell

     iteration # 25     ecut=    60.00 Ry     beta= 0.20
     Davidson diagonalization with overlap
     ethr =  4.24E-07,  avg # of iterations =  3.3

     negative rho (up, down):  6.030E-05 5.858E-05

     total cpu time spent up to now is    11737.5 secs

     total energy              =   -7077.42708438 Ry
     estimated scf accuracy    <       0.00077447 Ry

     total magnetization       =     9.63 Bohr mag/cell
     absolute magnetization    =    10.48 Bohr mag/cell

     iteration # 26     ecut=    60.00 Ry     beta= 0.20
     Davidson diagonalization with overlap
     ethr =  3.21E-07,  avg # of iterations =  1.3

     negative rho (up, down):  6.888E-05 6.449E-05

     total cpu time spent up to now is    12177.1 secs

     total energy              =   -7077.42706132 Ry
     estimated scf accuracy    <       0.00040157 Ry

     total magnetization       =     9.57 Bohr mag/cell
     absolute magnetization    =    10.42 Bohr mag/cell

     iteration # 27     ecut=    60.00 Ry     beta= 0.20
     Davidson diagonalization with overlap
     ethr =  1.67E-07,  avg # of iterations =  2.3

     negative rho (up, down):  8.119E-05 7.569E-05

     total cpu time spent up to now is    12639.9 secs

     total energy              =   -7077.42706438 Ry
     estimated scf accuracy    <       0.00019739 Ry

     total magnetization       =     9.53 Bohr mag/cell
     absolute magnetization    =    10.37 Bohr mag/cell

     iteration # 28     ecut=    60.00 Ry     beta= 0.20
     Davidson diagonalization with overlap
     ethr =  8.19E-08,  avg # of iterations =  1.8

     negative rho (up, down):  1.013E-04 8.997E-05

     total cpu time spent up to now is    13071.7 secs

     total energy              =   -7077.42707816 Ry
     estimated scf accuracy    <       0.00012573 Ry

     total magnetization       =     9.52 Bohr mag/cell
     absolute magnetization    =    10.36 Bohr mag/cell

     iteration # 29     ecut=    60.00 Ry     beta= 0.20
     Davidson diagonalization with overlap
     ethr =  5.22E-08,  avg # of iterations =  2.1

     negative rho (up, down):  8.918E-05 7.518E-05

     total cpu time spent up to now is    13515.2 secs

     total energy              =   -7077.42709183 Ry
     estimated scf accuracy    <       0.00011528 Ry

     total magnetization       =     9.52 Bohr mag/cell
     absolute magnetization    =    10.36 Bohr mag/cell

     iteration # 30     ecut=    60.00 Ry     beta= 0.20
     Davidson diagonalization with overlap
     ethr =  4.78E-08,  avg # of iterations =  1.2

     negative rho (up, down):  1.706E-04 1.469E-04

     total cpu time spent up to now is    13955.2 secs

     total energy              =   -7077.42708353 Ry
     estimated scf accuracy    <       0.00005032 Ry

     total magnetization       =     9.52 Bohr mag/cell
     absolute magnetization    =    10.36 Bohr mag/cell

     iteration # 31     ecut=    60.00 Ry     beta= 0.20
     Davidson diagonalization with overlap
     ethr =  2.09E-08,  avg # of iterations =  2.0

     negative rho (up, down):  1.820E-04 1.583E-04

     total cpu time spent up to now is    14422.6 secs

     total energy              =   -7077.42708553 Ry
     estimated scf accuracy    <       0.00002869 Ry

     total magnetization       =     9.54 Bohr mag/cell
     absolute magnetization    =    10.38 Bohr mag/cell

     iteration # 32     ecut=    60.00 Ry     beta= 0.20
     Davidson diagonalization with overlap
     ethr =  1.19E-08,  avg # of iterations =  1.4

     negative rho (up, down):  2.016E-04 1.761E-04

     total cpu time spent up to now is    14868.9 secs

     total energy              =   -7077.42708577 Ry
     estimated scf accuracy    <       0.00001726 Ry

     total magnetization       =     9.55 Bohr mag/cell
     absolute magnetization    =    10.39 Bohr mag/cell

     iteration # 33     ecut=    60.00 Ry     beta= 0.20
     Davidson diagonalization with overlap
     ethr =  7.16E-09,  avg # of iterations =  2.1

     negative rho (up, down):  2.079E-04 1.778E-04

     total cpu time spent up to now is    15328.7 secs

     total energy              =   -7077.42708710 Ry
     estimated scf accuracy    <       0.00000517 Ry

     total magnetization       =     9.55 Bohr mag/cell
     absolute magnetization    =    10.39 Bohr mag/cell

     iteration # 34     ecut=    60.00 Ry     beta= 0.20
     Davidson diagonalization with overlap
     c_bands:  1 eigenvalues not converged
     ethr =  2.14E-09,  avg # of iterations =  4.0

     negative rho (up, down):  1.744E-04 1.424E-04

     total cpu time spent up to now is    15824.4 secs

     total energy              =   -7077.42708661 Ry
     estimated scf accuracy    <       0.00000343 Ry

     total magnetization       =     9.54 Bohr mag/cell
     absolute magnetization    =    10.38 Bohr mag/cell

     iteration # 35     ecut=    60.00 Ry     beta= 0.20
     Davidson diagonalization with overlap
     ethr =  1.42E-09,  avg # of iterations =  1.7

     negative rho (up, down):  1.577E-04 1.262E-04

     total cpu time spent up to now is    16269.4 secs

     total energy              =   -7077.42708703 Ry
     estimated scf accuracy    <       0.00000075 Ry

     total magnetization       =     9.54 Bohr mag/cell
     absolute magnetization    =    10.38 Bohr mag/cell

     iteration # 36     ecut=    60.00 Ry     beta= 0.20
     Davidson diagonalization with overlap
     ethr =  3.12E-10,  avg # of iterations =  4.2

     negative rho (up, down):  1.263E-04 9.474E-05

     total cpu time spent up to now is    16767.0 secs

     total energy              =   -7077.42708730 Ry
     estimated scf accuracy    <       0.00000103 Ry

     total magnetization       =     9.54 Bohr mag/cell
     absolute magnetization    =    10.37 Bohr mag/cell

     iteration # 37     ecut=    60.00 Ry     beta= 0.20
     Davidson diagonalization with overlap
     ethr =  3.12E-10,  avg # of iterations =  2.0

     negative rho (up, down):  1.220E-04 9.073E-05

     total cpu time spent up to now is    17241.6 secs

     total energy              =   -7077.42708748 Ry
     estimated scf accuracy    <       0.00000039 Ry

     total magnetization       =     9.54 Bohr mag/cell
     absolute magnetization    =    10.37 Bohr mag/cell

     iteration # 38     ecut=    60.00 Ry     beta= 0.20
     Davidson diagonalization with overlap
     ethr =  1.60E-10,  avg # of iterations =  1.2

     negative rho (up, down):  1.225E-04 9.115E-05

     total cpu time spent up to now is    17675.9 secs

     total energy              =   -7077.42708751 Ry
     estimated scf accuracy    <       0.00000021 Ry

     total magnetization       =     9.54 Bohr mag/cell
     absolute magnetization    =    10.37 Bohr mag/cell

     iteration # 39     ecut=    60.00 Ry     beta= 0.20
     Davidson diagonalization with overlap
     ethr =  8.76E-11,  avg # of iterations =  1.3

     negative rho (up, down):  1.333E-04 1.014E-04

     total cpu time spent up to now is    18123.4 secs

     total energy              =   -7077.42708760 Ry
     estimated scf accuracy    <       0.00000009 Ry

     total magnetization       =     9.54 Bohr mag/cell
     absolute magnetization    =    10.37 Bohr mag/cell

     iteration # 40     ecut=    60.00 Ry     beta= 0.20
     Davidson diagonalization with overlap
     ethr =  3.81E-11,  avg # of iterations =  1.9

     negative rho (up, down):  1.445E-04 1.124E-04

     total cpu time spent up to now is    18590.0 secs

     total energy              =   -7077.42708766 Ry
     estimated scf accuracy    <       0.00000007 Ry

     total magnetization       =     9.54 Bohr mag/cell
     absolute magnetization    =    10.37 Bohr mag/cell

     iteration # 41     ecut=    60.00 Ry     beta= 0.20
     Davidson diagonalization with overlap
     ethr =  3.09E-11,  avg # of iterations =  1.3

     negative rho (up, down):  1.503E-04 1.181E-04

     total cpu time spent up to now is    19037.4 secs

     total energy              =   -7077.42708770 Ry
     estimated scf accuracy    <       0.00000008 Ry

     total magnetization       =     9.54 Bohr mag/cell
     absolute magnetization    =    10.37 Bohr mag/cell

     iteration # 42     ecut=    60.00 Ry     beta= 0.20
     Davidson diagonalization with overlap
     ethr =  3.09E-11,  avg # of iterations =  1.4

     negative rho (up, down):  1.565E-04 1.242E-04

     total cpu time spent up to now is    19488.5 secs

     total energy              =   -7077.42708772 Ry
     estimated scf accuracy    <       0.00000004 Ry

     total magnetization       =     9.53 Bohr mag/cell
     absolute magnetization    =    10.37 Bohr mag/cell

     iteration # 43     ecut=    60.00 Ry     beta= 0.20
     Davidson diagonalization with overlap
     ethr =  1.78E-11,  avg # of iterations =  1.2

     negative rho (up, down):  1.566E-04 1.243E-04

     total cpu time spent up to now is    19922.2 secs

     total energy              =   -7077.42708772 Ry
     estimated scf accuracy    <       0.00000001 Ry

     total magnetization       =     9.53 Bohr mag/cell
     absolute magnetization    =    10.37 Bohr mag/cell

     iteration # 44     ecut=    60.00 Ry     beta= 0.20
     Davidson diagonalization with overlap
     ethr =  5.74E-12,  avg # of iterations =  2.0

     negative rho (up, down):  1.571E-04 1.248E-04

     total cpu time spent up to now is    20389.3 secs

     total energy              =   -7077.42708772 Ry
     estimated scf accuracy    <          5.4E-09 Ry

     total magnetization       =     9.53 Bohr mag/cell
     absolute magnetization    =    10.37 Bohr mag/cell

     iteration # 45     ecut=    60.00 Ry     beta= 0.20
     Davidson diagonalization with overlap
     ethr =  2.26E-12,  avg # of iterations =  3.1

     negative rho (up, down):  1.555E-04 1.232E-04

     total cpu time spent up to now is    20924.2 secs

     total energy              =   -7077.42708771 Ry
     estimated scf accuracy    <          3.2E-09 Ry

     total magnetization       =     9.53 Bohr mag/cell
     absolute magnetization    =    10.37 Bohr mag/cell

     iteration # 46     ecut=    60.00 Ry     beta= 0.20
     Davidson diagonalization with overlap
     ethr =  1.31E-12,  avg # of iterations =  2.1

     negative rho (up, down):  1.540E-04 1.217E-04

     total cpu time spent up to now is    21398.6 secs

     total energy              =   -7077.42708771 Ry
     estimated scf accuracy    <          3.8E-09 Ry

     total magnetization       =     9.53 Bohr mag/cell
     absolute magnetization    =    10.37 Bohr mag/cell

     iteration # 47     ecut=    60.00 Ry     beta= 0.20
     Davidson diagonalization with overlap
     ethr =  1.31E-12,  avg # of iterations =  1.1

     negative rho (up, down):  1.527E-04 1.204E-04

     total cpu time spent up to now is    21832.7 secs

     total energy              =   -7077.42708770 Ry
     estimated scf accuracy    <          8.2E-10 Ry

     total magnetization       =     9.53 Bohr mag/cell
     absolute magnetization    =    10.37 Bohr mag/cell

     iteration # 48     ecut=    60.00 Ry     beta= 0.20
     Davidson diagonalization with overlap
     ethr =  3.41E-13,  avg # of iterations =  3.4

     negative rho (up, down):  1.520E-04 1.198E-04

     total cpu time spent up to now is    22411.2 secs

     total energy              =   -7077.42708770 Ry
     estimated scf accuracy    <          8.2E-10 Ry

     total magnetization       =     9.53 Bohr mag/cell
     absolute magnetization    =    10.37 Bohr mag/cell

     iteration # 49     ecut=    60.00 Ry     beta= 0.20
     Davidson diagonalization with overlap
     ethr =  3.39E-13,  avg # of iterations =  1.5

     negative rho (up, down):  1.517E-04 1.195E-04

     total cpu time spent up to now is    22839.9 secs

     total energy              =   -7077.42708770 Ry
     estimated scf accuracy    <          3.7E-10 Ry

     total magnetization       =     9.53 Bohr mag/cell
     absolute magnetization    =    10.37 Bohr mag/cell

     iteration # 50     ecut=    60.00 Ry     beta= 0.20
     Davidson diagonalization with overlap
     ethr =  1.52E-13,  avg # of iterations =  2.3

     negative rho (up, down):  1.518E-04 1.195E-04

     total cpu time spent up to now is    23336.5 secs

     total energy              =   -7077.42708770 Ry
     estimated scf accuracy    <          1.4E-10 Ry

     total magnetization       =     9.53 Bohr mag/cell
     absolute magnetization    =    10.37 Bohr mag/cell

     iteration # 51     ecut=    60.00 Ry     beta= 0.20
     Davidson diagonalization with overlap
     ethr =  1.00E-13,  avg # of iterations =  1.8

     negative rho (up, down):  1.520E-04 1.197E-04

     total cpu time spent up to now is    23795.1 secs

     total energy              =   -7077.42708770 Ry
     estimated scf accuracy    <          1.2E-10 Ry

     total magnetization       =     9.53 Bohr mag/cell
     absolute magnetization    =    10.37 Bohr mag/cell

     iteration # 52     ecut=    60.00 Ry     beta= 0.20
     Davidson diagonalization with overlap
     ethr =  1.00E-13,  avg # of iterations =  1.4

     negative rho (up, down):  1.527E-04 1.205E-04
 
     Magnetic moment per site  (integrated on atomic sphere of radius R)
     atom   1 (R=0.113)  charge=  6.1377  magn=  0.7877
     atom   2 (R=0.202)  charge=  8.1502  magn=  0.2481
     atom   3 (R=0.202)  charge=  8.1502  magn=  0.2481
     atom   4 (R=0.202)  charge=  8.1502  magn=  0.2481
     atom   5 (R=0.113)  charge=  6.1298  magn=  0.7644
     atom   6 (R=0.202)  charge=  8.1914  magn=  0.3131
     atom   7 (R=0.202)  charge=  8.1914  magn=  0.3131
     atom   8 (R=0.202)  charge=  8.1914  magn=  0.3131
     atom   9 (R=0.113)  charge=  6.1316  magn=  0.7243
     atom  10 (R=0.202)  charge=  8.1944  magn=  0.3048
     atom  11 (R=0.202)  charge=  8.1944  magn=  0.3048
     atom  12 (R=0.202)  charge=  8.1944  magn=  0.3048
     atom  13 (R=0.113)  charge=  6.1313  magn=  0.7457
     atom  14 (R=0.202)  charge=  8.1928  magn=  0.2906
     atom  15 (R=0.202)  charge=  8.1928  magn=  0.2906
     atom  16 (R=0.202)  charge=  8.1928  magn=  0.2906
     atom  17 (R=0.113)  charge=  6.1295  magn=  0.7952
     atom  18 (R=0.202)  charge=  8.1917  magn=  0.2631
     atom  19 (R=0.202)  charge=  8.1917  magn=  0.2631
     atom  20 (R=0.202)  charge=  8.1917  magn=  0.2631
     atom  21 (R=0.113)  charge=  6.1205  magn=  0.3559
     atom  22 (R=0.202)  charge=  8.1380  magn=  0.2072
     atom  23 (R=0.202)  charge=  8.1380  magn=  0.2072
     atom  24 (R=0.202)  charge=  8.1380  magn=  0.2072
     atom  25 (R=0.113)  charge=  0.6429  magn= -0.0117

     total cpu time spent up to now is    24231.0 secs

     End of self-consistent calculation

     Number of k-points >= 100: set verbosity='high' to print the bands.

     the Fermi energy is    -5.1977 ev

!    total energy              =   -7077.42708770 Ry
     total all-electron energy =   -199909.863658 Ry
     estimated scf accuracy    <          5.7E-11 Ry
     smearing contrib. (-TS)   =       0.00075662 Ry
     internal energy E=F+TS    =   -7077.42784432 Ry

     The total energy is F=E-TS. E is the sum of the following terms:
     one-electron contribution =  -61169.28892285 Ry
     hartree contribution      =   30771.91049045 Ry
     xc contribution           =    -835.46912797 Ry
     ewald contribution        =   29289.58528569 Ry
     DFT-D3 Dispersion         =      -2.53068762 Ry
     one-center paw contrib.   =   -5131.63488202 Ry

     total magnetization       =     9.53 Bohr mag/cell
     absolute magnetization    =    10.37 Bohr mag/cell

     convergence has been achieved in  52 iterations

     negative rho (up, down):  1.527E-04 1.205E-04

     Forces acting on atoms (cartesian axes, Ry/au):

     atom    1 type  1   force =    -0.00000005   -0.00000007    0.01609198
     atom    2 type  2   force =     0.00000003   -0.01439867   -0.00918777
     atom    3 type  2   force =    -0.01246959    0.00719936   -0.00918781
     atom    4 type  2   force =     0.01246961    0.00719934   -0.00918780
     atom    5 type  1   force =    -0.00000002    0.00000002    0.00220091
     atom    6 type  2   force =    -0.00062614    0.00036154    0.00490637
     atom    7 type  2   force =    -0.00000001   -0.00072303    0.00490646
     atom    8 type  2   force =     0.00062616    0.00036155    0.00490643
     atom    9 type  1   force =     0.00000001   -0.00000006   -0.00058907
     atom   10 type  2   force =    -0.00000000    0.00004507   -0.00031431
     atom   11 type  2   force =    -0.00003910   -0.00002252   -0.00031429
     atom   12 type  2   force =     0.00003911   -0.00002254   -0.00031411
     atom   13 type  1   force =     0.00000001    0.00000007   -0.00066496
     atom   14 type  2   force =     0.00004116   -0.00002380   -0.00002217
     atom   15 type  2   force =    -0.00000002    0.00004754   -0.00002239
     atom   16 type  2   force =    -0.00004119   -0.00002380   -0.00002225
     atom   17 type  1   force =    -0.00000001    0.00000008   -0.00091143
     atom   18 type  2   force =    -0.00004205    0.00002423   -0.00004875
     atom   19 type  2   force =    -0.00000000   -0.00004849   -0.00004862
     atom   20 type  2   force =     0.00004204    0.00002424   -0.00004882
     atom   21 type  1   force =    -0.00000000   -0.00000008    0.00021219
     atom   22 type  2   force =     0.00000002    0.00012531   -0.00057242
     atom   23 type  2   force =    -0.00010850   -0.00006266   -0.00057237
     atom   24 type  2   force =     0.00010852   -0.00006264   -0.00057237
     atom   25 type  3   force =     0.00000001    0.00000001   -0.00062261

     Total force =     0.001738     Total SCF correction =     0.000035


     Computing stress (Cartesian axis) and pressure


     negative rho (up, down):  1.527E-04 1.205E-04
          total   stress  (Ry/bohr**3)                   (kbar)     P=       -9.04
  -0.00009175   0.00000000   0.00000000          -13.50        0.00        0.00
   0.00000000  -0.00009175   0.00000000            0.00      -13.50        0.00
   0.00000000   0.00000000  -0.00000089            0.00        0.00       -0.13


     Writing all to output data dir /tmpu/isholek_g/isholek/MIGUEL/QE/Hydrogen/111_2x2/SAVE/Ni1Pd3_111-T2.save/ :
     XML data file, charge density, pseudopotentials, collected wavefunctions
 
     init_run     :    227.03s CPU    231.57s WALL (       1 calls)
     electrons    :  22292.98s CPU  23999.44s WALL (       1 calls)
     forces       :     59.35s CPU     62.54s WALL (       1 calls)
     force_dftd3  :      0.35s CPU      0.35s WALL (       1 calls)
     stress       :    570.69s CPU    597.47s WALL (       1 calls)
     stres_dftd3  :      0.51s CPU      0.54s WALL (       1 calls)

     Called by init_run:
     wfcinit      :    133.53s CPU    137.76s WALL (       1 calls)
     potinit      :      1.62s CPU      1.70s WALL (       1 calls)
     hinit0       :      0.74s CPU      0.75s WALL (       1 calls)

     Called by electrons:
     c_bands      :  17979.11s CPU  19395.39s WALL (      52 calls)
     sum_band     :   4152.97s CPU   4427.76s WALL (      52 calls)
     v_of_rho     :     39.46s CPU     43.47s WALL (      53 calls)
     newd         :     11.94s CPU     13.56s WALL (      53 calls)
     PAW_pot      :     19.41s CPU     20.27s WALL (      53 calls)
     mix_rho      :     84.58s CPU     92.44s WALL (      52 calls)
     energy_dftd3 :      0.04s CPU      0.08s WALL (       1 calls)

     Called by c_bands:
     init_us_2    :    124.74s CPU    139.79s WALL (    6848 calls)
     init_us_2:cp :    124.63s CPU    139.70s WALL (    6848 calls)
     cegterg      :  16124.92s CPU  17448.83s WALL (    3328 calls)

     Called by *egterg:
     cdiaghg      :    347.24s CPU    372.95s WALL (   11285 calls)
     h_psi        :  11072.56s CPU  12056.52s WALL (   11349 calls)
     s_psi        :    946.12s CPU   1001.71s WALL (   11349 calls)
     g_psi        :     30.46s CPU     33.15s WALL (    7957 calls)

     Called by h_psi:
     h_psi:calbec :   1354.39s CPU   1440.83s WALL (   11349 calls)
     vloc_psi     :   8720.40s CPU   9510.42s WALL (   11349 calls)
     add_vuspsi   :    962.19s CPU   1037.98s WALL (   11349 calls)

     General routines
     calbec       :   2022.96s CPU   2146.58s WALL (   14997 calls)
     fft          :     31.47s CPU     34.83s WALL (    1363 calls)
     ffts         :     25.18s CPU     28.09s WALL (    6483 calls)
     fftw         :   8562.89s CPU   9134.70s WALL ( 2491946 calls)
     interpolate  :      2.49s CPU      2.72s WALL (     106 calls)
 
     Parallel routines
 
     PWSCF        :      6h25m CPU      6h55m WALL

 
   This run was terminated on:   7: 3:50  21Apr2026            

=------------------------------------------------------------------------------=
   JOB DONE.
=------------------------------------------------------------------------------=
