
     Program PWSCF v.7.3 starts on  1Apr2026 at 18:20:37 

     This program is part of the open-source Quantum ESPRESSO suite
     for quantum simulation of materials; please cite
         "P. Giannozzi et al., J. Phys.:Condens. Matter 21 395502 (2009);
         "P. Giannozzi et al., J. Phys.:Condens. Matter 29 465901 (2017);
         "P. Giannozzi et al., J. Chem. Phys. 152 154105 (2020);
          URL http://www.quantum-espresso.org", 
     in publications or presentations arising from this work. More details at
     http://www.quantum-espresso.org/quote

     Parallel version (MPI), running on    64 processors

     MPI processes distributed on     4 nodes
     53659 MiB available memory on the printing compute node when the environment starts
 
     Reading input from /tmpu/isholek_g/isholek/MIGUEL/QE/Hydrogen/111_2x2/SCF/Ni1Pd3_111-H_fcc_2-SCF.in

     Current dimensions of program PWSCF are:
     Max number of different atomic species (ntypx) = 10
     Max number of k-points (npk) =  40000
     Max angular momentum in pseudopotentials (lmaxx) =  4
     file Ni.upf: wavefunction(s)  4S 3D renormalized
     file Pd.upf: wavefunction(s)  5S 4D renormalized
     file H.upf: wavefunction(s)  1S renormalized

     IMPORTANT: XC functional enforced from input :
     Exchange-correlation= PBE
                           (   1   4   3   4   0   0   0)
     Any further DFT definition will be discarded
     Please, verify this is what you really want

 
     K-points division:     npool     =       8
     R & G space division:  proc/nbgrp/npool/nimage =       8
     Subspace diagonalization in iterative solution of the eigenvalue problem:
     one sub-group per band group will be used
     scalapack distributed-memory algorithm (size of sub-group:  2*  2 procs)

 
     Parallelization info
     --------------------
     sticks:   dense  smooth     PW     G-vecs:    dense   smooth      PW
     Min         416     207     60               120460    42599    6636
     Max         417     208     64               120479    42626    6643
     Sum        3331    1663    499               963739   340921   53115
 
     Using Slab Decomposition
 

     Title: 
     Ni1Pd3_111-H_fcc_2-SCF                                                     


     bravais-lattice index     =            0
     lattice parameter (alat)  =      10.0481  a.u.
     unit-cell volume          =    5428.4795 (a.u.)^3
     number of atoms/cell      =           25
     number of atomic types    =            3
     number of electrons       =       241.00
     number of Kohn-Sham states=          145
     kinetic-energy cutoff     =      60.0000  Ry
     charge density cutoff     =     480.0000  Ry
     scf convergence threshold =      1.0E-10
     mixing beta               =       0.2000
     number of iterations used =           12  local-TF  mixing
     Exchange-correlation= PBE
                           (   1   4   3   4   0   0   0)

     celldm(1)=  10.048050  celldm(2)=   0.000000  celldm(3)=   0.000000
     celldm(4)=   0.000000  celldm(5)=   0.000000  celldm(6)=   0.000000

     crystal axes: (cart. coord. in units of alat)
               a(1) = (   1.000000   0.000000   0.000000 )  
               a(2) = (   0.500000   0.866025   0.000000 )  
               a(3) = (   0.000000   0.000000   6.178773 )  

     reciprocal axes: (cart. coord. in units 2 pi/alat)
               b(1) = (  1.000000 -0.577350  0.000000 )  
               b(2) = (  0.000000  1.154701  0.000000 )  
               b(3) = (  0.000000  0.000000  0.161844 )  


     PseudoPot. # 1 for Ni read from file:
     /tmpu/isholek_g/isholek/MIGUEL/PP/PAW/Ni.upf
     MD5 check sum: d88365a95a5e142bd87181c2c8b16588
     Pseudo is Projector augmented-wave + core cor, Zval = 10.0
     Generated using "atomic" code by A. Dal Corso  v.5.0.2 svn rev. 9415
     Shape of augmentation charge: PSQ
     Using radial grid of 1195 points,  6 beta functions with: 
                l(1) =   0
                l(2) =   0
                l(3) =   1
                l(4) =   1
                l(5) =   2
                l(6) =   2
     Q(r) pseudized with 0 coefficients 


     PseudoPot. # 2 for Pd read from file:
     /tmpu/isholek_g/isholek/MIGUEL/PP/PAW/Pd.upf
     MD5 check sum: e9d6f14fd83b79f8105499163af174c9
     Pseudo is Projector augmented-wave + core cor, Zval = 10.0
     Generated using "atomic" code by A. Dal Corso  v.5.0.2 svn rev. 9415
     Shape of augmentation charge: PSQ
     Using radial grid of 1235 points,  6 beta functions with: 
                l(1) =   0
                l(2) =   0
                l(3) =   1
                l(4) =   1
                l(5) =   2
                l(6) =   2
     Q(r) pseudized with 0 coefficients 


     PseudoPot. # 3 for H  read from file:
     /tmpu/isholek_g/isholek/MIGUEL/PP/PAW/H.upf
     MD5 check sum: 4cbe42a24e15140179a93d5bf84f2220
     Pseudo is Projector augmented-wave, Zval =  1.0
     Generated using "atomic" code by A. Dal Corso  v.5.0.2 svn rev. 9415
     Shape of augmentation charge: PSQ
     Using radial grid of  929 points,  2 beta functions with: 
                l(1) =   0
                l(2) =   0
     Q(r) pseudized with 0 coefficients 


     atomic species   valence    mass     pseudopotential
     Ni               10.00    58.69340     Ni( 1.00)
     Pd               10.00   106.42000     Pd( 1.00)
     H                 1.00     1.00794     H ( 1.00)

     Starting magnetic structure 
     atomic species   magnetization
     Ni              0.650
     Pd              0.100
     H               0.000

     No symmetry found



   Cartesian axes

     site n.     atom                  positions (alat units)
         1        Ni     tau(   1) = (   1.0000000   0.5773503   2.0687584  )
         2        Pd     tau(   2) = (   0.5000000   0.5773500   2.0687727  )
         3        Pd     tau(   3) = (   0.7499998   0.1443377   2.0687727  )
         4        Pd     tau(   4) = (   0.2500002   0.1443377   2.0687727  )
         5        Ni     tau(   5) = (   0.5000000   0.2886751   2.4770066  )
         6        Pd     tau(   6) = (   0.7499998   0.7216879   2.4770210  )
         7        Pd     tau(   7) = (   1.0000000   0.2886749   2.4770210  )
         8        Pd     tau(   8) = (   1.2500002   0.7216879   2.4770210  )
         9        Ni     tau(   9) = (  -0.0000000   0.0002621   2.8845707  )
        10        Pd     tau(  10) = (   1.0000000   0.8661733   2.8845890  )
        11        Pd     tau(  11) = (   0.7499085   0.4332596   2.8845916  )
        12        Pd     tau(  12) = (   1.2500915   0.4332596   2.8845916  )
        13        Ni     tau(  13) = (   1.0000000   0.5768545   3.2924117  )
        14        Pd     tau(  14) = (   0.7500177   0.1443076   3.2924340  )
        15        Pd     tau(  15) = (   0.5000000   0.5770353   3.2935924  )
        16        Pd     tau(  16) = (   0.2499822   0.1443076   3.2924340  )
        17        Ni     tau(  17) = (   0.5000000   0.2895786   3.7017365  )
        18        Pd     tau(  18) = (   0.7506643   0.7208885   3.6997005  )
        19        Pd     tau(  19) = (   1.0000000   0.2901784   3.7012649  )
        20        Pd     tau(  20) = (   1.2493356   0.7208885   3.6997005  )
        21        Ni     tau(  21) = (  -0.0000000   0.0018633   4.0982438  )
        22        Pd     tau(  22) = (   1.0000000   0.8734330   4.1093648  )
        23        Pd     tau(  23) = (   0.7461206   0.4381515   4.1208583  )
        24        Pd     tau(  24) = (   1.2538794   0.4381515   4.1208583  )
        25        H      tau(  25) = (   1.0000000   0.2690115   4.2775854  )

     --------------------------------------------
     DFT-D3 Dispersion Correction (3-body terms):
     --------------------------------------------
       Reference C6 values for interpolation: 

         atom   Coordination number   C6
         H          0.912             6.05
         H          0.000            15.18
         Ni         0.000          1149.49
         Ni         1.794           356.66
         Ni         6.546           257.56
         Ni         6.292           283.75
         Pd         0.000          1217.01
         Pd         1.863           573.90
         Pd         5.710           531.75

       Values used:

         atom   Coordination number  R0_AB[au]  C6      C8
         Ni         5.893            3.162    276.72  23187.44
         Pd         6.810            3.168    531.75  48720.73
         Pd         6.810            3.168    531.75  48720.73
         Pd         6.810            3.168    531.75  48720.73
         Ni         7.888            3.162    258.74  21680.90
         Pd         9.137            3.168    531.75  48720.73
         Pd         9.137            3.168    531.75  48720.73
         Pd         9.137            3.168    531.75  48720.73
         Ni         7.894            3.162    258.73  21679.62
         Pd         9.152            3.168    531.75  48720.73
         Pd         9.151            3.168    531.75  48720.73
         Pd         9.151            3.168    531.75  48720.73
         Ni         7.913            3.162    258.69  21676.24
         Pd         9.132            3.168    531.75  48720.73
         Pd         9.148            3.168    531.75  48720.73
         Pd         9.132            3.168    531.75  48720.73
         Ni         7.770            3.162    259.05  21706.21
         Pd         9.125            3.168    531.75  48720.73
         Pd         9.037            3.168    531.75  48720.73
         Pd         9.125            3.168    531.75  48720.73
         Ni         6.630            3.162    267.48  22412.86
         Pd         6.800            3.168    531.75  48720.73
         Pd         7.192            3.168    531.75  48720.73
         Pd         7.192            3.168    531.75  48720.73
         H          1.779            2.062      6.05     73.18

         Molecular C6 ( Ry / a.u.^6 ) =    264981.06


     number of k points=   256  Marzari-Vanderbilt smearing, width (Ry)=  0.0147

     Number of k-points >= 100: set verbosity='high' to print them.

     Dense  grid:   963739 G-vectors     FFT dimensions: (  72,  72, 450)

     Smooth grid:   340921 G-vectors     FFT dimensions: (  50,  50, 320)

     Estimated max dynamical RAM per process >       1.01 GB

     Estimated total dynamical RAM >      59.77 GB
 ----2D----2D----2D----2D----2D----2D----2D----2D----2D----2D----2D----2D
  The code is running with the 2D cutoff
  Please refer to:
  Sohier, T., Calandra, M., & Mauri, F. (2017), 
  Density functional perturbation theory for gated two-dimensional heterostructu
 res:
  Theoretical developments and application to flexural phonons in graphene.
  Physical Review B, 96(7), 75448. https://doi.org/10.1103/PhysRevB.96.075448
 ----2D----2D----2D----2D----2D----2D----2D----2D----2D----2D----2D----2D

     Check: negative core charge=   -0.000002
     Generating pointlists ...
     new r_m :   0.1327 (alat units)  1.3337 (a.u.) for type    1
     new r_m :   0.1415 (alat units)  1.4215 (a.u.) for type    2
     new r_m :   0.1327 (alat units)  1.3337 (a.u.) for type    3

     Initial potential from superposition of free atoms

     starting charge     240.9891, renormalised to     241.0000

     negative rho (up, down):  2.002E-04 5.325E-05
     Starting wfcs are  217 randomized atomic wfcs
     Checking if some PAW data can be deallocated... 

     total cpu time spent up to now is      233.3 secs

     Self-consistent Calculation

     iteration #  1     ecut=    60.00 Ry     beta= 0.20
     Davidson diagonalization with overlap
     ethr =  1.00E-02,  avg # of iterations =  3.0

     negative rho (up, down):  3.765E-04 2.870E-04

     total cpu time spent up to now is      759.6 secs

     total energy              =   -7076.16218564 Ry
     estimated scf accuracy    <      23.33301146 Ry

     total magnetization       =    10.63 Bohr mag/cell
     absolute magnetization    =    10.65 Bohr mag/cell

     iteration #  2     ecut=    60.00 Ry     beta= 0.20
     Davidson diagonalization with overlap
     ethr =  9.68E-03,  avg # of iterations =  1.0

     negative rho (up, down):  4.806E-04 3.647E-04

     total cpu time spent up to now is     1187.8 secs

     total energy              =   -7076.76095608 Ry
     estimated scf accuracy    <       6.03296454 Ry

     total magnetization       =    15.68 Bohr mag/cell
     absolute magnetization    =    15.72 Bohr mag/cell

     iteration #  3     ecut=    60.00 Ry     beta= 0.20
     Davidson diagonalization with overlap
     ethr =  2.50E-03,  avg # of iterations =  1.0

     negative rho (up, down):  4.372E-04 3.318E-04

     total cpu time spent up to now is     1615.7 secs

     total energy              =   -7076.98697056 Ry
     estimated scf accuracy    <       2.38411293 Ry

     total magnetization       =    16.70 Bohr mag/cell
     absolute magnetization    =    16.82 Bohr mag/cell

     iteration #  4     ecut=    60.00 Ry     beta= 0.20
     Davidson diagonalization with overlap
     ethr =  9.89E-04,  avg # of iterations =  1.0

     negative rho (up, down):  8.474E-05 3.422E-05

     total cpu time spent up to now is     2045.4 secs

     total energy              =   -7077.16962562 Ry
     estimated scf accuracy    <       1.79080938 Ry

     total magnetization       =    14.98 Bohr mag/cell
     absolute magnetization    =    15.12 Bohr mag/cell

     iteration #  5     ecut=    60.00 Ry     beta= 0.20
     Davidson diagonalization with overlap
     ethr =  7.43E-04,  avg # of iterations =  1.6

     negative rho (up, down):  3.941E-05 1.708E-05

     total cpu time spent up to now is     2498.2 secs

     total energy              =   -7077.32415288 Ry
     estimated scf accuracy    <       1.37717618 Ry

     total magnetization       =    11.47 Bohr mag/cell
     absolute magnetization    =    12.03 Bohr mag/cell

     iteration #  6     ecut=    60.00 Ry     beta= 0.20
     Davidson diagonalization with overlap
     ethr =  5.71E-04,  avg # of iterations =  1.1

     negative rho (up, down):  1.464E-06 1.663E-06

     total cpu time spent up to now is     2938.5 secs

     total energy              =   -7077.40045206 Ry
     estimated scf accuracy    <       0.42112924 Ry

     total magnetization       =    11.91 Bohr mag/cell
     absolute magnetization    =    12.59 Bohr mag/cell

     iteration #  7     ecut=    60.00 Ry     beta= 0.20
     Davidson diagonalization with overlap
     ethr =  1.75E-04,  avg # of iterations =  9.5

     negative rho (up, down):  1.138E-07 2.031E-07

     total cpu time spent up to now is     3497.3 secs

     total energy              =   -7077.41862077 Ry
     estimated scf accuracy    <       1.44261918 Ry

     total magnetization       =    12.49 Bohr mag/cell
     absolute magnetization    =    13.35 Bohr mag/cell

     iteration #  8     ecut=    60.00 Ry     beta= 0.20
     Davidson diagonalization with overlap
     ethr =  1.75E-04,  avg # of iterations =  1.5

     negative rho (up, down):  1.008E-08 4.115E-08

     total cpu time spent up to now is     3929.6 secs

     total energy              =   -7077.43742482 Ry
     estimated scf accuracy    <       0.16346221 Ry

     total magnetization       =    11.44 Bohr mag/cell
     absolute magnetization    =    12.32 Bohr mag/cell

     iteration #  9     ecut=    60.00 Ry     beta= 0.20
     Davidson diagonalization with overlap
     c_bands:  1 eigenvalues not converged
     c_bands:  1 eigenvalues not converged
     c_bands:  1 eigenvalues not converged
     c_bands:  1 eigenvalues not converged
     c_bands:  1 eigenvalues not converged
     c_bands:  1 eigenvalues not converged
     c_bands:  1 eigenvalues not converged
     c_bands:  1 eigenvalues not converged
     c_bands:  1 eigenvalues not converged
     ethr =  6.78E-05,  avg # of iterations =  5.6

     negative rho (up, down):  4.661E-09 2.102E-08

     total cpu time spent up to now is     4397.9 secs

     total energy              =   -7077.44989585 Ry
     estimated scf accuracy    <       0.43844005 Ry

     total magnetization       =     8.93 Bohr mag/cell
     absolute magnetization    =     9.94 Bohr mag/cell

     iteration # 10     ecut=    60.00 Ry     beta= 0.20
     Davidson diagonalization with overlap
     ethr =  6.78E-05,  avg # of iterations =  1.7

     total cpu time spent up to now is     4844.4 secs

     total energy              =   -7077.45874435 Ry
     estimated scf accuracy    <       0.04366863 Ry

     total magnetization       =     9.54 Bohr mag/cell
     absolute magnetization    =    10.56 Bohr mag/cell

     iteration # 11     ecut=    60.00 Ry     beta= 0.20
     Davidson diagonalization with overlap
     ethr =  1.81E-05,  avg # of iterations =  7.0

     total cpu time spent up to now is     5313.4 secs

     total energy              =   -7077.46036303 Ry
     estimated scf accuracy    <       0.02131839 Ry

     total magnetization       =     9.63 Bohr mag/cell
     absolute magnetization    =    10.64 Bohr mag/cell

     iteration # 12     ecut=    60.00 Ry     beta= 0.20
     Davidson diagonalization with overlap
     ethr =  8.85E-06,  avg # of iterations =  4.2

     total cpu time spent up to now is     5801.2 secs

     total energy              =   -7077.46085969 Ry
     estimated scf accuracy    <       0.01958676 Ry

     total magnetization       =     9.64 Bohr mag/cell
     absolute magnetization    =    10.64 Bohr mag/cell

     iteration # 13     ecut=    60.00 Ry     beta= 0.20
     Davidson diagonalization with overlap
     ethr =  8.13E-06,  avg # of iterations =  2.1

     negative rho (up, down):  5.931E-09 1.431E-08

     total cpu time spent up to now is     6274.5 secs

     total energy              =   -7077.46153705 Ry
     estimated scf accuracy    <       0.01176340 Ry

     total magnetization       =     9.54 Bohr mag/cell
     absolute magnetization    =    10.47 Bohr mag/cell

     iteration # 14     ecut=    60.00 Ry     beta= 0.20
     Davidson diagonalization with overlap
     ethr =  4.88E-06,  avg # of iterations =  2.5

     negative rho (up, down):  9.486E-09 1.668E-08

     total cpu time spent up to now is     6722.6 secs

     total energy              =   -7077.46171410 Ry
     estimated scf accuracy    <       0.00867327 Ry

     total magnetization       =     9.61 Bohr mag/cell
     absolute magnetization    =    10.49 Bohr mag/cell

     iteration # 15     ecut=    60.00 Ry     beta= 0.20
     Davidson diagonalization with overlap
     ethr =  3.60E-06,  avg # of iterations =  2.6

     negative rho (up, down):  1.962E-08 2.615E-08

     total cpu time spent up to now is     7176.2 secs

     total energy              =   -7077.46047623 Ry
     estimated scf accuracy    <       0.00839338 Ry

     total magnetization       =     9.61 Bohr mag/cell
     absolute magnetization    =    10.46 Bohr mag/cell

     iteration # 16     ecut=    60.00 Ry     beta= 0.20
     Davidson diagonalization with overlap
     ethr =  3.48E-06,  avg # of iterations =  2.4

     negative rho (up, down):  2.545E-08 2.904E-08

     total cpu time spent up to now is     7609.8 secs

     total energy              =   -7077.45913751 Ry
     estimated scf accuracy    <       0.00643435 Ry

     total magnetization       =     9.59 Bohr mag/cell
     absolute magnetization    =    10.42 Bohr mag/cell

     iteration # 17     ecut=    60.00 Ry     beta= 0.20
     Davidson diagonalization with overlap
     ethr =  2.67E-06,  avg # of iterations =  1.9

     total cpu time spent up to now is     8055.8 secs

     total energy              =   -7077.45942853 Ry
     estimated scf accuracy    <       0.00226830 Ry

     total magnetization       =     9.76 Bohr mag/cell
     absolute magnetization    =    10.56 Bohr mag/cell

     iteration # 18     ecut=    60.00 Ry     beta= 0.20
     Davidson diagonalization with overlap
     ethr =  9.41E-07,  avg # of iterations =  3.3

     total cpu time spent up to now is     8532.6 secs

     total energy              =   -7077.45960192 Ry
     estimated scf accuracy    <       0.00154765 Ry

     total magnetization       =     9.65 Bohr mag/cell
     absolute magnetization    =    10.47 Bohr mag/cell

     iteration # 19     ecut=    60.00 Ry     beta= 0.20
     Davidson diagonalization with overlap
     ethr =  6.42E-07,  avg # of iterations =  1.6

     total cpu time spent up to now is     8982.1 secs

     total energy              =   -7077.45982257 Ry
     estimated scf accuracy    <       0.00155514 Ry

     total magnetization       =     9.75 Bohr mag/cell
     absolute magnetization    =    10.59 Bohr mag/cell

     iteration # 20     ecut=    60.00 Ry     beta= 0.20
     Davidson diagonalization with overlap
     ethr =  6.42E-07,  avg # of iterations =  1.1

     total cpu time spent up to now is     9399.8 secs

     total energy              =   -7077.45993110 Ry
     estimated scf accuracy    <       0.00120008 Ry

     total magnetization       =     9.73 Bohr mag/cell
     absolute magnetization    =    10.58 Bohr mag/cell

     iteration # 21     ecut=    60.00 Ry     beta= 0.20
     Davidson diagonalization with overlap
     ethr =  4.98E-07,  avg # of iterations =  1.9

     negative rho (up, down):  1.623E-06 1.514E-06

     total cpu time spent up to now is     9856.4 secs

     total energy              =   -7077.45984304 Ry
     estimated scf accuracy    <       0.00090444 Ry

     total magnetization       =     9.77 Bohr mag/cell
     absolute magnetization    =    10.62 Bohr mag/cell

     iteration # 22     ecut=    60.00 Ry     beta= 0.20
     Davidson diagonalization with overlap
     ethr =  3.75E-07,  avg # of iterations =  3.0

     negative rho (up, down):  1.751E-07 1.719E-07

     total cpu time spent up to now is    10329.9 secs

     total energy              =   -7077.45997400 Ry
     estimated scf accuracy    <       0.00124771 Ry

     total magnetization       =     9.81 Bohr mag/cell
     absolute magnetization    =    10.68 Bohr mag/cell

     iteration # 23     ecut=    60.00 Ry     beta= 0.20
     Davidson diagonalization with overlap
     ethr =  3.75E-07,  avg # of iterations =  1.1

     negative rho (up, down):  1.260E-07 1.204E-07

     total cpu time spent up to now is    10760.0 secs

     total energy              =   -7077.45993873 Ry
     estimated scf accuracy    <       0.00099106 Ry

     total magnetization       =     9.78 Bohr mag/cell
     absolute magnetization    =    10.65 Bohr mag/cell

     iteration # 24     ecut=    60.00 Ry     beta= 0.20
     Davidson diagonalization with overlap
     ethr =  3.75E-07,  avg # of iterations =  1.1

     negative rho (up, down):  5.511E-06 4.910E-06

     total cpu time spent up to now is    11194.4 secs

     total energy              =   -7077.45988494 Ry
     estimated scf accuracy    <       0.00070859 Ry

     total magnetization       =     9.78 Bohr mag/cell
     absolute magnetization    =    10.65 Bohr mag/cell

     iteration # 25     ecut=    60.00 Ry     beta= 0.20
     Davidson diagonalization with overlap
     ethr =  2.94E-07,  avg # of iterations =  1.4

     negative rho (up, down):  9.904E-05 9.426E-05

     total cpu time spent up to now is    11642.1 secs

     total energy              =   -7077.45982444 Ry
     estimated scf accuracy    <       0.00107460 Ry

     total magnetization       =     9.80 Bohr mag/cell
     absolute magnetization    =    10.68 Bohr mag/cell

     iteration # 26     ecut=    60.00 Ry     beta= 0.20
     Davidson diagonalization with overlap
     ethr =  2.94E-07,  avg # of iterations =  1.1

     negative rho (up, down):  1.588E-05 1.394E-05

     total cpu time spent up to now is    12074.4 secs

     total energy              =   -7077.45985610 Ry
     estimated scf accuracy    <       0.00111961 Ry

     total magnetization       =     9.82 Bohr mag/cell
     absolute magnetization    =    10.70 Bohr mag/cell

     iteration # 27     ecut=    60.00 Ry     beta= 0.20
     Davidson diagonalization with overlap
     ethr =  2.94E-07,  avg # of iterations =  1.0

     negative rho (up, down):  9.802E-05 9.239E-05

     total cpu time spent up to now is    12502.9 secs

     total energy              =   -7077.45979208 Ry
     estimated scf accuracy    <       0.00096466 Ry

     total magnetization       =     9.83 Bohr mag/cell
     absolute magnetization    =    10.70 Bohr mag/cell

     iteration # 28     ecut=    60.00 Ry     beta= 0.20
     Davidson diagonalization with overlap
     ethr =  2.94E-07,  avg # of iterations =  1.0

     negative rho (up, down):  6.748E-05 6.259E-05

     total cpu time spent up to now is    12931.4 secs

     total energy              =   -7077.45982242 Ry
     estimated scf accuracy    <       0.00117426 Ry

     total magnetization       =     9.83 Bohr mag/cell
     absolute magnetization    =    10.70 Bohr mag/cell

     iteration # 29     ecut=    60.00 Ry     beta= 0.20
     Davidson diagonalization with overlap
     ethr =  2.94E-07,  avg # of iterations =  1.0

     negative rho (up, down):  4.484E-06 4.143E-06

     total cpu time spent up to now is    13363.4 secs

     total energy              =   -7077.45985865 Ry
     estimated scf accuracy    <       0.00087121 Ry

     total magnetization       =     9.80 Bohr mag/cell
     absolute magnetization    =    10.68 Bohr mag/cell

     iteration # 30     ecut=    60.00 Ry     beta= 0.20
     Davidson diagonalization with overlap
     ethr =  2.94E-07,  avg # of iterations =  1.0

     negative rho (up, down):  1.474E-04 1.420E-04

     total cpu time spent up to now is    13799.4 secs

     total energy              =   -7077.45978586 Ry
     estimated scf accuracy    <       0.00034172 Ry

     total magnetization       =     9.79 Bohr mag/cell
     absolute magnetization    =    10.67 Bohr mag/cell

     iteration # 31     ecut=    60.00 Ry     beta= 0.20
     Davidson diagonalization with overlap
     ethr =  1.42E-07,  avg # of iterations =  2.1

     negative rho (up, down):  4.496E-04 4.422E-04

     total cpu time spent up to now is    14275.1 secs

     total energy              =   -7077.45976833 Ry
     estimated scf accuracy    <       0.00032159 Ry

     total magnetization       =     9.79 Bohr mag/cell
     absolute magnetization    =    10.67 Bohr mag/cell

     iteration # 32     ecut=    60.00 Ry     beta= 0.20
     Davidson diagonalization with overlap
     ethr =  1.33E-07,  avg # of iterations =  1.6

     negative rho (up, down):  2.755E-04 2.606E-04

     total cpu time spent up to now is    14731.5 secs

     total energy              =   -7077.45979125 Ry
     estimated scf accuracy    <       0.00004457 Ry

     total magnetization       =     9.80 Bohr mag/cell
     absolute magnetization    =    10.67 Bohr mag/cell

     iteration # 33     ecut=    60.00 Ry     beta= 0.20
     Davidson diagonalization with overlap
     c_bands:  1 eigenvalues not converged
     ethr =  1.85E-08,  avg # of iterations =  4.9

     negative rho (up, down):  3.102E-04 2.956E-04

     total cpu time spent up to now is    15254.6 secs

     total energy              =   -7077.45979877 Ry
     estimated scf accuracy    <       0.00002363 Ry

     total magnetization       =     9.80 Bohr mag/cell
     absolute magnetization    =    10.67 Bohr mag/cell

     iteration # 34     ecut=    60.00 Ry     beta= 0.20
     Davidson diagonalization with overlap
     ethr =  9.80E-09,  avg # of iterations =  1.8

     negative rho (up, down):  2.788E-04 2.587E-04

     total cpu time spent up to now is    15692.6 secs

     total energy              =   -7077.45980258 Ry
     estimated scf accuracy    <       0.00001474 Ry

     total magnetization       =     9.80 Bohr mag/cell
     absolute magnetization    =    10.67 Bohr mag/cell

     iteration # 35     ecut=    60.00 Ry     beta= 0.20
     Davidson diagonalization with overlap
     ethr =  6.12E-09,  avg # of iterations =  2.0

     negative rho (up, down):  2.390E-04 2.197E-04

     total cpu time spent up to now is    16143.0 secs

     total energy              =   -7077.45980473 Ry
     estimated scf accuracy    <       0.00000679 Ry

     total magnetization       =     9.80 Bohr mag/cell
     absolute magnetization    =    10.68 Bohr mag/cell

     iteration # 36     ecut=    60.00 Ry     beta= 0.20
     Davidson diagonalization with overlap
     ethr =  2.82E-09,  avg # of iterations =  2.8

     negative rho (up, down):  1.058E-04 7.520E-05

     total cpu time spent up to now is    16605.7 secs

     total energy              =   -7077.45980486 Ry
     estimated scf accuracy    <       0.00000756 Ry

     total magnetization       =     9.80 Bohr mag/cell
     absolute magnetization    =    10.67 Bohr mag/cell

     iteration # 37     ecut=    60.00 Ry     beta= 0.20
     Davidson diagonalization with overlap
     ethr =  2.82E-09,  avg # of iterations =  1.2

     negative rho (up, down):  1.015E-04 7.327E-05

     total cpu time spent up to now is    17038.6 secs

     total energy              =   -7077.45980513 Ry
     estimated scf accuracy    <       0.00000499 Ry

     total magnetization       =     9.80 Bohr mag/cell
     absolute magnetization    =    10.67 Bohr mag/cell

     iteration # 38     ecut=    60.00 Ry     beta= 0.20
     Davidson diagonalization with overlap
     ethr =  2.07E-09,  avg # of iterations =  1.4

     negative rho (up, down):  1.243E-04 9.145E-05

     total cpu time spent up to now is    17473.4 secs

     total energy              =   -7077.45980558 Ry
     estimated scf accuracy    <       0.00000239 Ry

     total magnetization       =     9.79 Bohr mag/cell
     absolute magnetization    =    10.67 Bohr mag/cell

     iteration # 39     ecut=    60.00 Ry     beta= 0.20
     Davidson diagonalization with overlap
     ethr =  9.90E-10,  avg # of iterations =  1.4

     negative rho (up, down):  1.448E-04 1.103E-04

     total cpu time spent up to now is    17914.6 secs

     total energy              =   -7077.45980585 Ry
     estimated scf accuracy    <       0.00000099 Ry

     total magnetization       =     9.79 Bohr mag/cell
     absolute magnetization    =    10.66 Bohr mag/cell

     iteration # 40     ecut=    60.00 Ry     beta= 0.20
     Davidson diagonalization with overlap
     ethr =  4.12E-10,  avg # of iterations =  2.8

     negative rho (up, down):  1.799E-04 1.466E-04

     total cpu time spent up to now is    18382.2 secs

     total energy              =   -7077.45980609 Ry
     estimated scf accuracy    <       0.00000137 Ry

     total magnetization       =     9.79 Bohr mag/cell
     absolute magnetization    =    10.66 Bohr mag/cell

     iteration # 41     ecut=    60.00 Ry     beta= 0.20
     Davidson diagonalization with overlap
     ethr =  4.12E-10,  avg # of iterations =  1.5

     negative rho (up, down):  1.891E-04 1.552E-04

     total cpu time spent up to now is    18829.6 secs

     total energy              =   -7077.45980613 Ry
     estimated scf accuracy    <       0.00000071 Ry

     total magnetization       =     9.79 Bohr mag/cell
     absolute magnetization    =    10.66 Bohr mag/cell

     iteration # 42     ecut=    60.00 Ry     beta= 0.20
     Davidson diagonalization with overlap
     ethr =  2.95E-10,  avg # of iterations =  1.2

     negative rho (up, down):  1.909E-04 1.563E-04

     total cpu time spent up to now is    19258.1 secs

     total energy              =   -7077.45980623 Ry
     estimated scf accuracy    <       0.00000019 Ry

     total magnetization       =     9.79 Bohr mag/cell
     absolute magnetization    =    10.66 Bohr mag/cell

     iteration # 43     ecut=    60.00 Ry     beta= 0.20
     Davidson diagonalization with overlap
     ethr =  8.05E-11,  avg # of iterations =  2.9

     negative rho (up, down):  1.954E-04 1.606E-04

     total cpu time spent up to now is    19722.5 secs

     total energy              =   -7077.45980630 Ry
     estimated scf accuracy    <       0.00000017 Ry

     total magnetization       =     9.79 Bohr mag/cell
     absolute magnetization    =    10.66 Bohr mag/cell

     iteration # 44     ecut=    60.00 Ry     beta= 0.20
     Davidson diagonalization with overlap
     ethr =  7.11E-11,  avg # of iterations =  1.3

     negative rho (up, down):  1.849E-04 1.501E-04

     total cpu time spent up to now is    20163.1 secs

     total energy              =   -7077.45980629 Ry
     estimated scf accuracy    <       0.00000008 Ry

     total magnetization       =     9.78 Bohr mag/cell
     absolute magnetization    =    10.65 Bohr mag/cell

     iteration # 45     ecut=    60.00 Ry     beta= 0.20
     Davidson diagonalization with overlap
     ethr =  3.23E-11,  avg # of iterations =  2.6

     negative rho (up, down):  1.712E-04 1.358E-04

     total cpu time spent up to now is    20658.8 secs

     total energy              =   -7077.45980627 Ry
     estimated scf accuracy    <       0.00000021 Ry

     total magnetization       =     9.78 Bohr mag/cell
     absolute magnetization    =    10.65 Bohr mag/cell

     iteration # 46     ecut=    60.00 Ry     beta= 0.20
     Davidson diagonalization with overlap
     ethr =  3.23E-11,  avg # of iterations =  1.9

     negative rho (up, down):  1.706E-04 1.352E-04

     total cpu time spent up to now is    21126.7 secs

     total energy              =   -7077.45980627 Ry
     estimated scf accuracy    <       0.00000003 Ry

     total magnetization       =     9.78 Bohr mag/cell
     absolute magnetization    =    10.65 Bohr mag/cell

     iteration # 47     ecut=    60.00 Ry     beta= 0.20
     Davidson diagonalization with overlap
     ethr =  1.19E-11,  avg # of iterations =  2.0

     negative rho (up, down):  1.654E-04 1.301E-04

     total cpu time spent up to now is    21590.6 secs

     total energy              =   -7077.45980627 Ry
     estimated scf accuracy    <       0.00000002 Ry

     total magnetization       =     9.78 Bohr mag/cell
     absolute magnetization    =    10.65 Bohr mag/cell

     iteration # 48     ecut=    60.00 Ry     beta= 0.20
     Davidson diagonalization with overlap
     ethr =  7.51E-12,  avg # of iterations =  1.7

     negative rho (up, down):  1.605E-04 1.253E-04

     total cpu time spent up to now is    22043.1 secs

     total energy              =   -7077.45980626 Ry
     estimated scf accuracy    <       0.00000001 Ry

     total magnetization       =     9.78 Bohr mag/cell
     absolute magnetization    =    10.65 Bohr mag/cell

     iteration # 49     ecut=    60.00 Ry     beta= 0.20
     Davidson diagonalization with overlap
     ethr =  4.68E-12,  avg # of iterations =  2.6

     negative rho (up, down):  1.555E-04 1.203E-04

     total cpu time spent up to now is    22575.6 secs

     total energy              =   -7077.45980626 Ry
     estimated scf accuracy    <       0.00000002 Ry

     total magnetization       =     9.78 Bohr mag/cell
     absolute magnetization    =    10.65 Bohr mag/cell

     iteration # 50     ecut=    60.00 Ry     beta= 0.20
     Davidson diagonalization with overlap
     ethr =  4.68E-12,  avg # of iterations =  1.9

     negative rho (up, down):  1.550E-04 1.198E-04

     total cpu time spent up to now is    23043.1 secs

     total energy              =   -7077.45980626 Ry
     estimated scf accuracy    <          9.2E-09 Ry

     total magnetization       =     9.78 Bohr mag/cell
     absolute magnetization    =    10.65 Bohr mag/cell

     iteration # 51     ecut=    60.00 Ry     beta= 0.20
     Davidson diagonalization with overlap
     ethr =  3.80E-12,  avg # of iterations =  1.1

     negative rho (up, down):  1.536E-04 1.184E-04

     total cpu time spent up to now is    23468.0 secs

     total energy              =   -7077.45980625 Ry
     estimated scf accuracy    <          7.1E-09 Ry

     total magnetization       =     9.78 Bohr mag/cell
     absolute magnetization    =    10.65 Bohr mag/cell

     iteration # 52     ecut=    60.00 Ry     beta= 0.20
     Davidson diagonalization with overlap
     ethr =  2.95E-12,  avg # of iterations =  1.2

     negative rho (up, down):  1.528E-04 1.176E-04

     total cpu time spent up to now is    23901.2 secs

     total energy              =   -7077.45980625 Ry
     estimated scf accuracy    <          2.4E-09 Ry

     total magnetization       =     9.78 Bohr mag/cell
     absolute magnetization    =    10.65 Bohr mag/cell

     iteration # 53     ecut=    60.00 Ry     beta= 0.20
     Davidson diagonalization with overlap
     ethr =  9.94E-13,  avg # of iterations =  2.0

     negative rho (up, down):  1.531E-04 1.179E-04

     total cpu time spent up to now is    24363.8 secs

     total energy              =   -7077.45980626 Ry
     estimated scf accuracy    <          1.3E-09 Ry

     total magnetization       =     9.78 Bohr mag/cell
     absolute magnetization    =    10.65 Bohr mag/cell

     iteration # 54     ecut=    60.00 Ry     beta= 0.20
     Davidson diagonalization with overlap
     ethr =  5.29E-13,  avg # of iterations =  2.4

     negative rho (up, down):  1.530E-04 1.177E-04

     total cpu time spent up to now is    24837.8 secs

     total energy              =   -7077.45980626 Ry
     estimated scf accuracy    <          1.4E-09 Ry

     total magnetization       =     9.78 Bohr mag/cell
     absolute magnetization    =    10.65 Bohr mag/cell

     iteration # 55     ecut=    60.00 Ry     beta= 0.20
     Davidson diagonalization with overlap
     ethr =  5.29E-13,  avg # of iterations =  1.2

     negative rho (up, down):  1.535E-04 1.183E-04

     total cpu time spent up to now is    25272.4 secs

     total energy              =   -7077.45980626 Ry
     estimated scf accuracy    <          5.6E-10 Ry

     total magnetization       =     9.78 Bohr mag/cell
     absolute magnetization    =    10.65 Bohr mag/cell

     iteration # 56     ecut=    60.00 Ry     beta= 0.20
     Davidson diagonalization with overlap
     ethr =  2.33E-13,  avg # of iterations =  2.2

     negative rho (up, down):  1.535E-04 1.183E-04

     total cpu time spent up to now is    25743.1 secs

     total energy              =   -7077.45980626 Ry
     estimated scf accuracy    <          7.9E-10 Ry

     total magnetization       =     9.78 Bohr mag/cell
     absolute magnetization    =    10.65 Bohr mag/cell

     iteration # 57     ecut=    60.00 Ry     beta= 0.20
     Davidson diagonalization with overlap
     ethr =  2.33E-13,  avg # of iterations =  1.0

     negative rho (up, down):  1.536E-04 1.184E-04

     total cpu time spent up to now is    26171.7 secs

     total energy              =   -7077.45980626 Ry
     estimated scf accuracy    <          7.3E-10 Ry

     total magnetization       =     9.78 Bohr mag/cell
     absolute magnetization    =    10.65 Bohr mag/cell

     iteration # 58     ecut=    60.00 Ry     beta= 0.20
     Davidson diagonalization with overlap
     ethr =  2.33E-13,  avg # of iterations =  1.1

     negative rho (up, down):  1.533E-04 1.181E-04

     total cpu time spent up to now is    26601.4 secs

     total energy              =   -7077.45980626 Ry
     estimated scf accuracy    <          5.9E-10 Ry

     total magnetization       =     9.78 Bohr mag/cell
     absolute magnetization    =    10.65 Bohr mag/cell

     iteration # 59     ecut=    60.00 Ry     beta= 0.20
     Davidson diagonalization with overlap
     ethr =  2.33E-13,  avg # of iterations =  1.0

     negative rho (up, down):  1.540E-04 1.188E-04

     total cpu time spent up to now is    27034.0 secs

     total energy              =   -7077.45980626 Ry
     estimated scf accuracy    <          3.9E-10 Ry

     total magnetization       =     9.78 Bohr mag/cell
     absolute magnetization    =    10.65 Bohr mag/cell

     iteration # 60     ecut=    60.00 Ry     beta= 0.20
     Davidson diagonalization with overlap
     ethr =  1.63E-13,  avg # of iterations =  1.3

     negative rho (up, down):  1.541E-04 1.189E-04

     total cpu time spent up to now is    27487.7 secs

     total energy              =   -7077.45980626 Ry
     estimated scf accuracy    <          1.5E-10 Ry

     total magnetization       =     9.78 Bohr mag/cell
     absolute magnetization    =    10.65 Bohr mag/cell

     iteration # 61     ecut=    60.00 Ry     beta= 0.20
     Davidson diagonalization with overlap
     ethr =  1.00E-13,  avg # of iterations =  1.0

     negative rho (up, down):  1.548E-04 1.196E-04

     total cpu time spent up to now is    27917.6 secs

     total energy              =   -7077.45980626 Ry
     estimated scf accuracy    <          1.2E-10 Ry

     total magnetization       =     9.78 Bohr mag/cell
     absolute magnetization    =    10.65 Bohr mag/cell

     iteration # 62     ecut=    60.00 Ry     beta= 0.20
     Davidson diagonalization with overlap
     ethr =  1.00E-13,  avg # of iterations =  1.4

     negative rho (up, down):  1.553E-04 1.201E-04
 
     Magnetic moment per site  (integrated on atomic sphere of radius R)
     atom   1 (R=0.133)  charge=  6.8970  magn=  0.8656
     atom   2 (R=0.141)  charge=  5.6531  magn=  0.2030
     atom   3 (R=0.141)  charge=  5.6532  magn=  0.1980
     atom   4 (R=0.141)  charge=  5.6532  magn=  0.1980
     atom   5 (R=0.133)  charge=  6.8904  magn=  0.8455
     atom   6 (R=0.141)  charge=  5.6394  magn=  0.2542
     atom   7 (R=0.141)  charge=  5.6394  magn=  0.2581
     atom   8 (R=0.141)  charge=  5.6394  magn=  0.2542
     atom   9 (R=0.133)  charge=  6.8924  magn=  0.8015
     atom  10 (R=0.141)  charge=  5.6362  magn=  0.2440
     atom  11 (R=0.141)  charge=  5.6361  magn=  0.2507
     atom  12 (R=0.141)  charge=  5.6361  magn=  0.2507
     atom  13 (R=0.133)  charge=  6.8919  magn=  0.8068
     atom  14 (R=0.141)  charge=  5.6363  magn=  0.2433
     atom  15 (R=0.141)  charge=  5.6363  magn=  0.2374
     atom  16 (R=0.141)  charge=  5.6363  magn=  0.2433
     atom  17 (R=0.133)  charge=  6.8912  magn=  0.8372
     atom  18 (R=0.141)  charge=  5.6393  magn=  0.2358
     atom  19 (R=0.141)  charge=  5.6400  magn=  0.2387
     atom  20 (R=0.141)  charge=  5.6393  magn=  0.2358
     atom  21 (R=0.133)  charge=  6.9027  magn=  0.6620
     atom  22 (R=0.141)  charge=  5.6557  magn=  0.1794
     atom  23 (R=0.141)  charge=  5.6512  magn=  0.1285
     atom  24 (R=0.141)  charge=  5.6512  magn=  0.1285
     atom  25 (R=0.133)  charge=  0.9026  magn= -0.0063

     total cpu time spent up to now is    28350.5 secs

     End of self-consistent calculation

     Number of k-points >= 100: set verbosity='high' to print the bands.

     the Fermi energy is    -5.1568 ev

!    total energy              =   -7077.45980626 Ry
     total all-electron energy =   -199909.896377 Ry
     estimated scf accuracy    <          2.0E-11 Ry
     smearing contrib. (-TS)   =       0.00068149 Ry
     internal energy E=F+TS    =   -7077.46048775 Ry

     The total energy is F=E-TS. E is the sum of the following terms:
     one-electron contribution =  -61219.20917795 Ry
     hartree contribution      =   30797.11358934 Ry
     xc contribution           =    -835.55449683 Ry
     ewald contribution        =   29314.35075719 Ry
     DFT-D3 Dispersion         =      -2.53239113 Ry
     one-center paw contrib.   =   -5131.62876837 Ry

     total magnetization       =     9.78 Bohr mag/cell
     absolute magnetization    =    10.65 Bohr mag/cell

     convergence has been achieved in  62 iterations

     negative rho (up, down):  1.553E-04 1.201E-04

     Forces acting on atoms (cartesian axes, Ry/au):

     atom    1 type  1   force =    -0.00000003   -0.00020498    0.01599049
     atom    2 type  2   force =    -0.00000001   -0.01435607   -0.00910058
     atom    3 type  2   force =    -0.01225226    0.00710395   -0.00929762
     atom    4 type  2   force =     0.01225230    0.00710395   -0.00929835
     atom    5 type  1   force =    -0.00000005    0.00001676    0.00074477
     atom    6 type  2   force =    -0.00054779    0.00045178    0.00530906
     atom    7 type  2   force =     0.00000006   -0.00044207    0.00412652
     atom    8 type  2   force =     0.00054779    0.00045173    0.00530915
     atom    9 type  1   force =    -0.00000001    0.00006543   -0.00061725
     atom   10 type  2   force =     0.00000001    0.00030615   -0.00052053
     atom   11 type  2   force =     0.00015430   -0.00013929   -0.00036454
     atom   12 type  2   force =    -0.00015429   -0.00013930   -0.00036457
     atom   13 type  1   force =     0.00000000    0.00021863   -0.00027163
     atom   14 type  2   force =     0.00010384    0.00006798    0.00024093
     atom   15 type  2   force =     0.00000002   -0.00034121   -0.00030046
     atom   16 type  2   force =    -0.00010388    0.00006795    0.00024094
     atom   17 type  1   force =     0.00000001   -0.00005220   -0.00027121
     atom   18 type  2   force =    -0.00005317    0.00034950   -0.00044726
     atom   19 type  2   force =    -0.00000000    0.00030828    0.00055529
     atom   20 type  2   force =     0.00005316    0.00034950   -0.00044725
     atom   21 type  1   force =    -0.00000001   -0.00016537   -0.00014543
     atom   22 type  2   force =     0.00000003   -0.00001287   -0.00005646
     atom   23 type  2   force =     0.00003718   -0.00043840   -0.00048755
     atom   24 type  2   force =    -0.00003722   -0.00043841   -0.00048766
     atom   25 type  3   force =    -0.00000000   -0.00013140   -0.00003881

     Total force =     0.001908     Total SCF correction =     0.000007


     Computing stress (Cartesian axis) and pressure


     negative rho (up, down):  1.553E-04 1.201E-04
          total   stress  (Ry/bohr**3)                   (kbar)     P=       -7.19
  -0.00007297   0.00000000   0.00000000          -10.73        0.00        0.00
   0.00000000  -0.00007707  -0.00000150            0.00      -11.34       -0.22
   0.00000000  -0.00000150   0.00000343            0.00       -0.22        0.50


     Writing all to output data dir /tmpu/isholek_g/isholek/MIGUEL/QE/Hydrogen/111_2x2/SAVE/Ni1Pd3_111-H_fcc_2.save/ :
     XML data file, charge density, pseudopotentials, collected wavefunctions
 
     init_run     :    227.55s CPU    232.27s WALL (       1 calls)
     electrons    :  26078.54s CPU  28117.53s WALL (       1 calls)
     forces       :     62.67s CPU     64.12s WALL (       1 calls)
     force_dftd3  :      0.43s CPU      0.43s WALL (       1 calls)
     stress       :    608.76s CPU    616.92s WALL (       1 calls)
     stres_dftd3  :      0.68s CPU      0.68s WALL (       1 calls)

     Called by init_run:
     wfcinit      :    142.21s CPU    146.60s WALL (       1 calls)
     potinit      :      1.59s CPU      1.66s WALL (       1 calls)
     hinit0       :      0.64s CPU      0.67s WALL (       1 calls)

     Called by electrons:
     c_bands      :  20919.57s CPU  22606.65s WALL (      62 calls)
     sum_band     :   4967.49s CPU   5301.15s WALL (      62 calls)
     v_of_rho     :     47.46s CPU     52.56s WALL (      63 calls)
     newd         :     14.05s CPU     16.04s WALL (      63 calls)
     PAW_pot      :     23.01s CPU     24.11s WALL (      63 calls)
     mix_rho      :    100.19s CPU    109.23s WALL (      62 calls)
     energy_dftd3 :      0.07s CPU      0.07s WALL (       1 calls)

     Called by c_bands:
     init_us_2    :    148.84s CPU    166.95s WALL (    8128 calls)
     init_us_2:cp :    148.72s CPU    166.85s WALL (    8128 calls)
     cegterg      :  19191.42s CPU  20770.48s WALL (    3968 calls)

     Called by *egterg:
     cdiaghg      :    393.21s CPU    424.15s WALL (   12025 calls)
     h_psi        :  13377.68s CPU  14541.89s WALL (   12089 calls)
     s_psi        :   1120.98s CPU   1194.25s WALL (   12089 calls)
     g_psi        :     36.25s CPU     39.56s WALL (    8057 calls)

     Called by h_psi:
     h_psi:calbec :   1596.00s CPU   1706.30s WALL (   12089 calls)
     vloc_psi     :  10605.09s CPU  11528.30s WALL (   12089 calls)
     add_vuspsi   :   1137.01s CPU   1229.83s WALL (   12089 calls)

     General routines
     calbec       :   2356.87s CPU   2512.36s WALL (   16377 calls)
     fft          :     35.74s CPU     39.82s WALL (    1613 calls)
     ffts         :     30.54s CPU     33.70s WALL (    7753 calls)
     fftw         :  10272.40s CPU  10943.66s WALL ( 2947172 calls)
     interpolate  :      2.92s CPU      3.30s WALL (     126 calls)
 
     Parallel routines
 
     PWSCF        :      7h29m CPU      8h 4m WALL

 
   This run was terminated on:   2:24:50   2Apr2026            

=------------------------------------------------------------------------------=
   JOB DONE.
=------------------------------------------------------------------------------=
