
     Program PWSCF v.7.3 starts on 25Mar2026 at  1:20:36 

     This program is part of the open-source Quantum ESPRESSO suite
     for quantum simulation of materials; please cite
         "P. Giannozzi et al., J. Phys.:Condens. Matter 21 395502 (2009);
         "P. Giannozzi et al., J. Phys.:Condens. Matter 29 465901 (2017);
         "P. Giannozzi et al., J. Chem. Phys. 152 154105 (2020);
          URL http://www.quantum-espresso.org", 
     in publications or presentations arising from this work. More details at
     http://www.quantum-espresso.org/quote

     Parallel version (MPI), running on    64 processors

     MPI processes distributed on     4 nodes
     245450 MiB available memory on the printing compute node when the environment starts
 
     Reading input from /tmpu/isholek_g/isholek/MIGUEL/QE/Hydrogen/111_2x2/SCF/Ni2Pd2_111-H_fcc_2-SCF.in

     Current dimensions of program PWSCF are:
     Max number of different atomic species (ntypx) = 10
     Max number of k-points (npk) =  40000
     Max angular momentum in pseudopotentials (lmaxx) =  4
     file Ni.upf: wavefunction(s)  4S 3D renormalized
     file Pd.upf: wavefunction(s)  5S 4D renormalized
     file H.upf: wavefunction(s)  1S renormalized

     IMPORTANT: XC functional enforced from input :
     Exchange-correlation= PBE
                           (   1   4   3   4   0   0   0)
     Any further DFT definition will be discarded
     Please, verify this is what you really want

 
     K-points division:     npool     =       8
     R & G space division:  proc/nbgrp/npool/nimage =       8
     Subspace diagonalization in iterative solution of the eigenvalue problem:
     one sub-group per band group will be used
     scalapack distributed-memory algorithm (size of sub-group:  2*  2 procs)

 
     Parallelization info
     --------------------
     sticks:   dense  smooth     PW     G-vecs:    dense   smooth      PW
     Min         395     197     56               113792    40212    6278
     Max         396     199     57               113804    40221    6305
     Sum        3165    1581    455               910393   321727   50373
 
     Using Slab Decomposition
 

     Title: 
     Ni2Pd2_111-H_fcc_2-SCF                                                     


     bravais-lattice index     =            0
     lattice parameter (alat)  =       9.7088  a.u.
     unit-cell volume          =    5128.0588 (a.u.)^3
     number of atoms/cell      =           25
     number of atomic types    =            3
     number of electrons       =       241.00
     number of Kohn-Sham states=          145
     kinetic-energy cutoff     =      60.0000  Ry
     charge density cutoff     =     480.0000  Ry
     scf convergence threshold =      1.0E-10
     mixing beta               =       0.2000
     number of iterations used =           12  local-TF  mixing
     Exchange-correlation= PBE
                           (   1   4   3   4   0   0   0)

     celldm(1)=   9.708762  celldm(2)=   0.000000  celldm(3)=   0.000000
     celldm(4)=   0.000000  celldm(5)=   0.000000  celldm(6)=   0.000000

     crystal axes: (cart. coord. in units of alat)
               a(1) = (   1.000000   0.000000   0.000000 )  
               a(2) = (   0.531889   0.883670   0.000000 )  
               a(3) = (   0.000000   0.000000   6.341200 )  

     reciprocal axes: (cart. coord. in units 2 pi/alat)
               b(1) = (  1.000000 -0.601910  0.000000 )  
               b(2) = (  0.000000  1.131644  0.000000 )  
               b(3) = (  0.000000  0.000000  0.157699 )  


     PseudoPot. # 1 for Ni read from file:
     /tmpu/isholek_g/isholek/MIGUEL/PP/PAW/Ni.upf
     MD5 check sum: d88365a95a5e142bd87181c2c8b16588
     Pseudo is Projector augmented-wave + core cor, Zval = 10.0
     Generated using "atomic" code by A. Dal Corso  v.5.0.2 svn rev. 9415
     Shape of augmentation charge: PSQ
     Using radial grid of 1195 points,  6 beta functions with: 
                l(1) =   0
                l(2) =   0
                l(3) =   1
                l(4) =   1
                l(5) =   2
                l(6) =   2
     Q(r) pseudized with 0 coefficients 


     PseudoPot. # 2 for Pd read from file:
     /tmpu/isholek_g/isholek/MIGUEL/PP/PAW/Pd.upf
     MD5 check sum: e9d6f14fd83b79f8105499163af174c9
     Pseudo is Projector augmented-wave + core cor, Zval = 10.0
     Generated using "atomic" code by A. Dal Corso  v.5.0.2 svn rev. 9415
     Shape of augmentation charge: PSQ
     Using radial grid of 1235 points,  6 beta functions with: 
                l(1) =   0
                l(2) =   0
                l(3) =   1
                l(4) =   1
                l(5) =   2
                l(6) =   2
     Q(r) pseudized with 0 coefficients 


     PseudoPot. # 3 for H  read from file:
     /tmpu/isholek_g/isholek/MIGUEL/PP/PAW/H.upf
     MD5 check sum: 4cbe42a24e15140179a93d5bf84f2220
     Pseudo is Projector augmented-wave, Zval =  1.0
     Generated using "atomic" code by A. Dal Corso  v.5.0.2 svn rev. 9415
     Shape of augmentation charge: PSQ
     Using radial grid of  929 points,  2 beta functions with: 
                l(1) =   0
                l(2) =   0
     Q(r) pseudized with 0 coefficients 


     atomic species   valence    mass     pseudopotential
     Ni               10.00    58.69340     Ni( 1.00)
     Pd               10.00   106.42000     Pd( 1.00)
     H                 1.00     1.00794     H ( 1.00)

     Starting magnetic structure 
     atomic species   magnetization
     Ni              0.650
     Pd              0.100
     H               0.000

     No symmetry found



   Cartesian axes

     site n.     atom                  positions (alat units)
         1        Ni     tau(   1) = (   0.0000000   0.0000000   2.1410544  )
         2        Pd     tau(   2) = (   0.7659447   0.4418349   2.1410544  )
         3        Pd     tau(   3) = (   0.5000000   0.0000000   2.1410544  )
         4        Ni     tau(   4) = (   0.2659447   0.4418349   2.1410544  )
         5        Pd     tau(   5) = (   0.2340553   0.1600746   2.5528726  )
         6        Pd     tau(   6) = (   0.5000000   0.6019096   2.5528726  )
         7        Ni     tau(   7) = (   0.7340553   0.1600746   2.5528726  )
         8        Ni     tau(   8) = (   1.0000000   0.6019096   2.5528726  )
         9        Ni     tau(   9) = (   0.4672427   0.3204485   2.9655400  )
        10        Ni     tau(  10) = (   0.7333846   0.7626111   2.9655399  )
        11        Pd     tau(  11) = (   0.9668195   0.3209266   2.9632198  )
        12        Pd     tau(  12) = (   1.2331934   0.7625029   2.9633849  )
        13        Ni     tau(  13) = (   0.9388815   0.0372399   3.3737000  )
        14        Pd     tau(  14) = (   0.7045094   0.4788133   3.3782826  )
        15        Pd     tau(  15) = (   0.4395369   0.0363934   3.3797284  )
        16        Ni     tau(  16) = (   1.2044265   0.4784112   3.3737002  )
        17        Ni     tau(  17) = (   0.9343518   0.6397397   3.7912519  )
        18        Pd     tau(  18) = (   0.1685044   0.1995305   3.7860769  )
        19        Pd     tau(  19) = (   0.4311958   0.6433234   3.7840621  )
        20        Ni     tau(  20) = (   0.6698953   0.2003772   3.7912517  )
        21        Pd     tau(  21) = (   0.9027513   0.3594896   4.2052237  )
        22        Ni     tau(  22) = (   0.6710696   0.7982806   4.1957388  )
        23        Ni     tau(  23) = (   0.4065522   0.3588171   4.1957389  )
        24        Pd     tau(  24) = (   1.1620402   0.8053308   4.2114046  )
        25        H      tau(  25) = (   0.4381581   0.6391328   4.3714626  )

     --------------------------------------------
     DFT-D3 Dispersion Correction (3-body terms):
     --------------------------------------------
       Reference C6 values for interpolation: 

         atom   Coordination number   C6
         H          0.912             6.05
         H          0.000            15.18
         Ni         0.000          1149.49
         Ni         1.794           356.66
         Ni         6.546           257.56
         Ni         6.292           283.75
         Pd         0.000          1217.01
         Pd         1.863           573.90
         Pd         5.710           531.75

       Values used:

         atom   Coordination number  R0_AB[au]  C6      C8
         Ni         6.134            3.162    273.94  22954.60
         Pd         7.162            3.168    531.75  48720.73
         Pd         7.162            3.168    531.75  48720.73
         Ni         6.134            3.162    273.94  22954.60
         Pd         9.614            3.168    531.75  48720.73
         Pd         9.613            3.168    531.75  48720.73
         Ni         8.210            3.162    258.19  21634.49
         Ni         8.210            3.162    258.19  21634.49
         Ni         8.207            3.162    258.19  21634.84
         Ni         8.207            3.162    258.19  21634.84
         Pd         9.647            3.168    531.75  48720.73
         Pd         9.641            3.168    531.75  48720.73
         Ni         8.222            3.162    258.18  21633.31
         Pd         9.615            3.168    531.75  48720.73
         Pd         9.605            3.168    531.75  48720.73
         Ni         8.222            3.162    258.18  21633.31
         Ni         8.174            3.162    258.24  21638.42
         Pd         9.596            3.168    531.75  48720.73
         Pd         9.551            3.168    531.75  48720.73
         Ni         8.174            3.162    258.24  21638.42
         Pd         7.107            3.168    531.75  48720.73
         Ni         6.770            3.162    265.79  22271.59
         Ni         6.770            3.162    265.79  22271.59
         Pd         7.505            3.168    531.75  48720.73
         H          1.732            2.062      6.05     73.18

         Molecular C6 ( Ry / a.u.^6 ) =    224006.59


     number of k points=   256  Marzari-Vanderbilt smearing, width (Ry)=  0.0147

     Number of k-points >= 100: set verbosity='high' to print them.

     Dense  grid:   910393 G-vectors     FFT dimensions: (  72,  72, 432)

     Smooth grid:   321727 G-vectors     FFT dimensions: (  48,  50, 320)

     Estimated max dynamical RAM per process >     976.78 MB

     Estimated total dynamical RAM >      56.49 GB
 ----2D----2D----2D----2D----2D----2D----2D----2D----2D----2D----2D----2D
  The code is running with the 2D cutoff
  Please refer to:
  Sohier, T., Calandra, M., & Mauri, F. (2017), 
  Density functional perturbation theory for gated two-dimensional heterostructu
 res:
  Theoretical developments and application to flexural phonons in graphene.
  Physical Review B, 96(7), 75448. https://doi.org/10.1103/PhysRevB.96.075448
 ----2D----2D----2D----2D----2D----2D----2D----2D----2D----2D----2D----2D

     Check: negative core charge=   -0.000002
     Generating pointlists ...
     new r_m :   0.1371 (alat units)  1.3310 (a.u.) for type    1
     new r_m :   0.1484 (alat units)  1.4411 (a.u.) for type    2
     new r_m :   0.1371 (alat units)  1.3310 (a.u.) for type    3

     Initial potential from superposition of free atoms

     starting charge     240.9907, renormalised to     241.0000

     negative rho (up, down):  2.601E-04 5.808E-05
     Starting wfcs are  217 randomized atomic wfcs
     Checking if some PAW data can be deallocated... 

     total cpu time spent up to now is      552.8 secs

     Self-consistent Calculation

     iteration #  1     ecut=    60.00 Ry     beta= 0.20
     Davidson diagonalization with overlap
     ethr =  1.00E-02,  avg # of iterations =  2.8

     negative rho (up, down):  1.098E-04 9.529E-06

     total cpu time spent up to now is     1707.9 secs

     total energy              =   -6201.80656461 Ry
     estimated scf accuracy    <      34.31971781 Ry

     total magnetization       =    19.46 Bohr mag/cell
     absolute magnetization    =    19.48 Bohr mag/cell

     iteration #  2     ecut=    60.00 Ry     beta= 0.20
     Davidson diagonalization with overlap
     ethr =  1.00E-02,  avg # of iterations =  1.0

     negative rho (up, down):  3.418E-05 3.453E-06

     total cpu time spent up to now is     2719.0 secs

     total energy              =   -6203.21850473 Ry
     estimated scf accuracy    <       8.66229384 Ry

     total magnetization       =    21.90 Bohr mag/cell
     absolute magnetization    =    21.92 Bohr mag/cell

     iteration #  3     ecut=    60.00 Ry     beta= 0.20
     Davidson diagonalization with overlap
     ethr =  3.59E-03,  avg # of iterations =  1.0

     negative rho (up, down):  2.262E-05 4.661E-06

     total cpu time spent up to now is     3721.1 secs

     total energy              =   -6203.82480005 Ry
     estimated scf accuracy    <       3.15934829 Ry

     total magnetization       =    20.80 Bohr mag/cell
     absolute magnetization    =    20.89 Bohr mag/cell

     iteration #  4     ecut=    60.00 Ry     beta= 0.20
     Davidson diagonalization with overlap
     ethr =  1.31E-03,  avg # of iterations =  1.0

     negative rho (up, down):  6.749E-07 4.607E-07

     total cpu time spent up to now is     4855.2 secs

     total energy              =   -6204.35878325 Ry
     estimated scf accuracy    <       2.49216490 Ry

     total magnetization       =    19.54 Bohr mag/cell
     absolute magnetization    =    19.78 Bohr mag/cell

     iteration #  5     ecut=    60.00 Ry     beta= 0.20
     Davidson diagonalization with overlap
     ethr =  1.03E-03,  avg # of iterations =  1.3

     negative rho (up, down):  1.335E-08 3.959E-07

     total cpu time spent up to now is     5879.7 secs

     total energy              =   -6204.66393127 Ry
     estimated scf accuracy    <       0.76170496 Ry

     total magnetization       =    16.46 Bohr mag/cell
     absolute magnetization    =    17.37 Bohr mag/cell

     iteration #  6     ecut=    60.00 Ry     beta= 0.20
     Davidson diagonalization with overlap
     ethr =  3.16E-04,  avg # of iterations =  2.5

     negative rho (up, down):  2.052E-08 4.840E-07

     total cpu time spent up to now is     6835.6 secs

     total energy              =   -6204.75416416 Ry
     estimated scf accuracy    <       0.62239018 Ry

     total magnetization       =    14.52 Bohr mag/cell
     absolute magnetization    =    15.91 Bohr mag/cell

     iteration #  7     ecut=    60.00 Ry     beta= 0.20
     Davidson diagonalization with overlap
     ethr =  2.58E-04,  avg # of iterations =  1.4

     negative rho (up, down):  8.792E-08 9.170E-07

     total cpu time spent up to now is     7824.2 secs

     total energy              =   -6204.75135230 Ry
     estimated scf accuracy    <       0.18405724 Ry

     total magnetization       =    13.77 Bohr mag/cell
     absolute magnetization    =    15.25 Bohr mag/cell

     iteration #  8     ecut=    60.00 Ry     beta= 0.20
     Davidson diagonalization with overlap
     ethr =  7.64E-05,  avg # of iterations =  5.3

     negative rho (up, down):  1.209E-07 7.601E-07

     total cpu time spent up to now is     8964.7 secs

     total energy              =   -6204.77170266 Ry
     estimated scf accuracy    <       0.11032863 Ry

     total magnetization       =    12.90 Bohr mag/cell
     absolute magnetization    =    14.46 Bohr mag/cell

     iteration #  9     ecut=    60.00 Ry     beta= 0.20
     Davidson diagonalization with overlap
     ethr =  4.58E-05,  avg # of iterations =  2.2

     negative rho (up, down):  8.300E-08 3.855E-07

     total cpu time spent up to now is    10099.5 secs

     total energy              =   -6204.77758561 Ry
     estimated scf accuracy    <       0.07114083 Ry

     total magnetization       =    12.82 Bohr mag/cell
     absolute magnetization    =    14.40 Bohr mag/cell

     iteration # 10     ecut=    60.00 Ry     beta= 0.20
     Davidson diagonalization with overlap
     ethr =  2.95E-05,  avg # of iterations =  2.6

     negative rho (up, down):  9.311E-08 3.006E-07

     total cpu time spent up to now is    11632.9 secs

     total energy              =   -6204.77996927 Ry
     estimated scf accuracy    <       0.09632921 Ry

     total magnetization       =    12.93 Bohr mag/cell
     absolute magnetization    =    14.47 Bohr mag/cell

     iteration # 11     ecut=    60.00 Ry     beta= 0.20
     Davidson diagonalization with overlap
     ethr =  2.95E-05,  avg # of iterations =  1.3

     negative rho (up, down):  2.359E-07 4.668E-07

     total cpu time spent up to now is    12922.6 secs

     total energy              =   -6204.77915430 Ry
     estimated scf accuracy    <       0.10612414 Ry

     total magnetization       =    12.93 Bohr mag/cell
     absolute magnetization    =    14.43 Bohr mag/cell

     iteration # 12     ecut=    60.00 Ry     beta= 0.20
     Davidson diagonalization with overlap
     ethr =  2.95E-05,  avg # of iterations =  1.4

     negative rho (up, down):  4.347E-07 6.722E-07

     total cpu time spent up to now is    14172.4 secs

     total energy              =   -6204.77848761 Ry
     estimated scf accuracy    <       0.09937313 Ry

     total magnetization       =    12.94 Bohr mag/cell
     absolute magnetization    =    14.32 Bohr mag/cell

     iteration # 13     ecut=    60.00 Ry     beta= 0.20
     Davidson diagonalization with overlap
     ethr =  2.95E-05,  avg # of iterations =  1.0

     negative rho (up, down):  3.724E-07 5.220E-07

     total cpu time spent up to now is    15358.5 secs

     total energy              =   -6204.77645018 Ry
     estimated scf accuracy    <       0.05916137 Ry

     total magnetization       =    13.06 Bohr mag/cell
     absolute magnetization    =    14.36 Bohr mag/cell

     iteration # 14     ecut=    60.00 Ry     beta= 0.20
     Davidson diagonalization with overlap
     ethr =  2.45E-05,  avg # of iterations =  1.2

     negative rho (up, down):  1.253E-07 1.684E-07

     total cpu time spent up to now is    16648.0 secs

     total energy              =   -6204.77393493 Ry
     estimated scf accuracy    <       0.04031433 Ry

     total magnetization       =    13.09 Bohr mag/cell
     absolute magnetization    =    14.36 Bohr mag/cell

     iteration # 15     ecut=    60.00 Ry     beta= 0.20
     Davidson diagonalization with overlap
     ethr =  1.67E-05,  avg # of iterations =  1.2

     negative rho (up, down):  4.639E-08 5.964E-08

     total cpu time spent up to now is    17880.6 secs

     total energy              =   -6204.77244104 Ry
     estimated scf accuracy    <       0.02073585 Ry

     total magnetization       =    13.07 Bohr mag/cell
     absolute magnetization    =    14.35 Bohr mag/cell

     iteration # 16     ecut=    60.00 Ry     beta= 0.20
     Davidson diagonalization with overlap
     ethr =  8.60E-06,  avg # of iterations =  3.8

     negative rho (up, down):  5.863E-05 4.873E-05

     total cpu time spent up to now is    19107.1 secs

     total energy              =   -6204.77200578 Ry
     estimated scf accuracy    <       0.00952125 Ry

     total magnetization       =    13.10 Bohr mag/cell
     absolute magnetization    =    14.41 Bohr mag/cell

     iteration # 17     ecut=    60.00 Ry     beta= 0.20
     Davidson diagonalization with overlap
     c_bands:  1 eigenvalues not converged
     c_bands:  1 eigenvalues not converged
     ethr =  3.95E-06,  avg # of iterations =  7.0

     negative rho (up, down):  4.476E-08 7.854E-09

     total cpu time spent up to now is    20420.7 secs

     total energy              =   -6204.77198218 Ry
     estimated scf accuracy    <       0.00522001 Ry

     total magnetization       =    13.12 Bohr mag/cell
     absolute magnetization    =    14.44 Bohr mag/cell

     iteration # 18     ecut=    60.00 Ry     beta= 0.20
     Davidson diagonalization with overlap
     ethr =  2.17E-06,  avg # of iterations =  5.7

     negative rho (up, down):  8.838E-08 1.302E-08

     total cpu time spent up to now is    21771.4 secs

     total energy              =   -6204.77192096 Ry
     estimated scf accuracy    <       0.00468557 Ry

     total magnetization       =    13.17 Bohr mag/cell
     absolute magnetization    =    14.50 Bohr mag/cell

     iteration # 19     ecut=    60.00 Ry     beta= 0.20
     Davidson diagonalization with overlap
     ethr =  1.94E-06,  avg # of iterations =  1.5

     total cpu time spent up to now is    22927.2 secs

     total energy              =   -6204.77211581 Ry
     estimated scf accuracy    <       0.00454599 Ry

     total magnetization       =    13.18 Bohr mag/cell
     absolute magnetization    =    14.52 Bohr mag/cell

     iteration # 20     ecut=    60.00 Ry     beta= 0.20
     Davidson diagonalization with overlap
     ethr =  1.89E-06,  avg # of iterations =  2.1

     total cpu time spent up to now is    24205.0 secs

     total energy              =   -6204.77229988 Ry
     estimated scf accuracy    <       0.00422970 Ry

     total magnetization       =    13.15 Bohr mag/cell
     absolute magnetization    =    14.51 Bohr mag/cell

     iteration # 21     ecut=    60.00 Ry     beta= 0.20
     Davidson diagonalization with overlap
     ethr =  1.76E-06,  avg # of iterations =  1.8

     negative rho (up, down):  9.666E-09 1.132E-08

     total cpu time spent up to now is    25343.2 secs

     total energy              =   -6204.77233012 Ry
     estimated scf accuracy    <       0.00380390 Ry

     total magnetization       =    13.14 Bohr mag/cell
     absolute magnetization    =    14.51 Bohr mag/cell

     iteration # 22     ecut=    60.00 Ry     beta= 0.20
     Davidson diagonalization with overlap
     c_bands:  1 eigenvalues not converged
     c_bands:  1 eigenvalues not converged
     ethr =  1.58E-06,  avg # of iterations =  2.5

     negative rho (up, down):  3.425E-08 3.589E-08

     total cpu time spent up to now is    26503.9 secs

     total energy              =   -6204.77229655 Ry
     estimated scf accuracy    <       0.00369840 Ry

     total magnetization       =    13.09 Bohr mag/cell
     absolute magnetization    =    14.48 Bohr mag/cell

     iteration # 23     ecut=    60.00 Ry     beta= 0.20
     Davidson diagonalization with overlap
     ethr =  1.53E-06,  avg # of iterations =  1.6

     negative rho (up, down):  4.035E-07 3.984E-07

     total cpu time spent up to now is    27691.9 secs

     total energy              =   -6204.77219446 Ry
     estimated scf accuracy    <       0.00345488 Ry

     total magnetization       =    13.07 Bohr mag/cell
     absolute magnetization    =    14.45 Bohr mag/cell

     iteration # 24     ecut=    60.00 Ry     beta= 0.20
     Davidson diagonalization with overlap
     ethr =  1.43E-06,  avg # of iterations =  1.5

     negative rho (up, down):  2.785E-05 2.755E-05

     total cpu time spent up to now is    28856.5 secs

     total energy              =   -6204.77216861 Ry
     estimated scf accuracy    <       0.00302235 Ry

     total magnetization       =    13.06 Bohr mag/cell
     absolute magnetization    =    14.45 Bohr mag/cell

     iteration # 25     ecut=    60.00 Ry     beta= 0.20
     Davidson diagonalization with overlap
     ethr =  1.25E-06,  avg # of iterations =  1.7

     negative rho (up, down):  1.091E-04 1.081E-04

     total cpu time spent up to now is    29995.8 secs

     total energy              =   -6204.77206762 Ry
     estimated scf accuracy    <       0.00214290 Ry

     total magnetization       =    13.07 Bohr mag/cell
     absolute magnetization    =    14.47 Bohr mag/cell

     iteration # 26     ecut=    60.00 Ry     beta= 0.20
     Davidson diagonalization with overlap
     ethr =  8.89E-07,  avg # of iterations =  1.6

     negative rho (up, down):  8.044E-04 7.991E-04

     total cpu time spent up to now is    31088.6 secs

     total energy              =   -6204.77143867 Ry
     estimated scf accuracy    <       0.00183772 Ry

     total magnetization       =    13.07 Bohr mag/cell
     absolute magnetization    =    14.47 Bohr mag/cell

     iteration # 27     ecut=    60.00 Ry     beta= 0.20
     Davidson diagonalization with overlap
     c_bands:  1 eigenvalues not converged
     c_bands:  1 eigenvalues not converged
     c_bands:  1 eigenvalues not converged
     c_bands:  1 eigenvalues not converged
     ethr =  7.63E-07,  avg # of iterations =  5.5

     negative rho (up, down):  8.167E-04 8.122E-04

     total cpu time spent up to now is    32616.4 secs

     total energy              =   -6204.77143029 Ry
     estimated scf accuracy    <       0.00263189 Ry

     total magnetization       =    13.10 Bohr mag/cell
     absolute magnetization    =    14.49 Bohr mag/cell

     iteration # 28     ecut=    60.00 Ry     beta= 0.20
     Davidson diagonalization with overlap
     ethr =  7.63E-07,  avg # of iterations =  1.8

     negative rho (up, down):  5.040E-04 4.995E-04

     total cpu time spent up to now is    33899.0 secs

     total energy              =   -6204.77149266 Ry
     estimated scf accuracy    <       0.00148173 Ry

     total magnetization       =    13.13 Bohr mag/cell
     absolute magnetization    =    14.49 Bohr mag/cell

     iteration # 29     ecut=    60.00 Ry     beta= 0.20
     Davidson diagonalization with overlap
     ethr =  6.15E-07,  avg # of iterations =  1.2

     negative rho (up, down):  8.571E-04 8.515E-04

     total cpu time spent up to now is    34995.0 secs

     total energy              =   -6204.77146096 Ry
     estimated scf accuracy    <       0.00084010 Ry

     total magnetization       =    13.13 Bohr mag/cell
     absolute magnetization    =    14.49 Bohr mag/cell

     iteration # 30     ecut=    60.00 Ry     beta= 0.20
     Davidson diagonalization with overlap
     ethr =  3.49E-07,  avg # of iterations =  2.2

     negative rho (up, down):  9.936E-05 8.856E-05

     total cpu time spent up to now is    36182.4 secs

     total energy              =   -6204.77146676 Ry
     estimated scf accuracy    <       0.00094895 Ry

     total magnetization       =    13.14 Bohr mag/cell
     absolute magnetization    =    14.50 Bohr mag/cell

     iteration # 31     ecut=    60.00 Ry     beta= 0.20
     Davidson diagonalization with overlap
     ethr =  3.49E-07,  avg # of iterations =  1.4

     negative rho (up, down):  2.796E-04 2.633E-04

     total cpu time spent up to now is    37403.6 secs

     total energy              =   -6204.77147043 Ry
     estimated scf accuracy    <       0.00033149 Ry

     total magnetization       =    13.14 Bohr mag/cell
     absolute magnetization    =    14.50 Bohr mag/cell

     iteration # 32     ecut=    60.00 Ry     beta= 0.20
     Davidson diagonalization with overlap
     ethr =  1.38E-07,  avg # of iterations =  3.1

     negative rho (up, down):  2.291E-04 2.116E-04

     total cpu time spent up to now is    38850.5 secs

     total energy              =   -6204.77148892 Ry
     estimated scf accuracy    <       0.00009237 Ry

     total magnetization       =    13.14 Bohr mag/cell
     absolute magnetization    =    14.51 Bohr mag/cell

     iteration # 33     ecut=    60.00 Ry     beta= 0.20
     Davidson diagonalization with overlap
     ethr =  3.83E-08,  avg # of iterations =  3.2

     negative rho (up, down):  3.368E-04 3.100E-04

     total cpu time spent up to now is    40245.5 secs

     total energy              =   -6204.77149456 Ry
     estimated scf accuracy    <       0.00001963 Ry

     total magnetization       =    13.14 Bohr mag/cell
     absolute magnetization    =    14.51 Bohr mag/cell

     iteration # 34     ecut=    60.00 Ry     beta= 0.20
     Davidson diagonalization with overlap
     ethr =  8.14E-09,  avg # of iterations =  6.1

     negative rho (up, down):  1.984E-04 1.647E-04

     total cpu time spent up to now is    41983.4 secs

     total energy              =   -6204.77150057 Ry
     estimated scf accuracy    <       0.00001947 Ry

     total magnetization       =    13.13 Bohr mag/cell
     absolute magnetization    =    14.51 Bohr mag/cell

     iteration # 35     ecut=    60.00 Ry     beta= 0.20
     Davidson diagonalization with overlap
     ethr =  8.08E-09,  avg # of iterations =  1.1

     negative rho (up, down):  1.759E-04 1.385E-04

     total cpu time spent up to now is    43018.2 secs

     total energy              =   -6204.77150129 Ry
     estimated scf accuracy    <       0.00001133 Ry

     total magnetization       =    13.13 Bohr mag/cell
     absolute magnetization    =    14.51 Bohr mag/cell

     iteration # 36     ecut=    60.00 Ry     beta= 0.20
     Davidson diagonalization with overlap
     ethr =  4.70E-09,  avg # of iterations =  1.1

     negative rho (up, down):  2.726E-04 2.303E-04

     total cpu time spent up to now is    44192.0 secs

     total energy              =   -6204.77150168 Ry
     estimated scf accuracy    <       0.00000365 Ry

     total magnetization       =    13.13 Bohr mag/cell
     absolute magnetization    =    14.51 Bohr mag/cell

     iteration # 37     ecut=    60.00 Ry     beta= 0.20
     Davidson diagonalization with overlap
     ethr =  1.51E-09,  avg # of iterations =  1.6

     negative rho (up, down):  2.503E-04 2.069E-04

     total cpu time spent up to now is    45431.2 secs

     total energy              =   -6204.77150219 Ry
     estimated scf accuracy    <       0.00000402 Ry

     total magnetization       =    13.13 Bohr mag/cell
     absolute magnetization    =    14.51 Bohr mag/cell

     iteration # 38     ecut=    60.00 Ry     beta= 0.20
     Davidson diagonalization with overlap
     ethr =  1.51E-09,  avg # of iterations =  1.0

     negative rho (up, down):  2.799E-04 2.360E-04

     total cpu time spent up to now is    46662.0 secs

     total energy              =   -6204.77150242 Ry
     estimated scf accuracy    <       0.00000173 Ry

     total magnetization       =    13.13 Bohr mag/cell
     absolute magnetization    =    14.51 Bohr mag/cell

     iteration # 39     ecut=    60.00 Ry     beta= 0.20
     Davidson diagonalization with overlap
     ethr =  7.19E-10,  avg # of iterations =  1.4

     negative rho (up, down):  2.574E-04 2.122E-04

     total cpu time spent up to now is    47988.7 secs

     total energy              =   -6204.77150252 Ry
     estimated scf accuracy    <       0.00000069 Ry

     total magnetization       =    13.13 Bohr mag/cell
     absolute magnetization    =    14.51 Bohr mag/cell

     iteration # 40     ecut=    60.00 Ry     beta= 0.20
     Davidson diagonalization with overlap
     ethr =  2.86E-10,  avg # of iterations =  1.7

     negative rho (up, down):  2.539E-04 2.079E-04

     total cpu time spent up to now is    49342.2 secs

     total energy              =   -6204.77150259 Ry
     estimated scf accuracy    <       0.00000031 Ry

     total magnetization       =    13.13 Bohr mag/cell
     absolute magnetization    =    14.51 Bohr mag/cell

     iteration # 41     ecut=    60.00 Ry     beta= 0.20
     Davidson diagonalization with overlap
     ethr =  1.28E-10,  avg # of iterations =  2.0

     negative rho (up, down):  2.430E-04 1.968E-04

     total cpu time spent up to now is    50677.2 secs

     total energy              =   -6204.77150264 Ry
     estimated scf accuracy    <       0.00000019 Ry

     total magnetization       =    13.13 Bohr mag/cell
     absolute magnetization    =    14.51 Bohr mag/cell

     iteration # 42     ecut=    60.00 Ry     beta= 0.20
     Davidson diagonalization with overlap
     ethr =  8.09E-11,  avg # of iterations =  1.4

     negative rho (up, down):  2.389E-04 1.928E-04

     total cpu time spent up to now is    52003.0 secs

     total energy              =   -6204.77150266 Ry
     estimated scf accuracy    <       0.00000012 Ry

     total magnetization       =    13.13 Bohr mag/cell
     absolute magnetization    =    14.51 Bohr mag/cell

     iteration # 43     ecut=    60.00 Ry     beta= 0.20
     Davidson diagonalization with overlap
     ethr =  4.90E-11,  avg # of iterations =  1.4

     negative rho (up, down):  2.273E-04 1.815E-04

     total cpu time spent up to now is    53229.5 secs

     total energy              =   -6204.77150266 Ry
     estimated scf accuracy    <       0.00000009 Ry

     total magnetization       =    13.13 Bohr mag/cell
     absolute magnetization    =    14.51 Bohr mag/cell

     iteration # 44     ecut=    60.00 Ry     beta= 0.20
     Davidson diagonalization with overlap
     ethr =  3.65E-11,  avg # of iterations =  1.4

     negative rho (up, down):  2.189E-04 1.732E-04

     total cpu time spent up to now is    54355.3 secs

     total energy              =   -6204.77150267 Ry
     estimated scf accuracy    <       0.00000011 Ry

     total magnetization       =    13.13 Bohr mag/cell
     absolute magnetization    =    14.51 Bohr mag/cell

     iteration # 45     ecut=    60.00 Ry     beta= 0.20
     Davidson diagonalization with overlap
     ethr =  3.65E-11,  avg # of iterations =  1.5

     negative rho (up, down):  2.064E-04 1.606E-04

     total cpu time spent up to now is    55606.1 secs

     total energy              =   -6204.77150265 Ry
     estimated scf accuracy    <       0.00000011 Ry

     total magnetization       =    13.13 Bohr mag/cell
     absolute magnetization    =    14.51 Bohr mag/cell

     iteration # 46     ecut=    60.00 Ry     beta= 0.20
     Davidson diagonalization with overlap
     ethr =  3.65E-11,  avg # of iterations =  1.2

     negative rho (up, down):  2.019E-04 1.561E-04

     total cpu time spent up to now is    56735.9 secs

     total energy              =   -6204.77150265 Ry
     estimated scf accuracy    <       0.00000002 Ry

     total magnetization       =    13.13 Bohr mag/cell
     absolute magnetization    =    14.52 Bohr mag/cell

     iteration # 47     ecut=    60.00 Ry     beta= 0.20
     Davidson diagonalization with overlap
     ethr =  7.76E-12,  avg # of iterations =  2.4

     negative rho (up, down):  2.013E-04 1.554E-04

     total cpu time spent up to now is    58112.3 secs

     total energy              =   -6204.77150264 Ry
     estimated scf accuracy    <       0.00000001 Ry

     total magnetization       =    13.13 Bohr mag/cell
     absolute magnetization    =    14.52 Bohr mag/cell

     iteration # 48     ecut=    60.00 Ry     beta= 0.20
     Davidson diagonalization with overlap
     ethr =  4.76E-12,  avg # of iterations =  1.9

     negative rho (up, down):  1.991E-04 1.534E-04

     total cpu time spent up to now is    59614.6 secs

     total energy              =   -6204.77150264 Ry
     estimated scf accuracy    <       0.00000002 Ry

     total magnetization       =    13.13 Bohr mag/cell
     absolute magnetization    =    14.52 Bohr mag/cell

     iteration # 49     ecut=    60.00 Ry     beta= 0.20
     Davidson diagonalization with overlap
     ethr =  4.76E-12,  avg # of iterations =  1.2

     negative rho (up, down):  2.020E-04 1.562E-04

     total cpu time spent up to now is    60713.1 secs

     total energy              =   -6204.77150264 Ry
     estimated scf accuracy    <          7.2E-09 Ry

     total magnetization       =    13.13 Bohr mag/cell
     absolute magnetization    =    14.52 Bohr mag/cell

     iteration # 50     ecut=    60.00 Ry     beta= 0.20
     Davidson diagonalization with overlap
     ethr =  2.98E-12,  avg # of iterations =  1.6

     negative rho (up, down):  2.013E-04 1.556E-04

     total cpu time spent up to now is    62014.3 secs

     total energy              =   -6204.77150264 Ry
     estimated scf accuracy    <          9.1E-09 Ry

     total magnetization       =    13.13 Bohr mag/cell
     absolute magnetization    =    14.52 Bohr mag/cell

     iteration # 51     ecut=    60.00 Ry     beta= 0.20
     Davidson diagonalization with overlap
     ethr =  2.98E-12,  avg # of iterations =  1.4

     negative rho (up, down):  2.045E-04 1.587E-04

     total cpu time spent up to now is    63379.5 secs

     total energy              =   -6204.77150264 Ry
     estimated scf accuracy    <          5.9E-09 Ry

     total magnetization       =    13.13 Bohr mag/cell
     absolute magnetization    =    14.52 Bohr mag/cell

     iteration # 52     ecut=    60.00 Ry     beta= 0.20
     Davidson diagonalization with overlap
     ethr =  2.46E-12,  avg # of iterations =  1.3

     negative rho (up, down):  2.052E-04 1.594E-04

     total cpu time spent up to now is    64711.8 secs

     total energy              =   -6204.77150264 Ry
     estimated scf accuracy    <          1.6E-09 Ry

     total magnetization       =    13.13 Bohr mag/cell
     absolute magnetization    =    14.52 Bohr mag/cell

     iteration # 53     ecut=    60.00 Ry     beta= 0.20
     Davidson diagonalization with overlap
     ethr =  6.65E-13,  avg # of iterations =  2.1

     negative rho (up, down):  2.051E-04 1.593E-04

     total cpu time spent up to now is    66298.6 secs

     total energy              =   -6204.77150264 Ry
     estimated scf accuracy    <          4.9E-10 Ry

     total magnetization       =    13.13 Bohr mag/cell
     absolute magnetization    =    14.52 Bohr mag/cell

     iteration # 54     ecut=    60.00 Ry     beta= 0.20
     Davidson diagonalization with overlap
     ethr =  2.01E-13,  avg # of iterations =  4.7

     negative rho (up, down):  2.050E-04 1.592E-04

     total cpu time spent up to now is    68332.1 secs

     total energy              =   -6204.77150264 Ry
     estimated scf accuracy    <          2.0E-10 Ry

     total magnetization       =    13.13 Bohr mag/cell
     absolute magnetization    =    14.52 Bohr mag/cell

     iteration # 55     ecut=    60.00 Ry     beta= 0.20
     Davidson diagonalization with overlap
     ethr =  1.00E-13,  avg # of iterations =  1.9

     negative rho (up, down):  2.048E-04 1.590E-04

     total cpu time spent up to now is    69690.7 secs

     total energy              =   -6204.77150264 Ry
     estimated scf accuracy    <          1.6E-10 Ry

     total magnetization       =    13.13 Bohr mag/cell
     absolute magnetization    =    14.52 Bohr mag/cell

     iteration # 56     ecut=    60.00 Ry     beta= 0.20
     Davidson diagonalization with overlap
     ethr =  1.00E-13,  avg # of iterations =  1.1

     negative rho (up, down):  2.049E-04 1.590E-04
 
     Magnetic moment per site  (integrated on atomic sphere of radius R)
     atom   1 (R=0.137)  charge=  6.8910  magn=  0.8011
     atom   2 (R=0.148)  charge=  5.7508  magn=  0.2465
     atom   3 (R=0.148)  charge=  5.7503  magn=  0.2531
     atom   4 (R=0.137)  charge=  6.8910  magn=  0.8011
     atom   5 (R=0.148)  charge=  5.7370  magn=  0.3035
     atom   6 (R=0.148)  charge=  5.7368  magn=  0.3074
     atom   7 (R=0.137)  charge=  6.8862  magn=  0.8084
     atom   8 (R=0.137)  charge=  6.8862  magn=  0.8084
     atom   9 (R=0.137)  charge=  6.8865  magn=  0.7769
     atom  10 (R=0.137)  charge=  6.8865  magn=  0.7769
     atom  11 (R=0.148)  charge=  5.7334  magn=  0.2887
     atom  12 (R=0.148)  charge=  5.7333  magn=  0.2944
     atom  13 (R=0.137)  charge=  6.8869  magn=  0.7809
     atom  14 (R=0.148)  charge=  5.7334  magn=  0.2937
     atom  15 (R=0.148)  charge=  5.7341  magn=  0.2836
     atom  16 (R=0.137)  charge=  6.8869  magn=  0.7809
     atom  17 (R=0.137)  charge=  6.8861  magn=  0.7993
     atom  18 (R=0.148)  charge=  5.7364  magn=  0.2812
     atom  19 (R=0.148)  charge=  5.7386  magn=  0.2947
     atom  20 (R=0.137)  charge=  6.8861  magn=  0.7992
     atom  21 (R=0.148)  charge=  5.7538  magn=  0.2310
     atom  22 (R=0.137)  charge=  6.8963  magn=  0.5983
     atom  23 (R=0.137)  charge=  6.8963  magn=  0.5983
     atom  24 (R=0.148)  charge=  5.7469  magn=  0.1794
     atom  25 (R=0.137)  charge=  0.9023  magn= -0.0081

     total cpu time spent up to now is    70982.7 secs

     End of self-consistent calculation

     Number of k-points >= 100: set verbosity='high' to print the bands.

     the Fermi energy is    -5.0822 ev

!    total energy              =   -6204.77150264 Ry
     total all-electron energy =   -157606.862858 Ry
     estimated scf accuracy    <          7.7E-11 Ry
     smearing contrib. (-TS)   =       0.00138714 Ry
     internal energy E=F+TS    =   -6204.77288978 Ry

     The total energy is F=E-TS. E is the sum of the following terms:
     one-electron contribution =  -65081.88636947 Ry
     hartree contribution      =   32732.27486727 Ry
     xc contribution           =    -891.42389682 Ry
     ewald contribution        =   31140.10370037 Ry
     DFT-D3 Dispersion         =      -2.26745234 Ry
     one-center paw contrib.   =   -4101.57373880 Ry

     total magnetization       =    13.13 Bohr mag/cell
     absolute magnetization    =    14.52 Bohr mag/cell

     convergence has been achieved in  56 iterations

     negative rho (up, down):  2.049E-04 1.590E-04

     Forces acting on atoms (cartesian axes, Ry/au):

     atom    1 type  1   force =    -0.00826983    0.00468774    0.00665320
     atom    2 type  2   force =     0.01125197   -0.00677264   -0.00936112
     atom    3 type  2   force =     0.01134640   -0.00682955   -0.00881114
     atom    4 type  1   force =    -0.00801364    0.00511346    0.00665345
     atom    5 type  2   force =    -0.00030836    0.00018552    0.00498985
     atom    6 type  2   force =    -0.00059660    0.00035916    0.00425629
     atom    7 type  1   force =    -0.00277217    0.00112886   -0.00032675
     atom    8 type  1   force =    -0.00229536    0.00192138   -0.00032666
     atom    9 type  1   force =    -0.00014226   -0.00012978   -0.00022067
     atom   10 type  1   force =     0.00004797    0.00018656   -0.00022063
     atom   11 type  2   force =     0.00010271   -0.00006231   -0.00056436
     atom   12 type  2   force =    -0.00016095    0.00009734   -0.00016543
     atom   13 type  1   force =     0.00009273    0.00017914   -0.00038407
     atom   14 type  2   force =     0.00009682   -0.00005780   -0.00062277
     atom   15 type  2   force =    -0.00018447    0.00011054   -0.00003858
     atom   16 type  1   force =    -0.00011509   -0.00016570   -0.00038418
     atom   17 type  1   force =     0.00008990    0.00016797   -0.00002666
     atom   18 type  2   force =     0.00003262   -0.00002017    0.00036252
     atom   19 type  2   force =    -0.00004485    0.00002747   -0.00007507
     atom   20 type  1   force =    -0.00010596   -0.00015826   -0.00002634
     atom   21 type  2   force =    -0.00025755    0.00015526   -0.00045781
     atom   22 type  1   force =     0.00047174    0.00040502   -0.00031834
     atom   23 type  1   force =    -0.00013721   -0.00060636   -0.00031866
     atom   24 type  2   force =    -0.00037989    0.00022838   -0.00035903
     atom   25 type  3   force =     0.00025133   -0.00015125    0.00009296

     Total force =     0.001818     Total SCF correction =     0.000033


     Computing stress (Cartesian axis) and pressure


     negative rho (up, down):  2.049E-04 1.590E-04
          total   stress  (Ry/bohr**3)                   (kbar)     P=       -6.29
  -0.00005869  -0.00000726  -0.00000550           -8.63       -1.07       -0.81
  -0.00000726  -0.00006639   0.00000331           -1.07       -9.77        0.49
  -0.00000550   0.00000331  -0.00000321           -0.81        0.49       -0.47


     Writing all to output data dir /tmpu/isholek_g/isholek/MIGUEL/QE/Hydrogen/111_2x2/SAVE/Ni2Pd2_111-H_fcc_2.save/ :
     XML data file, charge density, pseudopotentials, collected wavefunctions
 
     init_run     :    539.34s CPU    542.86s WALL (       1 calls)
     electrons    :  70076.61s CPU  70430.19s WALL (       1 calls)
     forces       :     65.60s CPU     65.76s WALL (       1 calls)
     force_dftd3  :      1.42s CPU      1.43s WALL (       1 calls)
     stress       :   1029.37s CPU   1033.24s WALL (       1 calls)
     stres_dftd3  :      1.44s CPU      1.44s WALL (       1 calls)

     Called by init_run:
     wfcinit      :     90.46s CPU     93.59s WALL (       1 calls)
     potinit      :      2.69s CPU      2.75s WALL (       1 calls)
     hinit0       :      0.42s CPU      0.44s WALL (       1 calls)

     Called by electrons:
     c_bands      :  58590.09s CPU  58893.89s WALL (      56 calls)
     sum_band     :  11335.43s CPU  11379.81s WALL (      56 calls)
     v_of_rho     :     32.43s CPU     34.26s WALL (      57 calls)
     newd         :     21.67s CPU     23.07s WALL (      57 calls)
     PAW_pot      :     58.12s CPU     58.29s WALL (      57 calls)
     mix_rho      :     29.80s CPU     31.22s WALL (      56 calls)
     energy_dftd3 :      0.28s CPU      0.28s WALL (       1 calls)

     Called by c_bands:
     init_us_2    :    151.10s CPU    151.59s WALL (    7360 calls)
     init_us_2:cp :    151.00s CPU    151.50s WALL (    7360 calls)
     cegterg      :   7761.26s CPU   8020.17s WALL (    3584 calls)

     Called by *egterg:
     cdiaghg      :    207.61s CPU    208.25s WALL (   11153 calls)
     h_psi        :   5514.58s CPU   5744.02s WALL (   11217 calls)
     s_psi        :    632.42s CPU    633.24s WALL (   11217 calls)
     g_psi        :     18.32s CPU     18.45s WALL (    7569 calls)

     Called by h_psi:
     h_psi:calbec :    605.34s CPU    606.65s WALL (   11217 calls)
     vloc_psi     :   4234.09s CPU   4424.15s WALL (   11217 calls)
     add_vuspsi   :    630.20s CPU    631.01s WALL (   11217 calls)

     General routines
     calbec       :   1096.35s CPU   1098.19s WALL (   15121 calls)
     fft          :     20.23s CPU     22.01s WALL (    1463 calls)
     ffts         :     12.81s CPU     13.90s WALL (    6991 calls)
     fftw         :   2987.73s CPU   3141.10s WALL ( 2679048 calls)
     interpolate  :      1.81s CPU      2.02s WALL (     114 calls)
 
     Parallel routines
 
     PWSCF        :     19h58m CPU     20h 5m WALL

 
   This run was terminated on:  21:25:37  25Mar2026            

=------------------------------------------------------------------------------=
   JOB DONE.
=------------------------------------------------------------------------------=
