
     Program PWSCF v.7.3 starts on  1May2026 at  0:17:18 

     This program is part of the open-source Quantum ESPRESSO suite
     for quantum simulation of materials; please cite
         "P. Giannozzi et al., J. Phys.:Condens. Matter 21 395502 (2009);
         "P. Giannozzi et al., J. Phys.:Condens. Matter 29 465901 (2017);
         "P. Giannozzi et al., J. Chem. Phys. 152 154105 (2020);
          URL http://www.quantum-espresso.org", 
     in publications or presentations arising from this work. More details at
     http://www.quantum-espresso.org/quote

     Parallel version (MPI), running on   128 processors

     MPI processes distributed on     8 nodes
     55786 MiB available memory on the printing compute node when the environment starts
 
     Reading input from /tmpu/isholek_g/isholek/MIGUEL/QE/Hydrogen/111_2x2/SCF/Ni2Pd2_111-T1-SCF.in

     Current dimensions of program PWSCF are:
     Max number of different atomic species (ntypx) = 10
     Max number of k-points (npk) =  40000
     Max angular momentum in pseudopotentials (lmaxx) =  4
     file Ni.upf: wavefunction(s)  4S 3D renormalized
     file Pd.upf: wavefunction(s)  5S 4D renormalized
     file H.upf: wavefunction(s)  1S renormalized

     IMPORTANT: XC functional enforced from input :
     Exchange-correlation= PBE
                           (   1   4   3   4   0   0   0)
     Any further DFT definition will be discarded
     Please, verify this is what you really want

 
     K-points division:     npool     =       8
     R & G space division:  proc/nbgrp/npool/nimage =      16
     Subspace diagonalization in iterative solution of the eigenvalue problem:
     one sub-group per band group will be used
     scalapack distributed-memory algorithm (size of sub-group:  2*  2 procs)

 
     Parallelization info
     --------------------
     sticks:   dense  smooth     PW     G-vecs:    dense   smooth      PW
     Min         197      98     28                56881    20094    3138
     Max         198      99     29                56920    20125    3165
     Sum        3165    1581    455               910393   321727   50373
 
     Using Slab Decomposition
 

     Title: 
     Ni2Pd2_111-T1-SCF                                                          


     bravais-lattice index     =            0
     lattice parameter (alat)  =       9.7088  a.u.
     unit-cell volume          =    5128.0588 (a.u.)^3
     number of atoms/cell      =           25
     number of atomic types    =            3
     number of electrons       =       241.00
     number of Kohn-Sham states=          145
     kinetic-energy cutoff     =      60.0000  Ry
     charge density cutoff     =     480.0000  Ry
     scf convergence threshold =      1.0E-10
     mixing beta               =       0.4000
     number of iterations used =           12  local-TF  mixing
     Exchange-correlation= PBE
                           (   1   4   3   4   0   0   0)

     celldm(1)=   9.708762  celldm(2)=   0.000000  celldm(3)=   0.000000
     celldm(4)=   0.000000  celldm(5)=   0.000000  celldm(6)=   0.000000

     crystal axes: (cart. coord. in units of alat)
               a(1) = (   1.000000   0.000000   0.000000 )  
               a(2) = (   0.531889   0.883670   0.000000 )  
               a(3) = (   0.000000   0.000000   6.341200 )  

     reciprocal axes: (cart. coord. in units 2 pi/alat)
               b(1) = (  1.000000 -0.601910  0.000000 )  
               b(2) = (  0.000000  1.131644  0.000000 )  
               b(3) = (  0.000000  0.000000  0.157699 )  


     PseudoPot. # 1 for Ni read from file:
     /tmpu/isholek_g/isholek/MIGUEL/PP/PAW/Ni.upf
     MD5 check sum: d88365a95a5e142bd87181c2c8b16588
     Pseudo is Projector augmented-wave + core cor, Zval = 10.0
     Generated using "atomic" code by A. Dal Corso  v.5.0.2 svn rev. 9415
     Shape of augmentation charge: PSQ
     Using radial grid of 1195 points,  6 beta functions with: 
                l(1) =   0
                l(2) =   0
                l(3) =   1
                l(4) =   1
                l(5) =   2
                l(6) =   2
     Q(r) pseudized with 0 coefficients 


     PseudoPot. # 2 for Pd read from file:
     /tmpu/isholek_g/isholek/MIGUEL/PP/PAW/Pd.upf
     MD5 check sum: e9d6f14fd83b79f8105499163af174c9
     Pseudo is Projector augmented-wave + core cor, Zval = 10.0
     Generated using "atomic" code by A. Dal Corso  v.5.0.2 svn rev. 9415
     Shape of augmentation charge: PSQ
     Using radial grid of 1235 points,  6 beta functions with: 
                l(1) =   0
                l(2) =   0
                l(3) =   1
                l(4) =   1
                l(5) =   2
                l(6) =   2
     Q(r) pseudized with 0 coefficients 


     PseudoPot. # 3 for H  read from file:
     /tmpu/isholek_g/isholek/MIGUEL/PP/PAW/H.upf
     MD5 check sum: 4cbe42a24e15140179a93d5bf84f2220
     Pseudo is Projector augmented-wave, Zval =  1.0
     Generated using "atomic" code by A. Dal Corso  v.5.0.2 svn rev. 9415
     Shape of augmentation charge: PSQ
     Using radial grid of  929 points,  2 beta functions with: 
                l(1) =   0
                l(2) =   0
     Q(r) pseudized with 0 coefficients 


     atomic species   valence    mass     pseudopotential
     Ni               10.00    58.69340     Ni( 1.00)
     Pd               10.00   106.42000     Pd( 1.00)
     H                 1.00     1.00794     H ( 1.00)

     Starting magnetic structure 
     atomic species   magnetization
     Ni              0.650
     Pd              0.100
     H               0.000

     No symmetry found



   Cartesian axes

     site n.     atom                  positions (alat units)
         1        Ni     tau(   1) = (   0.0000000   0.0000000   2.1410544  )
         2        Pd     tau(   2) = (   0.7659447   0.4418349   2.1410544  )
         3        Pd     tau(   3) = (   0.5000000   0.0000000   2.1410544  )
         4        Ni     tau(   4) = (   0.2659447   0.4418349   2.1410544  )
         5        Pd     tau(   5) = (   0.2340553   0.1600746   2.5528726  )
         6        Pd     tau(   6) = (   0.5000000   0.6019096   2.5528726  )
         7        Ni     tau(   7) = (   0.7340553   0.1600746   2.5528726  )
         8        Ni     tau(   8) = (   1.0000000   0.6019096   2.5528726  )
         9        Ni     tau(   9) = (   0.4664923   0.3211234   2.9662284  )
        10        Ni     tau(  10) = (   0.7325704   0.7628780   2.9667923  )
        11        Pd     tau(  11) = (   0.9654052   0.3215366   2.9615874  )
        12        Pd     tau(  12) = (   1.2315630   0.7637255   2.9615874  )
        13        Ni     tau(  13) = (   0.9398810   0.0361862   3.3712972  )
        14        Pd     tau(  14) = (   0.7070565   0.4776725   3.3816061  )
        15        Pd     tau(  15) = (   0.4407652   0.0352618   3.3816061  )
        16        Ni     tau(  16) = (   1.2069903   0.4773201   3.3659778  )
        17        Ni     tau(  17) = (   0.9316225   0.6430666   3.7954377  )
        18        Pd     tau(  18) = (   0.1617691   0.2041838   3.7817480  )
        19        Pd     tau(  19) = (   0.4271841   0.6451387   3.7817480  )
        20        Ni     tau(  20) = (   0.6650897   0.2015857   3.7962030  )
        21        Pd     tau(  21) = (   0.9026439   0.3601683   4.2117407  )
        22        Ni     tau(  22) = (   0.6719896   0.7993421   4.1876313  )
        23        Ni     tau(  23) = (   0.4069025   0.3569910   4.1875421  )
        24        Pd     tau(  24) = (   1.1680460   0.8011019   4.2117407  )
        25        H      tau(  25) = (   0.6734731   0.7984492   4.4724809  )

     --------------------------------------------
     DFT-D3 Dispersion Correction (3-body terms):
     --------------------------------------------
       Reference C6 values for interpolation: 

         atom   Coordination number   C6
         H          0.912             6.05
         H          0.000            15.18
         Ni         0.000          1149.49
         Ni         1.794           356.66
         Ni         6.546           257.56
         Ni         6.292           283.75
         Pd         0.000          1217.01
         Pd         1.863           573.90
         Pd         5.710           531.75

       Values used:

         atom   Coordination number  R0_AB[au]  C6      C8
         Ni         6.134            3.162    273.94  22954.56
         Pd         7.162            3.168    531.75  48720.73
         Pd         7.162            3.168    531.75  48720.73
         Ni         6.134            3.162    273.94  22954.55
         Pd         9.611            3.168    531.75  48720.73
         Pd         9.611            3.168    531.75  48720.73
         Ni         8.224            3.162    258.17  21633.06
         Ni         8.219            3.162    258.18  21633.56
         Ni         8.232            3.162    258.16  21632.25
         Ni         8.199            3.162    258.20  21635.70
         Pd         9.679            3.168    531.75  48720.73
         Pd         9.679            3.168    531.75  48720.73
         Ni         8.209            3.162    258.19  21634.64
         Pd         9.575            3.168    531.75  48720.73
         Pd         9.575            3.168    531.75  48720.73
         Ni         8.219            3.162    258.18  21633.57
         Ni         8.165            3.162    258.25  21639.37
         Pd         9.600            3.168    531.75  48720.73
         Pd         9.600            3.168    531.75  48720.73
         Ni         8.193            3.162    258.21  21636.27
         Pd         7.018            3.168    531.75  48720.73
         Ni         7.258            3.162    261.36  21900.43
         Ni         6.320            3.162    271.54  22753.23
         Pd         7.018            3.168    531.75  48720.73
         H          0.976            2.062      6.21     75.02

         Molecular C6 ( Ry / a.u.^6 ) =    224068.25


     number of k points=   256  Marzari-Vanderbilt smearing, width (Ry)=  0.0147

     Number of k-points >= 100: set verbosity='high' to print them.

     Dense  grid:   910393 G-vectors     FFT dimensions: (  72,  72, 432)

     Smooth grid:   321727 G-vectors     FFT dimensions: (  48,  50, 320)

     Estimated max dynamical RAM per process >     491.99 MB

     Estimated total dynamical RAM >      56.94 GB
 ----2D----2D----2D----2D----2D----2D----2D----2D----2D----2D----2D----2D
  The code is running with the 2D cutoff
  Please refer to:
  Sohier, T., Calandra, M., & Mauri, F. (2017), 
  Density functional perturbation theory for gated two-dimensional heterostructu
 res:
  Theoretical developments and application to flexural phonons in graphene.
  Physical Review B, 96(7), 75448. https://doi.org/10.1103/PhysRevB.96.075448
 ----2D----2D----2D----2D----2D----2D----2D----2D----2D----2D----2D----2D

     Check: negative core charge=   -0.000002
     Generating pointlists ...
     new r_m :   0.1175 (alat units)  1.1408 (a.u.) for type    1
     new r_m :   0.2045 (alat units)  1.9854 (a.u.) for type    2
     new r_m :   0.1175 (alat units)  1.1408 (a.u.) for type    3

     Initial potential from superposition of free atoms

     starting charge     240.9907, renormalised to     241.0000

     negative rho (up, down):  2.615E-04 5.766E-05
     Starting wfcs are  217 randomized atomic wfcs
     Checking if some PAW data can be deallocated... 

     total cpu time spent up to now is      101.9 secs

     Self-consistent Calculation

     iteration #  1     ecut=    60.00 Ry     beta= 0.40
     Davidson diagonalization with overlap
     ethr =  1.00E-02,  avg # of iterations =  2.7

     negative rho (up, down):  9.023E-05 2.328E-05

     total cpu time spent up to now is      343.5 secs

     total energy              =   -6200.64491702 Ry
     estimated scf accuracy    <      34.30469950 Ry

     total magnetization       =    19.75 Bohr mag/cell
     absolute magnetization    =    19.75 Bohr mag/cell

     iteration #  2     ecut=    60.00 Ry     beta= 0.40
     Davidson diagonalization with overlap
     ethr =  1.00E-02,  avg # of iterations =  1.0

     negative rho (up, down):  3.134E-05 2.211E-06

     total cpu time spent up to now is      526.4 secs

     total energy              =   -6203.12374594 Ry
     estimated scf accuracy    <       6.19373808 Ry

     total magnetization       =    24.55 Bohr mag/cell
     absolute magnetization    =    24.64 Bohr mag/cell

     iteration #  3     ecut=    60.00 Ry     beta= 0.40
     Davidson diagonalization with overlap
     ethr =  2.57E-03,  avg # of iterations =  1.1

     negative rho (up, down):  6.404E-06 1.127E-06

     total cpu time spent up to now is      712.9 secs

     total energy              =   -6203.92778884 Ry
     estimated scf accuracy    <       8.29499544 Ry

     total magnetization       =    18.64 Bohr mag/cell
     absolute magnetization    =    18.81 Bohr mag/cell

     iteration #  4     ecut=    60.00 Ry     beta= 0.40
     Davidson diagonalization with overlap
     ethr =  2.57E-03,  avg # of iterations =  1.0

     negative rho (up, down):  4.428E-07 9.774E-08

     total cpu time spent up to now is      901.7 secs

     total energy              =   -6204.45882561 Ry
     estimated scf accuracy    <       3.60502287 Ry

     total magnetization       =    17.53 Bohr mag/cell
     absolute magnetization    =    17.84 Bohr mag/cell

     iteration #  5     ecut=    60.00 Ry     beta= 0.40
     Davidson diagonalization with overlap
     ethr =  1.50E-03,  avg # of iterations =  1.2

     negative rho (up, down):  2.656E-07 1.027E-07

     total cpu time spent up to now is     1096.9 secs

     total energy              =   -6204.57117249 Ry
     estimated scf accuracy    <       7.39728001 Ry

     total magnetization       =    15.38 Bohr mag/cell
     absolute magnetization    =    16.45 Bohr mag/cell

     iteration #  6     ecut=    60.00 Ry     beta= 0.40
     Davidson diagonalization with overlap
     ethr =  1.50E-03,  avg # of iterations =  1.0

     negative rho (up, down):  1.551E-07 4.912E-08

     total cpu time spent up to now is     1280.0 secs

     total energy              =   -6204.66812767 Ry
     estimated scf accuracy    <       0.74742109 Ry

     total magnetization       =    14.78 Bohr mag/cell
     absolute magnetization    =    15.95 Bohr mag/cell

     iteration #  7     ecut=    60.00 Ry     beta= 0.40
     Davidson diagonalization with overlap
     ethr =  3.10E-04,  avg # of iterations =  1.5

     negative rho (up, down):  1.238E-07 8.650E-08

     total cpu time spent up to now is     1483.4 secs

     total energy              =   -6204.71200433 Ry
     estimated scf accuracy    <       1.41918724 Ry

     total magnetization       =    14.51 Bohr mag/cell
     absolute magnetization    =    15.78 Bohr mag/cell

     iteration #  8     ecut=    60.00 Ry     beta= 0.40
     Davidson diagonalization with overlap
     ethr =  3.10E-04,  avg # of iterations =  1.0

     negative rho (up, down):  1.572E-07 1.807E-07

     total cpu time spent up to now is     1668.6 secs

     total energy              =   -6204.73375025 Ry
     estimated scf accuracy    <       1.17409539 Ry

     total magnetization       =    13.98 Bohr mag/cell
     absolute magnetization    =    15.35 Bohr mag/cell

     iteration #  9     ecut=    60.00 Ry     beta= 0.40
     Davidson diagonalization with overlap
     ethr =  3.10E-04,  avg # of iterations =  1.0

     negative rho (up, down):  1.355E-07 1.929E-07

     total cpu time spent up to now is     1852.0 secs

     total energy              =   -6204.72809611 Ry
     estimated scf accuracy    <       0.83968328 Ry

     total magnetization       =    13.38 Bohr mag/cell
     absolute magnetization    =    14.85 Bohr mag/cell

     iteration # 10     ecut=    60.00 Ry     beta= 0.40
     Davidson diagonalization with overlap
     ethr =  3.10E-04,  avg # of iterations =  1.0

     negative rho (up, down):  1.302E-07 1.617E-07

     total cpu time spent up to now is     2040.6 secs

     total energy              =   -6204.74401174 Ry
     estimated scf accuracy    <       0.23973001 Ry

     total magnetization       =    12.87 Bohr mag/cell
     absolute magnetization    =    14.38 Bohr mag/cell

     iteration # 11     ecut=    60.00 Ry     beta= 0.40
     Davidson diagonalization with overlap
     ethr =  9.95E-05,  avg # of iterations =  1.6

     negative rho (up, down):  1.354E-07 1.535E-07

     total cpu time spent up to now is     2233.4 secs

     total energy              =   -6204.74587321 Ry
     estimated scf accuracy    <       0.21627378 Ry

     total magnetization       =    12.85 Bohr mag/cell
     absolute magnetization    =    14.35 Bohr mag/cell

     iteration # 12     ecut=    60.00 Ry     beta= 0.40
     Davidson diagonalization with overlap
     ethr =  8.97E-05,  avg # of iterations =  1.1

     negative rho (up, down):  3.142E-07 3.260E-07

     total cpu time spent up to now is     2419.8 secs

     total energy              =   -6204.74700011 Ry
     estimated scf accuracy    <       0.20179625 Ry

     total magnetization       =    12.85 Bohr mag/cell
     absolute magnetization    =    14.36 Bohr mag/cell

     iteration # 13     ecut=    60.00 Ry     beta= 0.40
     Davidson diagonalization with overlap
     ethr =  8.37E-05,  avg # of iterations =  1.4

     negative rho (up, down):  3.116E-06 3.082E-06

     total cpu time spent up to now is     2614.5 secs

     total energy              =   -6204.74869267 Ry
     estimated scf accuracy    <       0.21935665 Ry

     total magnetization       =    12.78 Bohr mag/cell
     absolute magnetization    =    14.25 Bohr mag/cell

     iteration # 14     ecut=    60.00 Ry     beta= 0.40
     Davidson diagonalization with overlap
     ethr =  8.37E-05,  avg # of iterations =  1.0

     negative rho (up, down):  4.524E-04 4.514E-04

     total cpu time spent up to now is     2798.7 secs

     total energy              =   -6204.74412939 Ry
     estimated scf accuracy    <       0.18653530 Ry

     total magnetization       =    12.81 Bohr mag/cell
     absolute magnetization    =    14.25 Bohr mag/cell

     iteration # 15     ecut=    60.00 Ry     beta= 0.40
     Davidson diagonalization with overlap
     ethr =  7.74E-05,  avg # of iterations =  1.2

     negative rho (up, down):  1.739E-04 1.712E-04

     total cpu time spent up to now is     2983.6 secs

     total energy              =   -6204.74543449 Ry
     estimated scf accuracy    <       0.11095843 Ry

     total magnetization       =    12.97 Bohr mag/cell
     absolute magnetization    =    14.30 Bohr mag/cell

     iteration # 16     ecut=    60.00 Ry     beta= 0.40
     Davidson diagonalization with overlap
     ethr =  4.60E-05,  avg # of iterations =  1.3

     negative rho (up, down):  4.971E-04 6.424E-04

     total cpu time spent up to now is     3169.3 secs

     total energy              =   -6204.74328843 Ry
     estimated scf accuracy    <       0.15582389 Ry

     total magnetization       =    12.85 Bohr mag/cell
     absolute magnetization    =    14.21 Bohr mag/cell

     iteration # 17     ecut=    60.00 Ry     beta= 0.40
     Davidson diagonalization with overlap
     ethr =  4.60E-05,  avg # of iterations =  1.1

     negative rho (up, down):  4.712E-04 6.250E-04

     total cpu time spent up to now is     3359.6 secs

     total energy              =   -6204.74352166 Ry
     estimated scf accuracy    <       0.09549158 Ry

     total magnetization       =    12.89 Bohr mag/cell
     absolute magnetization    =    14.20 Bohr mag/cell

     iteration # 18     ecut=    60.00 Ry     beta= 0.40
     Davidson diagonalization with overlap
     ethr =  3.96E-05,  avg # of iterations =  1.2

     negative rho (up, down):  4.184E-04 7.669E-04

     total cpu time spent up to now is     3545.0 secs

     total energy              =   -6204.74256045 Ry
     estimated scf accuracy    <       0.07892779 Ry

     total magnetization       =    12.87 Bohr mag/cell
     absolute magnetization    =    14.19 Bohr mag/cell

     iteration # 19     ecut=    60.00 Ry     beta= 0.40
     Davidson diagonalization with overlap
     ethr =  3.28E-05,  avg # of iterations =  1.6

     negative rho (up, down):  1.247E-04 2.108E-04

     total cpu time spent up to now is     3734.1 secs

     total energy              =   -6204.74257457 Ry
     estimated scf accuracy    <       0.05999879 Ry

     total magnetization       =    12.91 Bohr mag/cell
     absolute magnetization    =    14.22 Bohr mag/cell

     iteration # 20     ecut=    60.00 Ry     beta= 0.40
     Davidson diagonalization with overlap
     ethr =  2.49E-05,  avg # of iterations =  2.0

     negative rho (up, down):  2.029E-04 4.430E-04

     total cpu time spent up to now is     3925.3 secs

     total energy              =   -6204.74109145 Ry
     estimated scf accuracy    <       0.08968528 Ry

     total magnetization       =    12.97 Bohr mag/cell
     absolute magnetization    =    14.29 Bohr mag/cell

     iteration # 21     ecut=    60.00 Ry     beta= 0.40
     Davidson diagonalization with overlap
     ethr =  2.49E-05,  avg # of iterations =  1.2

     negative rho (up, down):  2.488E-04 5.239E-04

     total cpu time spent up to now is     4109.8 secs

     total energy              =   -6204.74101627 Ry
     estimated scf accuracy    <       0.06928451 Ry

     total magnetization       =    12.98 Bohr mag/cell
     absolute magnetization    =    14.30 Bohr mag/cell

     iteration # 22     ecut=    60.00 Ry     beta= 0.40
     Davidson diagonalization with overlap
     ethr =  2.49E-05,  avg # of iterations =  1.1

     negative rho (up, down):  2.211E-05 2.584E-05

     total cpu time spent up to now is     4291.5 secs

     total energy              =   -6204.74144602 Ry
     estimated scf accuracy    <       0.05872268 Ry

     total magnetization       =    12.99 Bohr mag/cell
     absolute magnetization    =    14.32 Bohr mag/cell

     iteration # 23     ecut=    60.00 Ry     beta= 0.40
     Davidson diagonalization with overlap
     ethr =  2.44E-05,  avg # of iterations =  1.3

     negative rho (up, down):  4.434E-05 5.116E-05

     total cpu time spent up to now is     4480.4 secs

     total energy              =   -6204.73836598 Ry
     estimated scf accuracy    <       0.05299897 Ry

     total magnetization       =    12.99 Bohr mag/cell
     absolute magnetization    =    14.34 Bohr mag/cell

     iteration # 24     ecut=    60.00 Ry     beta= 0.40
     Davidson diagonalization with overlap
     c_bands:  1 eigenvalues not converged
     ethr =  2.20E-05,  avg # of iterations =  2.2

     negative rho (up, down):  2.481E-04 2.593E-04

     total cpu time spent up to now is     4672.7 secs

     total energy              =   -6204.73855577 Ry
     estimated scf accuracy    <       0.01701626 Ry

     total magnetization       =    13.11 Bohr mag/cell
     absolute magnetization    =    14.50 Bohr mag/cell

     iteration # 25     ecut=    60.00 Ry     beta= 0.40
     Davidson diagonalization with overlap
     c_bands:  1 eigenvalues not converged
     ethr =  7.06E-06,  avg # of iterations =  5.2

     negative rho (up, down):  8.330E-04 8.377E-04

     total cpu time spent up to now is     4880.1 secs

     total energy              =   -6204.73826573 Ry
     estimated scf accuracy    <       0.00713995 Ry

     total magnetization       =    13.14 Bohr mag/cell
     absolute magnetization    =    14.54 Bohr mag/cell

     iteration # 26     ecut=    60.00 Ry     beta= 0.40
     Davidson diagonalization with overlap
     c_bands:  1 eigenvalues not converged
     c_bands:  1 eigenvalues not converged
     c_bands:  1 eigenvalues not converged
     ethr =  2.96E-06,  avg # of iterations =  8.3

     negative rho (up, down):  5.226E-04 5.266E-04

     total cpu time spent up to now is     5106.8 secs

     total energy              =   -6204.73813976 Ry
     estimated scf accuracy    <       0.00766248 Ry

     total magnetization       =    13.13 Bohr mag/cell
     absolute magnetization    =    14.54 Bohr mag/cell

     iteration # 27     ecut=    60.00 Ry     beta= 0.40
     Davidson diagonalization with overlap
     ethr =  2.96E-06,  avg # of iterations =  1.7

     total cpu time spent up to now is     5296.0 secs

     total energy              =   -6204.73855317 Ry
     estimated scf accuracy    <       0.00631295 Ry

     total magnetization       =    13.13 Bohr mag/cell
     absolute magnetization    =    14.52 Bohr mag/cell

     iteration # 28     ecut=    60.00 Ry     beta= 0.40
     Davidson diagonalization with overlap
     ethr =  2.62E-06,  avg # of iterations =  1.9

     total cpu time spent up to now is     5494.5 secs

     total energy              =   -6204.73868486 Ry
     estimated scf accuracy    <       0.00865998 Ry

     total magnetization       =    13.13 Bohr mag/cell
     absolute magnetization    =    14.50 Bohr mag/cell

     iteration # 29     ecut=    60.00 Ry     beta= 0.40
     Davidson diagonalization with overlap
     ethr =  2.62E-06,  avg # of iterations =  1.1

     total cpu time spent up to now is     5681.5 secs

     total energy              =   -6204.73868417 Ry
     estimated scf accuracy    <       0.00737651 Ry

     total magnetization       =    13.11 Bohr mag/cell
     absolute magnetization    =    14.48 Bohr mag/cell

     iteration # 30     ecut=    60.00 Ry     beta= 0.40
     Davidson diagonalization with overlap
     ethr =  2.62E-06,  avg # of iterations =  1.3

     total cpu time spent up to now is     5869.4 secs

     total energy              =   -6204.73869465 Ry
     estimated scf accuracy    <       0.00318975 Ry

     total magnetization       =    13.09 Bohr mag/cell
     absolute magnetization    =    14.46 Bohr mag/cell

     iteration # 31     ecut=    60.00 Ry     beta= 0.40
     Davidson diagonalization with overlap
     ethr =  1.32E-06,  avg # of iterations =  1.4

     total cpu time spent up to now is     6054.6 secs

     total energy              =   -6204.73868652 Ry
     estimated scf accuracy    <       0.00197530 Ry

     total magnetization       =    13.09 Bohr mag/cell
     absolute magnetization    =    14.46 Bohr mag/cell

     iteration # 32     ecut=    60.00 Ry     beta= 0.40
     Davidson diagonalization with overlap
     ethr =  8.20E-07,  avg # of iterations =  1.9

     negative rho (up, down):  5.623E-08 4.197E-08

     total cpu time spent up to now is     6252.9 secs

     total energy              =   -6204.73869664 Ry
     estimated scf accuracy    <       0.00327332 Ry

     total magnetization       =    13.09 Bohr mag/cell
     absolute magnetization    =    14.45 Bohr mag/cell

     iteration # 33     ecut=    60.00 Ry     beta= 0.40
     Davidson diagonalization with overlap
     ethr =  8.20E-07,  avg # of iterations =  1.3

     negative rho (up, down):  1.293E-07 1.176E-07

     total cpu time spent up to now is     6439.2 secs

     total energy              =   -6204.73877870 Ry
     estimated scf accuracy    <       0.00243973 Ry

     total magnetization       =    13.09 Bohr mag/cell
     absolute magnetization    =    14.45 Bohr mag/cell

     iteration # 34     ecut=    60.00 Ry     beta= 0.40
     Davidson diagonalization with overlap
     ethr =  8.20E-07,  avg # of iterations =  1.2

     negative rho (up, down):  6.341E-08 5.121E-08

     total cpu time spent up to now is     6621.1 secs

     total energy              =   -6204.73878231 Ry
     estimated scf accuracy    <       0.00261537 Ry

     total magnetization       =    13.08 Bohr mag/cell
     absolute magnetization    =    14.45 Bohr mag/cell

     iteration # 35     ecut=    60.00 Ry     beta= 0.40
     Davidson diagonalization with overlap
     ethr =  8.20E-07,  avg # of iterations =  1.3

     negative rho (up, down):  6.381E-07 3.541E-07

     total cpu time spent up to now is     6805.9 secs

     total energy              =   -6204.73880390 Ry
     estimated scf accuracy    <       0.00346751 Ry

     total magnetization       =    13.09 Bohr mag/cell
     absolute magnetization    =    14.46 Bohr mag/cell

     iteration # 36     ecut=    60.00 Ry     beta= 0.40
     Davidson diagonalization with overlap
     ethr =  8.20E-07,  avg # of iterations =  1.1

     negative rho (up, down):  1.380E-08 1.233E-08

     total cpu time spent up to now is     6995.0 secs

     total energy              =   -6204.73885183 Ry
     estimated scf accuracy    <       0.00429229 Ry

     total magnetization       =    13.10 Bohr mag/cell
     absolute magnetization    =    14.47 Bohr mag/cell

     iteration # 37     ecut=    60.00 Ry     beta= 0.40
     Davidson diagonalization with overlap
     ethr =  8.20E-07,  avg # of iterations =  1.2

     negative rho (up, down):  3.084E-07 2.389E-07

     total cpu time spent up to now is     7179.6 secs

     total energy              =   -6204.73888986 Ry
     estimated scf accuracy    <       0.00095091 Ry

     total magnetization       =    13.09 Bohr mag/cell
     absolute magnetization    =    14.46 Bohr mag/cell

     iteration # 38     ecut=    60.00 Ry     beta= 0.40
     Davidson diagonalization with overlap
     ethr =  3.95E-07,  avg # of iterations =  1.0

     negative rho (up, down):  2.546E-08 1.785E-08

     total cpu time spent up to now is     7360.7 secs

     total energy              =   -6204.73885692 Ry
     estimated scf accuracy    <       0.00147279 Ry

     total magnetization       =    13.09 Bohr mag/cell
     absolute magnetization    =    14.46 Bohr mag/cell

     iteration # 39     ecut=    60.00 Ry     beta= 0.40
     Davidson diagonalization with overlap
     ethr =  3.95E-07,  avg # of iterations =  1.1

     negative rho (up, down):  2.293E-05 2.124E-05

     total cpu time spent up to now is     7547.3 secs

     total energy              =   -6204.73882838 Ry
     estimated scf accuracy    <       0.00162946 Ry

     total magnetization       =    13.09 Bohr mag/cell
     absolute magnetization    =    14.46 Bohr mag/cell

     iteration # 40     ecut=    60.00 Ry     beta= 0.40
     Davidson diagonalization with overlap
     ethr =  3.95E-07,  avg # of iterations =  1.2

     negative rho (up, down):  2.223E-05 2.014E-05

     total cpu time spent up to now is     7734.2 secs

     total energy              =   -6204.73881026 Ry
     estimated scf accuracy    <       0.00224709 Ry

     total magnetization       =    13.09 Bohr mag/cell
     absolute magnetization    =    14.47 Bohr mag/cell

     iteration # 41     ecut=    60.00 Ry     beta= 0.40
     Davidson diagonalization with overlap
     ethr =  3.95E-07,  avg # of iterations =  1.0

     negative rho (up, down):  1.989E-06 1.726E-06

     total cpu time spent up to now is     7915.8 secs

     total energy              =   -6204.73884420 Ry
     estimated scf accuracy    <       0.00460504 Ry

     total magnetization       =    13.09 Bohr mag/cell
     absolute magnetization    =    14.46 Bohr mag/cell

     iteration # 42     ecut=    60.00 Ry     beta= 0.40
     Davidson diagonalization with overlap
     ethr =  3.95E-07,  avg # of iterations =  1.0

     negative rho (up, down):  1.076E-07 8.270E-08

     total cpu time spent up to now is     8099.6 secs

     total energy              =   -6204.73881079 Ry
     estimated scf accuracy    <       0.00219987 Ry

     total magnetization       =    13.09 Bohr mag/cell
     absolute magnetization    =    14.46 Bohr mag/cell

     iteration # 43     ecut=    60.00 Ry     beta= 0.40
     Davidson diagonalization with overlap
     ethr =  3.95E-07,  avg # of iterations =  1.0

     negative rho (up, down):  9.930E-05 8.941E-05

     total cpu time spent up to now is     8278.4 secs

     total energy              =   -6204.73877380 Ry
     estimated scf accuracy    <       0.00085487 Ry

     total magnetization       =    13.10 Bohr mag/cell
     absolute magnetization    =    14.47 Bohr mag/cell

     iteration # 44     ecut=    60.00 Ry     beta= 0.40
     Davidson diagonalization with overlap
     ethr =  3.55E-07,  avg # of iterations =  1.6

     negative rho (up, down):  2.368E-04 2.245E-04

     total cpu time spent up to now is     8472.3 secs

     total energy              =   -6204.73878210 Ry
     estimated scf accuracy    <       0.00080452 Ry

     total magnetization       =    13.11 Bohr mag/cell
     absolute magnetization    =    14.49 Bohr mag/cell

     iteration # 45     ecut=    60.00 Ry     beta= 0.40
     Davidson diagonalization with overlap
     ethr =  3.34E-07,  avg # of iterations =  1.0

     negative rho (up, down):  1.916E-04 1.801E-04

     total cpu time spent up to now is     8657.6 secs

     total energy              =   -6204.73877365 Ry
     estimated scf accuracy    <       0.00070029 Ry

     total magnetization       =    13.11 Bohr mag/cell
     absolute magnetization    =    14.49 Bohr mag/cell

     iteration # 46     ecut=    60.00 Ry     beta= 0.40
     Davidson diagonalization with overlap
     ethr =  2.91E-07,  avg # of iterations =  1.0

     negative rho (up, down):  5.044E-04 4.897E-04

     total cpu time spent up to now is     8840.7 secs

     total energy              =   -6204.73876954 Ry
     estimated scf accuracy    <       0.00040021 Ry

     total magnetization       =    13.11 Bohr mag/cell
     absolute magnetization    =    14.49 Bohr mag/cell

     iteration # 47     ecut=    60.00 Ry     beta= 0.40
     Davidson diagonalization with overlap
     ethr =  1.66E-07,  avg # of iterations =  1.1

     negative rho (up, down):  3.512E-04 3.321E-04

     total cpu time spent up to now is     9027.5 secs

     total energy              =   -6204.73877560 Ry
     estimated scf accuracy    <       0.00024068 Ry

     total magnetization       =    13.11 Bohr mag/cell
     absolute magnetization    =    14.49 Bohr mag/cell

     iteration # 48     ecut=    60.00 Ry     beta= 0.40
     Davidson diagonalization with overlap
     ethr =  9.99E-08,  avg # of iterations =  1.0

     negative rho (up, down):  2.604E-04 2.292E-04

     total cpu time spent up to now is     9208.6 secs

     total energy              =   -6204.73877743 Ry
     estimated scf accuracy    <       0.00016537 Ry

     total magnetization       =    13.11 Bohr mag/cell
     absolute magnetization    =    14.49 Bohr mag/cell

     iteration # 49     ecut=    60.00 Ry     beta= 0.40
     Davidson diagonalization with overlap
     ethr =  6.86E-08,  avg # of iterations =  1.0

     negative rho (up, down):  5.035E-04 4.724E-04

     total cpu time spent up to now is     9393.3 secs

     total energy              =   -6204.73877579 Ry
     estimated scf accuracy    <       0.00011493 Ry

     total magnetization       =    13.11 Bohr mag/cell
     absolute magnetization    =    14.49 Bohr mag/cell

     iteration # 50     ecut=    60.00 Ry     beta= 0.40
     Davidson diagonalization with overlap
     ethr =  4.77E-08,  avg # of iterations =  1.1

     negative rho (up, down):  4.614E-04 4.313E-04

     total cpu time spent up to now is     9579.6 secs

     total energy              =   -6204.73877820 Ry
     estimated scf accuracy    <       0.00008485 Ry

     total magnetization       =    13.11 Bohr mag/cell
     absolute magnetization    =    14.48 Bohr mag/cell

     iteration # 51     ecut=    60.00 Ry     beta= 0.40
     Davidson diagonalization with overlap
     ethr =  3.52E-08,  avg # of iterations =  1.0

     negative rho (up, down):  7.101E-04 6.880E-04

     total cpu time spent up to now is     9760.8 secs

     total energy              =   -6204.73877783 Ry
     estimated scf accuracy    <       0.00003437 Ry

     total magnetization       =    13.10 Bohr mag/cell
     absolute magnetization    =    14.48 Bohr mag/cell

     iteration # 52     ecut=    60.00 Ry     beta= 0.40
     Davidson diagonalization with overlap
     ethr =  1.43E-08,  avg # of iterations =  1.4

     negative rho (up, down):  4.437E-04 4.095E-04

     total cpu time spent up to now is     9959.5 secs

     total energy              =   -6204.73877912 Ry
     estimated scf accuracy    <       0.00010414 Ry

     total magnetization       =    13.11 Bohr mag/cell
     absolute magnetization    =    14.48 Bohr mag/cell

     iteration # 53     ecut=    60.00 Ry     beta= 0.40
     Davidson diagonalization with overlap
     ethr =  1.43E-08,  avg # of iterations =  1.0

     negative rho (up, down):  3.681E-04 3.303E-04

     total cpu time spent up to now is    10141.7 secs

     total energy              =   -6204.73877923 Ry
     estimated scf accuracy    <       0.00005015 Ry

     total magnetization       =    13.11 Bohr mag/cell
     absolute magnetization    =    14.48 Bohr mag/cell

     iteration # 54     ecut=    60.00 Ry     beta= 0.40
     Davidson diagonalization with overlap
     ethr =  1.43E-08,  avg # of iterations =  1.0

     negative rho (up, down):  2.833E-04 2.411E-04

     total cpu time spent up to now is    10323.7 secs

     total energy              =   -6204.73877979 Ry
     estimated scf accuracy    <       0.00005779 Ry

     total magnetization       =    13.10 Bohr mag/cell
     absolute magnetization    =    14.48 Bohr mag/cell

     iteration # 55     ecut=    60.00 Ry     beta= 0.40
     Davidson diagonalization with overlap
     ethr =  1.43E-08,  avg # of iterations =  1.0

     negative rho (up, down):  1.762E-04 1.341E-04

     total cpu time spent up to now is    10510.4 secs

     total energy              =   -6204.73878007 Ry
     estimated scf accuracy    <       0.00002644 Ry

     total magnetization       =    13.10 Bohr mag/cell
     absolute magnetization    =    14.48 Bohr mag/cell

     iteration # 56     ecut=    60.00 Ry     beta= 0.40
     Davidson diagonalization with overlap
     ethr =  1.10E-08,  avg # of iterations =  1.0

     negative rho (up, down):  1.434E-04 1.022E-04

     total cpu time spent up to now is    10694.8 secs

     total energy              =   -6204.73878053 Ry
     estimated scf accuracy    <       0.00000333 Ry

     total magnetization       =    13.10 Bohr mag/cell
     absolute magnetization    =    14.48 Bohr mag/cell

     iteration # 57     ecut=    60.00 Ry     beta= 0.40
     Davidson diagonalization with overlap
     ethr =  1.38E-09,  avg # of iterations =  1.1

     negative rho (up, down):  1.302E-04 8.948E-05

     total cpu time spent up to now is    10882.9 secs

     total energy              =   -6204.73878049 Ry
     estimated scf accuracy    <       0.00000166 Ry

     total magnetization       =    13.10 Bohr mag/cell
     absolute magnetization    =    14.48 Bohr mag/cell

     iteration # 58     ecut=    60.00 Ry     beta= 0.40
     Davidson diagonalization with overlap
     ethr =  6.88E-10,  avg # of iterations =  1.1

     negative rho (up, down):  1.377E-04 9.590E-05

     total cpu time spent up to now is    11075.9 secs

     total energy              =   -6204.73878054 Ry
     estimated scf accuracy    <       0.00000115 Ry

     total magnetization       =    13.10 Bohr mag/cell
     absolute magnetization    =    14.48 Bohr mag/cell

     iteration # 59     ecut=    60.00 Ry     beta= 0.40
     Davidson diagonalization with overlap
     ethr =  4.76E-10,  avg # of iterations =  1.1

     negative rho (up, down):  1.455E-04 1.031E-04

     total cpu time spent up to now is    11266.0 secs

     total energy              =   -6204.73878058 Ry
     estimated scf accuracy    <       0.00000152 Ry

     total magnetization       =    13.10 Bohr mag/cell
     absolute magnetization    =    14.48 Bohr mag/cell

     iteration # 60     ecut=    60.00 Ry     beta= 0.40
     Davidson diagonalization with overlap
     ethr =  4.76E-10,  avg # of iterations =  1.0

     negative rho (up, down):  1.638E-04 1.200E-04

     total cpu time spent up to now is    11448.5 secs

     total energy              =   -6204.73878064 Ry
     estimated scf accuracy    <       0.00000036 Ry

     total magnetization       =    13.10 Bohr mag/cell
     absolute magnetization    =    14.48 Bohr mag/cell

     iteration # 61     ecut=    60.00 Ry     beta= 0.40
     Davidson diagonalization with overlap
     ethr =  1.48E-10,  avg # of iterations =  1.4

     negative rho (up, down):  1.736E-04 1.293E-04

     total cpu time spent up to now is    11649.7 secs

     total energy              =   -6204.73878064 Ry
     estimated scf accuracy    <       0.00000046 Ry

     total magnetization       =    13.10 Bohr mag/cell
     absolute magnetization    =    14.48 Bohr mag/cell

     iteration # 62     ecut=    60.00 Ry     beta= 0.40
     Davidson diagonalization with overlap
     ethr =  1.48E-10,  avg # of iterations =  1.3

     negative rho (up, down):  1.826E-04 1.379E-04

     total cpu time spent up to now is    11846.3 secs

     total energy              =   -6204.73878067 Ry
     estimated scf accuracy    <       0.00000041 Ry

     total magnetization       =    13.10 Bohr mag/cell
     absolute magnetization    =    14.48 Bohr mag/cell

     iteration # 63     ecut=    60.00 Ry     beta= 0.40
     Davidson diagonalization with overlap
     ethr =  1.48E-10,  avg # of iterations =  1.0

     negative rho (up, down):  1.827E-04 1.380E-04

     total cpu time spent up to now is    12031.9 secs

     total energy              =   -6204.73878067 Ry
     estimated scf accuracy    <       0.00000025 Ry

     total magnetization       =    13.10 Bohr mag/cell
     absolute magnetization    =    14.48 Bohr mag/cell

     iteration # 64     ecut=    60.00 Ry     beta= 0.40
     Davidson diagonalization with overlap
     ethr =  1.05E-10,  avg # of iterations =  1.0

     negative rho (up, down):  1.999E-04 1.547E-04

     total cpu time spent up to now is    12222.6 secs

     total energy              =   -6204.73878071 Ry
     estimated scf accuracy    <       0.00000025 Ry

     total magnetization       =    13.10 Bohr mag/cell
     absolute magnetization    =    14.48 Bohr mag/cell

     iteration # 65     ecut=    60.00 Ry     beta= 0.40
     Davidson diagonalization with overlap
     ethr =  1.05E-10,  avg # of iterations =  1.3

     negative rho (up, down):  2.005E-04 1.554E-04

     total cpu time spent up to now is    12417.0 secs

     total energy              =   -6204.73878072 Ry
     estimated scf accuracy    <       0.00000012 Ry

     total magnetization       =    13.10 Bohr mag/cell
     absolute magnetization    =    14.48 Bohr mag/cell

     iteration # 66     ecut=    60.00 Ry     beta= 0.40
     Davidson diagonalization with overlap
     ethr =  4.93E-11,  avg # of iterations =  1.1

     negative rho (up, down):  2.018E-04 1.566E-04

     total cpu time spent up to now is    12608.3 secs

     total energy              =   -6204.73878073 Ry
     estimated scf accuracy    <       0.00000005 Ry

     total magnetization       =    13.10 Bohr mag/cell
     absolute magnetization    =    14.48 Bohr mag/cell

     iteration # 67     ecut=    60.00 Ry     beta= 0.40
     Davidson diagonalization with overlap
     ethr =  2.17E-11,  avg # of iterations =  1.5

     negative rho (up, down):  2.042E-04 1.590E-04

     total cpu time spent up to now is    12807.3 secs

     total energy              =   -6204.73878073 Ry
     estimated scf accuracy    <       0.00000002 Ry

     total magnetization       =    13.10 Bohr mag/cell
     absolute magnetization    =    14.48 Bohr mag/cell

     iteration # 68     ecut=    60.00 Ry     beta= 0.40
     Davidson diagonalization with overlap
     ethr =  9.60E-12,  avg # of iterations =  1.8

     negative rho (up, down):  2.061E-04 1.609E-04

     total cpu time spent up to now is    13014.1 secs

     total energy              =   -6204.73878074 Ry
     estimated scf accuracy    <       0.00000002 Ry

     total magnetization       =    13.10 Bohr mag/cell
     absolute magnetization    =    14.48 Bohr mag/cell

     iteration # 69     ecut=    60.00 Ry     beta= 0.40
     Davidson diagonalization with overlap
     ethr =  7.34E-12,  avg # of iterations =  1.2

     negative rho (up, down):  2.066E-04 1.614E-04

     total cpu time spent up to now is    13204.5 secs

     total energy              =   -6204.73878074 Ry
     estimated scf accuracy    <       0.00000001 Ry

     total magnetization       =    13.10 Bohr mag/cell
     absolute magnetization    =    14.48 Bohr mag/cell

     iteration # 70     ecut=    60.00 Ry     beta= 0.40
     Davidson diagonalization with overlap
     ethr =  4.81E-12,  avg # of iterations =  1.4

     negative rho (up, down):  2.058E-04 1.606E-04

     total cpu time spent up to now is    13399.9 secs

     total energy              =   -6204.73878074 Ry
     estimated scf accuracy    <          3.9E-09 Ry

     total magnetization       =    13.10 Bohr mag/cell
     absolute magnetization    =    14.48 Bohr mag/cell

     iteration # 71     ecut=    60.00 Ry     beta= 0.40
     Davidson diagonalization with overlap
     ethr =  1.60E-12,  avg # of iterations =  2.2

     negative rho (up, down):  2.065E-04 1.613E-04

     total cpu time spent up to now is    13606.7 secs

     total energy              =   -6204.73878074 Ry
     estimated scf accuracy    <          3.0E-09 Ry

     total magnetization       =    13.10 Bohr mag/cell
     absolute magnetization    =    14.48 Bohr mag/cell

     iteration # 72     ecut=    60.00 Ry     beta= 0.40
     Davidson diagonalization with overlap
     ethr =  1.26E-12,  avg # of iterations =  1.4

     negative rho (up, down):  2.066E-04 1.614E-04

     total cpu time spent up to now is    13805.2 secs

     total energy              =   -6204.73878074 Ry
     estimated scf accuracy    <          2.6E-09 Ry

     total magnetization       =    13.10 Bohr mag/cell
     absolute magnetization    =    14.48 Bohr mag/cell

     iteration # 73     ecut=    60.00 Ry     beta= 0.40
     Davidson diagonalization with overlap
     ethr =  1.10E-12,  avg # of iterations =  1.0

     negative rho (up, down):  2.063E-04 1.611E-04

     total cpu time spent up to now is    13987.8 secs

     total energy              =   -6204.73878074 Ry
     estimated scf accuracy    <          2.3E-09 Ry

     total magnetization       =    13.10 Bohr mag/cell
     absolute magnetization    =    14.48 Bohr mag/cell

     iteration # 74     ecut=    60.00 Ry     beta= 0.40
     Davidson diagonalization with overlap
     ethr =  9.52E-13,  avg # of iterations =  1.0

     negative rho (up, down):  2.056E-04 1.604E-04

     total cpu time spent up to now is    14174.6 secs

     total energy              =   -6204.73878074 Ry
     estimated scf accuracy    <          1.3E-09 Ry

     total magnetization       =    13.10 Bohr mag/cell
     absolute magnetization    =    14.48 Bohr mag/cell

     iteration # 75     ecut=    60.00 Ry     beta= 0.40
     Davidson diagonalization with overlap
     ethr =  5.38E-13,  avg # of iterations =  1.1

     negative rho (up, down):  2.060E-04 1.608E-04

     total cpu time spent up to now is    14355.8 secs

     total energy              =   -6204.73878074 Ry
     estimated scf accuracy    <          7.1E-10 Ry

     total magnetization       =    13.10 Bohr mag/cell
     absolute magnetization    =    14.48 Bohr mag/cell

     iteration # 76     ecut=    60.00 Ry     beta= 0.40
     Davidson diagonalization with overlap
     ethr =  2.93E-13,  avg # of iterations =  1.6

     negative rho (up, down):  2.064E-04 1.612E-04

     total cpu time spent up to now is    14552.2 secs

     total energy              =   -6204.73878074 Ry
     estimated scf accuracy    <          5.8E-10 Ry

     total magnetization       =    13.10 Bohr mag/cell
     absolute magnetization    =    14.48 Bohr mag/cell

     iteration # 77     ecut=    60.00 Ry     beta= 0.40
     Davidson diagonalization with overlap
     ethr =  2.42E-13,  avg # of iterations =  1.0

     negative rho (up, down):  2.065E-04 1.613E-04

     total cpu time spent up to now is    14737.3 secs

     total energy              =   -6204.73878074 Ry
     estimated scf accuracy    <          3.2E-10 Ry

     total magnetization       =    13.10 Bohr mag/cell
     absolute magnetization    =    14.48 Bohr mag/cell

     iteration # 78     ecut=    60.00 Ry     beta= 0.40
     Davidson diagonalization with overlap
     ethr =  1.34E-13,  avg # of iterations =  1.1

     negative rho (up, down):  2.066E-04 1.614E-04

     total cpu time spent up to now is    14922.9 secs

     total energy              =   -6204.73878074 Ry
     estimated scf accuracy    <          4.2E-10 Ry

     total magnetization       =    13.10 Bohr mag/cell
     absolute magnetization    =    14.48 Bohr mag/cell

     iteration # 79     ecut=    60.00 Ry     beta= 0.40
     Davidson diagonalization with overlap
     ethr =  1.34E-13,  avg # of iterations =  1.0

     negative rho (up, down):  2.068E-04 1.616E-04

     total cpu time spent up to now is    15104.0 secs

     total energy              =   -6204.73878074 Ry
     estimated scf accuracy    <          2.1E-10 Ry

     total magnetization       =    13.10 Bohr mag/cell
     absolute magnetization    =    14.48 Bohr mag/cell

     iteration # 80     ecut=    60.00 Ry     beta= 0.40
     Davidson diagonalization with overlap
     ethr =  1.00E-13,  avg # of iterations =  1.1

     negative rho (up, down):  2.069E-04 1.617E-04

     total cpu time spent up to now is    15291.8 secs

     total energy              =   -6204.73878074 Ry
     estimated scf accuracy    <          1.1E-10 Ry

     total magnetization       =    13.10 Bohr mag/cell
     absolute magnetization    =    14.48 Bohr mag/cell

     iteration # 81     ecut=    60.00 Ry     beta= 0.40
     Davidson diagonalization with overlap
     ethr =  1.00E-13,  avg # of iterations =  1.0

     negative rho (up, down):  2.067E-04 1.615E-04
 
     Magnetic moment per site  (integrated on atomic sphere of radius R)
     atom   1 (R=0.118)  charge=  6.1472  magn=  0.7340
     atom   2 (R=0.204)  charge=  8.0215  magn=  0.2983
     atom   3 (R=0.204)  charge=  8.0215  magn=  0.2983
     atom   4 (R=0.118)  charge=  6.1475  magn=  0.7303
     atom   5 (R=0.204)  charge=  8.0587  magn=  0.3623
     atom   6 (R=0.204)  charge=  8.0587  magn=  0.3623
     atom   7 (R=0.118)  charge=  6.1406  magn=  0.7267
     atom   8 (R=0.118)  charge=  6.1401  magn=  0.7492
     atom   9 (R=0.118)  charge=  6.1407  magn=  0.7126
     atom  10 (R=0.118)  charge=  6.1409  magn=  0.7051
     atom  11 (R=0.204)  charge=  8.0631  magn=  0.3456
     atom  12 (R=0.204)  charge=  8.0631  magn=  0.3456
     atom  13 (R=0.118)  charge=  6.1405  magn=  0.6992
     atom  14 (R=0.204)  charge=  8.0551  magn=  0.3402
     atom  15 (R=0.204)  charge=  8.0551  magn=  0.3402
     atom  16 (R=0.118)  charge=  6.1415  magn=  0.7249
     atom  17 (R=0.118)  charge=  6.1403  magn=  0.7032
     atom  18 (R=0.204)  charge=  8.0608  magn=  0.3230
     atom  19 (R=0.204)  charge=  8.0608  magn=  0.3230
     atom  20 (R=0.118)  charge=  6.1396  magn=  0.7617
     atom  21 (R=0.204)  charge=  8.0099  magn=  0.2705
     atom  22 (R=0.118)  charge=  6.1297  magn=  0.3420
     atom  23 (R=0.118)  charge=  6.1487  magn=  0.7323
     atom  24 (R=0.204)  charge=  8.0099  magn=  0.2705
     atom  25 (R=0.118)  charge=  0.6453  magn= -0.0104

     total cpu time spent up to now is    15473.0 secs

     End of self-consistent calculation

     Number of k-points >= 100: set verbosity='high' to print the bands.

     the Fermi energy is    -5.1317 ev

!    total energy              =   -6204.73878074 Ry
     total all-electron energy =   -157606.830137 Ry
     estimated scf accuracy    <          7.6E-11 Ry
     smearing contrib. (-TS)   =       0.00167236 Ry
     internal energy E=F+TS    =   -6204.74045310 Ry

     The total energy is F=E-TS. E is the sum of the following terms:
     one-electron contribution =  -65061.06091850 Ry
     hartree contribution      =   32721.48995560 Ry
     xc contribution           =    -891.35243798 Ry
     ewald contribution        =   31130.03315275 Ry
     DFT-D3 Dispersion         =      -2.26702092 Ry
     one-center paw contrib.   =   -4101.58318406 Ry

     total magnetization       =    13.10 Bohr mag/cell
     absolute magnetization    =    14.48 Bohr mag/cell

     convergence has been achieved in  81 iterations

     negative rho (up, down):  2.067E-04 1.615E-04

     Forces acting on atoms (cartesian axes, Ry/au):

     atom    1 type  1   force =    -0.00810618    0.00487919    0.00683002
     atom    2 type  2   force =     0.01149861   -0.00680723   -0.00918654
     atom    3 type  2   force =     0.01139797   -0.00697445   -0.00918653
     atom    4 type  1   force =    -0.00810469    0.00487829    0.00659579
     atom    5 type  2   force =    -0.00026208   -0.00078279    0.00456911
     atom    6 type  2   force =     0.00056905    0.00059803    0.00456911
     atom    7 type  1   force =    -0.00332044    0.00199860   -0.00097656
     atom    8 type  1   force =    -0.00349155    0.00210160   -0.00288713
     atom    9 type  1   force =    -0.00018115    0.00010904    0.00017918
     atom   10 type  1   force =    -0.00040655    0.00024470    0.00005286
     atom   11 type  2   force =     0.00006899    0.00003217    0.00042505
     atom   12 type  2   force =     0.00000387   -0.00007603    0.00042506
     atom   13 type  1   force =    -0.00001202    0.00000723    0.00035564
     atom   14 type  2   force =     0.00019093   -0.00005965   -0.00023209
     atom   15 type  2   force =     0.00014210   -0.00014079   -0.00023210
     atom   16 type  1   force =     0.00023268   -0.00014005    0.00016720
     atom   17 type  1   force =    -0.00060122    0.00036189   -0.00014368
     atom   18 type  2   force =     0.00006367    0.00023288   -0.00052089
     atom   19 type  2   force =    -0.00017598   -0.00016528   -0.00052091
     atom   20 type  1   force =     0.00039913   -0.00024024   -0.00001670
     atom   21 type  2   force =    -0.00005507    0.00006428   -0.00027267
     atom   22 type  1   force =    -0.00035758    0.00021524   -0.00009189
     atom   23 type  1   force =    -0.00050753    0.00030548    0.00025945
     atom   24 type  2   force =    -0.00008260    0.00001858   -0.00027265
     atom   25 type  3   force =     0.00109766   -0.00066069    0.00011186

     Total force =     0.001806     Total SCF correction =     0.000029


     Computing stress (Cartesian axis) and pressure


     negative rho (up, down):  2.067E-04 1.615E-04
          total   stress  (Ry/bohr**3)                   (kbar)     P=       -7.41
  -0.00007396  -0.00000414  -0.00000465          -10.88       -0.61       -0.68
  -0.00000414  -0.00007834   0.00000280           -0.61      -11.52        0.41
  -0.00000465   0.00000280   0.00000109           -0.68        0.41        0.16


     Writing all to output data dir /tmpu/isholek_g/isholek/MIGUEL/QE/Hydrogen/111_2x2/SAVE/Ni2Pd2_111-T1.save/ :
     XML data file, charge density, pseudopotentials, collected wavefunctions
 
     init_run     :     97.85s CPU    100.97s WALL (       1 calls)
     electrons    :  13893.36s CPU  15371.64s WALL (       1 calls)
     forces       :     31.16s CPU     34.59s WALL (       1 calls)
     force_dftd3  :      0.18s CPU      0.19s WALL (       1 calls)
     stress       :    279.32s CPU    297.81s WALL (       1 calls)
     stres_dftd3  :      0.17s CPU      0.17s WALL (       1 calls)

     Called by init_run:
     wfcinit      :     96.14s CPU     99.09s WALL (       1 calls)
     potinit      :      0.89s CPU      0.93s WALL (       1 calls)
     hinit0       :      0.43s CPU      0.47s WALL (       1 calls)

     Called by electrons:
     c_bands      :  11374.59s CPU  12605.38s WALL (      81 calls)
     sum_band     :   2388.87s CPU   2623.54s WALL (      81 calls)
     v_of_rho     :     32.09s CPU     34.88s WALL (      82 calls)
     newd         :      8.86s CPU      9.54s WALL (      82 calls)
     PAW_pot      :     20.79s CPU     22.13s WALL (      82 calls)
     mix_rho      :     62.15s CPU     68.52s WALL (      81 calls)
     energy_dftd3 :      0.07s CPU      0.07s WALL (       1 calls)

     Called by c_bands:
     init_us_2    :     90.77s CPU    101.41s WALL (   10560 calls)
     init_us_2:cp :     90.62s CPU    101.29s WALL (   10560 calls)
     cegterg      :  10869.85s CPU  12006.42s WALL (    5184 calls)

     Called by *egterg:
     cdiaghg      :    393.14s CPU    433.92s WALL (   12692 calls)
     h_psi        :   6968.60s CPU   7819.75s WALL (   12756 calls)
     s_psi        :    667.39s CPU    722.89s WALL (   12756 calls)
     g_psi        :     21.61s CPU     23.58s WALL (    7508 calls)

     Called by h_psi:
     h_psi:calbec :   1116.22s CPU   1195.77s WALL (   12756 calls)
     vloc_psi     :   5130.73s CPU   5803.44s WALL (   12756 calls)
     add_vuspsi   :    686.20s CPU    779.86s WALL (   12756 calls)

     General routines
     calbec       :   1720.98s CPU   1845.62s WALL (   18260 calls)
     fft          :     24.65s CPU     27.08s WALL (    2088 calls)
     ffts         :     19.79s CPU     22.40s WALL (   10166 calls)
     fftw         :   5498.51s CPU   6067.70s WALL ( 3801602 calls)
     interpolate  :      1.88s CPU      2.11s WALL (     164 calls)
 
     Parallel routines
 
     PWSCF        :      3h58m CPU      4h23m WALL

 
   This run was terminated on:   4:41:11   1May2026            

=------------------------------------------------------------------------------=
   JOB DONE.
=------------------------------------------------------------------------------=
