
     Program PWSCF v.7.3 starts on 22Mar2026 at  1:10:43 

     This program is part of the open-source Quantum ESPRESSO suite
     for quantum simulation of materials; please cite
         "P. Giannozzi et al., J. Phys.:Condens. Matter 21 395502 (2009);
         "P. Giannozzi et al., J. Phys.:Condens. Matter 29 465901 (2017);
         "P. Giannozzi et al., J. Chem. Phys. 152 154105 (2020);
          URL http://www.quantum-espresso.org", 
     in publications or presentations arising from this work. More details at
     http://www.quantum-espresso.org/quote

     Parallel version (MPI), running on    64 processors

     MPI processes distributed on     4 nodes
     235109 MiB available memory on the printing compute node when the environment starts
 
     Reading input from /tmpu/isholek_g/isholek/MIGUEL/QE/Hydrogen/111_2x2/SCF/Ni2Pd2_111-H_fcc_1-SCF.in

     Current dimensions of program PWSCF are:
     Max number of different atomic species (ntypx) = 10
     Max number of k-points (npk) =  40000
     Max angular momentum in pseudopotentials (lmaxx) =  4
     file Ni.upf: wavefunction(s)  4S 3D renormalized
     file Pd.upf: wavefunction(s)  5S 4D renormalized
     file H.upf: wavefunction(s)  1S renormalized

     IMPORTANT: XC functional enforced from input :
     Exchange-correlation= PBE
                           (   1   4   3   4   0   0   0)
     Any further DFT definition will be discarded
     Please, verify this is what you really want

 
     K-points division:     npool     =       8
     R & G space division:  proc/nbgrp/npool/nimage =       8
     Subspace diagonalization in iterative solution of the eigenvalue problem:
     one sub-group per band group will be used
     scalapack distributed-memory algorithm (size of sub-group:  2*  2 procs)

 
     Parallelization info
     --------------------
     sticks:   dense  smooth     PW     G-vecs:    dense   smooth      PW
     Min         395     197     56               113792    40212    6278
     Max         396     199     57               113804    40221    6305
     Sum        3165    1581    455               910393   321727   50373
 
     Using Slab Decomposition
 

     Title: 
     Ni2Pd2_111-H_fcc_1-SCF                                                     


     bravais-lattice index     =            0
     lattice parameter (alat)  =       9.7088  a.u.
     unit-cell volume          =    5128.0588 (a.u.)^3
     number of atoms/cell      =           25
     number of atomic types    =            3
     number of electrons       =       241.00
     number of Kohn-Sham states=          145
     kinetic-energy cutoff     =      60.0000  Ry
     charge density cutoff     =     480.0000  Ry
     scf convergence threshold =      1.0E-10
     mixing beta               =       0.2000
     number of iterations used =           12  local-TF  mixing
     Exchange-correlation= PBE
                           (   1   4   3   4   0   0   0)

     celldm(1)=   9.708762  celldm(2)=   0.000000  celldm(3)=   0.000000
     celldm(4)=   0.000000  celldm(5)=   0.000000  celldm(6)=   0.000000

     crystal axes: (cart. coord. in units of alat)
               a(1) = (   1.000000   0.000000   0.000000 )  
               a(2) = (   0.531889   0.883670   0.000000 )  
               a(3) = (   0.000000   0.000000   6.341200 )  

     reciprocal axes: (cart. coord. in units 2 pi/alat)
               b(1) = (  1.000000 -0.601910  0.000000 )  
               b(2) = (  0.000000  1.131644  0.000000 )  
               b(3) = (  0.000000  0.000000  0.157699 )  


     PseudoPot. # 1 for Ni read from file:
     /tmpu/isholek_g/isholek/MIGUEL/PP/PAW/Ni.upf
     MD5 check sum: d88365a95a5e142bd87181c2c8b16588
     Pseudo is Projector augmented-wave + core cor, Zval = 10.0
     Generated using "atomic" code by A. Dal Corso  v.5.0.2 svn rev. 9415
     Shape of augmentation charge: PSQ
     Using radial grid of 1195 points,  6 beta functions with: 
                l(1) =   0
                l(2) =   0
                l(3) =   1
                l(4) =   1
                l(5) =   2
                l(6) =   2
     Q(r) pseudized with 0 coefficients 


     PseudoPot. # 2 for Pd read from file:
     /tmpu/isholek_g/isholek/MIGUEL/PP/PAW/Pd.upf
     MD5 check sum: e9d6f14fd83b79f8105499163af174c9
     Pseudo is Projector augmented-wave + core cor, Zval = 10.0
     Generated using "atomic" code by A. Dal Corso  v.5.0.2 svn rev. 9415
     Shape of augmentation charge: PSQ
     Using radial grid of 1235 points,  6 beta functions with: 
                l(1) =   0
                l(2) =   0
                l(3) =   1
                l(4) =   1
                l(5) =   2
                l(6) =   2
     Q(r) pseudized with 0 coefficients 


     PseudoPot. # 3 for H  read from file:
     /tmpu/isholek_g/isholek/MIGUEL/PP/PAW/H.upf
     MD5 check sum: 4cbe42a24e15140179a93d5bf84f2220
     Pseudo is Projector augmented-wave, Zval =  1.0
     Generated using "atomic" code by A. Dal Corso  v.5.0.2 svn rev. 9415
     Shape of augmentation charge: PSQ
     Using radial grid of  929 points,  2 beta functions with: 
                l(1) =   0
                l(2) =   0
     Q(r) pseudized with 0 coefficients 


     atomic species   valence    mass     pseudopotential
     Ni               10.00    58.69340     Ni( 1.00)
     Pd               10.00   106.42000     Pd( 1.00)
     H                 1.00     1.00794     H ( 1.00)

     Starting magnetic structure 
     atomic species   magnetization
     Ni              0.650
     Pd              0.100
     H               0.000

     No symmetry found



   Cartesian axes

     site n.     atom                  positions (alat units)
         1        Ni     tau(   1) = (   0.0000000   0.0000000   2.1410544  )
         2        Pd     tau(   2) = (   0.7659447   0.4418349   2.1410544  )
         3        Pd     tau(   3) = (   0.5000000   0.0000000   2.1410544  )
         4        Ni     tau(   4) = (   0.2659447   0.4418349   2.1410544  )
         5        Pd     tau(   5) = (   0.2340553   0.1600746   2.5528726  )
         6        Pd     tau(   6) = (   0.5000000   0.6019096   2.5528726  )
         7        Ni     tau(   7) = (   0.7340553   0.1600746   2.5528726  )
         8        Ni     tau(   8) = (   1.0000000   0.6019096   2.5528726  )
         9        Ni     tau(   9) = (   0.4681211   0.3201430   2.9648255  )
        10        Ni     tau(  10) = (   0.7340679   0.7619766   2.9646517  )
        11        Pd     tau(  11) = (   0.9677371   0.3203854   2.9628067  )
        12        Pd     tau(  12) = (   1.2336718   0.7622037   2.9628067  )
        13        Ni     tau(  13) = (   0.9376788   0.0375117   3.3738855  )
        14        Pd     tau(  14) = (   0.7047816   0.4789346   3.3772084  )
        15        Pd     tau(  15) = (   0.4385851   0.0366812   3.3772084  )
        16        Ni     tau(  16) = (   1.2041665   0.4790198   3.3724386  )
        17        Ni     tau(  17) = (   0.9359201   0.6404799   3.7927457  )
        18        Pd     tau(  18) = (   0.1670464   0.2001133   3.7829336  )
        19        Pd     tau(  19) = (   0.4332514   0.6423808   3.7829336  )
        20        Ni     tau(  20) = (   0.6706041   0.1982665   3.7909702  )
        21        Pd     tau(  21) = (   0.9090746   0.3534794   4.2131706  )
        22        Ni     tau(  22) = (   0.6767952   0.7964496   4.1927268  )
        23        Ni     tau(  23) = (   0.4143670   0.3524981   4.1845301  )
        24        Pd     tau(  24) = (   1.1769670   0.7985504   4.2131706  )
        25        H      tau(  25) = (   0.9024828   0.6606061   4.3939559  )

     --------------------------------------------
     DFT-D3 Dispersion Correction (3-body terms):
     --------------------------------------------
       Reference C6 values for interpolation: 

         atom   Coordination number   C6
         H          0.912             6.05
         H          0.000            15.18
         Ni         0.000          1149.49
         Ni         1.794           356.66
         Ni         6.546           257.56
         Ni         6.292           283.75
         Pd         0.000          1217.01
         Pd         1.863           573.90
         Pd         5.710           531.75

       Values used:

         atom   Coordination number  R0_AB[au]  C6      C8
         Ni         6.134            3.162    273.94  22954.55
         Pd         7.162            3.168    531.75  48720.73
         Pd         7.162            3.168    531.75  48720.73
         Ni         6.134            3.162    273.94  22954.55
         Pd         9.624            3.168    531.75  48720.73
         Pd         9.624            3.168    531.75  48720.73
         Ni         8.222            3.162    258.18  21633.31
         Ni         8.223            3.162    258.17  21633.19
         Ni         8.231            3.162    258.17  21632.41
         Ni         8.222            3.162    258.18  21633.27
         Pd         9.661            3.168    531.75  48720.73
         Pd         9.661            3.168    531.75  48720.73
         Ni         8.239            3.162    258.16  21631.53
         Pd         9.602            3.168    531.75  48720.73
         Pd         9.602            3.168    531.75  48720.73
         Ni         8.225            3.162    258.17  21632.96
         Ni         8.096            3.162    258.35  21647.78
         Pd         9.612            3.168    531.75  48720.73
         Pd         9.612            3.168    531.75  48720.73
         Ni         8.195            3.162    258.21  21636.14
         Pd         7.522            3.168    531.75  48720.73
         Ni         6.827            3.162    265.15  22217.83
         Ni         6.337            3.162    271.31  22734.02
         Pd         7.522            3.168    531.75  48720.73
         H          1.761            2.062      6.05     73.18

         Molecular C6 ( Ry / a.u.^6 ) =    224139.78


     number of k points=   256  Marzari-Vanderbilt smearing, width (Ry)=  0.0147

     Number of k-points >= 100: set verbosity='high' to print them.

     Dense  grid:   910393 G-vectors     FFT dimensions: (  72,  72, 432)

     Smooth grid:   321727 G-vectors     FFT dimensions: (  48,  50, 320)

     Estimated max dynamical RAM per process >     976.78 MB

     Estimated total dynamical RAM >      56.49 GB
 ----2D----2D----2D----2D----2D----2D----2D----2D----2D----2D----2D----2D
  The code is running with the 2D cutoff
  Please refer to:
  Sohier, T., Calandra, M., & Mauri, F. (2017), 
  Density functional perturbation theory for gated two-dimensional heterostructu
 res:
  Theoretical developments and application to flexural phonons in graphene.
  Physical Review B, 96(7), 75448. https://doi.org/10.1103/PhysRevB.96.075448
 ----2D----2D----2D----2D----2D----2D----2D----2D----2D----2D----2D----2D

     Check: negative core charge=   -0.000002
     Generating pointlists ...
     new r_m :   0.1367 (alat units)  1.3275 (a.u.) for type    1
     new r_m :   0.1470 (alat units)  1.4275 (a.u.) for type    2
     new r_m :   0.1367 (alat units)  1.3275 (a.u.) for type    3

     Initial potential from superposition of free atoms

     starting charge     240.9907, renormalised to     241.0000

     negative rho (up, down):  2.607E-04 5.839E-05
     Starting wfcs are  217 randomized atomic wfcs
     Checking if some PAW data can be deallocated... 

     total cpu time spent up to now is       60.8 secs

     Self-consistent Calculation

     iteration #  1     ecut=    60.00 Ry     beta= 0.20
     Davidson diagonalization with overlap
     ethr =  1.00E-02,  avg # of iterations =  2.7

     negative rho (up, down):  1.373E-04 2.239E-05

     total cpu time spent up to now is      231.2 secs

     total energy              =   -6201.79987663 Ry
     estimated scf accuracy    <      34.38953426 Ry

     total magnetization       =    19.45 Bohr mag/cell
     absolute magnetization    =    19.47 Bohr mag/cell

     iteration #  2     ecut=    60.00 Ry     beta= 0.20
     Davidson diagonalization with overlap
     ethr =  1.00E-02,  avg # of iterations =  1.0

     negative rho (up, down):  4.871E-05 3.968E-06

     total cpu time spent up to now is      380.5 secs

     total energy              =   -6203.23089996 Ry
     estimated scf accuracy    <       8.38496375 Ry

     total magnetization       =    22.05 Bohr mag/cell
     absolute magnetization    =    22.06 Bohr mag/cell

     iteration #  3     ecut=    60.00 Ry     beta= 0.20
     Davidson diagonalization with overlap
     ethr =  3.48E-03,  avg # of iterations =  1.0

     negative rho (up, down):  7.169E-06 1.372E-06

     total cpu time spent up to now is      530.8 secs

     total energy              =   -6203.94225124 Ry
     estimated scf accuracy    <       2.65114990 Ry

     total magnetization       =    21.01 Bohr mag/cell
     absolute magnetization    =    21.04 Bohr mag/cell

     iteration #  4     ecut=    60.00 Ry     beta= 0.20
     Davidson diagonalization with overlap
     ethr =  1.10E-03,  avg # of iterations =  1.0

     negative rho (up, down):  6.019E-07 6.095E-07

     total cpu time spent up to now is      683.3 secs

     total energy              =   -6204.39412373 Ry
     estimated scf accuracy    <       3.23522895 Ry

     total magnetization       =    18.98 Bohr mag/cell
     absolute magnetization    =    19.29 Bohr mag/cell

     iteration #  5     ecut=    60.00 Ry     beta= 0.20
     Davidson diagonalization with overlap
     ethr =  1.10E-03,  avg # of iterations =  1.2

     negative rho (up, down):  2.153E-08 2.794E-07

     total cpu time spent up to now is      828.3 secs

     total energy              =   -6204.65938162 Ry
     estimated scf accuracy    <       1.03261998 Ry

     total magnetization       =    16.69 Bohr mag/cell
     absolute magnetization    =    17.52 Bohr mag/cell

     iteration #  6     ecut=    60.00 Ry     beta= 0.20
     Davidson diagonalization with overlap
     ethr =  4.28E-04,  avg # of iterations =  1.8

     negative rho (up, down):  1.419E-08 2.494E-07

     total cpu time spent up to now is      982.9 secs

     total energy              =   -6204.74522303 Ry
     estimated scf accuracy    <       0.72888945 Ry

     total magnetization       =    14.95 Bohr mag/cell
     absolute magnetization    =    16.17 Bohr mag/cell

     iteration #  7     ecut=    60.00 Ry     beta= 0.20
     Davidson diagonalization with overlap
     ethr =  3.02E-04,  avg # of iterations =  1.6

     negative rho (up, down):  1.683E-08 1.714E-07

     total cpu time spent up to now is     1137.5 secs

     total energy              =   -6204.76355820 Ry
     estimated scf accuracy    <       0.29786907 Ry

     total magnetization       =    13.73 Bohr mag/cell
     absolute magnetization    =    15.18 Bohr mag/cell

     iteration #  8     ecut=    60.00 Ry     beta= 0.20
     Davidson diagonalization with overlap
     ethr =  1.24E-04,  avg # of iterations =  3.0

     negative rho (up, down):  1.549E-08 1.115E-07

     total cpu time spent up to now is     1295.3 secs

     total energy              =   -6204.76629627 Ry
     estimated scf accuracy    <       0.12859395 Ry

     total magnetization       =    13.34 Bohr mag/cell
     absolute magnetization    =    14.83 Bohr mag/cell

     iteration #  9     ecut=    60.00 Ry     beta= 0.20
     Davidson diagonalization with overlap
     ethr =  5.34E-05,  avg # of iterations =  4.9

     negative rho (up, down):  1.532E-08 7.420E-08

     total cpu time spent up to now is     1466.1 secs

     total energy              =   -6204.77481865 Ry
     estimated scf accuracy    <       0.10621899 Ry

     total magnetization       =    12.99 Bohr mag/cell
     absolute magnetization    =    14.52 Bohr mag/cell

     iteration # 10     ecut=    60.00 Ry     beta= 0.20
     Davidson diagonalization with overlap
     ethr =  4.41E-05,  avg # of iterations =  1.4

     negative rho (up, down):  4.366E-08 1.038E-07

     total cpu time spent up to now is     1613.2 secs

     total energy              =   -6204.77809362 Ry
     estimated scf accuracy    <       0.09806780 Ry

     total magnetization       =    13.00 Bohr mag/cell
     absolute magnetization    =    14.51 Bohr mag/cell

     iteration # 11     ecut=    60.00 Ry     beta= 0.20
     Davidson diagonalization with overlap
     ethr =  4.07E-05,  avg # of iterations =  1.7

     negative rho (up, down):  1.654E-07 2.543E-07

     total cpu time spent up to now is     1767.8 secs

     total energy              =   -6204.78009427 Ry
     estimated scf accuracy    <       0.13907366 Ry

     total magnetization       =    13.13 Bohr mag/cell
     absolute magnetization    =    14.53 Bohr mag/cell

     iteration # 12     ecut=    60.00 Ry     beta= 0.20
     Davidson diagonalization with overlap
     ethr =  4.07E-05,  avg # of iterations =  1.0

     negative rho (up, down):  4.205E-07 5.353E-07

     total cpu time spent up to now is     1911.7 secs

     total energy              =   -6204.77739869 Ry
     estimated scf accuracy    <       0.14225127 Ry

     total magnetization       =    13.17 Bohr mag/cell
     absolute magnetization    =    14.52 Bohr mag/cell

     iteration # 13     ecut=    60.00 Ry     beta= 0.20
     Davidson diagonalization with overlap
     ethr =  4.07E-05,  avg # of iterations =  1.2

     negative rho (up, down):  3.886E-07 4.583E-07

     total cpu time spent up to now is     2059.8 secs

     total energy              =   -6204.77436874 Ry
     estimated scf accuracy    <       0.11951490 Ry

     total magnetization       =    13.25 Bohr mag/cell
     absolute magnetization    =    14.54 Bohr mag/cell

     iteration # 14     ecut=    60.00 Ry     beta= 0.20
     Davidson diagonalization with overlap
     ethr =  4.07E-05,  avg # of iterations =  1.2

     negative rho (up, down):  1.793E-07 2.052E-07

     total cpu time spent up to now is     2206.9 secs

     total energy              =   -6204.77195197 Ry
     estimated scf accuracy    <       0.05588931 Ry

     total magnetization       =    13.30 Bohr mag/cell
     absolute magnetization    =    14.55 Bohr mag/cell

     iteration # 15     ecut=    60.00 Ry     beta= 0.20
     Davidson diagonalization with overlap
     ethr =  2.32E-05,  avg # of iterations =  2.1

     negative rho (up, down):  4.280E-08 4.965E-08

     total cpu time spent up to now is     2369.1 secs

     total energy              =   -6204.77133404 Ry
     estimated scf accuracy    <       0.01994896 Ry

     total magnetization       =    13.33 Bohr mag/cell
     absolute magnetization    =    14.57 Bohr mag/cell

     iteration # 16     ecut=    60.00 Ry     beta= 0.20
     Davidson diagonalization with overlap
     c_bands:  1 eigenvalues not converged
     c_bands:  1 eigenvalues not converged
     ethr =  8.28E-06,  avg # of iterations =  5.2

     negative rho (up, down):  6.255E-08 2.408E-08

     total cpu time spent up to now is     2558.1 secs

     total energy              =   -6204.77059390 Ry
     estimated scf accuracy    <       0.01511999 Ry

     total magnetization       =    13.34 Bohr mag/cell
     absolute magnetization    =    14.58 Bohr mag/cell

     iteration # 17     ecut=    60.00 Ry     beta= 0.20
     Davidson diagonalization with overlap
     ethr =  6.27E-06,  avg # of iterations =  3.0

     negative rho (up, down):  3.704E-04 3.257E-04

     total cpu time spent up to now is     2717.0 secs

     total energy              =   -6204.77022503 Ry
     estimated scf accuracy    <       0.00756987 Ry

     total magnetization       =    13.28 Bohr mag/cell
     absolute magnetization    =    14.57 Bohr mag/cell

     iteration # 18     ecut=    60.00 Ry     beta= 0.20
     Davidson diagonalization with overlap
     c_bands:  1 eigenvalues not converged
     c_bands:  1 eigenvalues not converged
     c_bands:  1 eigenvalues not converged
     ethr =  3.14E-06,  avg # of iterations =  4.5

     total cpu time spent up to now is     2886.6 secs

     total energy              =   -6204.77040082 Ry
     estimated scf accuracy    <       0.00489491 Ry

     total magnetization       =    13.26 Bohr mag/cell
     absolute magnetization    =    14.58 Bohr mag/cell

     iteration # 19     ecut=    60.00 Ry     beta= 0.20
     Davidson diagonalization with overlap
     ethr =  2.03E-06,  avg # of iterations =  6.2

     total cpu time spent up to now is     3068.1 secs

     total energy              =   -6204.77086736 Ry
     estimated scf accuracy    <       0.00485080 Ry

     total magnetization       =    13.30 Bohr mag/cell
     absolute magnetization    =    14.65 Bohr mag/cell

     iteration # 20     ecut=    60.00 Ry     beta= 0.20
     Davidson diagonalization with overlap
     ethr =  2.01E-06,  avg # of iterations =  1.3

     total cpu time spent up to now is     3217.3 secs

     total energy              =   -6204.77087917 Ry
     estimated scf accuracy    <       0.00406630 Ry

     total magnetization       =    13.29 Bohr mag/cell
     absolute magnetization    =    14.64 Bohr mag/cell

     iteration # 21     ecut=    60.00 Ry     beta= 0.20
     Davidson diagonalization with overlap
     ethr =  1.69E-06,  avg # of iterations =  1.6

     negative rho (up, down):  1.618E-07 9.699E-08

     total cpu time spent up to now is     3370.9 secs

     total energy              =   -6204.77070407 Ry
     estimated scf accuracy    <       0.00462274 Ry

     total magnetization       =    13.31 Bohr mag/cell
     absolute magnetization    =    14.67 Bohr mag/cell

     iteration # 22     ecut=    60.00 Ry     beta= 0.20
     Davidson diagonalization with overlap
     ethr =  1.69E-06,  avg # of iterations =  2.1

     negative rho (up, down):  1.201E-07 1.135E-07

     total cpu time spent up to now is     3531.9 secs

     total energy              =   -6204.77086438 Ry
     estimated scf accuracy    <       0.00636164 Ry

     total magnetization       =    13.29 Bohr mag/cell
     absolute magnetization    =    14.67 Bohr mag/cell

     iteration # 23     ecut=    60.00 Ry     beta= 0.20
     Davidson diagonalization with overlap
     ethr =  1.69E-06,  avg # of iterations =  1.4

     negative rho (up, down):  1.892E-05 1.737E-05

     total cpu time spent up to now is     3680.1 secs

     total energy              =   -6204.77064928 Ry
     estimated scf accuracy    <       0.00358219 Ry

     total magnetization       =    13.26 Bohr mag/cell
     absolute magnetization    =    14.64 Bohr mag/cell

     iteration # 24     ecut=    60.00 Ry     beta= 0.20
     Davidson diagonalization with overlap
     ethr =  1.49E-06,  avg # of iterations =  1.8

     negative rho (up, down):  2.616E-04 2.569E-04

     total cpu time spent up to now is     3831.5 secs

     total energy              =   -6204.77030622 Ry
     estimated scf accuracy    <       0.00311292 Ry

     total magnetization       =    13.23 Bohr mag/cell
     absolute magnetization    =    14.63 Bohr mag/cell

     iteration # 25     ecut=    60.00 Ry     beta= 0.20
     Davidson diagonalization with overlap
     ethr =  1.29E-06,  avg # of iterations =  1.8

     negative rho (up, down):  4.004E-04 3.950E-04

     total cpu time spent up to now is     3989.4 secs

     total energy              =   -6204.77028661 Ry
     estimated scf accuracy    <       0.00292368 Ry

     total magnetization       =    13.21 Bohr mag/cell
     absolute magnetization    =    14.61 Bohr mag/cell

     iteration # 26     ecut=    60.00 Ry     beta= 0.20
     Davidson diagonalization with overlap
     ethr =  1.21E-06,  avg # of iterations =  1.6

     negative rho (up, down):  6.115E-05 5.620E-05

     total cpu time spent up to now is     4141.8 secs

     total energy              =   -6204.77026198 Ry
     estimated scf accuracy    <       0.00253501 Ry

     total magnetization       =    13.22 Bohr mag/cell
     absolute magnetization    =    14.62 Bohr mag/cell

     iteration # 27     ecut=    60.00 Ry     beta= 0.20
     Davidson diagonalization with overlap
     ethr =  1.05E-06,  avg # of iterations =  2.3

     negative rho (up, down):  3.725E-04 3.639E-04

     total cpu time spent up to now is     4304.0 secs

     total energy              =   -6204.77014063 Ry
     estimated scf accuracy    <       0.00199520 Ry

     total magnetization       =    13.24 Bohr mag/cell
     absolute magnetization    =    14.63 Bohr mag/cell

     iteration # 28     ecut=    60.00 Ry     beta= 0.20
     Davidson diagonalization with overlap
     ethr =  8.28E-07,  avg # of iterations =  2.5

     negative rho (up, down):  6.817E-04 6.749E-04

     total cpu time spent up to now is     4462.9 secs

     total energy              =   -6204.77005869 Ry
     estimated scf accuracy    <       0.00270010 Ry

     total magnetization       =    13.27 Bohr mag/cell
     absolute magnetization    =    14.64 Bohr mag/cell

     iteration # 29     ecut=    60.00 Ry     beta= 0.20
     Davidson diagonalization with overlap
     ethr =  8.28E-07,  avg # of iterations =  2.7

     negative rho (up, down):  6.113E-04 6.067E-04

     total cpu time spent up to now is     4626.1 secs

     total energy              =   -6204.77015855 Ry
     estimated scf accuracy    <       0.00192380 Ry

     total magnetization       =    13.30 Bohr mag/cell
     absolute magnetization    =    14.66 Bohr mag/cell

     iteration # 30     ecut=    60.00 Ry     beta= 0.20
     Davidson diagonalization with overlap
     ethr =  7.98E-07,  avg # of iterations =  1.3

     negative rho (up, down):  3.487E-04 3.428E-04

     total cpu time spent up to now is     4778.6 secs

     total energy              =   -6204.77018975 Ry
     estimated scf accuracy    <       0.00058579 Ry

     total magnetization       =    13.30 Bohr mag/cell
     absolute magnetization    =    14.65 Bohr mag/cell

     iteration # 31     ecut=    60.00 Ry     beta= 0.20
     Davidson diagonalization with overlap
     ethr =  2.43E-07,  avg # of iterations =  1.6

     negative rho (up, down):  3.066E-04 2.901E-04

     total cpu time spent up to now is     4927.8 secs

     total energy              =   -6204.77015148 Ry
     estimated scf accuracy    <       0.00033218 Ry

     total magnetization       =    13.30 Bohr mag/cell
     absolute magnetization    =    14.66 Bohr mag/cell

     iteration # 32     ecut=    60.00 Ry     beta= 0.20
     Davidson diagonalization with overlap
     ethr =  1.38E-07,  avg # of iterations =  2.9

     negative rho (up, down):  3.428E-04 3.221E-04

     total cpu time spent up to now is     5099.6 secs

     total energy              =   -6204.77017800 Ry
     estimated scf accuracy    <       0.00011824 Ry

     total magnetization       =    13.30 Bohr mag/cell
     absolute magnetization    =    14.67 Bohr mag/cell

     iteration # 33     ecut=    60.00 Ry     beta= 0.20
     Davidson diagonalization with overlap
     ethr =  4.91E-08,  avg # of iterations =  3.0

     negative rho (up, down):  1.974E-04 1.705E-04

     total cpu time spent up to now is     5258.5 secs

     total energy              =   -6204.77017987 Ry
     estimated scf accuracy    <       0.00015984 Ry

     total magnetization       =    13.31 Bohr mag/cell
     absolute magnetization    =    14.68 Bohr mag/cell

     iteration # 34     ecut=    60.00 Ry     beta= 0.20
     Davidson diagonalization with overlap
     ethr =  4.91E-08,  avg # of iterations =  2.0

     negative rho (up, down):  1.672E-04 1.312E-04

     total cpu time spent up to now is     5419.6 secs

     total energy              =   -6204.77018536 Ry
     estimated scf accuracy    <       0.00007274 Ry

     total magnetization       =    13.30 Bohr mag/cell
     absolute magnetization    =    14.68 Bohr mag/cell

     iteration # 35     ecut=    60.00 Ry     beta= 0.20
     Davidson diagonalization with overlap
     ethr =  3.02E-08,  avg # of iterations =  1.7

     negative rho (up, down):  1.973E-04 1.510E-04

     total cpu time spent up to now is     5569.9 secs

     total energy              =   -6204.77019298 Ry
     estimated scf accuracy    <       0.00003189 Ry

     total magnetization       =    13.30 Bohr mag/cell
     absolute magnetization    =    14.68 Bohr mag/cell

     iteration # 36     ecut=    60.00 Ry     beta= 0.20
     Davidson diagonalization with overlap
     c_bands:  1 eigenvalues not converged
     ethr =  1.32E-08,  avg # of iterations =  3.2

     negative rho (up, down):  1.923E-04 1.461E-04

     total cpu time spent up to now is     5735.3 secs

     total energy              =   -6204.77019664 Ry
     estimated scf accuracy    <       0.00001526 Ry

     total magnetization       =    13.30 Bohr mag/cell
     absolute magnetization    =    14.68 Bohr mag/cell

     iteration # 37     ecut=    60.00 Ry     beta= 0.20
     Davidson diagonalization with overlap
     ethr =  6.33E-09,  avg # of iterations =  3.0

     negative rho (up, down):  2.544E-04 2.105E-04

     total cpu time spent up to now is     5901.7 secs

     total energy              =   -6204.77019841 Ry
     estimated scf accuracy    <       0.00000552 Ry

     total magnetization       =    13.29 Bohr mag/cell
     absolute magnetization    =    14.67 Bohr mag/cell

     iteration # 38     ecut=    60.00 Ry     beta= 0.20
     Davidson diagonalization with overlap
     ethr =  2.29E-09,  avg # of iterations =  3.8

     negative rho (up, down):  2.706E-04 2.275E-04

     total cpu time spent up to now is     6079.9 secs

     total energy              =   -6204.77019894 Ry
     estimated scf accuracy    <       0.00000278 Ry

     total magnetization       =    13.29 Bohr mag/cell
     absolute magnetization    =    14.67 Bohr mag/cell

     iteration # 39     ecut=    60.00 Ry     beta= 0.20
     Davidson diagonalization with overlap
     ethr =  1.16E-09,  avg # of iterations =  2.2

     negative rho (up, down):  2.725E-04 2.284E-04

     total cpu time spent up to now is     6237.8 secs

     total energy              =   -6204.77019908 Ry
     estimated scf accuracy    <       0.00000035 Ry

     total magnetization       =    13.29 Bohr mag/cell
     absolute magnetization    =    14.67 Bohr mag/cell

     iteration # 40     ecut=    60.00 Ry     beta= 0.20
     Davidson diagonalization with overlap
     ethr =  1.47E-10,  avg # of iterations =  4.0

     negative rho (up, down):  2.712E-04 2.265E-04

     total cpu time spent up to now is     6434.3 secs

     total energy              =   -6204.77019916 Ry
     estimated scf accuracy    <       0.00000023 Ry

     total magnetization       =    13.29 Bohr mag/cell
     absolute magnetization    =    14.67 Bohr mag/cell

     iteration # 41     ecut=    60.00 Ry     beta= 0.20
     Davidson diagonalization with overlap
     ethr =  9.63E-11,  avg # of iterations =  1.3

     negative rho (up, down):  2.699E-04 2.245E-04

     total cpu time spent up to now is     6583.6 secs

     total energy              =   -6204.77019917 Ry
     estimated scf accuracy    <       0.00000019 Ry

     total magnetization       =    13.29 Bohr mag/cell
     absolute magnetization    =    14.67 Bohr mag/cell

     iteration # 42     ecut=    60.00 Ry     beta= 0.20
     Davidson diagonalization with overlap
     ethr =  7.83E-11,  avg # of iterations =  1.1

     negative rho (up, down):  2.589E-04 2.125E-04

     total cpu time spent up to now is     6730.7 secs

     total energy              =   -6204.77019915 Ry
     estimated scf accuracy    <       0.00000017 Ry

     total magnetization       =    13.29 Bohr mag/cell
     absolute magnetization    =    14.67 Bohr mag/cell

     iteration # 43     ecut=    60.00 Ry     beta= 0.20
     Davidson diagonalization with overlap
     ethr =  7.04E-11,  avg # of iterations =  1.1

     negative rho (up, down):  2.439E-04 1.965E-04

     total cpu time spent up to now is     6874.5 secs

     total energy              =   -6204.77019912 Ry
     estimated scf accuracy    <       0.00000022 Ry

     total magnetization       =    13.29 Bohr mag/cell
     absolute magnetization    =    14.67 Bohr mag/cell

     iteration # 44     ecut=    60.00 Ry     beta= 0.20
     Davidson diagonalization with overlap
     ethr =  7.04E-11,  avg # of iterations =  1.0

     negative rho (up, down):  2.400E-04 1.925E-04

     total cpu time spent up to now is     7020.6 secs

     total energy              =   -6204.77019911 Ry
     estimated scf accuracy    <       0.00000006 Ry

     total magnetization       =    13.29 Bohr mag/cell
     absolute magnetization    =    14.67 Bohr mag/cell

     iteration # 45     ecut=    60.00 Ry     beta= 0.20
     Davidson diagonalization with overlap
     ethr =  2.52E-11,  avg # of iterations =  2.0

     negative rho (up, down):  2.390E-04 1.917E-04

     total cpu time spent up to now is     7178.4 secs

     total energy              =   -6204.77019910 Ry
     estimated scf accuracy    <       0.00000005 Ry

     total magnetization       =    13.29 Bohr mag/cell
     absolute magnetization    =    14.67 Bohr mag/cell

     iteration # 46     ecut=    60.00 Ry     beta= 0.20
     Davidson diagonalization with overlap
     ethr =  1.94E-11,  avg # of iterations =  1.0

     negative rho (up, down):  2.320E-04 1.847E-04

     total cpu time spent up to now is     7323.4 secs

     total energy              =   -6204.77019908 Ry
     estimated scf accuracy    <       0.00000003 Ry

     total magnetization       =    13.29 Bohr mag/cell
     absolute magnetization    =    14.67 Bohr mag/cell

     iteration # 47     ecut=    60.00 Ry     beta= 0.20
     Davidson diagonalization with overlap
     ethr =  1.28E-11,  avg # of iterations =  2.0

     negative rho (up, down):  2.260E-04 1.787E-04

     total cpu time spent up to now is     7485.5 secs

     total energy              =   -6204.77019906 Ry
     estimated scf accuracy    <       0.00000004 Ry

     total magnetization       =    13.29 Bohr mag/cell
     absolute magnetization    =    14.67 Bohr mag/cell

     iteration # 48     ecut=    60.00 Ry     beta= 0.20
     Davidson diagonalization with overlap
     ethr =  1.28E-11,  avg # of iterations =  1.1

     negative rho (up, down):  2.156E-04 1.684E-04

     total cpu time spent up to now is     7629.4 secs

     total energy              =   -6204.77019904 Ry
     estimated scf accuracy    <       0.00000002 Ry

     total magnetization       =    13.29 Bohr mag/cell
     absolute magnetization    =    14.67 Bohr mag/cell

     iteration # 49     ecut=    60.00 Ry     beta= 0.20
     Davidson diagonalization with overlap
     ethr =  9.05E-12,  avg # of iterations =  1.8

     negative rho (up, down):  2.117E-04 1.645E-04

     total cpu time spent up to now is     7778.6 secs

     total energy              =   -6204.77019904 Ry
     estimated scf accuracy    <          8.5E-09 Ry

     total magnetization       =    13.29 Bohr mag/cell
     absolute magnetization    =    14.67 Bohr mag/cell

     iteration # 50     ecut=    60.00 Ry     beta= 0.20
     Davidson diagonalization with overlap
     ethr =  3.55E-12,  avg # of iterations =  1.8

     negative rho (up, down):  2.112E-04 1.641E-04

     total cpu time spent up to now is     7935.4 secs

     total energy              =   -6204.77019904 Ry
     estimated scf accuracy    <          9.8E-09 Ry

     total magnetization       =    13.29 Bohr mag/cell
     absolute magnetization    =    14.67 Bohr mag/cell

     iteration # 51     ecut=    60.00 Ry     beta= 0.20
     Davidson diagonalization with overlap
     ethr =  3.55E-12,  avg # of iterations =  1.2

     negative rho (up, down):  2.101E-04 1.631E-04

     total cpu time spent up to now is     8089.0 secs

     total energy              =   -6204.77019904 Ry
     estimated scf accuracy    <          4.4E-09 Ry

     total magnetization       =    13.29 Bohr mag/cell
     absolute magnetization    =    14.67 Bohr mag/cell

     iteration # 52     ecut=    60.00 Ry     beta= 0.20
     Davidson diagonalization with overlap
     ethr =  1.81E-12,  avg # of iterations =  1.7

     negative rho (up, down):  2.083E-04 1.614E-04

     total cpu time spent up to now is     8239.3 secs

     total energy              =   -6204.77019904 Ry
     estimated scf accuracy    <          2.3E-09 Ry

     total magnetization       =    13.29 Bohr mag/cell
     absolute magnetization    =    14.67 Bohr mag/cell

     iteration # 53     ecut=    60.00 Ry     beta= 0.20
     Davidson diagonalization with overlap
     ethr =  9.54E-13,  avg # of iterations =  2.4

     negative rho (up, down):  2.069E-04 1.600E-04

     total cpu time spent up to now is     8395.0 secs

     total energy              =   -6204.77019903 Ry
     estimated scf accuracy    <          2.3E-09 Ry

     total magnetization       =    13.29 Bohr mag/cell
     absolute magnetization    =    14.67 Bohr mag/cell

     iteration # 54     ecut=    60.00 Ry     beta= 0.20
     Davidson diagonalization with overlap
     ethr =  9.54E-13,  avg # of iterations =  1.3

     negative rho (up, down):  2.067E-04 1.597E-04

     total cpu time spent up to now is     8543.1 secs

     total energy              =   -6204.77019903 Ry
     estimated scf accuracy    <          1.1E-09 Ry

     total magnetization       =    13.29 Bohr mag/cell
     absolute magnetization    =    14.67 Bohr mag/cell

     iteration # 55     ecut=    60.00 Ry     beta= 0.20
     Davidson diagonalization with overlap
     ethr =  4.42E-13,  avg # of iterations =  1.9

     negative rho (up, down):  2.064E-04 1.595E-04

     total cpu time spent up to now is     8702.1 secs

     total energy              =   -6204.77019903 Ry
     estimated scf accuracy    <          6.5E-10 Ry

     total magnetization       =    13.29 Bohr mag/cell
     absolute magnetization    =    14.67 Bohr mag/cell

     iteration # 56     ecut=    60.00 Ry     beta= 0.20
     Davidson diagonalization with overlap
     ethr =  2.68E-13,  avg # of iterations =  2.2

     negative rho (up, down):  2.060E-04 1.590E-04

     total cpu time spent up to now is     8858.8 secs

     total energy              =   -6204.77019903 Ry
     estimated scf accuracy    <          6.7E-10 Ry

     total magnetization       =    13.29 Bohr mag/cell
     absolute magnetization    =    14.67 Bohr mag/cell

     iteration # 57     ecut=    60.00 Ry     beta= 0.20
     Davidson diagonalization with overlap
     ethr =  2.68E-13,  avg # of iterations =  1.4

     negative rho (up, down):  2.057E-04 1.587E-04

     total cpu time spent up to now is     9007.0 secs

     total energy              =   -6204.77019903 Ry
     estimated scf accuracy    <          2.3E-10 Ry

     total magnetization       =    13.29 Bohr mag/cell
     absolute magnetization    =    14.67 Bohr mag/cell

     iteration # 58     ecut=    60.00 Ry     beta= 0.20
     Davidson diagonalization with overlap
     ethr =  1.00E-13,  avg # of iterations =  2.5

     negative rho (up, down):  2.061E-04 1.592E-04
 
     Magnetic moment per site  (integrated on atomic sphere of radius R)
     atom   1 (R=0.137)  charge=  6.8787  magn=  0.8049
     atom   2 (R=0.147)  charge=  5.6796  magn=  0.2460
     atom   3 (R=0.147)  charge=  5.6797  magn=  0.2460
     atom   4 (R=0.137)  charge=  6.8793  magn=  0.7978
     atom   5 (R=0.147)  charge=  5.6663  magn=  0.3018
     atom   6 (R=0.147)  charge=  5.6663  magn=  0.3018
     atom   7 (R=0.137)  charge=  6.8745  magn=  0.7991
     atom   8 (R=0.137)  charge=  6.8737  magn=  0.8141
     atom   9 (R=0.137)  charge=  6.8750  magn=  0.7613
     atom  10 (R=0.137)  charge=  6.8747  magn=  0.7720
     atom  11 (R=0.147)  charge=  5.6626  magn=  0.2917
     atom  12 (R=0.147)  charge=  5.6626  magn=  0.2917
     atom  13 (R=0.137)  charge=  6.8763  magn=  0.7464
     atom  14 (R=0.147)  charge=  5.6627  magn=  0.2883
     atom  15 (R=0.147)  charge=  5.6627  magn=  0.2883
     atom  16 (R=0.137)  charge=  6.8750  magn=  0.7810
     atom  17 (R=0.137)  charge=  6.8735  magn=  0.7964
     atom  18 (R=0.147)  charge=  5.6664  magn=  0.2854
     atom  19 (R=0.147)  charge=  5.6664  magn=  0.2854
     atom  20 (R=0.137)  charge=  6.8740  magn=  0.7990
     atom  21 (R=0.147)  charge=  5.6759  magn=  0.1835
     atom  22 (R=0.137)  charge=  6.8816  magn=  0.6284
     atom  23 (R=0.137)  charge=  6.8792  magn=  0.7934
     atom  24 (R=0.147)  charge=  5.6759  magn=  0.1835
     atom  25 (R=0.137)  charge=  0.8941  magn= -0.0037

     total cpu time spent up to now is     9162.7 secs

     End of self-consistent calculation

     Number of k-points >= 100: set verbosity='high' to print the bands.

     the Fermi energy is    -5.1068 ev

!    total energy              =   -6204.77019903 Ry
     total all-electron energy =   -157606.861555 Ry
     estimated scf accuracy    <          8.7E-11 Ry
     smearing contrib. (-TS)   =       0.00123400 Ry
     internal energy E=F+TS    =   -6204.77143303 Ry

     The total energy is F=E-TS. E is the sum of the following terms:
     one-electron contribution =  -65104.35300447 Ry
     hartree contribution      =   32743.24257892 Ry
     xc contribution           =    -891.41939888 Ry
     ewald contribution        =   31151.60084478 Ry
     DFT-D3 Dispersion         =      -2.26788591 Ry
     one-center paw contrib.   =   -4101.57456746 Ry

     total magnetization       =    13.29 Bohr mag/cell
     absolute magnetization    =    14.67 Bohr mag/cell

     convergence has been achieved in  58 iterations

     negative rho (up, down):  2.061E-04 1.592E-04

     Forces acting on atoms (cartesian axes, Ry/au):

     atom    1 type  1   force =    -0.00830326    0.00499776    0.00663402
     atom    2 type  2   force =     0.01137697   -0.00676068   -0.00912132
     atom    3 type  2   force =     0.01129986   -0.00688873   -0.00912115
     atom    4 type  1   force =    -0.00851885    0.00512763    0.00649103
     atom    5 type  2   force =    -0.00054835   -0.00042948    0.00407371
     atom    6 type  2   force =     0.00012292    0.00068556    0.00407364
     atom    7 type  1   force =    -0.00212286    0.00127787   -0.00058989
     atom    8 type  1   force =    -0.00257590    0.00155035   -0.00148336
     atom    9 type  1   force =    -0.00018692    0.00011257   -0.00032170
     atom   10 type  1   force =    -0.00006826    0.00004103   -0.00013805
     atom   11 type  2   force =    -0.00015905    0.00001658   -0.00031925
     atom   12 type  2   force =    -0.00008910    0.00013278   -0.00031923
     atom   13 type  1   force =     0.00035907   -0.00021604   -0.00013796
     atom   14 type  2   force =     0.00013628   -0.00005330    0.00002542
     atom   15 type  2   force =     0.00011086   -0.00009545    0.00002546
     atom   16 type  1   force =     0.00051397   -0.00030943   -0.00017027
     atom   17 type  1   force =     0.00027274   -0.00016420    0.00042216
     atom   18 type  2   force =    -0.00002868   -0.00019281    0.00062059
     atom   19 type  2   force =     0.00015694    0.00011558    0.00062044
     atom   20 type  1   force =    -0.00000123    0.00000080    0.00035822
     atom   21 type  2   force =    -0.00034246    0.00071980   -0.00034783
     atom   22 type  1   force =     0.00017449   -0.00010486   -0.00040698
     atom   23 type  1   force =    -0.00061205    0.00036830   -0.00000713
     atom   24 type  2   force =    -0.00079646   -0.00003432   -0.00034774
     atom   25 type  3   force =    -0.00017067    0.00010270   -0.00051283

     Total force =     0.002201     Total SCF correction =     0.000030


     Computing stress (Cartesian axis) and pressure


     negative rho (up, down):  2.061E-04 1.592E-04
          total   stress  (Ry/bohr**3)                   (kbar)     P=       -5.63
  -0.00005631  -0.00000410  -0.00000772           -8.28       -0.60       -1.14
  -0.00000410  -0.00006065   0.00000465           -0.60       -8.92        0.68
  -0.00000772   0.00000465   0.00000221           -1.14        0.68        0.33


     Writing all to output data dir /tmpu/isholek_g/isholek/MIGUEL/QE/Hydrogen/111_2x2/SAVE/Ni2Pd2_111-H_fcc_1.save/ :
     XML data file, charge density, pseudopotentials, collected wavefunctions
 
     init_run     :     56.69s CPU     60.05s WALL (       1 calls)
     electrons    :   8790.82s CPU   9102.04s WALL (       1 calls)
     forces       :     17.42s CPU     17.57s WALL (       1 calls)
     force_dftd3  :      0.14s CPU      0.14s WALL (       1 calls)
     stress       :    404.84s CPU    408.86s WALL (       1 calls)
     stres_dftd3  :      7.45s CPU      7.48s WALL (       1 calls)

     Called by init_run:
     wfcinit      :     47.96s CPU     51.14s WALL (       1 calls)
     potinit      :      0.59s CPU      0.64s WALL (       1 calls)
     hinit0       :      0.22s CPU      0.23s WALL (       1 calls)

     Called by electrons:
     c_bands      :   5352.76s CPU   5606.40s WALL (      58 calls)
     sum_band     :   3166.80s CPU   3219.09s WALL (      58 calls)
     v_of_rho     :     70.01s CPU     71.65s WALL (      59 calls)
     newd         :    106.67s CPU    108.45s WALL (      59 calls)
     PAW_pot      :     11.48s CPU     11.53s WALL (      59 calls)
     mix_rho      :     21.44s CPU     22.70s WALL (      58 calls)
     energy_dftd3 :      0.04s CPU      0.04s WALL (       1 calls)

     Called by c_bands:
     init_us_2    :     99.10s CPU     99.62s WALL (    7616 calls)
     init_us_2:cp :     99.05s CPU     99.59s WALL (    7616 calls)
     cegterg      :   4331.11s CPU   4576.60s WALL (    3712 calls)

     Called by *egterg:
     cdiaghg      :    123.07s CPU    123.79s WALL (   11685 calls)
     h_psi        :   2883.99s CPU   3088.47s WALL (   11749 calls)
     s_psi        :    373.57s CPU    375.12s WALL (   11749 calls)
     g_psi        :     18.15s CPU     18.25s WALL (    7973 calls)

     Called by h_psi:
     h_psi:calbec :    351.19s CPU    353.30s WALL (   11749 calls)
     vloc_psi     :   2125.93s CPU   2298.41s WALL (   11749 calls)
     add_vuspsi   :    371.03s CPU    372.71s WALL (   11749 calls)

     General routines
     calbec       :    554.91s CPU    557.89s WALL (   15781 calls)
     fft          :    168.62s CPU    170.43s WALL (    1513 calls)
     ffts         :    214.75s CPU    216.17s WALL (    7245 calls)
     fftw         :   1368.53s CPU   1486.25s WALL ( 2773268 calls)
     interpolate  :      1.26s CPU      1.40s WALL (     118 calls)
 
     Parallel routines
 
     PWSCF        :      2h34m CPU      2h40m WALL

 
   This run was terminated on:   3:50:45  22Mar2026            

=------------------------------------------------------------------------------=
   JOB DONE.
=------------------------------------------------------------------------------=
