
     Program PWSCF v.7.3 starts on 15May2026 at 23: 8:20 

     This program is part of the open-source Quantum ESPRESSO suite
     for quantum simulation of materials; please cite
         "P. Giannozzi et al., J. Phys.:Condens. Matter 21 395502 (2009);
         "P. Giannozzi et al., J. Phys.:Condens. Matter 29 465901 (2017);
         "P. Giannozzi et al., J. Chem. Phys. 152 154105 (2020);
          URL http://www.quantum-espresso.org", 
     in publications or presentations arising from this work. More details at
     http://www.quantum-espresso.org/quote

     Parallel version (MPI), running on   128 processors

     MPI processes distributed on     8 nodes
     119702 MiB available memory on the printing compute node when the environment starts
 
     Reading input from /tmpu/isholek_g/isholek/MIGUEL/QE/Hydrogen/111_2x2/SCF/Ni2Pd2_111-T2-SCF.in

     Current dimensions of program PWSCF are:
     Max number of different atomic species (ntypx) = 10
     Max number of k-points (npk) =  40000
     Max angular momentum in pseudopotentials (lmaxx) =  4
     file Ni.upf: wavefunction(s)  4S 3D renormalized
     file Pd.upf: wavefunction(s)  5S 4D renormalized
     file H.upf: wavefunction(s)  1S renormalized

     IMPORTANT: XC functional enforced from input :
     Exchange-correlation= PBE
                           (   1   4   3   4   0   0   0)
     Any further DFT definition will be discarded
     Please, verify this is what you really want

 
     K-points division:     npool     =      16
     R & G space division:  proc/nbgrp/npool/nimage =       8
     wavefunctions fft division:  Y-proc x Z-proc =       2      4
     wavefunctions fft division:  task group distribution
                                  #TG    x Z-proc =       2      4
     Subspace diagonalization in iterative solution of the eigenvalue problem:
     one sub-group per band group will be used
     scalapack distributed-memory algorithm (size of sub-group:  2*  2 procs)

 
     Parallelization info
     --------------------
     sticks:   dense  smooth     PW     G-vecs:    dense   smooth      PW
     Min         393     196     56               113725    40174    6264
     Max         398     199     58               113852    40255    6340
     Sum        3165    1581    455               910393   321727   50373
 
     Using Pencil Decomposition
 

     Title: 
     Ni2Pd2_111-T2-SCF                                                          


     bravais-lattice index     =            0
     lattice parameter (alat)  =       9.7088  a.u.
     unit-cell volume          =    5128.0588 (a.u.)^3
     number of atoms/cell      =           25
     number of atomic types    =            3
     number of electrons       =       241.00
     number of Kohn-Sham states=          145
     kinetic-energy cutoff     =      60.0000  Ry
     charge density cutoff     =     480.0000  Ry
     scf convergence threshold =      1.0E-10
     mixing beta               =       0.2000
     number of iterations used =           12  local-TF  mixing
     Exchange-correlation= PBE
                           (   1   4   3   4   0   0   0)

     celldm(1)=   9.708762  celldm(2)=   0.000000  celldm(3)=   0.000000
     celldm(4)=   0.000000  celldm(5)=   0.000000  celldm(6)=   0.000000

     crystal axes: (cart. coord. in units of alat)
               a(1) = (   1.000000   0.000000   0.000000 )  
               a(2) = (   0.531889   0.883670   0.000000 )  
               a(3) = (   0.000000   0.000000   6.341200 )  

     reciprocal axes: (cart. coord. in units 2 pi/alat)
               b(1) = (  1.000000 -0.601910  0.000000 )  
               b(2) = (  0.000000  1.131644  0.000000 )  
               b(3) = (  0.000000  0.000000  0.157699 )  


     PseudoPot. # 1 for Ni read from file:
     /tmpu/isholek_g/isholek/MIGUEL/PP/PAW/Ni.upf
     MD5 check sum: d88365a95a5e142bd87181c2c8b16588
     Pseudo is Projector augmented-wave + core cor, Zval = 10.0
     Generated using "atomic" code by A. Dal Corso  v.5.0.2 svn rev. 9415
     Shape of augmentation charge: PSQ
     Using radial grid of 1195 points,  6 beta functions with: 
                l(1) =   0
                l(2) =   0
                l(3) =   1
                l(4) =   1
                l(5) =   2
                l(6) =   2
     Q(r) pseudized with 0 coefficients 


     PseudoPot. # 2 for Pd read from file:
     /tmpu/isholek_g/isholek/MIGUEL/PP/PAW/Pd.upf
     MD5 check sum: e9d6f14fd83b79f8105499163af174c9
     Pseudo is Projector augmented-wave + core cor, Zval = 10.0
     Generated using "atomic" code by A. Dal Corso  v.5.0.2 svn rev. 9415
     Shape of augmentation charge: PSQ
     Using radial grid of 1235 points,  6 beta functions with: 
                l(1) =   0
                l(2) =   0
                l(3) =   1
                l(4) =   1
                l(5) =   2
                l(6) =   2
     Q(r) pseudized with 0 coefficients 


     PseudoPot. # 3 for H  read from file:
     /tmpu/isholek_g/isholek/MIGUEL/PP/PAW/H.upf
     MD5 check sum: 4cbe42a24e15140179a93d5bf84f2220
     Pseudo is Projector augmented-wave, Zval =  1.0
     Generated using "atomic" code by A. Dal Corso  v.5.0.2 svn rev. 9415
     Shape of augmentation charge: PSQ
     Using radial grid of  929 points,  2 beta functions with: 
                l(1) =   0
                l(2) =   0
     Q(r) pseudized with 0 coefficients 


     atomic species   valence    mass     pseudopotential
     Ni               10.00    58.69340     Ni( 1.00)
     Pd               10.00   106.42000     Pd( 1.00)
     H                 1.00     1.00794     H ( 1.00)

     Starting magnetic structure 
     atomic species   magnetization
     Ni              0.650
     Pd              0.100
     H               0.000

     No symmetry found



   Cartesian axes

     site n.     atom                  positions (alat units)
         1        Ni     tau(   1) = (   0.0000000   0.0000000   2.1410544  )
         2        Pd     tau(   2) = (   0.7659447   0.4418349   2.1410544  )
         3        Pd     tau(   3) = (   0.5000000   0.0000000   2.1410544  )
         4        Ni     tau(   4) = (   0.2659447   0.4418349   2.1410544  )
         5        Pd     tau(   5) = (   0.2340553   0.1600746   2.5528726  )
         6        Pd     tau(   6) = (   0.5000000   0.6019096   2.5528726  )
         7        Ni     tau(   7) = (   0.7340553   0.1600746   2.5528726  )
         8        Ni     tau(   8) = (   1.0000000   0.6019096   2.5528726  )
         9        Ni     tau(   9) = (   0.4678827   0.3185687   2.9633569  )
        10        Ni     tau(  10) = (   0.7353453   0.7629255   2.9633569  )
        11        Pd     tau(  11) = (   0.9678736   0.3202919   2.9621308  )
        12        Pd     tau(  12) = (   1.2348344   0.7615153   2.9643547  )
        13        Ni     tau(  13) = (   0.9362563   0.0404205   3.3750461  )
        14        Pd     tau(  14) = (   0.7005662   0.4811869   3.3717721  )
        15        Pd     tau(  15) = (   0.4377747   0.0374540   3.3792567  )
        16        Ni     tau(  16) = (   1.2003872   0.4792421   3.3750461  )
        17        Ni     tau(  17) = (   0.9325664   0.6396993   3.7911126  )
        18        Pd     tau(  18) = (   0.1665188   0.2007256   3.7845257  )
        19        Pd     tau(  19) = (   0.4308250   0.6435468   3.7828433  )
        20        Ni     tau(  20) = (   0.6690954   0.2019738   3.7911125  )
        21        Pd     tau(  21) = (   0.9057023   0.3577135   4.2096459  )
        22        Ni     tau(  22) = (   0.6795853   0.7962486   4.1893455  )
        23        Ni     tau(  23) = (   0.4123343   0.3522432   4.1893454  )
        24        Pd     tau(  24) = (   1.1766039   0.7965647   4.2123308  )
        25        H      tau(  25) = (   1.1684093   0.8014971   4.5165629  )

     --------------------------------------------
     DFT-D3 Dispersion Correction (3-body terms):
     --------------------------------------------
       Reference C6 values for interpolation: 

         atom   Coordination number   C6
         H          0.912             6.05
         H          0.000            15.18
         Ni         0.000          1149.49
         Ni         1.794           356.66
         Ni         6.546           257.56
         Ni         6.292           283.75
         Pd         0.000          1217.01
         Pd         1.863           573.90
         Pd         5.710           531.75

       Values used:

         atom   Coordination number  R0_AB[au]  C6      C8
         Ni         6.134            3.162    273.94  22954.53
         Pd         7.162            3.168    531.75  48720.73
         Pd         7.162            3.168    531.75  48720.73
         Ni         6.134            3.162    273.94  22954.53
         Pd         9.647            3.168    531.75  48720.73
         Pd         9.626            3.168    531.75  48720.73
         Ni         8.228            3.162    258.17  21632.72
         Ni         8.228            3.162    258.17  21632.72
         Ni         8.225            3.162    258.17  21632.93
         Ni         8.225            3.162    258.17  21632.93
         Pd         9.668            3.168    531.75  48720.73
         Pd         9.635            3.168    531.75  48720.73
         Ni         8.216            3.162    258.18  21633.91
         Pd         9.597            3.168    531.75  48720.73
         Pd         9.592            3.168    531.75  48720.73
         Ni         8.216            3.162    258.18  21633.91
         Ni         8.173            3.162    258.24  21638.56
         Pd         9.639            3.168    531.75  48720.73
         Pd         9.601            3.168    531.75  48720.73
         Ni         8.173            3.162    258.24  21638.56
         Pd         7.018            3.168    531.75  48720.73
         Ni         6.284            3.162    272.01  22792.43
         Ni         6.284            3.162    272.01  22792.43
         Pd         7.896            3.168    531.75  48720.73
         H          0.967            2.062      6.22     75.13

         Molecular C6 ( Ry / a.u.^6 ) =    224377.85


     number of k points=   256  Marzari-Vanderbilt smearing, width (Ry)=  0.0147

     Number of k-points >= 100: set verbosity='high' to print them.

     Dense  grid:   910393 G-vectors     FFT dimensions: (  72,  72, 432)

     Smooth grid:   321727 G-vectors     FFT dimensions: (  48,  50, 320)

     Estimated max dynamical RAM per process >     620.71 MB

     Estimated total dynamical RAM >      67.82 GB
 ----2D----2D----2D----2D----2D----2D----2D----2D----2D----2D----2D----2D
  The code is running with the 2D cutoff
  Please refer to:
  Sohier, T., Calandra, M., & Mauri, F. (2017), 
  Density functional perturbation theory for gated two-dimensional heterostructu
 res:
  Theoretical developments and application to flexural phonons in graphene.
  Physical Review B, 96(7), 75448. https://doi.org/10.1103/PhysRevB.96.075448
 ----2D----2D----2D----2D----2D----2D----2D----2D----2D----2D----2D----2D

     Check: negative core charge=   -0.000002
     Generating pointlists ...
     new r_m :   0.2037 (alat units)  1.9777 (a.u.) for type    1
     new r_m :   0.1256 (alat units)  1.2190 (a.u.) for type    2
     new r_m :   0.1256 (alat units)  1.2190 (a.u.) for type    3

     Initial potential from superposition of free atoms

     starting charge     240.9907, renormalised to     241.0000

     negative rho (up, down):  2.552E-04 5.571E-05
     Starting wfcs are  217 randomized atomic wfcs
     Checking if some PAW data can be deallocated... 

     total cpu time spent up to now is       65.1 secs

     Self-consistent Calculation

     iteration #  1     ecut=    60.00 Ry     beta= 0.20
     Davidson diagonalization with overlap
     ethr =  1.00E-02,  avg # of iterations =  2.7

     negative rho (up, down):  1.992E-04 5.783E-05

     total cpu time spent up to now is      209.1 secs

     total energy              =   -6201.75773946 Ry
     estimated scf accuracy    <      34.30686583 Ry

     total magnetization       =    19.72 Bohr mag/cell
     absolute magnetization    =    19.73 Bohr mag/cell

     iteration #  2     ecut=    60.00 Ry     beta= 0.20
     Davidson diagonalization with overlap
     ethr =  1.00E-02,  avg # of iterations =  1.0

     negative rho (up, down):  1.157E-04 7.390E-05

     total cpu time spent up to now is      325.7 secs

     total energy              =   -6203.18134103 Ry
     estimated scf accuracy    <       8.32240927 Ry

     total magnetization       =    22.23 Bohr mag/cell
     absolute magnetization    =    22.23 Bohr mag/cell

     iteration #  3     ecut=    60.00 Ry     beta= 0.20
     Davidson diagonalization with overlap
     ethr =  3.45E-03,  avg # of iterations =  1.0

     negative rho (up, down):  4.570E-05 3.363E-05

     total cpu time spent up to now is      442.3 secs

     total energy              =   -6203.79963848 Ry
     estimated scf accuracy    <       3.04797065 Ry

     total magnetization       =    21.29 Bohr mag/cell
     absolute magnetization    =    21.31 Bohr mag/cell

     iteration #  4     ecut=    60.00 Ry     beta= 0.20
     Davidson diagonalization with overlap
     ethr =  1.26E-03,  avg # of iterations =  1.0

     negative rho (up, down):  4.048E-06 1.699E-05

     total cpu time spent up to now is      559.3 secs

     total energy              =   -6204.32830411 Ry
     estimated scf accuracy    <       2.52769160 Ry

     total magnetization       =    19.74 Bohr mag/cell
     absolute magnetization    =    19.90 Bohr mag/cell

     iteration #  5     ecut=    60.00 Ry     beta= 0.20
     Davidson diagonalization with overlap
     ethr =  1.05E-03,  avg # of iterations =  1.3

     negative rho (up, down):  8.569E-08 1.990E-06

     total cpu time spent up to now is      681.3 secs

     total energy              =   -6204.62015859 Ry
     estimated scf accuracy    <       1.02698087 Ry

     total magnetization       =    16.57 Bohr mag/cell
     absolute magnetization    =    17.43 Bohr mag/cell

     iteration #  6     ecut=    60.00 Ry     beta= 0.20
     Davidson diagonalization with overlap
     ethr =  4.26E-04,  avg # of iterations =  1.7

     negative rho (up, down):  3.677E-08 7.498E-07

     total cpu time spent up to now is      807.4 secs

     total energy              =   -6204.70002044 Ry
     estimated scf accuracy    <       0.92931493 Ry

     total magnetization       =    14.84 Bohr mag/cell
     absolute magnetization    =    16.13 Bohr mag/cell

     iteration #  7     ecut=    60.00 Ry     beta= 0.20
     Davidson diagonalization with overlap
     ethr =  3.86E-04,  avg # of iterations =  1.2

     negative rho (up, down):  6.404E-08 6.510E-07

     total cpu time spent up to now is      928.5 secs

     total energy              =   -6204.70715395 Ry
     estimated scf accuracy    <       0.60851029 Ry

     total magnetization       =    14.15 Bohr mag/cell
     absolute magnetization    =    15.57 Bohr mag/cell

     iteration #  8     ecut=    60.00 Ry     beta= 0.20
     Davidson diagonalization with overlap
     ethr =  2.52E-04,  avg # of iterations =  1.4

     negative rho (up, down):  5.983E-08 4.212E-07

     total cpu time spent up to now is     1051.0 secs

     total energy              =   -6204.72534844 Ry
     estimated scf accuracy    <       0.11024825 Ry

     total magnetization       =    13.06 Bohr mag/cell
     absolute magnetization    =    14.63 Bohr mag/cell

     iteration #  9     ecut=    60.00 Ry     beta= 0.20
     Davidson diagonalization with overlap
     ethr =  4.57E-05,  avg # of iterations =  6.7

     negative rho (up, down):  4.382E-08 2.373E-07

     total cpu time spent up to now is     1205.0 secs

     total energy              =   -6204.73909434 Ry
     estimated scf accuracy    <       0.08924508 Ry

     total magnetization       =    12.92 Bohr mag/cell
     absolute magnetization    =    14.54 Bohr mag/cell

     iteration # 10     ecut=    60.00 Ry     beta= 0.20
     Davidson diagonalization with overlap
     ethr =  3.70E-05,  avg # of iterations =  1.6

     negative rho (up, down):  1.421E-08 8.687E-08

     total cpu time spent up to now is     1326.8 secs

     total energy              =   -6204.74190947 Ry
     estimated scf accuracy    <       0.09087017 Ry

     total magnetization       =    12.96 Bohr mag/cell
     absolute magnetization    =    14.54 Bohr mag/cell

     iteration # 11     ecut=    60.00 Ry     beta= 0.20
     Davidson diagonalization with overlap
     ethr =  3.70E-05,  avg # of iterations =  1.1

     negative rho (up, down):  1.552E-08 6.572E-08

     total cpu time spent up to now is     1444.8 secs

     total energy              =   -6204.74252685 Ry
     estimated scf accuracy    <       0.12206976 Ry

     total magnetization       =    12.98 Bohr mag/cell
     absolute magnetization    =    14.49 Bohr mag/cell

     iteration # 12     ecut=    60.00 Ry     beta= 0.20
     Davidson diagonalization with overlap
     ethr =  3.70E-05,  avg # of iterations =  1.0

     negative rho (up, down):  3.043E-08 6.240E-08

     total cpu time spent up to now is     1561.4 secs

     total energy              =   -6204.74055636 Ry
     estimated scf accuracy    <       0.10228368 Ry

     total magnetization       =    13.01 Bohr mag/cell
     absolute magnetization    =    14.48 Bohr mag/cell

     iteration # 13     ecut=    60.00 Ry     beta= 0.20
     Davidson diagonalization with overlap
     ethr =  3.70E-05,  avg # of iterations =  1.2

     negative rho (up, down):  4.579E-08 7.551E-08

     total cpu time spent up to now is     1680.9 secs

     total energy              =   -6204.73726787 Ry
     estimated scf accuracy    <       0.04941395 Ry

     total magnetization       =    13.23 Bohr mag/cell
     absolute magnetization    =    14.59 Bohr mag/cell

     iteration # 14     ecut=    60.00 Ry     beta= 0.20
     Davidson diagonalization with overlap
     ethr =  2.05E-05,  avg # of iterations =  1.4

     negative rho (up, down):  1.362E-08 2.224E-08

     total cpu time spent up to now is     1802.2 secs

     total energy              =   -6204.73528997 Ry
     estimated scf accuracy    <       0.04375786 Ry

     total magnetization       =    13.26 Bohr mag/cell
     absolute magnetization    =    14.56 Bohr mag/cell

     iteration # 15     ecut=    60.00 Ry     beta= 0.20
     Davidson diagonalization with overlap
     ethr =  1.82E-05,  avg # of iterations =  1.3

     total cpu time spent up to now is     1922.7 secs

     total energy              =   -6204.73458921 Ry
     estimated scf accuracy    <       0.04610885 Ry

     total magnetization       =    13.18 Bohr mag/cell
     absolute magnetization    =    14.47 Bohr mag/cell

     iteration # 16     ecut=    60.00 Ry     beta= 0.20
     Davidson diagonalization with overlap
     ethr =  1.82E-05,  avg # of iterations =  1.4

     total cpu time spent up to now is     2044.1 secs

     total energy              =   -6204.73395890 Ry
     estimated scf accuracy    <       0.02303832 Ry

     total magnetization       =    13.17 Bohr mag/cell
     absolute magnetization    =    14.49 Bohr mag/cell

     iteration # 17     ecut=    60.00 Ry     beta= 0.20
     Davidson diagonalization with overlap
     ethr =  9.56E-06,  avg # of iterations =  3.0

     total cpu time spent up to now is     2177.6 secs

     total energy              =   -6204.73363865 Ry
     estimated scf accuracy    <       0.01136165 Ry

     total magnetization       =    13.22 Bohr mag/cell
     absolute magnetization    =    14.55 Bohr mag/cell

     iteration # 18     ecut=    60.00 Ry     beta= 0.20
     Davidson diagonalization with overlap
     ethr =  4.71E-06,  avg # of iterations =  5.5

     total cpu time spent up to now is     2319.4 secs

     total energy              =   -6204.73373685 Ry
     estimated scf accuracy    <       0.00459616 Ry

     total magnetization       =    13.21 Bohr mag/cell
     absolute magnetization    =    14.60 Bohr mag/cell

     iteration # 19     ecut=    60.00 Ry     beta= 0.20
     Davidson diagonalization with overlap
     ethr =  1.91E-06,  avg # of iterations =  6.8

     total cpu time spent up to now is     2466.4 secs

     total energy              =   -6204.73386598 Ry
     estimated scf accuracy    <       0.00402845 Ry

     total magnetization       =    13.21 Bohr mag/cell
     absolute magnetization    =    14.61 Bohr mag/cell

     iteration # 20     ecut=    60.00 Ry     beta= 0.20
     Davidson diagonalization with overlap
     ethr =  1.67E-06,  avg # of iterations =  1.9

     total cpu time spent up to now is     2590.0 secs

     total energy              =   -6204.73419173 Ry
     estimated scf accuracy    <       0.00350920 Ry

     total magnetization       =    13.24 Bohr mag/cell
     absolute magnetization    =    14.64 Bohr mag/cell

     iteration # 21     ecut=    60.00 Ry     beta= 0.20
     Davidson diagonalization with overlap
     ethr =  1.46E-06,  avg # of iterations =  1.4

     total cpu time spent up to now is     2710.5 secs

     total energy              =   -6204.73428471 Ry
     estimated scf accuracy    <       0.00317226 Ry

     total magnetization       =    13.23 Bohr mag/cell
     absolute magnetization    =    14.63 Bohr mag/cell

     iteration # 22     ecut=    60.00 Ry     beta= 0.20
     Davidson diagonalization with overlap
     ethr =  1.32E-06,  avg # of iterations =  1.6

     total cpu time spent up to now is     2833.3 secs

     total energy              =   -6204.73415177 Ry
     estimated scf accuracy    <       0.00297821 Ry

     total magnetization       =    13.21 Bohr mag/cell
     absolute magnetization    =    14.62 Bohr mag/cell

     iteration # 23     ecut=    60.00 Ry     beta= 0.20
     Davidson diagonalization with overlap
     ethr =  1.24E-06,  avg # of iterations =  1.4

     total cpu time spent up to now is     2953.5 secs

     total energy              =   -6204.73393874 Ry
     estimated scf accuracy    <       0.00312028 Ry

     total magnetization       =    13.20 Bohr mag/cell
     absolute magnetization    =    14.61 Bohr mag/cell

     iteration # 24     ecut=    60.00 Ry     beta= 0.20
     Davidson diagonalization with overlap
     ethr =  1.24E-06,  avg # of iterations =  1.4

     total cpu time spent up to now is     3075.0 secs

     total energy              =   -6204.73405583 Ry
     estimated scf accuracy    <       0.00325612 Ry

     total magnetization       =    13.21 Bohr mag/cell
     absolute magnetization    =    14.61 Bohr mag/cell

     iteration # 25     ecut=    60.00 Ry     beta= 0.20
     Davidson diagonalization with overlap
     ethr =  1.24E-06,  avg # of iterations =  1.5

     negative rho (up, down):  1.443E-05 1.438E-05

     total cpu time spent up to now is     3196.4 secs

     total energy              =   -6204.73371823 Ry
     estimated scf accuracy    <       0.00285084 Ry

     total magnetization       =    13.19 Bohr mag/cell
     absolute magnetization    =    14.61 Bohr mag/cell

     iteration # 26     ecut=    60.00 Ry     beta= 0.20
     Davidson diagonalization with overlap
     ethr =  1.18E-06,  avg # of iterations =  3.5

     negative rho (up, down):  1.209E-04 1.197E-04

     total cpu time spent up to now is     3332.2 secs

     total energy              =   -6204.73358387 Ry
     estimated scf accuracy    <       0.00162488 Ry

     total magnetization       =    13.16 Bohr mag/cell
     absolute magnetization    =    14.60 Bohr mag/cell

     iteration # 27     ecut=    60.00 Ry     beta= 0.20
     Davidson diagonalization with overlap
     ethr =  6.74E-07,  avg # of iterations =  2.4

     negative rho (up, down):  6.026E-05 5.745E-05

     total cpu time spent up to now is     3458.4 secs

     total energy              =   -6204.73339700 Ry
     estimated scf accuracy    <       0.00142508 Ry

     total magnetization       =    13.16 Bohr mag/cell
     absolute magnetization    =    14.60 Bohr mag/cell

     iteration # 28     ecut=    60.00 Ry     beta= 0.20
     Davidson diagonalization with overlap
     ethr =  5.91E-07,  avg # of iterations =  3.2

     negative rho (up, down):  3.132E-04 3.077E-04

     total cpu time spent up to now is     3589.3 secs

     total energy              =   -6204.73343919 Ry
     estimated scf accuracy    <       0.00058064 Ry

     total magnetization       =    13.21 Bohr mag/cell
     absolute magnetization    =    14.61 Bohr mag/cell

     iteration # 29     ecut=    60.00 Ry     beta= 0.20
     Davidson diagonalization with overlap
     ethr =  2.41E-07,  avg # of iterations =  3.2

     negative rho (up, down):  3.197E-05 2.753E-05

     total cpu time spent up to now is     3720.8 secs

     total energy              =   -6204.73345399 Ry
     estimated scf accuracy    <       0.00064043 Ry

     total magnetization       =    13.22 Bohr mag/cell
     absolute magnetization    =    14.62 Bohr mag/cell

     iteration # 30     ecut=    60.00 Ry     beta= 0.20
     Davidson diagonalization with overlap
     ethr =  2.41E-07,  avg # of iterations =  1.7

     negative rho (up, down):  3.658E-04 3.563E-04

     total cpu time spent up to now is     3843.5 secs

     total energy              =   -6204.73348708 Ry
     estimated scf accuracy    <       0.00035808 Ry

     total magnetization       =    13.23 Bohr mag/cell
     absolute magnetization    =    14.63 Bohr mag/cell

     iteration # 31     ecut=    60.00 Ry     beta= 0.20
     Davidson diagonalization with overlap
     ethr =  1.49E-07,  avg # of iterations =  2.6

     negative rho (up, down):  2.890E-04 2.761E-04

     total cpu time spent up to now is     3973.9 secs

     total energy              =   -6204.73352063 Ry
     estimated scf accuracy    <       0.00017472 Ry

     total magnetization       =    13.22 Bohr mag/cell
     absolute magnetization    =    14.64 Bohr mag/cell

     iteration # 32     ecut=    60.00 Ry     beta= 0.20
     Davidson diagonalization with overlap
     ethr =  7.25E-08,  avg # of iterations =  2.4

     negative rho (up, down):  1.684E-04 1.536E-04

     total cpu time spent up to now is     4103.5 secs

     total energy              =   -6204.73352587 Ry
     estimated scf accuracy    <       0.00007133 Ry

     total magnetization       =    13.22 Bohr mag/cell
     absolute magnetization    =    14.65 Bohr mag/cell

     iteration # 33     ecut=    60.00 Ry     beta= 0.20
     Davidson diagonalization with overlap
     ethr =  2.96E-08,  avg # of iterations =  3.5

     negative rho (up, down):  1.685E-04 1.341E-04

     total cpu time spent up to now is     4238.1 secs

     total energy              =   -6204.73353426 Ry
     estimated scf accuracy    <       0.00003824 Ry

     total magnetization       =    13.22 Bohr mag/cell
     absolute magnetization    =    14.65 Bohr mag/cell

     iteration # 34     ecut=    60.00 Ry     beta= 0.20
     Davidson diagonalization with overlap
     ethr =  1.59E-08,  avg # of iterations =  2.8

     negative rho (up, down):  2.592E-04 2.244E-04

     total cpu time spent up to now is     4374.7 secs

     total energy              =   -6204.73353637 Ry
     estimated scf accuracy    <       0.00001210 Ry

     total magnetization       =    13.22 Bohr mag/cell
     absolute magnetization    =    14.65 Bohr mag/cell

     iteration # 35     ecut=    60.00 Ry     beta= 0.20
     Davidson diagonalization with overlap
     ethr =  5.02E-09,  avg # of iterations =  3.9

     negative rho (up, down):  2.884E-04 2.481E-04

     total cpu time spent up to now is     4520.6 secs

     total energy              =   -6204.73353810 Ry
     estimated scf accuracy    <       0.00001526 Ry

     total magnetization       =    13.23 Bohr mag/cell
     absolute magnetization    =    14.65 Bohr mag/cell

     iteration # 36     ecut=    60.00 Ry     beta= 0.20
     Davidson diagonalization with overlap
     ethr =  5.02E-09,  avg # of iterations =  1.1

     negative rho (up, down):  2.783E-04 2.349E-04

     total cpu time spent up to now is     4638.9 secs

     total energy              =   -6204.73353806 Ry
     estimated scf accuracy    <       0.00000326 Ry

     total magnetization       =    13.23 Bohr mag/cell
     absolute magnetization    =    14.66 Bohr mag/cell

     iteration # 37     ecut=    60.00 Ry     beta= 0.20
     Davidson diagonalization with overlap
     ethr =  1.35E-09,  avg # of iterations =  2.5

     negative rho (up, down):  2.615E-04 2.176E-04

     total cpu time spent up to now is     4775.7 secs

     total energy              =   -6204.73353875 Ry
     estimated scf accuracy    <       0.00000146 Ry

     total magnetization       =    13.23 Bohr mag/cell
     absolute magnetization    =    14.66 Bohr mag/cell

     iteration # 38     ecut=    60.00 Ry     beta= 0.20
     Davidson diagonalization with overlap
     ethr =  6.06E-10,  avg # of iterations =  2.3

     negative rho (up, down):  2.183E-04 1.736E-04

     total cpu time spent up to now is     4912.7 secs

     total energy              =   -6204.73353934 Ry
     estimated scf accuracy    <       0.00000107 Ry

     total magnetization       =    13.23 Bohr mag/cell
     absolute magnetization    =    14.66 Bohr mag/cell

     iteration # 39     ecut=    60.00 Ry     beta= 0.20
     Davidson diagonalization with overlap
     ethr =  4.42E-10,  avg # of iterations =  2.0

     negative rho (up, down):  2.258E-04 1.798E-04

     total cpu time spent up to now is     5039.4 secs

     total energy              =   -6204.73353974 Ry
     estimated scf accuracy    <       0.00000048 Ry

     total magnetization       =    13.23 Bohr mag/cell
     absolute magnetization    =    14.66 Bohr mag/cell

     iteration # 40     ecut=    60.00 Ry     beta= 0.20
     Davidson diagonalization with overlap
     ethr =  1.99E-10,  avg # of iterations =  2.2

     negative rho (up, down):  2.316E-04 1.854E-04

     total cpu time spent up to now is     5168.9 secs

     total energy              =   -6204.73353977 Ry
     estimated scf accuracy    <       0.00000082 Ry

     total magnetization       =    13.23 Bohr mag/cell
     absolute magnetization    =    14.66 Bohr mag/cell

     iteration # 41     ecut=    60.00 Ry     beta= 0.20
     Davidson diagonalization with overlap
     ethr =  1.99E-10,  avg # of iterations =  1.1

     negative rho (up, down):  2.233E-04 1.768E-04

     total cpu time spent up to now is     5286.7 secs

     total energy              =   -6204.73353979 Ry
     estimated scf accuracy    <       0.00000026 Ry

     total magnetization       =    13.23 Bohr mag/cell
     absolute magnetization    =    14.66 Bohr mag/cell

     iteration # 42     ecut=    60.00 Ry     beta= 0.20
     Davidson diagonalization with overlap
     ethr =  1.10E-10,  avg # of iterations =  1.3

     negative rho (up, down):  2.206E-04 1.742E-04

     total cpu time spent up to now is     5407.1 secs

     total energy              =   -6204.73353978 Ry
     estimated scf accuracy    <       0.00000030 Ry

     total magnetization       =    13.23 Bohr mag/cell
     absolute magnetization    =    14.66 Bohr mag/cell

     iteration # 43     ecut=    60.00 Ry     beta= 0.20
     Davidson diagonalization with overlap
     ethr =  1.10E-10,  avg # of iterations =  1.0

     negative rho (up, down):  2.104E-04 1.640E-04

     total cpu time spent up to now is     5523.5 secs

     total energy              =   -6204.73353975 Ry
     estimated scf accuracy    <       0.00000021 Ry

     total magnetization       =    13.23 Bohr mag/cell
     absolute magnetization    =    14.66 Bohr mag/cell

     iteration # 44     ecut=    60.00 Ry     beta= 0.20
     Davidson diagonalization with overlap
     ethr =  8.67E-11,  avg # of iterations =  1.1

     negative rho (up, down):  2.046E-04 1.584E-04

     total cpu time spent up to now is     5641.2 secs

     total energy              =   -6204.73353972 Ry
     estimated scf accuracy    <       0.00000018 Ry

     total magnetization       =    13.23 Bohr mag/cell
     absolute magnetization    =    14.66 Bohr mag/cell

     iteration # 45     ecut=    60.00 Ry     beta= 0.20
     Davidson diagonalization with overlap
     ethr =  7.55E-11,  avg # of iterations =  1.0

     negative rho (up, down):  1.986E-04 1.524E-04

     total cpu time spent up to now is     5758.2 secs

     total energy              =   -6204.73353971 Ry
     estimated scf accuracy    <       0.00000014 Ry

     total magnetization       =    13.23 Bohr mag/cell
     absolute magnetization    =    14.66 Bohr mag/cell

     iteration # 46     ecut=    60.00 Ry     beta= 0.20
     Davidson diagonalization with overlap
     ethr =  5.90E-11,  avg # of iterations =  1.0

     negative rho (up, down):  1.948E-04 1.488E-04

     total cpu time spent up to now is     5875.0 secs

     total energy              =   -6204.73353971 Ry
     estimated scf accuracy    <       0.00000011 Ry

     total magnetization       =    13.23 Bohr mag/cell
     absolute magnetization    =    14.66 Bohr mag/cell

     iteration # 47     ecut=    60.00 Ry     beta= 0.20
     Davidson diagonalization with overlap
     ethr =  4.65E-11,  avg # of iterations =  1.0

     negative rho (up, down):  1.926E-04 1.467E-04

     total cpu time spent up to now is     5991.7 secs

     total energy              =   -6204.73353970 Ry
     estimated scf accuracy    <       0.00000011 Ry

     total magnetization       =    13.23 Bohr mag/cell
     absolute magnetization    =    14.66 Bohr mag/cell

     iteration # 48     ecut=    60.00 Ry     beta= 0.20
     Davidson diagonalization with overlap
     ethr =  4.65E-11,  avg # of iterations =  1.0

     negative rho (up, down):  1.946E-04 1.486E-04

     total cpu time spent up to now is     6108.0 secs

     total energy              =   -6204.73353971 Ry
     estimated scf accuracy    <       0.00000012 Ry

     total magnetization       =    13.23 Bohr mag/cell
     absolute magnetization    =    14.66 Bohr mag/cell

     iteration # 49     ecut=    60.00 Ry     beta= 0.20
     Davidson diagonalization with overlap
     ethr =  4.65E-11,  avg # of iterations =  1.0

     negative rho (up, down):  1.987E-04 1.526E-04

     total cpu time spent up to now is     6224.2 secs

     total energy              =   -6204.73353972 Ry
     estimated scf accuracy    <       0.00000014 Ry

     total magnetization       =    13.23 Bohr mag/cell
     absolute magnetization    =    14.66 Bohr mag/cell

     iteration # 50     ecut=    60.00 Ry     beta= 0.20
     Davidson diagonalization with overlap
     ethr =  4.65E-11,  avg # of iterations =  1.0

     negative rho (up, down):  1.989E-04 1.528E-04

     total cpu time spent up to now is     6340.7 secs

     total energy              =   -6204.73353973 Ry
     estimated scf accuracy    <       0.00000013 Ry

     total magnetization       =    13.23 Bohr mag/cell
     absolute magnetization    =    14.66 Bohr mag/cell

     iteration # 51     ecut=    60.00 Ry     beta= 0.20
     Davidson diagonalization with overlap
     ethr =  4.65E-11,  avg # of iterations =  1.0

     negative rho (up, down):  1.969E-04 1.508E-04

     total cpu time spent up to now is     6457.2 secs

     total energy              =   -6204.73353972 Ry
     estimated scf accuracy    <       0.00000014 Ry

     total magnetization       =    13.23 Bohr mag/cell
     absolute magnetization    =    14.66 Bohr mag/cell

     iteration # 52     ecut=    60.00 Ry     beta= 0.20
     Davidson diagonalization with overlap
     ethr =  4.65E-11,  avg # of iterations =  1.0

     negative rho (up, down):  1.949E-04 1.488E-04

     total cpu time spent up to now is     6573.6 secs

     total energy              =   -6204.73353971 Ry
     estimated scf accuracy    <       0.00000012 Ry

     total magnetization       =    13.23 Bohr mag/cell
     absolute magnetization    =    14.66 Bohr mag/cell

     iteration # 53     ecut=    60.00 Ry     beta= 0.20
     Davidson diagonalization with overlap
     ethr =  4.65E-11,  avg # of iterations =  1.0

     negative rho (up, down):  1.876E-04 1.417E-04

     total cpu time spent up to now is     6689.9 secs

     total energy              =   -6204.73353970 Ry
     estimated scf accuracy    <       0.00000008 Ry

     total magnetization       =    13.23 Bohr mag/cell
     absolute magnetization    =    14.66 Bohr mag/cell

     iteration # 54     ecut=    60.00 Ry     beta= 0.20
     Davidson diagonalization with overlap
     ethr =  3.31E-11,  avg # of iterations =  1.0

     negative rho (up, down):  1.861E-04 1.401E-04

     total cpu time spent up to now is     6806.2 secs

     total energy              =   -6204.73353971 Ry
     estimated scf accuracy    <       0.00000003 Ry

     total magnetization       =    13.23 Bohr mag/cell
     absolute magnetization    =    14.66 Bohr mag/cell

     iteration # 55     ecut=    60.00 Ry     beta= 0.20
     Davidson diagonalization with overlap
     ethr =  1.28E-11,  avg # of iterations =  1.0

     negative rho (up, down):  1.867E-04 1.408E-04

     total cpu time spent up to now is     6923.0 secs

     total energy              =   -6204.73353972 Ry
     estimated scf accuracy    <       0.00000002 Ry

     total magnetization       =    13.23 Bohr mag/cell
     absolute magnetization    =    14.66 Bohr mag/cell

     iteration # 56     ecut=    60.00 Ry     beta= 0.20
     Davidson diagonalization with overlap
     ethr =  7.71E-12,  avg # of iterations =  1.0

     negative rho (up, down):  1.888E-04 1.429E-04

     total cpu time spent up to now is     7040.3 secs

     total energy              =   -6204.73353973 Ry
     estimated scf accuracy    <       0.00000002 Ry

     total magnetization       =    13.23 Bohr mag/cell
     absolute magnetization    =    14.66 Bohr mag/cell

     iteration # 57     ecut=    60.00 Ry     beta= 0.20
     Davidson diagonalization with overlap
     ethr =  7.47E-12,  avg # of iterations =  1.0

     negative rho (up, down):  1.947E-04 1.487E-04

     total cpu time spent up to now is     7156.6 secs

     total energy              =   -6204.73353975 Ry
     estimated scf accuracy    <          9.9E-09 Ry

     total magnetization       =    13.23 Bohr mag/cell
     absolute magnetization    =    14.66 Bohr mag/cell

     iteration # 58     ecut=    60.00 Ry     beta= 0.20
     Davidson diagonalization with overlap
     ethr =  4.09E-12,  avg # of iterations =  1.6

     negative rho (up, down):  1.978E-04 1.517E-04

     total cpu time spent up to now is     7279.8 secs

     total energy              =   -6204.73353976 Ry
     estimated scf accuracy    <          5.4E-09 Ry

     total magnetization       =    13.23 Bohr mag/cell
     absolute magnetization    =    14.66 Bohr mag/cell

     iteration # 59     ecut=    60.00 Ry     beta= 0.20
     Davidson diagonalization with overlap
     ethr =  2.23E-12,  avg # of iterations =  1.2

     negative rho (up, down):  2.018E-04 1.556E-04

     total cpu time spent up to now is     7399.9 secs

     total energy              =   -6204.73353976 Ry
     estimated scf accuracy    <          4.1E-09 Ry

     total magnetization       =    13.23 Bohr mag/cell
     absolute magnetization    =    14.66 Bohr mag/cell

     iteration # 60     ecut=    60.00 Ry     beta= 0.20
     Davidson diagonalization with overlap
     ethr =  1.72E-12,  avg # of iterations =  1.6

     negative rho (up, down):  2.023E-04 1.561E-04

     total cpu time spent up to now is     7523.2 secs

     total energy              =   -6204.73353976 Ry
     estimated scf accuracy    <          3.2E-09 Ry

     total magnetization       =    13.23 Bohr mag/cell
     absolute magnetization    =    14.66 Bohr mag/cell

     iteration # 61     ecut=    60.00 Ry     beta= 0.20
     Davidson diagonalization with overlap
     ethr =  1.32E-12,  avg # of iterations =  1.1

     negative rho (up, down):  2.031E-04 1.569E-04

     total cpu time spent up to now is     7640.5 secs

     total energy              =   -6204.73353977 Ry
     estimated scf accuracy    <          2.4E-09 Ry

     total magnetization       =    13.23 Bohr mag/cell
     absolute magnetization    =    14.66 Bohr mag/cell

     iteration # 62     ecut=    60.00 Ry     beta= 0.20
     Davidson diagonalization with overlap
     ethr =  9.90E-13,  avg # of iterations =  1.3

     negative rho (up, down):  2.035E-04 1.573E-04

     total cpu time spent up to now is     7761.6 secs

     total energy              =   -6204.73353977 Ry
     estimated scf accuracy    <          2.3E-09 Ry

     total magnetization       =    13.23 Bohr mag/cell
     absolute magnetization    =    14.66 Bohr mag/cell

     iteration # 63     ecut=    60.00 Ry     beta= 0.20
     Davidson diagonalization with overlap
     ethr =  9.63E-13,  avg # of iterations =  1.2

     negative rho (up, down):  2.044E-04 1.581E-04

     total cpu time spent up to now is     7880.9 secs

     total energy              =   -6204.73353978 Ry
     estimated scf accuracy    <          8.7E-10 Ry

     total magnetization       =    13.23 Bohr mag/cell
     absolute magnetization    =    14.66 Bohr mag/cell

     iteration # 64     ecut=    60.00 Ry     beta= 0.20
     Davidson diagonalization with overlap
     ethr =  3.61E-13,  avg # of iterations =  2.4

     negative rho (up, down):  2.049E-04 1.586E-04

     total cpu time spent up to now is     8008.6 secs

     total energy              =   -6204.73353978 Ry
     estimated scf accuracy    <          7.8E-10 Ry

     total magnetization       =    13.23 Bohr mag/cell
     absolute magnetization    =    14.66 Bohr mag/cell

     iteration # 65     ecut=    60.00 Ry     beta= 0.20
     Davidson diagonalization with overlap
     ethr =  3.24E-13,  avg # of iterations =  1.4

     negative rho (up, down):  2.049E-04 1.586E-04

     total cpu time spent up to now is     8130.5 secs

     total energy              =   -6204.73353978 Ry
     estimated scf accuracy    <          1.8E-10 Ry

     total magnetization       =    13.23 Bohr mag/cell
     absolute magnetization    =    14.66 Bohr mag/cell

     iteration # 66     ecut=    60.00 Ry     beta= 0.20
     Davidson diagonalization with overlap
     ethr =  1.00E-13,  avg # of iterations =  2.2

     negative rho (up, down):  2.050E-04 1.587E-04

     total cpu time spent up to now is     8256.4 secs

     total energy              =   -6204.73353978 Ry
     estimated scf accuracy    <          1.1E-10 Ry

     total magnetization       =    13.23 Bohr mag/cell
     absolute magnetization    =    14.66 Bohr mag/cell

     iteration # 67     ecut=    60.00 Ry     beta= 0.20
     Davidson diagonalization with overlap
     ethr =  1.00E-13,  avg # of iterations =  1.1

     negative rho (up, down):  2.044E-04 1.582E-04
 
     Magnetic moment per site  (integrated on atomic sphere of radius R)
     atom   1 (R=0.204)  charge=  8.6840  magn=  0.8726
     atom   2 (R=0.126)  charge=  4.5103  magn=  0.1980
     atom   3 (R=0.126)  charge=  4.5101  magn=  0.2014
     atom   4 (R=0.204)  charge=  8.6840  magn=  0.8726
     atom   5 (R=0.126)  charge=  4.5007  magn=  0.2437
     atom   6 (R=0.126)  charge=  4.5014  magn=  0.2467
     atom   7 (R=0.204)  charge=  8.7642  magn=  0.8721
     atom   8 (R=0.204)  charge=  8.7642  magn=  0.8721
     atom   9 (R=0.204)  charge=  8.7729  magn=  0.8294
     atom  10 (R=0.204)  charge=  8.7729  magn=  0.8294
     atom  11 (R=0.126)  charge=  4.4987  magn=  0.2366
     atom  12 (R=0.126)  charge=  4.4984  magn=  0.2319
     atom  13 (R=0.204)  charge=  8.7767  magn=  0.8131
     atom  14 (R=0.126)  charge=  4.5011  magn=  0.2306
     atom  15 (R=0.126)  charge=  4.4980  magn=  0.2286
     atom  16 (R=0.204)  charge=  8.7767  magn=  0.8131
     atom  17 (R=0.204)  charge=  8.7622  magn=  0.8024
     atom  18 (R=0.126)  charge=  4.4995  magn=  0.2381
     atom  19 (R=0.126)  charge=  4.4999  magn=  0.2167
     atom  20 (R=0.204)  charge=  8.7622  magn=  0.8024
     atom  21 (R=0.126)  charge=  4.5128  magn=  0.1819
     atom  22 (R=0.204)  charge=  8.6885  magn=  0.8468
     atom  23 (R=0.204)  charge=  8.6885  magn=  0.8468
     atom  24 (R=0.126)  charge=  4.4822  magn=  0.1063
     atom  25 (R=0.126)  charge=  0.7222  magn= -0.0079

     total cpu time spent up to now is     8374.0 secs

     End of self-consistent calculation

     Number of k-points >= 100: set verbosity='high' to print the bands.

     the Fermi energy is    -5.1439 ev

!    total energy              =   -6204.73353978 Ry
     total all-electron energy =   -157606.824896 Ry
     estimated scf accuracy    <          4.7E-11 Ry
     smearing contrib. (-TS)   =       0.00121668 Ry
     internal energy E=F+TS    =   -6204.73475646 Ry

     The total energy is F=E-TS. E is the sum of the following terms:
     one-electron contribution =  -65034.40018572 Ry
     hartree contribution      =   32707.88249894 Ry
     xc contribution           =    -891.34182121 Ry
     ewald contribution        =   31116.95910205 Ry
     DFT-D3 Dispersion         =      -2.26832240 Ry
     one-center paw contrib.   =   -4101.56602812 Ry

     total magnetization       =    13.23 Bohr mag/cell
     absolute magnetization    =    14.66 Bohr mag/cell

     convergence has been achieved in  67 iterations

     negative rho (up, down):  2.044E-04 1.582E-04

     Forces acting on atoms (cartesian axes, Ry/au):

     atom    1 type  1   force =    -0.00854369    0.00485349    0.00656651
     atom    2 type  2   force =     0.01136789   -0.00684252   -0.00954163
     atom    3 type  2   force =     0.01121540   -0.00675058   -0.00863035
     atom    4 type  1   force =    -0.00828813    0.00527775    0.00656646
     atom    5 type  2   force =    -0.00013806    0.00008298    0.00383465
     atom    6 type  2   force =    -0.00099318    0.00059793    0.00295485
     atom    7 type  1   force =    -0.00251743    0.00015182   -0.00110725
     atom    8 type  1   force =    -0.00131279    0.00215360   -0.00110705
     atom    9 type  1   force =    -0.00030286    0.00015238   -0.00027426
     atom   10 type  1   force =    -0.00027657    0.00019642   -0.00027419
     atom   11 type  2   force =    -0.00009496    0.00005706    0.00017521
     atom   12 type  2   force =    -0.00056907    0.00034265    0.00009032
     atom   13 type  1   force =     0.00010488   -0.00031839    0.00008690
     atom   14 type  2   force =     0.00062746   -0.00037808    0.00026108
     atom   15 type  2   force =    -0.00034317    0.00020690    0.00020918
     atom   16 type  1   force =     0.00033073    0.00005622    0.00008678
     atom   17 type  1   force =     0.00015086   -0.00031371   -0.00018223
     atom   18 type  2   force =    -0.00001829    0.00001081    0.00075153
     atom   19 type  2   force =     0.00055358   -0.00033321   -0.00032697
     atom   20 type  1   force =     0.00034811    0.00001352   -0.00018262
     atom   21 type  2   force =     0.00047586   -0.00028665   -0.00025880
     atom   22 type  1   force =     0.00042580   -0.00038373    0.00004063
     atom   23 type  1   force =     0.00053854   -0.00019664    0.00004073
     atom   24 type  2   force =    -0.00066774    0.00040213    0.00004675
     atom   25 type  3   force =    -0.00207317    0.00124786    0.00017377

     Total force =     0.002235     Total SCF correction =     0.000014


     Computing stress (Cartesian axis) and pressure


     negative rho (up, down):  2.044E-04 1.582E-04
          total   stress  (Ry/bohr**3)                   (kbar)     P=       -6.73
  -0.00006855  -0.00000521  -0.00000719          -10.08       -0.77       -1.06
  -0.00000521  -0.00007407   0.00000433           -0.77      -10.90        0.64
  -0.00000719   0.00000433   0.00000541           -1.06        0.64        0.80


     Writing all to output data dir /tmpu/isholek_g/isholek/MIGUEL/QE/Hydrogen/111_2x2/SAVE/Ni2Pd2_111-T2.save/ :
     XML data file, charge density, pseudopotentials, collected wavefunctions
 
     init_run     :     62.71s CPU     64.84s WALL (       1 calls)
     electrons    :   8087.55s CPU   8310.45s WALL (       1 calls)
     forces       :     15.44s CPU     15.52s WALL (       1 calls)
     force_dftd3  :      0.30s CPU      0.30s WALL (       1 calls)
     stress       :    260.45s CPU    261.92s WALL (       1 calls)
     stres_dftd3  :      0.27s CPU      0.27s WALL (       1 calls)

     Called by init_run:
     wfcinit      :     55.93s CPU     57.92s WALL (       1 calls)
     potinit      :      0.90s CPU      0.98s WALL (       1 calls)
     hinit0       :      0.45s CPU      0.46s WALL (       1 calls)

     Called by electrons:
     c_bands      :   6539.19s CPU   6720.15s WALL (      67 calls)
     sum_band     :   1427.97s CPU   1463.24s WALL (      67 calls)
     v_of_rho     :     41.26s CPU     44.16s WALL (      68 calls)
     newd         :      7.44s CPU      7.72s WALL (      68 calls)
     PAW_pot      :     12.69s CPU     12.78s WALL (      68 calls)
     mix_rho      :     51.00s CPU     53.61s WALL (      67 calls)
     energy_dftd3 :      0.06s CPU      0.06s WALL (       1 calls)

     Called by c_bands:
     init_us_2    :     64.55s CPU     64.74s WALL (    4384 calls)
     init_us_2:cp :     64.49s CPU     64.71s WALL (    4384 calls)
     cegterg      :   5560.06s CPU   5734.52s WALL (    2144 calls)

     Called by *egterg:
     cdiaghg      :    109.98s CPU    110.36s WALL (    6405 calls)
     h_psi        :   4346.62s CPU   4505.24s WALL (    6437 calls)
     s_psi        :    360.17s CPU    360.66s WALL (    6437 calls)
     g_psi        :     12.77s CPU     12.83s WALL (    4261 calls)

     Called by h_psi:
     h_psi:calbec :    349.23s CPU    350.28s WALL (    6437 calls)
     vloc_psi     :   3618.56s CPU   3758.83s WALL (    6437 calls)
     vloc_psi:tg_ :      8.17s CPU      8.37s WALL (    6437 calls)
     add_vuspsi   :    360.81s CPU    361.24s WALL (    6437 calls)

     General routines
     calbec       :    527.28s CPU    528.56s WALL (    8741 calls)
     fft          :     36.31s CPU     39.76s WALL (    1738 calls)
     ffts         :     19.49s CPU     21.52s WALL (    8388 calls)
     fftw         :   3617.27s CPU   3761.21s WALL (  801148 calls)
     interpolate  :      3.52s CPU      3.83s WALL (     136 calls)
 
     Parallel routines
     fft_scatt_xy :   1035.80s CPU   1044.27s WALL (  811274 calls)
     fft_scatt_yz :    452.99s CPU    531.02s WALL (  811274 calls)
     fft_scatt_tg :    146.81s CPU    171.73s WALL (  801148 calls)
 
     PWSCF        :      2h20m CPU      2h24m WALL

 
   This run was terminated on:   1:32:44  16May2026            

=------------------------------------------------------------------------------=
   JOB DONE.
=------------------------------------------------------------------------------=
