
     Program PWSCF v.7.3 starts on 20Mar2026 at  4: 1:57 

     This program is part of the open-source Quantum ESPRESSO suite
     for quantum simulation of materials; please cite
         "P. Giannozzi et al., J. Phys.:Condens. Matter 21 395502 (2009);
         "P. Giannozzi et al., J. Phys.:Condens. Matter 29 465901 (2017);
         "P. Giannozzi et al., J. Chem. Phys. 152 154105 (2020);
          URL http://www.quantum-espresso.org", 
     in publications or presentations arising from this work. More details at
     http://www.quantum-espresso.org/quote

     Parallel version (MPI), running on    64 processors

     MPI processes distributed on     4 nodes
     240192 MiB available memory on the printing compute node when the environment starts
 
     Reading input from /tmpu/isholek_g/isholek/MIGUEL/QE/Hydrogen/111_2x2/SCF/Ni2Pd2_111-B3-SCF.in

     Current dimensions of program PWSCF are:
     Max number of different atomic species (ntypx) = 10
     Max number of k-points (npk) =  40000
     Max angular momentum in pseudopotentials (lmaxx) =  4
     file Ni.upf: wavefunction(s)  4S 3D renormalized
     file Pd.upf: wavefunction(s)  5S 4D renormalized
     file H.upf: wavefunction(s)  1S renormalized

     IMPORTANT: XC functional enforced from input :
     Exchange-correlation= PBE
                           (   1   4   3   4   0   0   0)
     Any further DFT definition will be discarded
     Please, verify this is what you really want

 
     K-points division:     npool     =       8
     R & G space division:  proc/nbgrp/npool/nimage =       8
     Subspace diagonalization in iterative solution of the eigenvalue problem:
     one sub-group per band group will be used
     scalapack distributed-memory algorithm (size of sub-group:  2*  2 procs)

 
     Parallelization info
     --------------------
     sticks:   dense  smooth     PW     G-vecs:    dense   smooth      PW
     Min         395     197     56               113792    40212    6278
     Max         396     199     57               113804    40221    6305
     Sum        3165    1581    455               910393   321727   50373
 
     Using Slab Decomposition
 

     Title: 
     Ni2Pd2_111-B3-SCF                                                          


     bravais-lattice index     =            0
     lattice parameter (alat)  =       9.7088  a.u.
     unit-cell volume          =    5128.0588 (a.u.)^3
     number of atoms/cell      =           25
     number of atomic types    =            3
     number of electrons       =       241.00
     number of Kohn-Sham states=          145
     kinetic-energy cutoff     =      60.0000  Ry
     charge density cutoff     =     480.0000  Ry
     scf convergence threshold =      1.0E-10
     mixing beta               =       0.2000
     number of iterations used =           12  local-TF  mixing
     Exchange-correlation= PBE
                           (   1   4   3   4   0   0   0)

     celldm(1)=   9.708762  celldm(2)=   0.000000  celldm(3)=   0.000000
     celldm(4)=   0.000000  celldm(5)=   0.000000  celldm(6)=   0.000000

     crystal axes: (cart. coord. in units of alat)
               a(1) = (   1.000000   0.000000   0.000000 )  
               a(2) = (   0.531889   0.883670   0.000000 )  
               a(3) = (   0.000000   0.000000   6.341200 )  

     reciprocal axes: (cart. coord. in units 2 pi/alat)
               b(1) = (  1.000000 -0.601910  0.000000 )  
               b(2) = (  0.000000  1.131644  0.000000 )  
               b(3) = (  0.000000  0.000000  0.157699 )  


     PseudoPot. # 1 for Ni read from file:
     /tmpu/isholek_g/isholek/MIGUEL/PP/PAW/Ni.upf
     MD5 check sum: d88365a95a5e142bd87181c2c8b16588
     Pseudo is Projector augmented-wave + core cor, Zval = 10.0
     Generated using "atomic" code by A. Dal Corso  v.5.0.2 svn rev. 9415
     Shape of augmentation charge: PSQ
     Using radial grid of 1195 points,  6 beta functions with: 
                l(1) =   0
                l(2) =   0
                l(3) =   1
                l(4) =   1
                l(5) =   2
                l(6) =   2
     Q(r) pseudized with 0 coefficients 


     PseudoPot. # 2 for Pd read from file:
     /tmpu/isholek_g/isholek/MIGUEL/PP/PAW/Pd.upf
     MD5 check sum: e9d6f14fd83b79f8105499163af174c9
     Pseudo is Projector augmented-wave + core cor, Zval = 10.0
     Generated using "atomic" code by A. Dal Corso  v.5.0.2 svn rev. 9415
     Shape of augmentation charge: PSQ
     Using radial grid of 1235 points,  6 beta functions with: 
                l(1) =   0
                l(2) =   0
                l(3) =   1
                l(4) =   1
                l(5) =   2
                l(6) =   2
     Q(r) pseudized with 0 coefficients 


     PseudoPot. # 3 for H  read from file:
     /tmpu/isholek_g/isholek/MIGUEL/PP/PAW/H.upf
     MD5 check sum: 4cbe42a24e15140179a93d5bf84f2220
     Pseudo is Projector augmented-wave, Zval =  1.0
     Generated using "atomic" code by A. Dal Corso  v.5.0.2 svn rev. 9415
     Shape of augmentation charge: PSQ
     Using radial grid of  929 points,  2 beta functions with: 
                l(1) =   0
                l(2) =   0
     Q(r) pseudized with 0 coefficients 


     atomic species   valence    mass     pseudopotential
     Ni               10.00    58.69340     Ni( 1.00)
     Pd               10.00   106.42000     Pd( 1.00)
     H                 1.00     1.00794     H ( 1.00)

     Starting magnetic structure 
     atomic species   magnetization
     Ni              0.650
     Pd              0.100
     H               0.000

     No symmetry found



   Cartesian axes

     site n.     atom                  positions (alat units)
         1        Ni     tau(   1) = (   0.0000000   0.0000000   2.1410544  )
         2        Pd     tau(   2) = (   0.7659447   0.4418349   2.1410544  )
         3        Pd     tau(   3) = (   0.5000000   0.0000000   2.1410544  )
         4        Ni     tau(   4) = (   0.2659447   0.4418349   2.1410544  )
         5        Pd     tau(   5) = (   0.2340553   0.1600746   2.5528726  )
         6        Pd     tau(   6) = (   0.5000000   0.6019096   2.5528726  )
         7        Ni     tau(   7) = (   0.7340553   0.1600746   2.5528726  )
         8        Ni     tau(   8) = (   1.0000000   0.6019096   2.5528726  )
         9        Ni     tau(   9) = (   0.4676709   0.3204934   2.9643934  )
        10        Ni     tau(  10) = (   0.7336377   0.7622214   2.9644123  )
        11        Pd     tau(  11) = (   0.9672354   0.3206326   2.9617427  )
        12        Pd     tau(  12) = (   1.2331968   0.7625550   2.9624033  )
        13        Ni     tau(  13) = (   0.9378342   0.0371438   3.3731694  )
        14        Pd     tau(  14) = (   0.7047968   0.4791317   3.3765884  )
        15        Pd     tau(  15) = (   0.4388654   0.0367670   3.3771773  )
        16        Ni     tau(  16) = (   1.2044715   0.4788466   3.3707022  )
        17        Ni     tau(  17) = (   0.9356718   0.6425870   3.7912097  )
        18        Pd     tau(  18) = (   0.1666638   0.2019978   3.7810985  )
        19        Pd     tau(  19) = (   0.4332946   0.6430424   3.7842319  )
        20        Ni     tau(  20) = (   0.6703019   0.1993777   3.7898571  )
        21        Pd     tau(  21) = (   0.9053871   0.3597919   4.2066071  )
        22        Ni     tau(  22) = (   0.6742681   0.7992199   4.1904290  )
        23        Ni     tau(  23) = (   0.4111781   0.3541130   4.1863834  )
        24        Pd     tau(  24) = (   1.1762598   0.7989134   4.2118099  )
        25        H      tau(  25) = (   0.9005632   0.8030135   4.4101717  )

     --------------------------------------------
     DFT-D3 Dispersion Correction (3-body terms):
     --------------------------------------------
       Reference C6 values for interpolation: 

         atom   Coordination number   C6
         H          0.912             6.05
         H          0.000            15.18
         Ni         0.000          1149.49
         Ni         1.794           356.66
         Ni         6.546           257.56
         Ni         6.292           283.75
         Pd         0.000          1217.01
         Pd         1.863           573.90
         Pd         5.710           531.75

       Values used:

         atom   Coordination number  R0_AB[au]  C6      C8
         Ni         6.134            3.162    273.94  22954.50
         Pd         7.162            3.168    531.75  48720.73
         Pd         7.162            3.168    531.75  48720.73
         Ni         6.134            3.162    273.94  22954.50
         Pd         9.632            3.168    531.75  48720.73
         Pd         9.631            3.168    531.75  48720.73
         Ni         8.231            3.162    258.16  21632.36
         Ni         8.231            3.162    258.17  21632.38
         Ni         8.247            3.162    258.15  21630.83
         Ni         8.232            3.162    258.16  21632.31
         Pd         9.673            3.168    531.75  48720.73
         Pd         9.674            3.168    531.75  48720.73
         Ni         8.238            3.162    258.16  21631.72
         Pd         9.604            3.168    531.75  48720.73
         Pd         9.617            3.168    531.75  48720.73
         Ni         8.227            3.162    258.17  21632.76
         Ni         8.144            3.162    258.28  21641.82
         Pd         9.627            3.168    531.75  48720.73
         Pd         9.621            3.168    531.75  48720.73
         Ni         8.202            3.162    258.20  21635.41
         Pd         7.056            3.168    531.75  48720.73
         Ni         7.024            3.162    263.18  22052.78
         Ni         6.310            3.162    271.67  22764.08
         Pd         7.716            3.168    531.75  48720.73
         H          1.558            2.062      6.06     73.20

         Molecular C6 ( Ry / a.u.^6 ) =    224090.56


     number of k points=   256  Marzari-Vanderbilt smearing, width (Ry)=  0.0147

     Number of k-points >= 100: set verbosity='high' to print them.

     Dense  grid:   910393 G-vectors     FFT dimensions: (  72,  72, 432)

     Smooth grid:   321727 G-vectors     FFT dimensions: (  48,  50, 320)

     Estimated max dynamical RAM per process >     976.78 MB

     Estimated total dynamical RAM >      56.49 GB
 ----2D----2D----2D----2D----2D----2D----2D----2D----2D----2D----2D----2D
  The code is running with the 2D cutoff
  Please refer to:
  Sohier, T., Calandra, M., & Mauri, F. (2017), 
  Density functional perturbation theory for gated two-dimensional heterostructu
 res:
  Theoretical developments and application to flexural phonons in graphene.
  Physical Review B, 96(7), 75448. https://doi.org/10.1103/PhysRevB.96.075448
 ----2D----2D----2D----2D----2D----2D----2D----2D----2D----2D----2D----2D

     Check: negative core charge=   -0.000002
     Generating pointlists ...
     new r_m :   0.1301 (alat units)  1.2633 (a.u.) for type    1
     new r_m :   0.1401 (alat units)  1.3603 (a.u.) for type    2
     new r_m :   0.1301 (alat units)  1.2633 (a.u.) for type    3

     Initial potential from superposition of free atoms

     starting charge     240.9907, renormalised to     241.0000

     negative rho (up, down):  2.601E-04 5.770E-05
     Starting wfcs are  217 randomized atomic wfcs
     Checking if some PAW data can be deallocated... 

     total cpu time spent up to now is      127.3 secs

     Self-consistent Calculation

     iteration #  1     ecut=    60.00 Ry     beta= 0.20
     Davidson diagonalization with overlap
     ethr =  1.00E-02,  avg # of iterations =  2.7

     negative rho (up, down):  1.118E-04 9.483E-06

     total cpu time spent up to now is      417.7 secs

     total energy              =   -6201.80549505 Ry
     estimated scf accuracy    <      34.25896225 Ry

     total magnetization       =    19.68 Bohr mag/cell
     absolute magnetization    =    19.68 Bohr mag/cell

     iteration #  2     ecut=    60.00 Ry     beta= 0.20
     Davidson diagonalization with overlap
     ethr =  1.00E-02,  avg # of iterations =  1.0

     negative rho (up, down):  6.401E-05 1.220E-05

     total cpu time spent up to now is      660.2 secs

     total energy              =   -6203.22420932 Ry
     estimated scf accuracy    <       8.48690669 Ry

     total magnetization       =    22.07 Bohr mag/cell
     absolute magnetization    =    22.08 Bohr mag/cell

     iteration #  3     ecut=    60.00 Ry     beta= 0.20
     Davidson diagonalization with overlap
     ethr =  3.52E-03,  avg # of iterations =  1.0

     negative rho (up, down):  1.033E-05 1.637E-06

     total cpu time spent up to now is      908.4 secs

     total energy              =   -6203.89443666 Ry
     estimated scf accuracy    <       2.75028537 Ry

     total magnetization       =    21.02 Bohr mag/cell
     absolute magnetization    =    21.06 Bohr mag/cell

     iteration #  4     ecut=    60.00 Ry     beta= 0.20
     Davidson diagonalization with overlap
     ethr =  1.14E-03,  avg # of iterations =  1.0

     negative rho (up, down):  8.392E-07 5.610E-07

     total cpu time spent up to now is     1155.4 secs

     total energy              =   -6204.36979982 Ry
     estimated scf accuracy    <       2.89232671 Ry

     total magnetization       =    19.25 Bohr mag/cell
     absolute magnetization    =    19.52 Bohr mag/cell

     iteration #  5     ecut=    60.00 Ry     beta= 0.20
     Davidson diagonalization with overlap
     ethr =  1.14E-03,  avg # of iterations =  1.2

     negative rho (up, down):  2.867E-08 1.846E-07

     total cpu time spent up to now is     1397.1 secs

     total energy              =   -6204.62657992 Ry
     estimated scf accuracy    <       0.88504270 Ry

     total magnetization       =    16.81 Bohr mag/cell
     absolute magnetization    =    17.61 Bohr mag/cell

     iteration #  6     ecut=    60.00 Ry     beta= 0.20
     Davidson diagonalization with overlap
     ethr =  3.67E-04,  avg # of iterations =  2.1

     negative rho (up, down):  1.494E-08 2.725E-07

     total cpu time spent up to now is     1644.9 secs

     total energy              =   -6204.73241656 Ry
     estimated scf accuracy    <       0.96009569 Ry

     total magnetization       =    15.20 Bohr mag/cell
     absolute magnetization    =    16.36 Bohr mag/cell

     iteration #  7     ecut=    60.00 Ry     beta= 0.20
     Davidson diagonalization with overlap
     ethr =  3.67E-04,  avg # of iterations =  1.2

     negative rho (up, down):  2.850E-08 3.663E-07

     total cpu time spent up to now is     1889.6 secs

     total energy              =   -6204.74975696 Ry
     estimated scf accuracy    <       0.23944953 Ry

     total magnetization       =    13.93 Bohr mag/cell
     absolute magnetization    =    15.35 Bohr mag/cell

     iteration #  8     ecut=    60.00 Ry     beta= 0.20
     Davidson diagonalization with overlap
     ethr =  9.94E-05,  avg # of iterations =  3.7

     negative rho (up, down):  5.425E-08 4.391E-07

     total cpu time spent up to now is     2158.6 secs

     total energy              =   -6204.75903469 Ry
     estimated scf accuracy    <       0.11556791 Ry

     total magnetization       =    13.30 Bohr mag/cell
     absolute magnetization    =    14.78 Bohr mag/cell

     iteration #  9     ecut=    60.00 Ry     beta= 0.20
     Davidson diagonalization with overlap
     ethr =  4.80E-05,  avg # of iterations =  5.3

     negative rho (up, down):  5.929E-08 3.232E-07

     total cpu time spent up to now is     2448.0 secs

     total energy              =   -6204.76701824 Ry
     estimated scf accuracy    <       0.08758677 Ry

     total magnetization       =    12.92 Bohr mag/cell
     absolute magnetization    =    14.46 Bohr mag/cell

     iteration # 10     ecut=    60.00 Ry     beta= 0.20
     Davidson diagonalization with overlap
     ethr =  3.63E-05,  avg # of iterations =  1.9

     negative rho (up, down):  5.494E-08 1.730E-07

     total cpu time spent up to now is     2711.1 secs

     total energy              =   -6204.77063254 Ry
     estimated scf accuracy    <       0.08038593 Ry

     total magnetization       =    12.93 Bohr mag/cell
     absolute magnetization    =    14.46 Bohr mag/cell

     iteration # 11     ecut=    60.00 Ry     beta= 0.20
     Davidson diagonalization with overlap
     ethr =  3.34E-05,  avg # of iterations =  1.8

     negative rho (up, down):  9.511E-08 2.011E-07

     total cpu time spent up to now is     2970.9 secs

     total energy              =   -6204.77246484 Ry
     estimated scf accuracy    <       0.13047478 Ry

     total magnetization       =    13.01 Bohr mag/cell
     absolute magnetization    =    14.46 Bohr mag/cell

     iteration # 12     ecut=    60.00 Ry     beta= 0.20
     Davidson diagonalization with overlap
     ethr =  3.34E-05,  avg # of iterations =  1.1

     negative rho (up, down):  2.634E-07 3.851E-07

     total cpu time spent up to now is     3222.3 secs

     total energy              =   -6204.77080940 Ry
     estimated scf accuracy    <       0.13659303 Ry

     total magnetization       =    13.00 Bohr mag/cell
     absolute magnetization    =    14.40 Bohr mag/cell

     iteration # 13     ecut=    60.00 Ry     beta= 0.20
     Davidson diagonalization with overlap
     ethr =  3.34E-05,  avg # of iterations =  1.2

     negative rho (up, down):  3.473E-07 4.419E-07

     total cpu time spent up to now is     3474.1 secs

     total energy              =   -6204.76770290 Ry
     estimated scf accuracy    <       0.10878522 Ry

     total magnetization       =    13.07 Bohr mag/cell
     absolute magnetization    =    14.40 Bohr mag/cell

     iteration # 14     ecut=    60.00 Ry     beta= 0.20
     Davidson diagonalization with overlap
     ethr =  3.34E-05,  avg # of iterations =  1.0

     negative rho (up, down):  1.685E-07 2.103E-07

     total cpu time spent up to now is     3721.6 secs

     total energy              =   -6204.76531323 Ry
     estimated scf accuracy    <       0.05778739 Ry

     total magnetization       =    13.19 Bohr mag/cell
     absolute magnetization    =    14.45 Bohr mag/cell

     iteration # 15     ecut=    60.00 Ry     beta= 0.20
     Davidson diagonalization with overlap
     ethr =  2.40E-05,  avg # of iterations =  1.3

     negative rho (up, down):  1.223E-08 1.769E-08

     total cpu time spent up to now is     3978.3 secs

     total energy              =   -6204.76393066 Ry
     estimated scf accuracy    <       0.03157581 Ry

     total magnetization       =    13.23 Bohr mag/cell
     absolute magnetization    =    14.47 Bohr mag/cell

     iteration # 16     ecut=    60.00 Ry     beta= 0.20
     Davidson diagonalization with overlap
     c_bands:  1 eigenvalues not converged
     ethr =  1.31E-05,  avg # of iterations =  3.8

     negative rho (up, down):  3.569E-05 2.137E-05

     total cpu time spent up to now is     4264.9 secs

     total energy              =   -6204.76302684 Ry
     estimated scf accuracy    <       0.01431360 Ry

     total magnetization       =    13.18 Bohr mag/cell
     absolute magnetization    =    14.46 Bohr mag/cell

     iteration # 17     ecut=    60.00 Ry     beta= 0.20
     Davidson diagonalization with overlap
     c_bands:  1 eigenvalues not converged
     c_bands:  1 eigenvalues not converged
     ethr =  5.94E-06,  avg # of iterations =  6.4

     negative rho (up, down):  2.198E-08 3.197E-09

     total cpu time spent up to now is     4568.0 secs

     total energy              =   -6204.76374112 Ry
     estimated scf accuracy    <       0.00640646 Ry

     total magnetization       =    13.10 Bohr mag/cell
     absolute magnetization    =    14.41 Bohr mag/cell

     iteration # 18     ecut=    60.00 Ry     beta= 0.20
     Davidson diagonalization with overlap
     ethr =  2.66E-06,  avg # of iterations =  7.1

     total cpu time spent up to now is     4872.0 secs

     total energy              =   -6204.76394595 Ry
     estimated scf accuracy    <       0.00432031 Ry

     total magnetization       =    13.21 Bohr mag/cell
     absolute magnetization    =    14.52 Bohr mag/cell

     iteration # 19     ecut=    60.00 Ry     beta= 0.20
     Davidson diagonalization with overlap
     ethr =  1.79E-06,  avg # of iterations =  2.1

     total cpu time spent up to now is     5145.8 secs

     total energy              =   -6204.76383834 Ry
     estimated scf accuracy    <       0.00381705 Ry

     total magnetization       =    13.21 Bohr mag/cell
     absolute magnetization    =    14.54 Bohr mag/cell

     iteration # 20     ecut=    60.00 Ry     beta= 0.20
     Davidson diagonalization with overlap
     ethr =  1.58E-06,  avg # of iterations =  1.3

     total cpu time spent up to now is     5404.0 secs

     total energy              =   -6204.76392377 Ry
     estimated scf accuracy    <       0.00354259 Ry

     total magnetization       =    13.24 Bohr mag/cell
     absolute magnetization    =    14.57 Bohr mag/cell

     iteration # 21     ecut=    60.00 Ry     beta= 0.20
     Davidson diagonalization with overlap
     ethr =  1.47E-06,  avg # of iterations =  1.8

     total cpu time spent up to now is     5661.4 secs

     total energy              =   -6204.76386117 Ry
     estimated scf accuracy    <       0.00306763 Ry

     total magnetization       =    13.24 Bohr mag/cell
     absolute magnetization    =    14.57 Bohr mag/cell

     iteration # 22     ecut=    60.00 Ry     beta= 0.20
     Davidson diagonalization with overlap
     ethr =  1.27E-06,  avg # of iterations =  2.6

     negative rho (up, down):  2.614E-08 2.774E-08

     total cpu time spent up to now is     5937.8 secs

     total energy              =   -6204.76389593 Ry
     estimated scf accuracy    <       0.00429700 Ry

     total magnetization       =    13.19 Bohr mag/cell
     absolute magnetization    =    14.56 Bohr mag/cell

     iteration # 23     ecut=    60.00 Ry     beta= 0.20
     Davidson diagonalization with overlap
     ethr =  1.27E-06,  avg # of iterations =  1.5

     negative rho (up, down):  4.624E-08 4.618E-08

     total cpu time spent up to now is     6195.5 secs

     total energy              =   -6204.76400244 Ry
     estimated scf accuracy    <       0.00440931 Ry

     total magnetization       =    13.16 Bohr mag/cell
     absolute magnetization    =    14.53 Bohr mag/cell

     iteration # 24     ecut=    60.00 Ry     beta= 0.20
     Davidson diagonalization with overlap
     ethr =  1.27E-06,  avg # of iterations =  1.2

     negative rho (up, down):  4.583E-08 4.399E-08

     total cpu time spent up to now is     6450.3 secs

     total energy              =   -6204.76406048 Ry
     estimated scf accuracy    <       0.00387865 Ry

     total magnetization       =    13.15 Bohr mag/cell
     absolute magnetization    =    14.53 Bohr mag/cell

     iteration # 25     ecut=    60.00 Ry     beta= 0.20
     Davidson diagonalization with overlap
     ethr =  1.27E-06,  avg # of iterations =  1.3

     negative rho (up, down):  4.615E-06 4.566E-06

     total cpu time spent up to now is     6703.9 secs

     total energy              =   -6204.76389396 Ry
     estimated scf accuracy    <       0.00300757 Ry

     total magnetization       =    13.15 Bohr mag/cell
     absolute magnetization    =    14.53 Bohr mag/cell

     iteration # 26     ecut=    60.00 Ry     beta= 0.20
     Davidson diagonalization with overlap
     ethr =  1.25E-06,  avg # of iterations =  1.7

     negative rho (up, down):  2.368E-04 2.343E-04

     total cpu time spent up to now is     6968.6 secs

     total energy              =   -6204.76346038 Ry
     estimated scf accuracy    <       0.00201265 Ry

     total magnetization       =    13.15 Bohr mag/cell
     absolute magnetization    =    14.54 Bohr mag/cell

     iteration # 27     ecut=    60.00 Ry     beta= 0.20
     Davidson diagonalization with overlap
     ethr =  8.35E-07,  avg # of iterations =  2.6

     negative rho (up, down):  1.929E-04 1.901E-04

     total cpu time spent up to now is     7248.3 secs

     total energy              =   -6204.76355997 Ry
     estimated scf accuracy    <       0.00241578 Ry

     total magnetization       =    13.19 Bohr mag/cell
     absolute magnetization    =    14.57 Bohr mag/cell

     iteration # 28     ecut=    60.00 Ry     beta= 0.20
     Davidson diagonalization with overlap
     ethr =  8.35E-07,  avg # of iterations =  1.4

     negative rho (up, down):  1.739E-04 1.694E-04

     total cpu time spent up to now is     7508.7 secs

     total energy              =   -6204.76351498 Ry
     estimated scf accuracy    <       0.00126146 Ry

     total magnetization       =    13.20 Bohr mag/cell
     absolute magnetization    =    14.57 Bohr mag/cell

     iteration # 29     ecut=    60.00 Ry     beta= 0.20
     Davidson diagonalization with overlap
     ethr =  5.23E-07,  avg # of iterations =  1.3

     negative rho (up, down):  1.069E-04 1.001E-04

     total cpu time spent up to now is     7762.0 secs

     total energy              =   -6204.76338630 Ry
     estimated scf accuracy    <       0.00102098 Ry

     total magnetization       =    13.23 Bohr mag/cell
     absolute magnetization    =    14.58 Bohr mag/cell

     iteration # 30     ecut=    60.00 Ry     beta= 0.20
     Davidson diagonalization with overlap
     ethr =  4.24E-07,  avg # of iterations =  1.7

     negative rho (up, down):  8.633E-05 7.922E-05

     total cpu time spent up to now is     8015.1 secs

     total energy              =   -6204.76332252 Ry
     estimated scf accuracy    <       0.00077235 Ry

     total magnetization       =    13.24 Bohr mag/cell
     absolute magnetization    =    14.59 Bohr mag/cell

     iteration # 31     ecut=    60.00 Ry     beta= 0.20
     Davidson diagonalization with overlap
     ethr =  3.20E-07,  avg # of iterations =  2.3

     negative rho (up, down):  7.177E-05 6.158E-05

     total cpu time spent up to now is     8279.5 secs

     total energy              =   -6204.76330275 Ry
     estimated scf accuracy    <       0.00049713 Ry

     total magnetization       =    13.22 Bohr mag/cell
     absolute magnetization    =    14.57 Bohr mag/cell

     iteration # 32     ecut=    60.00 Ry     beta= 0.20
     Davidson diagonalization with overlap
     ethr =  2.06E-07,  avg # of iterations =  2.7

     negative rho (up, down):  8.308E-05 6.876E-05

     total cpu time spent up to now is     8554.6 secs

     total energy              =   -6204.76332746 Ry
     estimated scf accuracy    <       0.00021797 Ry

     total magnetization       =    13.21 Bohr mag/cell
     absolute magnetization    =    14.57 Bohr mag/cell

     iteration # 33     ecut=    60.00 Ry     beta= 0.20
     Davidson diagonalization with overlap
     ethr =  9.04E-08,  avg # of iterations =  2.7

     negative rho (up, down):  1.609E-04 1.436E-04

     total cpu time spent up to now is     8807.9 secs

     total energy              =   -6204.76334039 Ry
     estimated scf accuracy    <       0.00018314 Ry

     total magnetization       =    13.19 Bohr mag/cell
     absolute magnetization    =    14.56 Bohr mag/cell

     iteration # 34     ecut=    60.00 Ry     beta= 0.20
     Davidson diagonalization with overlap
     ethr =  7.60E-08,  avg # of iterations =  1.6

     negative rho (up, down):  1.118E-04 9.542E-05

     total cpu time spent up to now is     9065.8 secs

     total energy              =   -6204.76334620 Ry
     estimated scf accuracy    <       0.00010227 Ry

     total magnetization       =    13.20 Bohr mag/cell
     absolute magnetization    =    14.56 Bohr mag/cell

     iteration # 35     ecut=    60.00 Ry     beta= 0.20
     Davidson diagonalization with overlap
     ethr =  4.24E-08,  avg # of iterations =  1.9

     negative rho (up, down):  2.409E-05 1.214E-05

     total cpu time spent up to now is     9322.1 secs

     total energy              =   -6204.76334999 Ry
     estimated scf accuracy    <       0.00004258 Ry

     total magnetization       =    13.20 Bohr mag/cell
     absolute magnetization    =    14.57 Bohr mag/cell

     iteration # 36     ecut=    60.00 Ry     beta= 0.20
     Davidson diagonalization with overlap
     ethr =  1.77E-08,  avg # of iterations =  2.6

     negative rho (up, down):  4.255E-05 2.163E-05

     total cpu time spent up to now is     9593.9 secs

     total energy              =   -6204.76335282 Ry
     estimated scf accuracy    <       0.00002890 Ry

     total magnetization       =    13.20 Bohr mag/cell
     absolute magnetization    =    14.57 Bohr mag/cell

     iteration # 37     ecut=    60.00 Ry     beta= 0.20
     Davidson diagonalization with overlap
     ethr =  1.20E-08,  avg # of iterations =  1.7

     negative rho (up, down):  9.086E-05 5.973E-05

     total cpu time spent up to now is     9851.8 secs

     total energy              =   -6204.76335400 Ry
     estimated scf accuracy    <       0.00000634 Ry

     total magnetization       =    13.20 Bohr mag/cell
     absolute magnetization    =    14.57 Bohr mag/cell

     iteration # 38     ecut=    60.00 Ry     beta= 0.20
     Davidson diagonalization with overlap
     ethr =  2.63E-09,  avg # of iterations =  5.6

     negative rho (up, down):  1.357E-04 9.907E-05

     total cpu time spent up to now is    10189.5 secs

     total energy              =   -6204.76335497 Ry
     estimated scf accuracy    <       0.00000518 Ry

     total magnetization       =    13.20 Bohr mag/cell
     absolute magnetization    =    14.57 Bohr mag/cell

     iteration # 39     ecut=    60.00 Ry     beta= 0.20
     Davidson diagonalization with overlap
     ethr =  2.15E-09,  avg # of iterations =  1.4

     negative rho (up, down):  1.936E-04 1.532E-04

     total cpu time spent up to now is    10436.8 secs

     total energy              =   -6204.76335495 Ry
     estimated scf accuracy    <       0.00000242 Ry

     total magnetization       =    13.20 Bohr mag/cell
     absolute magnetization    =    14.57 Bohr mag/cell

     iteration # 40     ecut=    60.00 Ry     beta= 0.20
     Davidson diagonalization with overlap
     ethr =  1.00E-09,  avg # of iterations =  1.8

     negative rho (up, down):  2.506E-04 2.078E-04

     total cpu time spent up to now is    10679.2 secs

     total energy              =   -6204.76335512 Ry
     estimated scf accuracy    <       0.00000148 Ry

     total magnetization       =    13.20 Bohr mag/cell
     absolute magnetization    =    14.57 Bohr mag/cell

     iteration # 41     ecut=    60.00 Ry     beta= 0.20
     Davidson diagonalization with overlap
     ethr =  6.14E-10,  avg # of iterations =  2.3

     negative rho (up, down):  2.092E-04 1.638E-04

     total cpu time spent up to now is    10954.4 secs

     total energy              =   -6204.76335520 Ry
     estimated scf accuracy    <       0.00000078 Ry

     total magnetization       =    13.20 Bohr mag/cell
     absolute magnetization    =    14.57 Bohr mag/cell

     iteration # 42     ecut=    60.00 Ry     beta= 0.20
     Davidson diagonalization with overlap
     ethr =  3.22E-10,  avg # of iterations =  2.3

     negative rho (up, down):  2.192E-04 1.732E-04

     total cpu time spent up to now is    11245.4 secs

     total energy              =   -6204.76335535 Ry
     estimated scf accuracy    <       0.00000019 Ry

     total magnetization       =    13.20 Bohr mag/cell
     absolute magnetization    =    14.58 Bohr mag/cell

     iteration # 43     ecut=    60.00 Ry     beta= 0.20
     Davidson diagonalization with overlap
     ethr =  7.93E-11,  avg # of iterations =  2.8

     negative rho (up, down):  2.017E-04 1.558E-04

     total cpu time spent up to now is    11509.4 secs

     total energy              =   -6204.76335534 Ry
     estimated scf accuracy    <       0.00000019 Ry

     total magnetization       =    13.20 Bohr mag/cell
     absolute magnetization    =    14.58 Bohr mag/cell

     iteration # 44     ecut=    60.00 Ry     beta= 0.20
     Davidson diagonalization with overlap
     ethr =  7.93E-11,  avg # of iterations =  1.1

     negative rho (up, down):  2.029E-04 1.569E-04

     total cpu time spent up to now is    11752.0 secs

     total energy              =   -6204.76335536 Ry
     estimated scf accuracy    <       0.00000004 Ry

     total magnetization       =    13.20 Bohr mag/cell
     absolute magnetization    =    14.58 Bohr mag/cell

     iteration # 45     ecut=    60.00 Ry     beta= 0.20
     Davidson diagonalization with overlap
     ethr =  1.83E-11,  avg # of iterations =  2.5

     negative rho (up, down):  2.023E-04 1.562E-04

     total cpu time spent up to now is    12016.4 secs

     total energy              =   -6204.76335536 Ry
     estimated scf accuracy    <       0.00000002 Ry

     total magnetization       =    13.20 Bohr mag/cell
     absolute magnetization    =    14.58 Bohr mag/cell

     iteration # 46     ecut=    60.00 Ry     beta= 0.20
     Davidson diagonalization with overlap
     ethr =  8.76E-12,  avg # of iterations =  2.6

     negative rho (up, down):  2.074E-04 1.611E-04

     total cpu time spent up to now is    12278.5 secs

     total energy              =   -6204.76335537 Ry
     estimated scf accuracy    <       0.00000002 Ry

     total magnetization       =    13.20 Bohr mag/cell
     absolute magnetization    =    14.58 Bohr mag/cell

     iteration # 47     ecut=    60.00 Ry     beta= 0.20
     Davidson diagonalization with overlap
     ethr =  8.60E-12,  avg # of iterations =  1.9

     negative rho (up, down):  2.090E-04 1.627E-04

     total cpu time spent up to now is    12533.6 secs

     total energy              =   -6204.76335537 Ry
     estimated scf accuracy    <       0.00000001 Ry

     total magnetization       =    13.20 Bohr mag/cell
     absolute magnetization    =    14.58 Bohr mag/cell

     iteration # 48     ecut=    60.00 Ry     beta= 0.20
     Davidson diagonalization with overlap
     ethr =  4.88E-12,  avg # of iterations =  2.0

     negative rho (up, down):  2.083E-04 1.621E-04

     total cpu time spent up to now is    12797.5 secs

     total energy              =   -6204.76335537 Ry
     estimated scf accuracy    <          9.5E-09 Ry

     total magnetization       =    13.20 Bohr mag/cell
     absolute magnetization    =    14.58 Bohr mag/cell

     iteration # 49     ecut=    60.00 Ry     beta= 0.20
     Davidson diagonalization with overlap
     ethr =  3.94E-12,  avg # of iterations =  1.6

     negative rho (up, down):  2.089E-04 1.626E-04

     total cpu time spent up to now is    13046.6 secs

     total energy              =   -6204.76335537 Ry
     estimated scf accuracy    <          2.5E-09 Ry

     total magnetization       =    13.20 Bohr mag/cell
     absolute magnetization    =    14.58 Bohr mag/cell

     iteration # 50     ecut=    60.00 Ry     beta= 0.20
     Davidson diagonalization with overlap
     ethr =  1.06E-12,  avg # of iterations =  4.3

     negative rho (up, down):  2.087E-04 1.624E-04

     total cpu time spent up to now is    13327.5 secs

     total energy              =   -6204.76335538 Ry
     estimated scf accuracy    <          2.7E-09 Ry

     total magnetization       =    13.20 Bohr mag/cell
     absolute magnetization    =    14.58 Bohr mag/cell

     iteration # 51     ecut=    60.00 Ry     beta= 0.20
     Davidson diagonalization with overlap
     ethr =  1.06E-12,  avg # of iterations =  1.4

     negative rho (up, down):  2.084E-04 1.621E-04

     total cpu time spent up to now is    13569.0 secs

     total energy              =   -6204.76335538 Ry
     estimated scf accuracy    <          4.1E-09 Ry

     total magnetization       =    13.20 Bohr mag/cell
     absolute magnetization    =    14.58 Bohr mag/cell

     iteration # 52     ecut=    60.00 Ry     beta= 0.20
     Davidson diagonalization with overlap
     ethr =  1.06E-12,  avg # of iterations =  1.0

     negative rho (up, down):  2.082E-04 1.620E-04

     total cpu time spent up to now is    13805.8 secs

     total energy              =   -6204.76335538 Ry
     estimated scf accuracy    <          1.9E-09 Ry

     total magnetization       =    13.20 Bohr mag/cell
     absolute magnetization    =    14.58 Bohr mag/cell

     iteration # 53     ecut=    60.00 Ry     beta= 0.20
     Davidson diagonalization with overlap
     ethr =  7.79E-13,  avg # of iterations =  1.3

     negative rho (up, down):  2.069E-04 1.607E-04

     total cpu time spent up to now is    14047.3 secs

     total energy              =   -6204.76335537 Ry
     estimated scf accuracy    <          7.7E-10 Ry

     total magnetization       =    13.20 Bohr mag/cell
     absolute magnetization    =    14.58 Bohr mag/cell

     iteration # 54     ecut=    60.00 Ry     beta= 0.20
     Davidson diagonalization with overlap
     ethr =  3.18E-13,  avg # of iterations =  1.7

     negative rho (up, down):  2.065E-04 1.603E-04

     total cpu time spent up to now is    14303.0 secs

     total energy              =   -6204.76335537 Ry
     estimated scf accuracy    <          4.0E-10 Ry

     total magnetization       =    13.20 Bohr mag/cell
     absolute magnetization    =    14.58 Bohr mag/cell

     iteration # 55     ecut=    60.00 Ry     beta= 0.20
     Davidson diagonalization with overlap
     ethr =  1.66E-13,  avg # of iterations =  1.6

     negative rho (up, down):  2.064E-04 1.603E-04

     total cpu time spent up to now is    14550.4 secs

     total energy              =   -6204.76335537 Ry
     estimated scf accuracy    <          5.2E-10 Ry

     total magnetization       =    13.20 Bohr mag/cell
     absolute magnetization    =    14.58 Bohr mag/cell

     iteration # 56     ecut=    60.00 Ry     beta= 0.20
     Davidson diagonalization with overlap
     ethr =  1.66E-13,  avg # of iterations =  1.1

     negative rho (up, down):  2.061E-04 1.599E-04

     total cpu time spent up to now is    14786.6 secs

     total energy              =   -6204.76335537 Ry
     estimated scf accuracy    <          3.7E-10 Ry

     total magnetization       =    13.20 Bohr mag/cell
     absolute magnetization    =    14.58 Bohr mag/cell

     iteration # 57     ecut=    60.00 Ry     beta= 0.20
     Davidson diagonalization with overlap
     ethr =  1.53E-13,  avg # of iterations =  1.3

     negative rho (up, down):  2.056E-04 1.594E-04
 
     Magnetic moment per site  (integrated on atomic sphere of radius R)
     atom   1 (R=0.130)  charge=  6.6463  magn=  0.7823
     atom   2 (R=0.140)  charge=  5.3189  magn=  0.2328
     atom   3 (R=0.140)  charge=  5.3189  magn=  0.2322
     atom   4 (R=0.130)  charge=  6.6467  magn=  0.7782
     atom   5 (R=0.140)  charge=  5.3064  magn=  0.2844
     atom   6 (R=0.140)  charge=  5.3066  magn=  0.2877
     atom   7 (R=0.130)  charge=  6.6407  magn=  0.7773
     atom   8 (R=0.130)  charge=  6.6400  magn=  0.7931
     atom   9 (R=0.130)  charge=  6.6410  magn=  0.7437
     atom  10 (R=0.130)  charge=  6.6410  magn=  0.7491
     atom  11 (R=0.140)  charge=  5.3028  magn=  0.2799
     atom  12 (R=0.140)  charge=  5.3030  magn=  0.2728
     atom  13 (R=0.130)  charge=  6.6417  magn=  0.7319
     atom  14 (R=0.140)  charge=  5.3037  magn=  0.2707
     atom  15 (R=0.140)  charge=  5.3029  magn=  0.2717
     atom  16 (R=0.130)  charge=  6.6412  magn=  0.7600
     atom  17 (R=0.130)  charge=  6.6403  magn=  0.7736
     atom  18 (R=0.140)  charge=  5.3056  magn=  0.2762
     atom  19 (R=0.140)  charge=  5.3060  magn=  0.2445
     atom  20 (R=0.130)  charge=  6.6401  magn=  0.7931
     atom  21 (R=0.140)  charge=  5.3242  magn=  0.2174
     atom  22 (R=0.130)  charge=  6.6463  magn=  0.5352
     atom  23 (R=0.130)  charge=  6.6483  magn=  0.7636
     atom  24 (R=0.140)  charge=  5.3105  magn=  0.1581
     atom  25 (R=0.130)  charge=  0.8018  magn= -0.0052

     total cpu time spent up to now is    15025.0 secs

     End of self-consistent calculation

     Number of k-points >= 100: set verbosity='high' to print the bands.

     the Fermi energy is    -5.1134 ev

!    total energy              =   -6204.76335537 Ry
     total all-electron energy =   -157606.854711 Ry
     estimated scf accuracy    <          6.8E-11 Ry
     smearing contrib. (-TS)   =       0.00147422 Ry
     internal energy E=F+TS    =   -6204.76482959 Ry

     The total energy is F=E-TS. E is the sum of the following terms:
     one-electron contribution =  -65154.58818526 Ry
     hartree contribution      =   32768.32922308 Ry
     xc contribution           =    -891.42019885 Ry
     ewald contribution        =   31176.76121958 Ry
     DFT-D3 Dispersion         =      -2.26937619 Ry
     one-center paw contrib.   =   -4101.57751195 Ry

     total magnetization       =    13.20 Bohr mag/cell
     absolute magnetization    =    14.58 Bohr mag/cell

     convergence has been achieved in  57 iterations

     negative rho (up, down):  2.056E-04 1.594E-04

     Forces acting on atoms (cartesian axes, Ry/au):

     atom    1 type  1   force =    -0.00829974    0.00492282    0.00661149
     atom    2 type  2   force =     0.01139380   -0.00673407   -0.00924814
     atom    3 type  2   force =     0.01125342   -0.00691065   -0.00889482
     atom    4 type  1   force =    -0.00836142    0.00514490    0.00647365
     atom    5 type  2   force =    -0.00010464   -0.00063551    0.00336282
     atom    6 type  2   force =     0.00000390    0.00069281    0.00295305
     atom    7 type  1   force =    -0.00261635    0.00133971   -0.00115673
     atom    8 type  1   force =    -0.00270484    0.00198126   -0.00222464
     atom    9 type  1   force =    -0.00005517    0.00015038    0.00027026
     atom   10 type  1   force =    -0.00014323    0.00000398    0.00030075
     atom   11 type  2   force =     0.00002679   -0.00000839    0.00027708
     atom   12 type  2   force =    -0.00005082    0.00010401   -0.00008373
     atom   13 type  1   force =     0.00006754   -0.00010810    0.00011032
     atom   14 type  2   force =     0.00034753   -0.00012309    0.00010231
     atom   15 type  2   force =    -0.00001707    0.00014573    0.00002992
     atom   16 type  1   force =     0.00015963    0.00021026    0.00009682
     atom   17 type  1   force =    -0.00000873    0.00017797    0.00025598
     atom   18 type  2   force =    -0.00019724   -0.00000171    0.00044200
     atom   19 type  2   force =     0.00001996    0.00001494   -0.00010376
     atom   20 type  1   force =    -0.00019505   -0.00004959    0.00033232
     atom   21 type  2   force =    -0.00009898   -0.00034023   -0.00020496
     atom   22 type  1   force =     0.00058243   -0.00024587    0.00017012
     atom   23 type  1   force =    -0.00020188   -0.00037885    0.00043462
     atom   24 type  2   force =    -0.00070787    0.00028677   -0.00007915
     atom   25 type  3   force =    -0.00009194    0.00036053   -0.00022760

     Total force =     0.001681     Total SCF correction =     0.000032


     Computing stress (Cartesian axis) and pressure


     negative rho (up, down):  2.056E-04 1.594E-04
          total   stress  (Ry/bohr**3)                   (kbar)     P=       -5.68
  -0.00005539  -0.00000569  -0.00000649           -8.15       -0.84       -0.96
  -0.00000569  -0.00006746   0.00000274           -0.84       -9.92        0.40
  -0.00000649   0.00000274   0.00000698           -0.96        0.40        1.03


     Writing all to output data dir /tmpu/isholek_g/isholek/MIGUEL/QE/Hydrogen/111_2x2/SAVE/Ni2Pd2_111-B3.save/ :
     XML data file, charge density, pseudopotentials, collected wavefunctions
 
     init_run     :    121.89s CPU    125.75s WALL (       1 calls)
     electrons    :  14570.60s CPU  14897.82s WALL (       1 calls)
     forces       :     26.69s CPU     26.93s WALL (       1 calls)
     force_dftd3  :      0.54s CPU      0.54s WALL (       1 calls)
     stress       :    498.14s CPU    502.57s WALL (       1 calls)
     stres_dftd3  :      0.79s CPU      0.79s WALL (       1 calls)

     Called by init_run:
     wfcinit      :     48.75s CPU     52.24s WALL (       1 calls)
     potinit      :      1.17s CPU      1.22s WALL (       1 calls)
     hinit0       :      0.22s CPU      0.23s WALL (       1 calls)

     Called by electrons:
     c_bands      :  11220.70s CPU  11494.51s WALL (      57 calls)
     sum_band     :   3129.80s CPU   3177.38s WALL (      57 calls)
     v_of_rho     :     73.80s CPU     75.52s WALL (      58 calls)
     newd         :     36.19s CPU     37.59s WALL (      58 calls)
     PAW_pot      :     44.77s CPU     45.01s WALL (      58 calls)
     mix_rho      :     21.54s CPU     23.37s WALL (      57 calls)
     energy_dftd3 :      0.11s CPU      0.11s WALL (       1 calls)

     Called by c_bands:
     init_us_2    :     93.58s CPU     94.18s WALL (    7488 calls)
     init_us_2:cp :     93.53s CPU     94.15s WALL (    7488 calls)
     cegterg      :   4284.86s CPU   4525.23s WALL (    3648 calls)

     Called by *egterg:
     cdiaghg      :    119.06s CPU    119.76s WALL (   11449 calls)
     h_psi        :   2838.54s CPU   3037.78s WALL (   11513 calls)
     s_psi        :    383.26s CPU    384.89s WALL (   11513 calls)
     g_psi        :     18.55s CPU     18.67s WALL (    7801 calls)

     Called by h_psi:
     h_psi:calbec :    357.40s CPU    359.69s WALL (   11513 calls)
     vloc_psi     :   2070.12s CPU   2238.89s WALL (   11513 calls)
     add_vuspsi   :    375.13s CPU    376.86s WALL (   11513 calls)

     General routines
     calbec       :    563.88s CPU    567.10s WALL (   15481 calls)
     fft          :    143.13s CPU    144.85s WALL (    1488 calls)
     ffts         :     98.20s CPU     99.42s WALL (    7118 calls)
     fftw         :   1288.06s CPU   1387.13s WALL ( 2726532 calls)
     interpolate  :      1.25s CPU      1.38s WALL (     116 calls)
 
     Parallel routines
 
     PWSCF        :      4h13m CPU      4h19m WALL

 
   This run was terminated on:   8:21:33  20Mar2026            

=------------------------------------------------------------------------------=
   JOB DONE.
=------------------------------------------------------------------------------=
