
     Program PWSCF v.7.3 starts on 20Mar2026 at 13: 1:20 

     This program is part of the open-source Quantum ESPRESSO suite
     for quantum simulation of materials; please cite
         "P. Giannozzi et al., J. Phys.:Condens. Matter 21 395502 (2009);
         "P. Giannozzi et al., J. Phys.:Condens. Matter 29 465901 (2017);
         "P. Giannozzi et al., J. Chem. Phys. 152 154105 (2020);
          URL http://www.quantum-espresso.org", 
     in publications or presentations arising from this work. More details at
     http://www.quantum-espresso.org/quote

     Parallel version (MPI), running on    64 processors

     MPI processes distributed on     4 nodes
     236773 MiB available memory on the printing compute node when the environment starts
 
     Reading input from /tmpu/isholek_g/isholek/MIGUEL/QE/Hydrogen/111_2x2/SCF/Ni3Pd1_111-H_fcc_2-SCF.in

     Current dimensions of program PWSCF are:
     Max number of different atomic species (ntypx) = 10
     Max number of k-points (npk) =  40000
     Max angular momentum in pseudopotentials (lmaxx) =  4
     file Ni.upf: wavefunction(s)  4S 3D renormalized
     file Pd.upf: wavefunction(s)  5S 4D renormalized
     file H.upf: wavefunction(s)  1S renormalized

     IMPORTANT: XC functional enforced from input :
     Exchange-correlation= PBE
                           (   1   4   3   4   0   0   0)
     Any further DFT definition will be discarded
     Please, verify this is what you really want

     Message from routine find_sym:
     Not a group! Trying with lower acceptance parameter...
     Message from routine find_sym:
     Symmetry operations form a group
 
     K-points division:     npool     =       8
     R & G space division:  proc/nbgrp/npool/nimage =       8
     Subspace diagonalization in iterative solution of the eigenvalue problem:
     one sub-group per band group will be used
     scalapack distributed-memory algorithm (size of sub-group:  2*  2 procs)

 
     Parallelization info
     --------------------
     sticks:   dense  smooth     PW     G-vecs:    dense   smooth      PW
     Min         375     188     54               106317    37608    5906
     Max         376     189     55               106344    37623    5933
     Sum        3001    1507    433               850625   300931   47347
 
     Using Slab Decomposition
 

     Title: 
     Ni3Pd1_111-H_fcc_2-SCF                                                     


     bravais-lattice index     =            0
     lattice parameter (alat)  =       9.5206  a.u.
     unit-cell volume          =    4789.0025 (a.u.)^3
     number of atoms/cell      =           25
     number of atomic types    =            3
     number of electrons       =       241.00
     number of Kohn-Sham states=          145
     kinetic-energy cutoff     =      60.0000  Ry
     charge density cutoff     =     480.0000  Ry
     scf convergence threshold =      1.0E-10
     mixing beta               =       0.2000
     number of iterations used =           12  local-TF  mixing
     Exchange-correlation= PBE
                           (   1   4   3   4   0   0   0)

     celldm(1)=   9.520593  celldm(2)=   0.000000  celldm(3)=   0.000000
     celldm(4)=   0.000000  celldm(5)=   0.000000  celldm(6)=   0.000000

     crystal axes: (cart. coord. in units of alat)
               a(1) = (   1.000000   0.000000   0.000000 )  
               a(2) = (   0.500000   0.866025   0.000000 )  
               a(3) = (   0.000000   0.000000   6.408000 )  

     reciprocal axes: (cart. coord. in units 2 pi/alat)
               b(1) = (  1.000000 -0.577350  0.000000 )  
               b(2) = (  0.000000  1.154701  0.000000 )  
               b(3) = (  0.000000  0.000000  0.156055 )  


     PseudoPot. # 1 for Ni read from file:
     /tmpu/isholek_g/isholek/MIGUEL/PP/PAW/Ni.upf
     MD5 check sum: d88365a95a5e142bd87181c2c8b16588
     Pseudo is Projector augmented-wave + core cor, Zval = 10.0
     Generated using "atomic" code by A. Dal Corso  v.5.0.2 svn rev. 9415
     Shape of augmentation charge: PSQ
     Using radial grid of 1195 points,  6 beta functions with: 
                l(1) =   0
                l(2) =   0
                l(3) =   1
                l(4) =   1
                l(5) =   2
                l(6) =   2
     Q(r) pseudized with 0 coefficients 


     PseudoPot. # 2 for Pd read from file:
     /tmpu/isholek_g/isholek/MIGUEL/PP/PAW/Pd.upf
     MD5 check sum: e9d6f14fd83b79f8105499163af174c9
     Pseudo is Projector augmented-wave + core cor, Zval = 10.0
     Generated using "atomic" code by A. Dal Corso  v.5.0.2 svn rev. 9415
     Shape of augmentation charge: PSQ
     Using radial grid of 1235 points,  6 beta functions with: 
                l(1) =   0
                l(2) =   0
                l(3) =   1
                l(4) =   1
                l(5) =   2
                l(6) =   2
     Q(r) pseudized with 0 coefficients 


     PseudoPot. # 3 for H  read from file:
     /tmpu/isholek_g/isholek/MIGUEL/PP/PAW/H.upf
     MD5 check sum: 4cbe42a24e15140179a93d5bf84f2220
     Pseudo is Projector augmented-wave, Zval =  1.0
     Generated using "atomic" code by A. Dal Corso  v.5.0.2 svn rev. 9415
     Shape of augmentation charge: PSQ
     Using radial grid of  929 points,  2 beta functions with: 
                l(1) =   0
                l(2) =   0
     Q(r) pseudized with 0 coefficients 


     atomic species   valence    mass     pseudopotential
     Ni               10.00    58.69340     Ni( 1.00)
     Pd               10.00   106.42000     Pd( 1.00)
     H                 1.00     1.00794     H ( 1.00)

     Starting magnetic structure 
     atomic species   magnetization
     Ni              0.650
     Pd              0.100
     H               0.000

     No symmetry found



   Cartesian axes

     site n.     atom                  positions (alat units)
         1        Ni     tau(   1) = (   1.0000055   0.5773497   2.1833712  )
         2        Ni     tau(   2) = (   0.2499946   0.1443334   2.1833775  )
         3        Pd     tau(   3) = (   0.5000045   0.5773498   2.1833823  )
         4        Ni     tau(   4) = (   0.7499961   0.1443432   2.1833870  )
         5        Ni     tau(   5) = (   0.5000055   0.2886746   2.5916194  )
         6        Ni     tau(   6) = (   1.2499946   0.7216837   2.5916258  )
         7        Pd     tau(   7) = (   1.0000045   0.2886747   2.5916306  )
         8        Ni     tau(   8) = (   0.7499961   0.7216934   2.5916353  )
         9        Ni     tau(   9) = (   0.5000000   0.8656366   3.0000356  )
        10        Ni     tau(  10) = (   0.7496636   0.4332097   3.0000336  )
        11        Pd     tau(  11) = (   1.0000014   0.8660282   2.9988684  )
        12        Ni     tau(  12) = (   1.2503406   0.4332096   3.0000334  )
        13        Ni     tau(  13) = (   1.0000009   0.5776848   3.4076796  )
        14        Ni     tau(  14) = (   0.2502897   0.1441715   3.4076802  )
        15        Pd     tau(  15) = (   0.5000009   0.5773508   3.4113199  )
        16        Ni     tau(  16) = (   0.7497118   0.1441716   3.4076804  )
        17        Ni     tau(  17) = (   0.5000005   0.2857299   3.8173320  )
        18        Ni     tau(  18) = (   1.2474495   0.7231610   3.8173319  )
        19        Pd     tau(  19) = (   1.0000005   0.2886757   3.8129621  )
        20        Ni     tau(  20) = (   0.7525514   0.7231611   3.8173321  )
        21        Ni     tau(  21) = (   0.5000003   0.8586880   4.2228012  )
        22        Ni     tau(  22) = (   0.7436455   0.4366818   4.2228012  )
        23        Pd     tau(  23) = (   1.0000003   0.8660257   4.2368424  )
        24        Ni     tau(  24) = (   1.2563549   0.4366819   4.2228013  )
        25        H      tau(  25) = (   1.0000002   0.2886755   4.3916512  )

     --------------------------------------------
     DFT-D3 Dispersion Correction (3-body terms):
     --------------------------------------------
       Reference C6 values for interpolation: 

         atom   Coordination number   C6
         H          0.912             6.05
         H          0.000            15.18
         Ni         0.000          1149.49
         Ni         1.794           356.66
         Ni         6.546           257.56
         Ni         6.292           283.75
         Pd         0.000          1217.01
         Pd         1.863           573.90
         Pd         5.710           531.75

       Values used:

         atom   Coordination number  R0_AB[au]  C6      C8
         Ni         6.658            3.162    267.12  22382.85
         Ni         6.659            3.162    267.12  22382.69
         Pd         7.596            3.168    531.75  48720.73
         Ni         6.659            3.162    267.12  22382.50
         Ni         8.913            3.162    257.72  21594.82
         Ni         8.913            3.162    257.72  21594.82
         Pd        10.212            3.168    531.75  48720.73
         Ni         8.913            3.162    257.72  21594.82
         Ni         8.910            3.162    257.72  21594.91
         Ni         8.910            3.162    257.72  21594.91
         Pd        10.235            3.168    531.75  48720.73
         Ni         8.910            3.162    257.72  21594.91
         Ni         8.929            3.162    257.71  21594.41
         Ni         8.929            3.162    257.71  21594.41
         Pd        10.201            3.168    531.75  48720.73
         Ni         8.929            3.162    257.71  21594.41
         Ni         8.912            3.162    257.72  21594.85
         Ni         8.912            3.162    257.72  21594.85
         Pd        10.154            3.168    531.75  48720.73
         Ni         8.912            3.162    257.72  21594.85
         Ni         7.228            3.162    261.57  21917.69
         Ni         7.228            3.162    261.57  21917.69
         Pd         7.449            3.168    531.75  48720.73
         Ni         7.228            3.162    261.57  21917.69
         H          1.721            2.062      6.05     73.18

         Molecular C6 ( Ry / a.u.^6 ) =    185683.29


     number of k points=   256  Marzari-Vanderbilt smearing, width (Ry)=  0.0147

     Number of k-points >= 100: set verbosity='high' to print them.

     Dense  grid:   850625 G-vectors     FFT dimensions: (  72,  72, 432)

     Smooth grid:   300931 G-vectors     FFT dimensions: (  48,  48, 320)

     Estimated max dynamical RAM per process >     914.80 MB

     Estimated total dynamical RAM >      52.92 GB
 ----2D----2D----2D----2D----2D----2D----2D----2D----2D----2D----2D----2D
  The code is running with the 2D cutoff
  Please refer to:
  Sohier, T., Calandra, M., & Mauri, F. (2017), 
  Density functional perturbation theory for gated two-dimensional heterostructu
 res:
  Theoretical developments and application to flexural phonons in graphene.
  Physical Review B, 96(7), 75448. https://doi.org/10.1103/PhysRevB.96.075448
 ----2D----2D----2D----2D----2D----2D----2D----2D----2D----2D----2D----2D

     Check: negative core charge=   -0.000001
     Generating pointlists ...
     new r_m :   0.1406 (alat units)  1.3383 (a.u.) for type    1
     new r_m :   0.2053 (alat units)  1.9549 (a.u.) for type    2
     new r_m :   0.1406 (alat units)  1.3383 (a.u.) for type    3

     Initial potential from superposition of free atoms

     starting charge     240.9923, renormalised to     241.0000

     negative rho (up, down):  3.163E-04 6.795E-05
     Starting wfcs are  217 randomized atomic wfcs
     Checking if some PAW data can be deallocated... 

     total cpu time spent up to now is      776.8 secs

     Self-consistent Calculation

     iteration #  1     ecut=    60.00 Ry     beta= 0.20
     Davidson diagonalization with overlap
     ethr =  1.00E-02,  avg # of iterations =  2.0

     negative rho (up, down):  9.962E-05 1.520E-05

     total cpu time spent up to now is     2464.4 secs

     total energy              =   -5327.30057552 Ry
     estimated scf accuracy    <      35.38108261 Ry

     total magnetization       =    25.99 Bohr mag/cell
     absolute magnetization    =    25.99 Bohr mag/cell

     iteration #  2     ecut=    60.00 Ry     beta= 0.20
     Davidson diagonalization with overlap
     ethr =  1.00E-02,  avg # of iterations =  1.0

     negative rho (up, down):  6.098E-06 8.323E-07

     total cpu time spent up to now is     3894.6 secs

     total energy              =   -5329.66873754 Ry
     estimated scf accuracy    <      10.15059443 Ry

     total magnetization       =    27.88 Bohr mag/cell
     absolute magnetization    =    27.88 Bohr mag/cell

     iteration #  3     ecut=    60.00 Ry     beta= 0.20
     Davidson diagonalization with overlap
     ethr =  4.21E-03,  avg # of iterations =  1.1

     negative rho (up, down):  9.565E-08 8.143E-07

     total cpu time spent up to now is     5351.9 secs

     total energy              =   -5331.11765637 Ry
     estimated scf accuracy    <       3.64079797 Ry

     total magnetization       =    25.12 Bohr mag/cell
     absolute magnetization    =    25.25 Bohr mag/cell

     iteration #  4     ecut=    60.00 Ry     beta= 0.20
     Davidson diagonalization with overlap
     ethr =  1.51E-03,  avg # of iterations =  1.2

     negative rho (up, down):  1.542E-08 6.903E-07

     total cpu time spent up to now is     6893.7 secs

     total energy              =   -5331.74163601 Ry
     estimated scf accuracy    <       3.43070584 Ry

     total magnetization       =    21.51 Bohr mag/cell
     absolute magnetization    =    22.38 Bohr mag/cell

     iteration #  5     ecut=    60.00 Ry     beta= 0.20
     Davidson diagonalization with overlap
     ethr =  1.42E-03,  avg # of iterations =  1.0

     negative rho (up, down):  2.368E-08 1.177E-06

     total cpu time spent up to now is     8487.8 secs

     total energy              =   -5332.04510947 Ry
     estimated scf accuracy    <       1.33203486 Ry

     total magnetization       =    18.62 Bohr mag/cell
     absolute magnetization    =    20.24 Bohr mag/cell

     iteration #  6     ecut=    60.00 Ry     beta= 0.20
     Davidson diagonalization with overlap
     ethr =  5.53E-04,  avg # of iterations =  1.1

     negative rho (up, down):  4.576E-08 1.373E-06

     total cpu time spent up to now is    10057.9 secs

     total energy              =   -5332.09506981 Ry
     estimated scf accuracy    <       0.67958182 Ry

     total magnetization       =    15.40 Bohr mag/cell
     absolute magnetization    =    17.61 Bohr mag/cell

     iteration #  7     ecut=    60.00 Ry     beta= 0.20
     Davidson diagonalization with overlap
     ethr =  2.82E-04,  avg # of iterations =  1.3

     negative rho (up, down):  8.860E-08 1.047E-06

     total cpu time spent up to now is    11536.2 secs

     total energy              =   -5332.11326293 Ry
     estimated scf accuracy    <       0.46119174 Ry

     total magnetization       =    13.92 Bohr mag/cell
     absolute magnetization    =    16.25 Bohr mag/cell

     iteration #  8     ecut=    60.00 Ry     beta= 0.20
     Davidson diagonalization with overlap
     ethr =  1.91E-04,  avg # of iterations =  1.0

     negative rho (up, down):  1.066E-07 7.201E-07

     total cpu time spent up to now is    13061.2 secs

     total energy              =   -5332.12483673 Ry
     estimated scf accuracy    <       0.25703561 Ry

     total magnetization       =    14.04 Bohr mag/cell
     absolute magnetization    =    16.28 Bohr mag/cell

     iteration #  9     ecut=    60.00 Ry     beta= 0.20
     Davidson diagonalization with overlap
     ethr =  1.07E-04,  avg # of iterations =  1.1

     negative rho (up, down):  1.124E-07 4.888E-07

     total cpu time spent up to now is    14675.1 secs

     total energy              =   -5332.12181417 Ry
     estimated scf accuracy    <       0.23645515 Ry

     total magnetization       =    14.14 Bohr mag/cell
     absolute magnetization    =    16.28 Bohr mag/cell

     iteration # 10     ecut=    60.00 Ry     beta= 0.20
     Davidson diagonalization with overlap
     ethr =  9.81E-05,  avg # of iterations =  1.5

     negative rho (up, down):  1.377E-07 4.215E-07

     total cpu time spent up to now is    16190.3 secs

     total energy              =   -5332.12529224 Ry
     estimated scf accuracy    <       0.17937476 Ry

     total magnetization       =    14.05 Bohr mag/cell
     absolute magnetization    =    15.90 Bohr mag/cell

     iteration # 11     ecut=    60.00 Ry     beta= 0.20
     Davidson diagonalization with overlap
     ethr =  7.44E-05,  avg # of iterations =  1.1

     negative rho (up, down):  1.129E-07 2.587E-07

     total cpu time spent up to now is    17795.3 secs

     total energy              =   -5332.12402746 Ry
     estimated scf accuracy    <       0.11448739 Ry

     total magnetization       =    14.05 Bohr mag/cell
     absolute magnetization    =    15.72 Bohr mag/cell

     iteration # 12     ecut=    60.00 Ry     beta= 0.20
     Davidson diagonalization with overlap
     ethr =  4.75E-05,  avg # of iterations =  1.2

     negative rho (up, down):  8.951E-08 1.531E-07

     total cpu time spent up to now is    19375.4 secs

     total energy              =   -5332.12073882 Ry
     estimated scf accuracy    <       0.08867820 Ry

     total magnetization       =    14.22 Bohr mag/cell
     absolute magnetization    =    15.80 Bohr mag/cell

     iteration # 13     ecut=    60.00 Ry     beta= 0.20
     Davidson diagonalization with overlap
     ethr =  3.68E-05,  avg # of iterations =  1.3

     negative rho (up, down):  5.826E-08 8.481E-08

     total cpu time spent up to now is    20947.9 secs

     total energy              =   -5332.11723363 Ry
     estimated scf accuracy    <       0.07709678 Ry

     total magnetization       =    14.34 Bohr mag/cell
     absolute magnetization    =    15.85 Bohr mag/cell

     iteration # 14     ecut=    60.00 Ry     beta= 0.20
     Davidson diagonalization with overlap
     ethr =  3.20E-05,  avg # of iterations =  1.1

     negative rho (up, down):  1.344E-08 2.682E-08

     total cpu time spent up to now is    22470.8 secs

     total energy              =   -5332.11688457 Ry
     estimated scf accuracy    <       0.07379836 Ry

     total magnetization       =    14.33 Bohr mag/cell
     absolute magnetization    =    15.85 Bohr mag/cell

     iteration # 15     ecut=    60.00 Ry     beta= 0.20
     Davidson diagonalization with overlap
     ethr =  3.06E-05,  avg # of iterations =  1.2

     negative rho (up, down):  5.057E-05 2.851E-06

     total cpu time spent up to now is    24084.6 secs

     total energy              =   -5332.11386545 Ry
     estimated scf accuracy    <       0.04138759 Ry

     total magnetization       =    14.08 Bohr mag/cell
     absolute magnetization    =    15.77 Bohr mag/cell

     iteration # 16     ecut=    60.00 Ry     beta= 0.20
     Davidson diagonalization with overlap
     ethr =  1.72E-05,  avg # of iterations =  1.7

     negative rho (up, down):  6.530E-03 5.850E-03

     total cpu time spent up to now is    25804.1 secs

     total energy              =   -5332.11028926 Ry
     estimated scf accuracy    <       0.01925367 Ry

     total magnetization       =    14.14 Bohr mag/cell
     absolute magnetization    =    15.92 Bohr mag/cell

     iteration # 17     ecut=    60.00 Ry     beta= 0.20
     Davidson diagonalization with overlap
     ethr =  7.99E-06,  avg # of iterations =  2.6

     negative rho (up, down):  6.484E-03 5.905E-03

     total cpu time spent up to now is    27579.8 secs

     total energy              =   -5332.11042830 Ry
     estimated scf accuracy    <       0.01281328 Ry

     total magnetization       =    14.25 Bohr mag/cell
     absolute magnetization    =    16.08 Bohr mag/cell

     iteration # 18     ecut=    60.00 Ry     beta= 0.20
     Davidson diagonalization with overlap
     ethr =  5.32E-06,  avg # of iterations =  2.5

     negative rho (up, down):  1.168E-03 9.377E-04

     total cpu time spent up to now is    29292.4 secs

     total energy              =   -5332.11232175 Ry
     estimated scf accuracy    <       0.01458861 Ry

     total magnetization       =    14.29 Bohr mag/cell
     absolute magnetization    =    16.15 Bohr mag/cell

     iteration # 19     ecut=    60.00 Ry     beta= 0.20
     Davidson diagonalization with overlap
     ethr =  5.32E-06,  avg # of iterations =  1.5

     negative rho (up, down):  5.343E-04 3.852E-04

     total cpu time spent up to now is    30869.0 secs

     total energy              =   -5332.11247225 Ry
     estimated scf accuracy    <       0.00910529 Ry

     total magnetization       =    14.38 Bohr mag/cell
     absolute magnetization    =    16.23 Bohr mag/cell

     iteration # 20     ecut=    60.00 Ry     beta= 0.20
     Davidson diagonalization with overlap
     ethr =  3.78E-06,  avg # of iterations =  1.5

     negative rho (up, down):  1.078E-03 9.915E-04

     total cpu time spent up to now is    32467.6 secs

     total energy              =   -5332.11105970 Ry
     estimated scf accuracy    <       0.00973406 Ry

     total magnetization       =    14.38 Bohr mag/cell
     absolute magnetization    =    16.24 Bohr mag/cell

     iteration # 21     ecut=    60.00 Ry     beta= 0.20
     Davidson diagonalization with overlap
     ethr =  3.78E-06,  avg # of iterations =  2.6

     negative rho (up, down):  1.531E-04 1.398E-04

     total cpu time spent up to now is    34150.1 secs

     total energy              =   -5332.11098582 Ry
     estimated scf accuracy    <       0.01689166 Ry

     total magnetization       =    14.38 Bohr mag/cell
     absolute magnetization    =    16.27 Bohr mag/cell

     iteration # 22     ecut=    60.00 Ry     beta= 0.20
     Davidson diagonalization with overlap
     ethr =  3.78E-06,  avg # of iterations =  1.9

     negative rho (up, down):  1.941E-05 1.630E-05

     total cpu time spent up to now is    35775.5 secs

     total energy              =   -5332.11064841 Ry
     estimated scf accuracy    <       0.01584145 Ry

     total magnetization       =    14.34 Bohr mag/cell
     absolute magnetization    =    16.22 Bohr mag/cell

     iteration # 23     ecut=    60.00 Ry     beta= 0.20
     Davidson diagonalization with overlap
     ethr =  3.78E-06,  avg # of iterations =  1.4

     negative rho (up, down):  1.543E-05 1.265E-05

     total cpu time spent up to now is    37286.2 secs

     total energy              =   -5332.11044116 Ry
     estimated scf accuracy    <       0.01528692 Ry

     total magnetization       =    14.32 Bohr mag/cell
     absolute magnetization    =    16.18 Bohr mag/cell

     iteration # 24     ecut=    60.00 Ry     beta= 0.20
     Davidson diagonalization with overlap
     ethr =  3.78E-06,  avg # of iterations =  1.6

     total cpu time spent up to now is    38905.6 secs

     total energy              =   -5332.11050341 Ry
     estimated scf accuracy    <       0.01640262 Ry

     total magnetization       =    14.34 Bohr mag/cell
     absolute magnetization    =    16.20 Bohr mag/cell

     iteration # 25     ecut=    60.00 Ry     beta= 0.20
     Davidson diagonalization with overlap
     ethr =  3.78E-06,  avg # of iterations =  1.2

     negative rho (up, down):  1.196E-05 1.170E-05

     total cpu time spent up to now is    40451.6 secs

     total energy              =   -5332.10899373 Ry
     estimated scf accuracy    <       0.00627292 Ry

     total magnetization       =    14.33 Bohr mag/cell
     absolute magnetization    =    16.16 Bohr mag/cell

     iteration # 26     ecut=    60.00 Ry     beta= 0.20
     Davidson diagonalization with overlap
     c_bands:  1 eigenvalues not converged
     c_bands:  1 eigenvalues not converged
     ethr =  2.60E-06,  avg # of iterations =  4.1

     negative rho (up, down):  1.503E-04 1.512E-04

     total cpu time spent up to now is    42140.9 secs

     total energy              =   -5332.10854742 Ry
     estimated scf accuracy    <       0.00778953 Ry

     total magnetization       =    14.30 Bohr mag/cell
     absolute magnetization    =    16.14 Bohr mag/cell

     iteration # 27     ecut=    60.00 Ry     beta= 0.20
     Davidson diagonalization with overlap
     ethr =  2.60E-06,  avg # of iterations =  1.9

     negative rho (up, down):  5.301E-04 5.282E-04

     total cpu time spent up to now is    43722.3 secs

     total energy              =   -5332.10882466 Ry
     estimated scf accuracy    <       0.00119251 Ry

     total magnetization       =    14.28 Bohr mag/cell
     absolute magnetization    =    16.08 Bohr mag/cell

     iteration # 28     ecut=    60.00 Ry     beta= 0.20
     Davidson diagonalization with overlap
     ethr =  4.95E-07,  avg # of iterations =  4.4

     negative rho (up, down):  6.219E-04 6.185E-04

     total cpu time spent up to now is    45658.2 secs

     total energy              =   -5332.10892440 Ry
     estimated scf accuracy    <       0.00116167 Ry

     total magnetization       =    14.32 Bohr mag/cell
     absolute magnetization    =    16.10 Bohr mag/cell

     iteration # 29     ecut=    60.00 Ry     beta= 0.20
     Davidson diagonalization with overlap
     ethr =  4.82E-07,  avg # of iterations =  1.9

     negative rho (up, down):  6.202E-04 6.143E-04

     total cpu time spent up to now is    47204.1 secs

     total energy              =   -5332.10904239 Ry
     estimated scf accuracy    <       0.00074691 Ry

     total magnetization       =    14.33 Bohr mag/cell
     absolute magnetization    =    16.10 Bohr mag/cell

     iteration # 30     ecut=    60.00 Ry     beta= 0.20
     Davidson diagonalization with overlap
     ethr =  3.10E-07,  avg # of iterations =  2.0

     negative rho (up, down):  8.943E-04 8.909E-04

     total cpu time spent up to now is    48802.9 secs

     total energy              =   -5332.10920790 Ry
     estimated scf accuracy    <       0.00043489 Ry

     total magnetization       =    14.38 Bohr mag/cell
     absolute magnetization    =    16.16 Bohr mag/cell

     iteration # 31     ecut=    60.00 Ry     beta= 0.20
     Davidson diagonalization with overlap
     ethr =  1.80E-07,  avg # of iterations =  2.2

     negative rho (up, down):  6.258E-04 6.212E-04

     total cpu time spent up to now is    50489.5 secs

     total energy              =   -5332.10926874 Ry
     estimated scf accuracy    <       0.00020480 Ry

     total magnetization       =    14.38 Bohr mag/cell
     absolute magnetization    =    16.19 Bohr mag/cell

     iteration # 32     ecut=    60.00 Ry     beta= 0.20
     Davidson diagonalization with overlap
     ethr =  8.50E-08,  avg # of iterations =  2.6

     negative rho (up, down):  2.780E-04 2.625E-04

     total cpu time spent up to now is    52210.6 secs

     total energy              =   -5332.10930415 Ry
     estimated scf accuracy    <       0.00014991 Ry

     total magnetization       =    14.38 Bohr mag/cell
     absolute magnetization    =    16.20 Bohr mag/cell

     iteration # 33     ecut=    60.00 Ry     beta= 0.20
     Davidson diagonalization with overlap
     ethr =  6.22E-08,  avg # of iterations =  2.3

     negative rho (up, down):  4.749E-05 2.628E-05

     total cpu time spent up to now is    53801.4 secs

     total energy              =   -5332.10932598 Ry
     estimated scf accuracy    <       0.00010681 Ry

     total magnetization       =    14.37 Bohr mag/cell
     absolute magnetization    =    16.21 Bohr mag/cell

     iteration # 34     ecut=    60.00 Ry     beta= 0.20
     Davidson diagonalization with overlap
     ethr =  4.43E-08,  avg # of iterations =  1.7

     negative rho (up, down):  1.253E-04 1.067E-04

     total cpu time spent up to now is    55238.5 secs

     total energy              =   -5332.10933515 Ry
     estimated scf accuracy    <       0.00008781 Ry

     total magnetization       =    14.35 Bohr mag/cell
     absolute magnetization    =    16.19 Bohr mag/cell

     iteration # 35     ecut=    60.00 Ry     beta= 0.20
     Davidson diagonalization with overlap
     ethr =  3.64E-08,  avg # of iterations =  1.4

     negative rho (up, down):  1.653E-04 1.280E-04

     total cpu time spent up to now is    56648.5 secs

     total energy              =   -5332.10934319 Ry
     estimated scf accuracy    <       0.00002701 Ry

     total magnetization       =    14.35 Bohr mag/cell
     absolute magnetization    =    16.19 Bohr mag/cell

     iteration # 36     ecut=    60.00 Ry     beta= 0.20
     Davidson diagonalization with overlap
     ethr =  1.12E-08,  avg # of iterations =  3.7

     negative rho (up, down):  2.458E-04 2.004E-04

     total cpu time spent up to now is    58543.5 secs

     total energy              =   -5332.10934465 Ry
     estimated scf accuracy    <       0.00001348 Ry

     total magnetization       =    14.35 Bohr mag/cell
     absolute magnetization    =    16.19 Bohr mag/cell

     iteration # 37     ecut=    60.00 Ry     beta= 0.20
     Davidson diagonalization with overlap
     ethr =  5.59E-09,  avg # of iterations =  2.5

     negative rho (up, down):  3.271E-04 2.828E-04

     total cpu time spent up to now is    60135.1 secs

     total energy              =   -5332.10934581 Ry
     estimated scf accuracy    <       0.00000457 Ry

     total magnetization       =    14.35 Bohr mag/cell
     absolute magnetization    =    16.19 Bohr mag/cell

     iteration # 38     ecut=    60.00 Ry     beta= 0.20
     Davidson diagonalization with overlap
     ethr =  1.90E-09,  avg # of iterations =  3.4

     negative rho (up, down):  3.113E-04 2.625E-04

     total cpu time spent up to now is    61801.9 secs

     total energy              =   -5332.10934700 Ry
     estimated scf accuracy    <       0.00000131 Ry

     total magnetization       =    14.35 Bohr mag/cell
     absolute magnetization    =    16.19 Bohr mag/cell

     iteration # 39     ecut=    60.00 Ry     beta= 0.20
     Davidson diagonalization with overlap
     ethr =  5.45E-10,  avg # of iterations =  3.6

     negative rho (up, down):  2.794E-04 2.292E-04

     total cpu time spent up to now is    63737.3 secs

     total energy              =   -5332.10934749 Ry
     estimated scf accuracy    <       0.00000033 Ry

     total magnetization       =    14.35 Bohr mag/cell
     absolute magnetization    =    16.19 Bohr mag/cell

     iteration # 40     ecut=    60.00 Ry     beta= 0.20
     Davidson diagonalization with overlap
     ethr =  1.37E-10,  avg # of iterations =  3.7

     negative rho (up, down):  2.685E-04 2.177E-04

     total cpu time spent up to now is    65554.9 secs

     total energy              =   -5332.10934762 Ry
     estimated scf accuracy    <       0.00000021 Ry

     total magnetization       =    14.35 Bohr mag/cell
     absolute magnetization    =    16.19 Bohr mag/cell

     iteration # 41     ecut=    60.00 Ry     beta= 0.20
     Davidson diagonalization with overlap
     ethr =  8.80E-11,  avg # of iterations =  1.6

     negative rho (up, down):  2.708E-04 2.196E-04

     total cpu time spent up to now is    67154.3 secs

     total energy              =   -5332.10934770 Ry
     estimated scf accuracy    <       0.00000029 Ry

     total magnetization       =    14.35 Bohr mag/cell
     absolute magnetization    =    16.19 Bohr mag/cell

     iteration # 42     ecut=    60.00 Ry     beta= 0.20
     Davidson diagonalization with overlap
     ethr =  8.80E-11,  avg # of iterations =  1.2

     negative rho (up, down):  2.561E-04 2.030E-04

     total cpu time spent up to now is    68669.7 secs

     total energy              =   -5332.10934778 Ry
     estimated scf accuracy    <       0.00000010 Ry

     total magnetization       =    14.35 Bohr mag/cell
     absolute magnetization    =    16.19 Bohr mag/cell

     iteration # 43     ecut=    60.00 Ry     beta= 0.20
     Davidson diagonalization with overlap
     ethr =  4.30E-11,  avg # of iterations =  2.2

     negative rho (up, down):  2.470E-04 1.939E-04

     total cpu time spent up to now is    70317.8 secs

     total energy              =   -5332.10934779 Ry
     estimated scf accuracy    <       0.00000006 Ry

     total magnetization       =    14.35 Bohr mag/cell
     absolute magnetization    =    16.19 Bohr mag/cell

     iteration # 44     ecut=    60.00 Ry     beta= 0.20
     Davidson diagonalization with overlap
     ethr =  2.36E-11,  avg # of iterations =  2.1

     negative rho (up, down):  2.466E-04 1.939E-04

     total cpu time spent up to now is    71880.6 secs

     total energy              =   -5332.10934779 Ry
     estimated scf accuracy    <       0.00000004 Ry

     total magnetization       =    14.35 Bohr mag/cell
     absolute magnetization    =    16.19 Bohr mag/cell

     iteration # 45     ecut=    60.00 Ry     beta= 0.20
     Davidson diagonalization with overlap
     ethr =  1.67E-11,  avg # of iterations =  1.7

     negative rho (up, down):  2.460E-04 1.935E-04

     total cpu time spent up to now is    73398.2 secs

     total energy              =   -5332.10934779 Ry
     estimated scf accuracy    <       0.00000001 Ry

     total magnetization       =    14.35 Bohr mag/cell
     absolute magnetization    =    16.19 Bohr mag/cell

     iteration # 46     ecut=    60.00 Ry     beta= 0.20
     Davidson diagonalization with overlap
     ethr =  4.26E-12,  avg # of iterations =  4.3

     negative rho (up, down):  2.478E-04 1.955E-04

     total cpu time spent up to now is    75403.2 secs

     total energy              =   -5332.10934779 Ry
     estimated scf accuracy    <          6.5E-09 Ry

     total magnetization       =    14.35 Bohr mag/cell
     absolute magnetization    =    16.19 Bohr mag/cell

     iteration # 47     ecut=    60.00 Ry     beta= 0.20
     Davidson diagonalization with overlap
     ethr =  2.70E-12,  avg # of iterations =  2.1

     negative rho (up, down):  2.504E-04 1.980E-04

     total cpu time spent up to now is    77073.3 secs

     total energy              =   -5332.10934780 Ry
     estimated scf accuracy    <          8.6E-09 Ry

     total magnetization       =    14.35 Bohr mag/cell
     absolute magnetization    =    16.19 Bohr mag/cell

     iteration # 48     ecut=    60.00 Ry     beta= 0.20
     Davidson diagonalization with overlap
     ethr =  2.70E-12,  avg # of iterations =  1.3

     negative rho (up, down):  2.498E-04 1.973E-04

     total cpu time spent up to now is    78598.2 secs

     total energy              =   -5332.10934780 Ry
     estimated scf accuracy    <          3.2E-09 Ry

     total magnetization       =    14.35 Bohr mag/cell
     absolute magnetization    =    16.19 Bohr mag/cell

     iteration # 49     ecut=    60.00 Ry     beta= 0.20
     Davidson diagonalization with overlap
     ethr =  1.35E-12,  avg # of iterations =  1.8

     negative rho (up, down):  2.490E-04 1.965E-04

     total cpu time spent up to now is    80178.0 secs

     total energy              =   -5332.10934780 Ry
     estimated scf accuracy    <          2.6E-09 Ry

     total magnetization       =    14.35 Bohr mag/cell
     absolute magnetization    =    16.19 Bohr mag/cell

     iteration # 50     ecut=    60.00 Ry     beta= 0.20
     Davidson diagonalization with overlap
     ethr =  1.08E-12,  avg # of iterations =  1.9

     negative rho (up, down):  2.486E-04 1.961E-04

     total cpu time spent up to now is    81824.2 secs

     total energy              =   -5332.10934780 Ry
     estimated scf accuracy    <          7.6E-10 Ry

     total magnetization       =    14.35 Bohr mag/cell
     absolute magnetization    =    16.19 Bohr mag/cell

     iteration # 51     ecut=    60.00 Ry     beta= 0.20
     Davidson diagonalization with overlap
     ethr =  3.15E-13,  avg # of iterations =  3.2

     negative rho (up, down):  2.476E-04 1.952E-04

     total cpu time spent up to now is    83624.6 secs

     total energy              =   -5332.10934780 Ry
     estimated scf accuracy    <          7.3E-10 Ry

     total magnetization       =    14.35 Bohr mag/cell
     absolute magnetization    =    16.19 Bohr mag/cell

     iteration # 52     ecut=    60.00 Ry     beta= 0.20
     Davidson diagonalization with overlap
     ethr =  3.01E-13,  avg # of iterations =  1.2

     negative rho (up, down):  2.468E-04 1.944E-04

     total cpu time spent up to now is    85169.7 secs

     total energy              =   -5332.10934780 Ry
     estimated scf accuracy    <          4.5E-10 Ry

     total magnetization       =    14.35 Bohr mag/cell
     absolute magnetization    =    16.19 Bohr mag/cell

     iteration # 53     ecut=    60.00 Ry     beta= 0.20
     Davidson diagonalization with overlap
     ethr =  1.87E-13,  avg # of iterations =  1.6

     negative rho (up, down):  2.467E-04 1.943E-04

     total cpu time spent up to now is    86775.8 secs

     total energy              =   -5332.10934780 Ry
     estimated scf accuracy    <          2.6E-10 Ry

     total magnetization       =    14.35 Bohr mag/cell
     absolute magnetization    =    16.19 Bohr mag/cell

     iteration # 54     ecut=    60.00 Ry     beta= 0.20
     Davidson diagonalization with overlap
     ethr =  1.06E-13,  avg # of iterations =  1.9

     negative rho (up, down):  2.464E-04 1.941E-04

     total cpu time spent up to now is    88416.1 secs

     total energy              =   -5332.10934779 Ry
     estimated scf accuracy    <          2.0E-10 Ry

     total magnetization       =    14.35 Bohr mag/cell
     absolute magnetization    =    16.19 Bohr mag/cell

     iteration # 55     ecut=    60.00 Ry     beta= 0.20
     Davidson diagonalization with overlap
     ethr =  1.00E-13,  avg # of iterations =  1.8

     negative rho (up, down):  2.459E-04 1.935E-04

     total cpu time spent up to now is    90026.2 secs

     total energy              =   -5332.10934779 Ry
     estimated scf accuracy    <          3.2E-10 Ry

     total magnetization       =    14.35 Bohr mag/cell
     absolute magnetization    =    16.19 Bohr mag/cell

     iteration # 56     ecut=    60.00 Ry     beta= 0.20
     Davidson diagonalization with overlap
     ethr =  1.00E-13,  avg # of iterations =  1.0

     negative rho (up, down):  2.457E-04 1.933E-04

     total cpu time spent up to now is    91493.5 secs

     total energy              =   -5332.10934779 Ry
     estimated scf accuracy    <          1.7E-10 Ry

     total magnetization       =    14.35 Bohr mag/cell
     absolute magnetization    =    16.19 Bohr mag/cell

     iteration # 57     ecut=    60.00 Ry     beta= 0.20
     Davidson diagonalization with overlap
     ethr =  1.00E-13,  avg # of iterations =  1.0

     negative rho (up, down):  2.447E-04 1.925E-04
 
     Magnetic moment per site  (integrated on atomic sphere of radius R)
     atom   1 (R=0.141)  charge=  6.9153  magn=  0.7347
     atom   2 (R=0.141)  charge=  6.9153  magn=  0.7347
     atom   3 (R=0.205)  charge=  7.9374  magn=  0.2821
     atom   4 (R=0.141)  charge=  6.9153  magn=  0.7347
     atom   5 (R=0.141)  charge=  6.9117  magn=  0.7413
     atom   6 (R=0.141)  charge=  6.9117  magn=  0.7413
     atom   7 (R=0.205)  charge=  7.9785  magn=  0.3372
     atom   8 (R=0.141)  charge=  6.9117  magn=  0.7413
     atom   9 (R=0.141)  charge=  6.9114  magn=  0.7093
     atom  10 (R=0.141)  charge=  6.9114  magn=  0.7093
     atom  11 (R=0.205)  charge=  7.9793  magn=  0.3147
     atom  12 (R=0.141)  charge=  6.9114  magn=  0.7093
     atom  13 (R=0.141)  charge=  6.9113  magn=  0.7131
     atom  14 (R=0.141)  charge=  6.9113  magn=  0.7131
     atom  15 (R=0.205)  charge=  7.9760  magn=  0.3126
     atom  16 (R=0.141)  charge=  6.9113  magn=  0.7131
     atom  17 (R=0.141)  charge=  6.9119  magn=  0.7236
     atom  18 (R=0.141)  charge=  6.9119  magn=  0.7236
     atom  19 (R=0.205)  charge=  7.9789  magn=  0.3284
     atom  20 (R=0.141)  charge=  6.9119  magn=  0.7236
     atom  21 (R=0.141)  charge=  6.9200  magn=  0.5530
     atom  22 (R=0.141)  charge=  6.9200  magn=  0.5530
     atom  23 (R=0.205)  charge=  7.9314  magn=  0.2628
     atom  24 (R=0.141)  charge=  6.9200  magn=  0.5530
     atom  25 (R=0.141)  charge=  0.9191  magn= -0.0094

     total cpu time spent up to now is    92938.7 secs

     End of self-consistent calculation

     Number of k-points >= 100: set verbosity='high' to print the bands.

     the Fermi energy is    -5.0763 ev

!    total energy              =   -5332.10934779 Ry
     total all-electron energy =   -115303.855489 Ry
     estimated scf accuracy    <          6.0E-11 Ry
     smearing contrib. (-TS)   =      -0.00211015 Ry
     internal energy E=F+TS    =   -5332.10723764 Ry

     The total energy is F=E-TS. E is the sum of the following terms:
     one-electron contribution =  -69959.28710739 Ry
     hartree contribution      =   35174.33283961 Ry
     xc contribution           =    -947.24945731 Ry
     ewald contribution        =   33473.69953621 Ry
     DFT-D3 Dispersion         =      -2.02252983 Ry
     one-center paw contrib.   =   -3071.58051893 Ry

     total magnetization       =    14.35 Bohr mag/cell
     absolute magnetization    =    16.19 Bohr mag/cell

     convergence has been achieved in  57 iterations

     negative rho (up, down):  2.447E-04 1.925E-04

     Forces acting on atoms (cartesian axes, Ry/au):

     atom    1 type  1   force =    -0.00000557    0.01326032    0.00377948
     atom    2 type  1   force =     0.01149226   -0.00662150    0.00376801
     atom    3 type  2   force =    -0.00000991    0.00000614   -0.01835537
     atom    4 type  1   force =    -0.01147686   -0.00664489    0.00375796
     atom    5 type  1   force =    -0.00000688    0.00188874    0.00210776
     atom    6 type  1   force =     0.00164728   -0.00093354    0.00209259
     atom    7 type  2   force =    -0.00001247    0.00000626    0.00466049
     atom    8 type  1   force =    -0.00162884   -0.00096269    0.00207780
     atom    9 type  1   force =     0.00000001    0.00008633    0.00005967
     atom   10 type  1   force =     0.00007464   -0.00004311    0.00005950
     atom   11 type  2   force =     0.00000010    0.00000025   -0.00014523
     atom   12 type  1   force =    -0.00007455   -0.00004329    0.00005954
     atom   13 type  1   force =     0.00000010    0.00012274   -0.00062007
     atom   14 type  1   force =     0.00010646   -0.00006100   -0.00062002
     atom   15 type  2   force =     0.00000007    0.00000010   -0.00023473
     atom   16 type  1   force =    -0.00010634   -0.00006136   -0.00062009
     atom   17 type  1   force =    -0.00000004    0.00010601    0.00015208
     atom   18 type  1   force =     0.00009186   -0.00005277    0.00015213
     atom   19 type  2   force =     0.00000009    0.00000006   -0.00057468
     atom   20 type  1   force =    -0.00009160   -0.00005288    0.00015197
     atom   21 type  1   force =     0.00000008    0.00011494   -0.00033151
     atom   22 type  1   force =     0.00009956   -0.00005745   -0.00033149
     atom   23 type  2   force =    -0.00000007    0.00000010   -0.00050091
     atom   24 type  1   force =    -0.00009942   -0.00005755   -0.00033145
     atom   25 type  3   force =     0.00000004    0.00000004   -0.00021344

     Total force =     0.001551     Total SCF correction =     0.000022


     Computing stress (Cartesian axis) and pressure


     negative rho (up, down):  2.447E-04 1.925E-04
          total   stress  (Ry/bohr**3)                   (kbar)     P=       -5.98
  -0.00005914   0.00000000   0.00000000           -8.70        0.00        0.00
   0.00000000  -0.00005914   0.00000000            0.00       -8.70        0.00
   0.00000000   0.00000000  -0.00000373            0.00        0.00       -0.55


     Writing all to output data dir /tmpu/isholek_g/isholek/MIGUEL/QE/Hydrogen/111_2x2/SAVE/Ni3Pd1_111-H_fcc_2.save/ :
     XML data file, charge density, pseudopotentials, collected wavefunctions
 
     init_run     :    451.70s CPU    752.11s WALL (       1 calls)
     electrons    :  53231.73s CPU  92162.33s WALL (       1 calls)
     forces       :     34.93s CPU     66.04s WALL (       1 calls)
     force_dftd3  :      0.61s CPU      1.21s WALL (       1 calls)
     stress       :    550.83s CPU    973.75s WALL (       1 calls)
     stres_dftd3  :      1.17s CPU      1.49s WALL (       1 calls)

     Called by init_run:
     wfcinit      :    308.88s CPU    516.22s WALL (       1 calls)
     potinit      :      1.54s CPU      2.54s WALL (       1 calls)
     hinit0       :      0.58s CPU      1.20s WALL (       1 calls)

     Called by electrons:
     c_bands      :  44877.98s CPU  77779.13s WALL (      57 calls)
     sum_band     :   8002.39s CPU  13806.42s WALL (      57 calls)
     v_of_rho     :     34.46s CPU     62.67s WALL (      58 calls)
     newd         :     13.07s CPU     24.25s WALL (      58 calls)
     PAW_pot      :     36.55s CPU     62.31s WALL (      58 calls)
     mix_rho      :    243.48s CPU    385.80s WALL (      57 calls)
     energy_dftd3 :      0.17s CPU      0.35s WALL (       1 calls)

     Called by c_bands:
     init_us_2    :     75.84s CPU    124.14s WALL (    7488 calls)
     init_us_2:cp :     75.76s CPU    123.98s WALL (    7488 calls)
     cegterg      :  23351.59s CPU  40484.14s WALL (    3648 calls)

     Called by *egterg:
     cdiaghg      :   1003.17s CPU   1780.18s WALL (   11140 calls)
     h_psi        :  19188.90s CPU  33226.12s WALL (   11204 calls)
     s_psi        :    567.72s CPU   1033.37s WALL (   11204 calls)
     g_psi        :     16.25s CPU     25.60s WALL (    7492 calls)

     Called by h_psi:
     h_psi:calbec :    877.43s CPU   1513.23s WALL (   11204 calls)
     vloc_psi     :  17719.25s CPU  30618.40s WALL (   11204 calls)
     add_vuspsi   :    576.10s CPU   1033.56s WALL (   11204 calls)

     General routines
     calbec       :   1350.79s CPU   2320.78s WALL (   15172 calls)
     fft          :     24.62s CPU     44.56s WALL (    1488 calls)
     ffts         :     61.59s CPU    103.13s WALL (    7118 calls)
     fftw         :  21208.83s CPU  36542.92s WALL ( 2738648 calls)
     interpolate  :      2.93s CPU      5.10s WALL (     116 calls)
 
     Parallel routines
 
     PWSCF        :     15h 6m CPU   1d 2h 9m WALL

 
   This run was terminated on:  15:10:39  21Mar2026            

=------------------------------------------------------------------------------=
   JOB DONE.
=------------------------------------------------------------------------------=
