
     Program PWSCF v.7.3 starts on 13May2026 at 15:13:22 

     This program is part of the open-source Quantum ESPRESSO suite
     for quantum simulation of materials; please cite
         "P. Giannozzi et al., J. Phys.:Condens. Matter 21 395502 (2009);
         "P. Giannozzi et al., J. Phys.:Condens. Matter 29 465901 (2017);
         "P. Giannozzi et al., J. Chem. Phys. 152 154105 (2020);
          URL http://www.quantum-espresso.org", 
     in publications or presentations arising from this work. More details at
     http://www.quantum-espresso.org/quote

     Parallel version (MPI), running on   128 processors

     MPI processes distributed on     8 nodes
     28883 MiB available memory on the printing compute node when the environment starts
 
     Reading input from /tmpu/isholek_g/isholek/MIGUEL/QE/Hydrogen/111_2x2/SCF/Ni3Pd1_111-T2-SCF.in

     Current dimensions of program PWSCF are:
     Max number of different atomic species (ntypx) = 10
     Max number of k-points (npk) =  40000
     Max angular momentum in pseudopotentials (lmaxx) =  4
     file Ni.upf: wavefunction(s)  4S 3D renormalized
     file Pd.upf: wavefunction(s)  5S 4D renormalized
     file H.upf: wavefunction(s)  1S renormalized

     IMPORTANT: XC functional enforced from input :
     Exchange-correlation= PBE
                           (   1   4   3   4   0   0   0)
     Any further DFT definition will be discarded
     Please, verify this is what you really want

     Message from routine find_sym:
     Not a group! Trying with lower acceptance parameter...
     Message from routine find_sym:
     Symmetry operations form a group
 
     K-points division:     npool     =       8
     R & G space division:  proc/nbgrp/npool/nimage =      16
     Subspace diagonalization in iterative solution of the eigenvalue problem:
     one sub-group per band group will be used
     scalapack distributed-memory algorithm (size of sub-group:  2*  2 procs)

 
     Parallelization info
     --------------------
     sticks:   dense  smooth     PW     G-vecs:    dense   smooth      PW
     Min         187      94     27                53151    18802    2951
     Max         188      95     28                53178    18817    2978
     Sum        3001    1507    433               850625   300931   47347
 
     Using Slab Decomposition
 

     Title: 
     Ni3Pd1_111-T2-SCF                                                          


     bravais-lattice index     =            0
     lattice parameter (alat)  =       9.5206  a.u.
     unit-cell volume          =    4789.0025 (a.u.)^3
     number of atoms/cell      =           25
     number of atomic types    =            3
     number of electrons       =       241.00
     number of Kohn-Sham states=          145
     kinetic-energy cutoff     =      60.0000  Ry
     charge density cutoff     =     480.0000  Ry
     scf convergence threshold =      1.0E-10
     mixing beta               =       0.2000
     number of iterations used =           12  local-TF  mixing
     Exchange-correlation= PBE
                           (   1   4   3   4   0   0   0)

     celldm(1)=   9.520593  celldm(2)=   0.000000  celldm(3)=   0.000000
     celldm(4)=   0.000000  celldm(5)=   0.000000  celldm(6)=   0.000000

     crystal axes: (cart. coord. in units of alat)
               a(1) = (   1.000000   0.000000   0.000000 )  
               a(2) = (   0.500000   0.866025   0.000000 )  
               a(3) = (   0.000000   0.000000   6.408000 )  

     reciprocal axes: (cart. coord. in units 2 pi/alat)
               b(1) = (  1.000000 -0.577350  0.000000 )  
               b(2) = (  0.000000  1.154701  0.000000 )  
               b(3) = (  0.000000  0.000000  0.156055 )  


     PseudoPot. # 1 for Ni read from file:
     /tmpu/isholek_g/isholek/MIGUEL/PP/PAW/Ni.upf
     MD5 check sum: d88365a95a5e142bd87181c2c8b16588
     Pseudo is Projector augmented-wave + core cor, Zval = 10.0
     Generated using "atomic" code by A. Dal Corso  v.5.0.2 svn rev. 9415
     Shape of augmentation charge: PSQ
     Using radial grid of 1195 points,  6 beta functions with: 
                l(1) =   0
                l(2) =   0
                l(3) =   1
                l(4) =   1
                l(5) =   2
                l(6) =   2
     Q(r) pseudized with 0 coefficients 


     PseudoPot. # 2 for Pd read from file:
     /tmpu/isholek_g/isholek/MIGUEL/PP/PAW/Pd.upf
     MD5 check sum: e9d6f14fd83b79f8105499163af174c9
     Pseudo is Projector augmented-wave + core cor, Zval = 10.0
     Generated using "atomic" code by A. Dal Corso  v.5.0.2 svn rev. 9415
     Shape of augmentation charge: PSQ
     Using radial grid of 1235 points,  6 beta functions with: 
                l(1) =   0
                l(2) =   0
                l(3) =   1
                l(4) =   1
                l(5) =   2
                l(6) =   2
     Q(r) pseudized with 0 coefficients 


     PseudoPot. # 3 for H  read from file:
     /tmpu/isholek_g/isholek/MIGUEL/PP/PAW/H.upf
     MD5 check sum: 4cbe42a24e15140179a93d5bf84f2220
     Pseudo is Projector augmented-wave, Zval =  1.0
     Generated using "atomic" code by A. Dal Corso  v.5.0.2 svn rev. 9415
     Shape of augmentation charge: PSQ
     Using radial grid of  929 points,  2 beta functions with: 
                l(1) =   0
                l(2) =   0
     Q(r) pseudized with 0 coefficients 


     atomic species   valence    mass     pseudopotential
     Ni               10.00    58.69340     Ni( 1.00)
     Pd               10.00   106.42000     Pd( 1.00)
     H                 1.00     1.00794     H ( 1.00)

     Starting magnetic structure 
     atomic species   magnetization
     Ni              0.650
     Pd              0.100
     H               0.000

     No symmetry found



   Cartesian axes

     site n.     atom                  positions (alat units)
         1        Ni     tau(   1) = (   1.0000055   0.5773497   2.1833712  )
         2        Ni     tau(   2) = (   0.2499946   0.1443334   2.1833775  )
         3        Pd     tau(   3) = (   0.5000045   0.5773498   2.1833823  )
         4        Ni     tau(   4) = (   0.7499961   0.1443432   2.1833870  )
         5        Ni     tau(   5) = (   0.5000055   0.2886746   2.5916194  )
         6        Ni     tau(   6) = (   1.2499946   0.7216837   2.5916258  )
         7        Pd     tau(   7) = (   1.0000045   0.2886747   2.5916306  )
         8        Ni     tau(   8) = (   0.7499961   0.7216934   2.5916353  )
         9        Ni     tau(   9) = (   0.4999997   0.8659194   2.9980502  )
        10        Ni     tau(  10) = (   0.7499085   0.4330682   2.9980483  )
        11        Pd     tau(  11) = (   1.0000014   0.8660282   2.9986940  )
        12        Ni     tau(  12) = (   1.2500957   0.4330683   2.9980477  )
        13        Ni     tau(  13) = (   1.0000012   0.5778518   3.4075355  )
        14        Ni     tau(  14) = (   0.2504342   0.1440883   3.4075359  )
        15        Pd     tau(  15) = (   0.5000011   0.5773508   3.4045372  )
        16        Ni     tau(  16) = (   0.7495671   0.1440877   3.4075365  )
        17        Ni     tau(  17) = (   0.5000004   0.2860856   3.8142158  )
        18        Ni     tau(  18) = (   1.2477576   0.7229831   3.8142158  )
        19        Pd     tau(  19) = (   1.0000004   0.2886757   3.8134037  )
        20        Ni     tau(  20) = (   0.7522435   0.7229833   3.8142157  )
        21        Ni     tau(  21) = (   0.5000003   0.8583274   4.2173321  )
        22        Ni     tau(  22) = (   0.7433334   0.4368619   4.2173323  )
        23        Pd     tau(  23) = (   1.0000003   0.8660256   4.2435118  )
        24        Ni     tau(  24) = (   1.2566672   0.4368621   4.2173324  )
        25        H      tau(  25) = (   1.0000001   0.8660255   4.5554615  )

     --------------------------------------------
     DFT-D3 Dispersion Correction (3-body terms):
     --------------------------------------------
       Reference C6 values for interpolation: 

         atom   Coordination number   C6
         H          0.912             6.05
         H          0.000            15.18
         Ni         0.000          1149.49
         Ni         1.794           356.66
         Ni         6.546           257.56
         Ni         6.292           283.75
         Pd         0.000          1217.01
         Pd         1.863           573.90
         Pd         5.710           531.75

       Values used:

         atom   Coordination number  R0_AB[au]  C6      C8
         Ni         6.659            3.162    267.12  22382.72
         Ni         6.659            3.162    267.12  22382.56
         Pd         7.597            3.168    531.75  48720.73
         Ni         6.659            3.162    267.12  22382.37
         Ni         8.937            3.162    257.71  21594.21
         Ni         8.937            3.162    257.71  21594.21
         Pd        10.240            3.168    531.75  48720.73
         Ni         8.937            3.162    257.71  21594.21
         Ni         8.939            3.162    257.71  21594.16
         Ni         8.939            3.162    257.71  21594.16
         Pd        10.248            3.168    531.75  48720.73
         Ni         8.939            3.162    257.71  21594.16
         Ni         8.940            3.162    257.71  21594.14
         Ni         8.940            3.162    257.71  21594.14
         Pd        10.215            3.168    531.75  48720.73
         Ni         8.940            3.162    257.71  21594.14
         Ni         8.913            3.162    257.72  21594.83
         Ni         8.913            3.162    257.72  21594.83
         Pd        10.201            3.168    531.75  48720.73
         Ni         8.913            3.162    257.72  21594.83
         Ni         6.710            3.162    266.50  22330.57
         Ni         6.710            3.162    266.50  22330.57
         Pd         8.216            3.168    531.75  48720.73
         Ni         6.710            3.162    266.50  22330.57
         H          0.962            2.062      6.22     75.21

         Molecular C6 ( Ry / a.u.^6 ) =    186093.62


     number of k points=   256  Marzari-Vanderbilt smearing, width (Ry)=  0.0147

     Number of k-points >= 100: set verbosity='high' to print them.

     Dense  grid:   850625 G-vectors     FFT dimensions: (  72,  72, 432)

     Smooth grid:   300931 G-vectors     FFT dimensions: (  48,  48, 320)

     Estimated max dynamical RAM per process >     460.99 MB

     Estimated total dynamical RAM >      53.37 GB
 ----2D----2D----2D----2D----2D----2D----2D----2D----2D----2D----2D----2D
  The code is running with the 2D cutoff
  Please refer to:
  Sohier, T., Calandra, M., & Mauri, F. (2017), 
  Density functional perturbation theory for gated two-dimensional heterostructu
 res:
  Theoretical developments and application to flexural phonons in graphene.
  Physical Review B, 96(7), 75448. https://doi.org/10.1103/PhysRevB.96.075448
 ----2D----2D----2D----2D----2D----2D----2D----2D----2D----2D----2D----2D

     Check: negative core charge=   -0.000001
     Generating pointlists ...
     new r_m :   0.2007 (alat units)  1.9113 (a.u.) for type    1
     new r_m :   0.1287 (alat units)  1.2251 (a.u.) for type    2
     new r_m :   0.1287 (alat units)  1.2251 (a.u.) for type    3

     Initial potential from superposition of free atoms

     starting charge     240.9923, renormalised to     241.0000

     negative rho (up, down):  3.077E-04 6.366E-05
     Starting wfcs are  217 randomized atomic wfcs
     Checking if some PAW data can be deallocated... 

     total cpu time spent up to now is      959.3 secs

     Self-consistent Calculation

     iteration #  1     ecut=    60.00 Ry     beta= 0.20
     Davidson diagonalization with overlap
     ethr =  1.00E-02,  avg # of iterations =  2.0

     negative rho (up, down):  9.896E-05 9.818E-06

     total cpu time spent up to now is     2723.4 secs

     total energy              =   -5327.32777680 Ry
     estimated scf accuracy    <      34.01509269 Ry

     total magnetization       =    25.98 Bohr mag/cell
     absolute magnetization    =    25.98 Bohr mag/cell

     iteration #  2     ecut=    60.00 Ry     beta= 0.20
     Davidson diagonalization with overlap
     ethr =  1.00E-02,  avg # of iterations =  1.0

     negative rho (up, down):  2.647E-05 9.400E-06

     total cpu time spent up to now is     4209.0 secs

     total energy              =   -5329.66708995 Ry
     estimated scf accuracy    <      10.34507583 Ry

     total magnetization       =    27.46 Bohr mag/cell
     absolute magnetization    =    27.46 Bohr mag/cell

     iteration #  3     ecut=    60.00 Ry     beta= 0.20
     Davidson diagonalization with overlap
     ethr =  4.29E-03,  avg # of iterations =  1.1

     negative rho (up, down):  1.092E-06 4.381E-06

     total cpu time spent up to now is     5671.2 secs

     total energy              =   -5331.04260612 Ry
     estimated scf accuracy    <       3.51172530 Ry

     total magnetization       =    24.96 Bohr mag/cell
     absolute magnetization    =    25.09 Bohr mag/cell

     iteration #  4     ecut=    60.00 Ry     beta= 0.20
     Davidson diagonalization with overlap
     ethr =  1.46E-03,  avg # of iterations =  1.1

     negative rho (up, down):  1.343E-07 4.732E-06

     total cpu time spent up to now is     7147.6 secs

     total energy              =   -5331.72009403 Ry
     estimated scf accuracy    <       4.05566337 Ry

     total magnetization       =    22.18 Bohr mag/cell
     absolute magnetization    =    22.87 Bohr mag/cell

     iteration #  5     ecut=    60.00 Ry     beta= 0.20
     Davidson diagonalization with overlap
     ethr =  1.46E-03,  avg # of iterations =  1.0

     negative rho (up, down):  3.418E-08 2.152E-06

     total cpu time spent up to now is     8609.9 secs

     total energy              =   -5332.01165248 Ry
     estimated scf accuracy    <       1.67641980 Ry

     total magnetization       =    18.83 Bohr mag/cell
     absolute magnetization    =    20.37 Bohr mag/cell

     iteration #  6     ecut=    60.00 Ry     beta= 0.20
     Davidson diagonalization with overlap
     ethr =  6.96E-04,  avg # of iterations =  1.0

     negative rho (up, down):  6.170E-08 1.464E-06

     total cpu time spent up to now is    10137.1 secs

     total energy              =   -5332.05651984 Ry
     estimated scf accuracy    <       1.21918972 Ry

     total magnetization       =    15.48 Bohr mag/cell
     absolute magnetization    =    17.70 Bohr mag/cell

     iteration #  7     ecut=    60.00 Ry     beta= 0.20
     Davidson diagonalization with overlap
     ethr =  5.06E-04,  avg # of iterations =  1.0

     negative rho (up, down):  8.466E-08 1.068E-06

     total cpu time spent up to now is    11581.2 secs

     total energy              =   -5332.06492297 Ry
     estimated scf accuracy    <       0.54958032 Ry

     total magnetization       =    14.41 Bohr mag/cell
     absolute magnetization    =    16.70 Bohr mag/cell

     iteration #  8     ecut=    60.00 Ry     beta= 0.20
     Davidson diagonalization with overlap
     ethr =  2.28E-04,  avg # of iterations =  1.1

     negative rho (up, down):  7.951E-08 6.168E-07

     total cpu time spent up to now is    13049.6 secs

     total energy              =   -5332.08092753 Ry
     estimated scf accuracy    <       0.27628883 Ry

     total magnetization       =    14.02 Bohr mag/cell
     absolute magnetization    =    16.30 Bohr mag/cell

     iteration #  9     ecut=    60.00 Ry     beta= 0.20
     Davidson diagonalization with overlap
     ethr =  1.15E-04,  avg # of iterations =  1.1

     negative rho (up, down):  7.603E-08 3.237E-07

     total cpu time spent up to now is    14512.0 secs

     total energy              =   -5332.08311671 Ry
     estimated scf accuracy    <       0.26001588 Ry

     total magnetization       =    14.21 Bohr mag/cell
     absolute magnetization    =    16.37 Bohr mag/cell

     iteration # 10     ecut=    60.00 Ry     beta= 0.20
     Davidson diagonalization with overlap
     ethr =  1.08E-04,  avg # of iterations =  1.1

     negative rho (up, down):  1.688E-07 3.589E-07

     total cpu time spent up to now is    15949.1 secs

     total energy              =   -5332.07846617 Ry
     estimated scf accuracy    <       0.23695353 Ry

     total magnetization       =    14.28 Bohr mag/cell
     absolute magnetization    =    16.21 Bohr mag/cell

     iteration # 11     ecut=    60.00 Ry     beta= 0.20
     Davidson diagonalization with overlap
     ethr =  9.83E-05,  avg # of iterations =  1.0

     negative rho (up, down):  1.533E-07 2.719E-07

     total cpu time spent up to now is    17411.2 secs

     total energy              =   -5332.07811766 Ry
     estimated scf accuracy    <       0.20241585 Ry

     total magnetization       =    14.32 Bohr mag/cell
     absolute magnetization    =    15.96 Bohr mag/cell

     iteration # 12     ecut=    60.00 Ry     beta= 0.20
     Davidson diagonalization with overlap
     ethr =  8.40E-05,  avg # of iterations =  1.0

     negative rho (up, down):  4.847E-08 8.752E-08

     total cpu time spent up to now is    18873.8 secs

     total energy              =   -5332.07498307 Ry
     estimated scf accuracy    <       0.15948806 Ry

     total magnetization       =    14.36 Bohr mag/cell
     absolute magnetization    =    15.91 Bohr mag/cell

     iteration # 13     ecut=    60.00 Ry     beta= 0.20
     Davidson diagonalization with overlap
     ethr =  6.62E-05,  avg # of iterations =  1.1

     negative rho (up, down):  2.055E-08 3.443E-08

     total cpu time spent up to now is    20346.7 secs

     total energy              =   -5332.07176048 Ry
     estimated scf accuracy    <       0.11552171 Ry

     total magnetization       =    14.48 Bohr mag/cell
     absolute magnetization    =    16.00 Bohr mag/cell

     iteration # 14     ecut=    60.00 Ry     beta= 0.20
     Davidson diagonalization with overlap
     ethr =  4.79E-05,  avg # of iterations =  1.2

     negative rho (up, down):  4.849E-09 1.013E-08

     total cpu time spent up to now is    21791.0 secs

     total energy              =   -5332.07153747 Ry
     estimated scf accuracy    <       0.07580820 Ry

     total magnetization       =    14.53 Bohr mag/cell
     absolute magnetization    =    16.09 Bohr mag/cell

     iteration # 15     ecut=    60.00 Ry     beta= 0.20
     Davidson diagonalization with overlap
     ethr =  3.15E-05,  avg # of iterations =  1.2

     negative rho (up, down):  1.190E-04 4.342E-05

     total cpu time spent up to now is    23246.4 secs

     total energy              =   -5332.06794172 Ry
     estimated scf accuracy    <       0.05180066 Ry

     total magnetization       =    14.37 Bohr mag/cell
     absolute magnetization    =    16.02 Bohr mag/cell

     iteration # 16     ecut=    60.00 Ry     beta= 0.20
     Davidson diagonalization with overlap
     ethr =  2.15E-05,  avg # of iterations =  2.1

     negative rho (up, down):  1.427E-03 1.269E-03

     total cpu time spent up to now is    24743.9 secs

     total energy              =   -5332.06668087 Ry
     estimated scf accuracy    <       0.01873101 Ry

     total magnetization       =    14.28 Bohr mag/cell
     absolute magnetization    =    16.06 Bohr mag/cell

     iteration # 17     ecut=    60.00 Ry     beta= 0.20
     Davidson diagonalization with overlap
     c_bands:  1 eigenvalues not converged
     c_bands:  1 eigenvalues not converged
     c_bands:  1 eigenvalues not converged
     ethr =  7.77E-06,  avg # of iterations =  5.5

     negative rho (up, down):  1.724E-03 1.584E-03

     total cpu time spent up to now is    26508.4 secs

     total energy              =   -5332.06696953 Ry
     estimated scf accuracy    <       0.01151346 Ry

     total magnetization       =    14.42 Bohr mag/cell
     absolute magnetization    =    16.26 Bohr mag/cell

     iteration # 18     ecut=    60.00 Ry     beta= 0.20
     Davidson diagonalization with overlap
     c_bands:  1 eigenvalues not converged
     ethr =  4.78E-06,  avg # of iterations =  4.1

     negative rho (up, down):  1.888E-04 1.731E-04

     total cpu time spent up to now is    28239.9 secs

     total energy              =   -5332.06819003 Ry
     estimated scf accuracy    <       0.01269206 Ry

     total magnetization       =    14.40 Bohr mag/cell
     absolute magnetization    =    16.29 Bohr mag/cell

     iteration # 19     ecut=    60.00 Ry     beta= 0.20
     Davidson diagonalization with overlap
     ethr =  4.78E-06,  avg # of iterations =  2.0

     total cpu time spent up to now is    29789.1 secs

     total energy              =   -5332.06908001 Ry
     estimated scf accuracy    <       0.01081431 Ry

     total magnetization       =    14.47 Bohr mag/cell
     absolute magnetization    =    16.34 Bohr mag/cell

     iteration # 20     ecut=    60.00 Ry     beta= 0.20
     Davidson diagonalization with overlap
     ethr =  4.49E-06,  avg # of iterations =  1.7

     total cpu time spent up to now is    31346.2 secs

     total energy              =   -5332.06836924 Ry
     estimated scf accuracy    <       0.00797525 Ry

     total magnetization       =    14.45 Bohr mag/cell
     absolute magnetization    =    16.32 Bohr mag/cell

     iteration # 21     ecut=    60.00 Ry     beta= 0.20
     Davidson diagonalization with overlap
     ethr =  3.31E-06,  avg # of iterations =  2.4

     negative rho (up, down):  8.236E-08 8.325E-08

     total cpu time spent up to now is    32971.1 secs

     total energy              =   -5332.06763782 Ry
     estimated scf accuracy    <       0.00747078 Ry

     total magnetization       =    14.45 Bohr mag/cell
     absolute magnetization    =    16.31 Bohr mag/cell

     iteration # 22     ecut=    60.00 Ry     beta= 0.20
     Davidson diagonalization with overlap
     c_bands:  1 eigenvalues not converged
     ethr =  3.10E-06,  avg # of iterations =  2.8

     negative rho (up, down):  1.142E-08 1.117E-08

     total cpu time spent up to now is    34651.2 secs

     total energy              =   -5332.06746141 Ry
     estimated scf accuracy    <       0.00756037 Ry

     total magnetization       =    14.40 Bohr mag/cell
     absolute magnetization    =    16.23 Bohr mag/cell

     iteration # 23     ecut=    60.00 Ry     beta= 0.20
     Davidson diagonalization with overlap
     ethr =  3.10E-06,  avg # of iterations =  2.1

     negative rho (up, down):  1.212E-05 1.240E-05

     total cpu time spent up to now is    36206.5 secs

     total energy              =   -5332.06678271 Ry
     estimated scf accuracy    <       0.00624918 Ry

     total magnetization       =    14.37 Bohr mag/cell
     absolute magnetization    =    16.23 Bohr mag/cell

     iteration # 24     ecut=    60.00 Ry     beta= 0.20
     Davidson diagonalization with overlap
     ethr =  2.59E-06,  avg # of iterations =  3.3

     negative rho (up, down):  7.335E-04 7.409E-04

     total cpu time spent up to now is    37989.5 secs

     total energy              =   -5332.06583355 Ry
     estimated scf accuracy    <       0.00617983 Ry

     total magnetization       =    14.39 Bohr mag/cell
     absolute magnetization    =    16.25 Bohr mag/cell

     iteration # 25     ecut=    60.00 Ry     beta= 0.20
     Davidson diagonalization with overlap
     ethr =  2.56E-06,  avg # of iterations =  2.8

     negative rho (up, down):  7.415E-04 7.445E-04

     total cpu time spent up to now is    39641.5 secs

     total energy              =   -5332.06559789 Ry
     estimated scf accuracy    <       0.00504635 Ry

     total magnetization       =    14.39 Bohr mag/cell
     absolute magnetization    =    16.27 Bohr mag/cell

     iteration # 26     ecut=    60.00 Ry     beta= 0.20
     Davidson diagonalization with overlap
     ethr =  2.09E-06,  avg # of iterations =  3.1

     negative rho (up, down):  2.297E-03 2.291E-03

     total cpu time spent up to now is    41272.0 secs

     total energy              =   -5332.06517011 Ry
     estimated scf accuracy    <       0.00450838 Ry

     total magnetization       =    14.43 Bohr mag/cell
     absolute magnetization    =    16.29 Bohr mag/cell

     iteration # 27     ecut=    60.00 Ry     beta= 0.20
     Davidson diagonalization with overlap
     ethr =  1.87E-06,  avg # of iterations =  4.8

     negative rho (up, down):  1.307E-03 1.294E-03

     total cpu time spent up to now is    43383.9 secs

     total energy              =   -5332.06530302 Ry
     estimated scf accuracy    <       0.00345621 Ry

     total magnetization       =    14.46 Bohr mag/cell
     absolute magnetization    =    16.26 Bohr mag/cell

     iteration # 28     ecut=    60.00 Ry     beta= 0.20
     Davidson diagonalization with overlap
     ethr =  1.43E-06,  avg # of iterations =  1.8

     negative rho (up, down):  7.385E-04 7.244E-04

     total cpu time spent up to now is    45103.2 secs

     total energy              =   -5332.06535245 Ry
     estimated scf accuracy    <       0.00210016 Ry

     total magnetization       =    14.46 Bohr mag/cell
     absolute magnetization    =    16.24 Bohr mag/cell

     iteration # 29     ecut=    60.00 Ry     beta= 0.20
     Davidson diagonalization with overlap
     ethr =  8.71E-07,  avg # of iterations =  1.7

     negative rho (up, down):  3.795E-04 3.627E-04

     total cpu time spent up to now is    46634.0 secs

     total energy              =   -5332.06547445 Ry
     estimated scf accuracy    <       0.00136907 Ry

     total magnetization       =    14.45 Bohr mag/cell
     absolute magnetization    =    16.23 Bohr mag/cell

     iteration # 30     ecut=    60.00 Ry     beta= 0.20
     Davidson diagonalization with overlap
     ethr =  5.68E-07,  avg # of iterations =  2.2

     negative rho (up, down):  3.469E-04 3.121E-04

     total cpu time spent up to now is    48259.7 secs

     total energy              =   -5332.06544183 Ry
     estimated scf accuracy    <       0.00056402 Ry

     total magnetization       =    14.45 Bohr mag/cell
     absolute magnetization    =    16.27 Bohr mag/cell

     iteration # 31     ecut=    60.00 Ry     beta= 0.20
     Davidson diagonalization with overlap
     ethr =  2.34E-07,  avg # of iterations =  2.7

     negative rho (up, down):  7.312E-04 6.829E-04

     total cpu time spent up to now is    49906.6 secs

     total energy              =   -5332.06539832 Ry
     estimated scf accuracy    <       0.00032648 Ry

     total magnetization       =    14.45 Bohr mag/cell
     absolute magnetization    =    16.31 Bohr mag/cell

     iteration # 32     ecut=    60.00 Ry     beta= 0.20
     Davidson diagonalization with overlap
     ethr =  1.35E-07,  avg # of iterations =  2.7

     negative rho (up, down):  3.278E-04 2.771E-04

     total cpu time spent up to now is    51519.1 secs

     total energy              =   -5332.06538515 Ry
     estimated scf accuracy    <       0.00013676 Ry

     total magnetization       =    14.47 Bohr mag/cell
     absolute magnetization    =    16.34 Bohr mag/cell

     iteration # 33     ecut=    60.00 Ry     beta= 0.20
     Davidson diagonalization with overlap
     ethr =  5.67E-08,  avg # of iterations =  3.1

     negative rho (up, down):  1.062E-04 6.875E-05

     total cpu time spent up to now is    53251.0 secs

     total energy              =   -5332.06540080 Ry
     estimated scf accuracy    <       0.00009085 Ry

     total magnetization       =    14.48 Bohr mag/cell
     absolute magnetization    =    16.34 Bohr mag/cell

     iteration # 34     ecut=    60.00 Ry     beta= 0.20
     Davidson diagonalization with overlap
     ethr =  3.77E-08,  avg # of iterations =  1.5

     negative rho (up, down):  1.294E-04 9.804E-05

     total cpu time spent up to now is    54788.1 secs

     total energy              =   -5332.06542779 Ry
     estimated scf accuracy    <       0.00008898 Ry

     total magnetization       =    14.49 Bohr mag/cell
     absolute magnetization    =    16.35 Bohr mag/cell

     iteration # 35     ecut=    60.00 Ry     beta= 0.20
     Davidson diagonalization with overlap
     ethr =  3.69E-08,  avg # of iterations =  1.8

     negative rho (up, down):  1.716E-04 1.381E-04

     total cpu time spent up to now is    56404.8 secs

     total energy              =   -5332.06543301 Ry
     estimated scf accuracy    <       0.00009050 Ry

     total magnetization       =    14.50 Bohr mag/cell
     absolute magnetization    =    16.36 Bohr mag/cell

     iteration # 36     ecut=    60.00 Ry     beta= 0.20
     Davidson diagonalization with overlap
     ethr =  3.69E-08,  avg # of iterations =  1.0

     negative rho (up, down):  2.431E-04 2.106E-04

     total cpu time spent up to now is    57880.1 secs

     total energy              =   -5332.06543011 Ry
     estimated scf accuracy    <       0.00008038 Ry

     total magnetization       =    14.50 Bohr mag/cell
     absolute magnetization    =    16.36 Bohr mag/cell

     iteration # 37     ecut=    60.00 Ry     beta= 0.20
     Davidson diagonalization with overlap
     ethr =  3.34E-08,  avg # of iterations =  1.2

     negative rho (up, down):  2.843E-04 2.535E-04

     total cpu time spent up to now is    59367.8 secs

     total energy              =   -5332.06543084 Ry
     estimated scf accuracy    <       0.00006668 Ry

     total magnetization       =    14.50 Bohr mag/cell
     absolute magnetization    =    16.36 Bohr mag/cell

     iteration # 38     ecut=    60.00 Ry     beta= 0.20
     Davidson diagonalization with overlap
     ethr =  2.77E-08,  avg # of iterations =  1.1

     negative rho (up, down):  3.501E-04 3.345E-04

     total cpu time spent up to now is    60877.1 secs

     total energy              =   -5332.06540773 Ry
     estimated scf accuracy    <       0.00006624 Ry

     total magnetization       =    14.50 Bohr mag/cell
     absolute magnetization    =    16.36 Bohr mag/cell

     iteration # 39     ecut=    60.00 Ry     beta= 0.20
     Davidson diagonalization with overlap
     ethr =  2.75E-08,  avg # of iterations =  2.0

     negative rho (up, down):  5.336E-04 5.128E-04

     total cpu time spent up to now is    62540.0 secs

     total energy              =   -5332.06542709 Ry
     estimated scf accuracy    <       0.00003585 Ry

     total magnetization       =    14.50 Bohr mag/cell
     absolute magnetization    =    16.36 Bohr mag/cell

     iteration # 40     ecut=    60.00 Ry     beta= 0.20
     Davidson diagonalization with overlap
     ethr =  1.49E-08,  avg # of iterations =  2.0

     negative rho (up, down):  2.152E-04 1.860E-04

     total cpu time spent up to now is    64235.8 secs

     total energy              =   -5332.06543174 Ry
     estimated scf accuracy    <       0.00001393 Ry

     total magnetization       =    14.50 Bohr mag/cell
     absolute magnetization    =    16.36 Bohr mag/cell

     iteration # 41     ecut=    60.00 Ry     beta= 0.20
     Davidson diagonalization with overlap
     ethr =  5.78E-09,  avg # of iterations =  1.2

     negative rho (up, down):  1.528E-04 1.233E-04

     total cpu time spent up to now is    65722.5 secs

     total energy              =   -5332.06543284 Ry
     estimated scf accuracy    <       0.00000512 Ry

     total magnetization       =    14.50 Bohr mag/cell
     absolute magnetization    =    16.36 Bohr mag/cell

     iteration # 42     ecut=    60.00 Ry     beta= 0.20
     Davidson diagonalization with overlap
     ethr =  2.13E-09,  avg # of iterations =  1.4

     negative rho (up, down):  1.577E-04 1.216E-04

     total cpu time spent up to now is    67225.2 secs

     total energy              =   -5332.06543667 Ry
     estimated scf accuracy    <       0.00000281 Ry

     total magnetization       =    14.50 Bohr mag/cell
     absolute magnetization    =    16.36 Bohr mag/cell

     iteration # 43     ecut=    60.00 Ry     beta= 0.20
     Davidson diagonalization with overlap
     ethr =  1.17E-09,  avg # of iterations =  2.2

     negative rho (up, down):  2.343E-04 1.906E-04

     total cpu time spent up to now is    69061.8 secs

     total energy              =   -5332.06543845 Ry
     estimated scf accuracy    <       0.00000185 Ry

     total magnetization       =    14.50 Bohr mag/cell
     absolute magnetization    =    16.36 Bohr mag/cell

     iteration # 44     ecut=    60.00 Ry     beta= 0.20
     Davidson diagonalization with overlap
     ethr =  7.68E-10,  avg # of iterations =  2.4

     negative rho (up, down):  2.223E-04 1.736E-04

     total cpu time spent up to now is    70874.4 secs

     total energy              =   -5332.06543876 Ry
     estimated scf accuracy    <       0.00000162 Ry

     total magnetization       =    14.50 Bohr mag/cell
     absolute magnetization    =    16.36 Bohr mag/cell

     iteration # 45     ecut=    60.00 Ry     beta= 0.20
     Davidson diagonalization with overlap
     ethr =  6.72E-10,  avg # of iterations =  1.8

     negative rho (up, down):  2.143E-04 1.636E-04

     total cpu time spent up to now is    72413.6 secs

     total energy              =   -5332.06543880 Ry
     estimated scf accuracy    <       0.00000065 Ry

     total magnetization       =    14.50 Bohr mag/cell
     absolute magnetization    =    16.36 Bohr mag/cell

     iteration # 46     ecut=    60.00 Ry     beta= 0.20
     Davidson diagonalization with overlap
     ethr =  2.69E-10,  avg # of iterations =  2.4

     negative rho (up, down):  2.282E-04 1.770E-04

     total cpu time spent up to now is    74158.5 secs

     total energy              =   -5332.06543891 Ry
     estimated scf accuracy    <       0.00000026 Ry

     total magnetization       =    14.50 Bohr mag/cell
     absolute magnetization    =    16.36 Bohr mag/cell

     iteration # 47     ecut=    60.00 Ry     beta= 0.20
     Davidson diagonalization with overlap
     ethr =  1.10E-10,  avg # of iterations =  3.7

     negative rho (up, down):  2.414E-04 1.902E-04

     total cpu time spent up to now is    76066.3 secs

     total energy              =   -5332.06543901 Ry
     estimated scf accuracy    <       0.00000014 Ry

     total magnetization       =    14.50 Bohr mag/cell
     absolute magnetization    =    16.36 Bohr mag/cell

     iteration # 48     ecut=    60.00 Ry     beta= 0.20
     Davidson diagonalization with overlap
     ethr =  5.81E-11,  avg # of iterations =  2.5

     negative rho (up, down):  2.409E-04 1.893E-04

     total cpu time spent up to now is    77756.1 secs

     total energy              =   -5332.06543905 Ry
     estimated scf accuracy    <       0.00000007 Ry

     total magnetization       =    14.50 Bohr mag/cell
     absolute magnetization    =    16.36 Bohr mag/cell

     iteration # 49     ecut=    60.00 Ry     beta= 0.20
     Davidson diagonalization with overlap
     ethr =  2.97E-11,  avg # of iterations =  2.7

     negative rho (up, down):  2.468E-04 1.951E-04

     total cpu time spent up to now is    79396.2 secs

     total energy              =   -5332.06543910 Ry
     estimated scf accuracy    <       0.00000004 Ry

     total magnetization       =    14.50 Bohr mag/cell
     absolute magnetization    =    16.36 Bohr mag/cell

     iteration # 50     ecut=    60.00 Ry     beta= 0.20
     Davidson diagonalization with overlap
     ethr =  1.47E-11,  avg # of iterations =  2.9

     negative rho (up, down):  2.489E-04 1.971E-04

     total cpu time spent up to now is    81184.0 secs

     total energy              =   -5332.06543910 Ry
     estimated scf accuracy    <       0.00000002 Ry

     total magnetization       =    14.50 Bohr mag/cell
     absolute magnetization    =    16.36 Bohr mag/cell

     iteration # 51     ecut=    60.00 Ry     beta= 0.20
     Davidson diagonalization with overlap
     ethr =  8.30E-12,  avg # of iterations =  2.3

     negative rho (up, down):  2.516E-04 1.999E-04

     total cpu time spent up to now is    82919.2 secs

     total energy              =   -5332.06543911 Ry
     estimated scf accuracy    <          8.4E-09 Ry

     total magnetization       =    14.50 Bohr mag/cell
     absolute magnetization    =    16.36 Bohr mag/cell

     iteration # 52     ecut=    60.00 Ry     beta= 0.20
     Davidson diagonalization with overlap
     ethr =  3.49E-12,  avg # of iterations =  2.8

     negative rho (up, down):  2.519E-04 2.002E-04

     total cpu time spent up to now is    84469.6 secs

     total energy              =   -5332.06543911 Ry
     estimated scf accuracy    <       0.00000001 Ry

     total magnetization       =    14.50 Bohr mag/cell
     absolute magnetization    =    16.36 Bohr mag/cell

     iteration # 53     ecut=    60.00 Ry     beta= 0.20
     Davidson diagonalization with overlap
     ethr =  3.49E-12,  avg # of iterations =  1.1

     negative rho (up, down):  2.501E-04 1.985E-04

     total cpu time spent up to now is    85975.6 secs

     total energy              =   -5332.06543910 Ry
     estimated scf accuracy    <          6.9E-09 Ry

     total magnetization       =    14.50 Bohr mag/cell
     absolute magnetization    =    16.36 Bohr mag/cell

     iteration # 54     ecut=    60.00 Ry     beta= 0.20
     Davidson diagonalization with overlap
     ethr =  2.86E-12,  avg # of iterations =  1.6

     negative rho (up, down):  2.490E-04 1.974E-04

     total cpu time spent up to now is    87459.5 secs

     total energy              =   -5332.06543910 Ry
     estimated scf accuracy    <          5.7E-09 Ry

     total magnetization       =    14.50 Bohr mag/cell
     absolute magnetization    =    16.36 Bohr mag/cell

     iteration # 55     ecut=    60.00 Ry     beta= 0.20
     Davidson diagonalization with overlap
     ethr =  2.36E-12,  avg # of iterations =  1.0

     negative rho (up, down):  2.469E-04 1.953E-04

     total cpu time spent up to now is    88964.9 secs

     total energy              =   -5332.06543909 Ry
     estimated scf accuracy    <          6.4E-09 Ry

     total magnetization       =    14.50 Bohr mag/cell
     absolute magnetization    =    16.36 Bohr mag/cell

     iteration # 56     ecut=    60.00 Ry     beta= 0.20
     Davidson diagonalization with overlap
     ethr =  2.36E-12,  avg # of iterations =  1.1

     negative rho (up, down):  2.446E-04 1.931E-04

     total cpu time spent up to now is    90449.3 secs

     total energy              =   -5332.06543909 Ry
     estimated scf accuracy    <          6.2E-09 Ry

     total magnetization       =    14.50 Bohr mag/cell
     absolute magnetization    =    16.36 Bohr mag/cell

     iteration # 57     ecut=    60.00 Ry     beta= 0.20
     Davidson diagonalization with overlap
     ethr =  2.36E-12,  avg # of iterations =  1.1

     negative rho (up, down):  2.430E-04 1.915E-04

     total cpu time spent up to now is    91910.3 secs

     total energy              =   -5332.06543908 Ry
     estimated scf accuracy    <          2.6E-09 Ry

     total magnetization       =    14.50 Bohr mag/cell
     absolute magnetization    =    16.36 Bohr mag/cell

     iteration # 58     ecut=    60.00 Ry     beta= 0.20
     Davidson diagonalization with overlap
     ethr =  1.06E-12,  avg # of iterations =  1.4

     negative rho (up, down):  2.425E-04 1.909E-04

     total cpu time spent up to now is    93368.5 secs

     total energy              =   -5332.06543908 Ry
     estimated scf accuracy    <          1.4E-09 Ry

     total magnetization       =    14.50 Bohr mag/cell
     absolute magnetization    =    16.36 Bohr mag/cell

     iteration # 59     ecut=    60.00 Ry     beta= 0.20
     Davidson diagonalization with overlap
     ethr =  6.02E-13,  avg # of iterations =  2.0

     negative rho (up, down):  2.424E-04 1.908E-04

     total cpu time spent up to now is    94983.6 secs

     total energy              =   -5332.06543907 Ry
     estimated scf accuracy    <          6.6E-10 Ry

     total magnetization       =    14.50 Bohr mag/cell
     absolute magnetization    =    16.36 Bohr mag/cell

     iteration # 60     ecut=    60.00 Ry     beta= 0.20
     Davidson diagonalization with overlap
     ethr =  2.73E-13,  avg # of iterations =  2.1

     negative rho (up, down):  2.420E-04 1.905E-04

     total cpu time spent up to now is    96753.7 secs

     total energy              =   -5332.06543907 Ry
     estimated scf accuracy    <          4.3E-10 Ry

     total magnetization       =    14.50 Bohr mag/cell
     absolute magnetization    =    16.36 Bohr mag/cell

     iteration # 61     ecut=    60.00 Ry     beta= 0.20
     Davidson diagonalization with overlap
     ethr =  1.79E-13,  avg # of iterations =  1.3

     negative rho (up, down):  2.418E-04 1.902E-04

     total cpu time spent up to now is    98269.2 secs

     total energy              =   -5332.06543907 Ry
     estimated scf accuracy    <          5.3E-10 Ry

     total magnetization       =    14.50 Bohr mag/cell
     absolute magnetization    =    16.36 Bohr mag/cell

     iteration # 62     ecut=    60.00 Ry     beta= 0.20
     Davidson diagonalization with overlap
     ethr =  1.79E-13,  avg # of iterations =  1.3

     negative rho (up, down):  2.417E-04 1.901E-04

     total cpu time spent up to now is    99765.1 secs

     total energy              =   -5332.06543907 Ry
     estimated scf accuracy    <          1.5E-10 Ry

     total magnetization       =    14.50 Bohr mag/cell
     absolute magnetization    =    16.36 Bohr mag/cell

     iteration # 63     ecut=    60.00 Ry     beta= 0.20
     Davidson diagonalization with overlap
     ethr =  1.00E-13,  avg # of iterations =  1.4

     negative rho (up, down):  2.420E-04 1.904E-04
 
     Magnetic moment per site  (integrated on atomic sphere of radius R)
     atom   1 (R=0.201)  charge=  8.5594  magn=  0.7882
     atom   2 (R=0.201)  charge=  8.5594  magn=  0.7882
     atom   3 (R=0.129)  charge=  4.5368  magn=  0.1911
     atom   4 (R=0.201)  charge=  8.5594  magn=  0.7882
     atom   5 (R=0.201)  charge=  8.6339  magn=  0.7860
     atom   6 (R=0.201)  charge=  8.6339  magn=  0.7860
     atom   7 (R=0.129)  charge=  4.5286  magn=  0.2336
     atom   8 (R=0.201)  charge=  8.6339  magn=  0.7860
     atom   9 (R=0.201)  charge=  8.6408  magn=  0.7435
     atom  10 (R=0.201)  charge=  8.6408  magn=  0.7435
     atom  11 (R=0.129)  charge=  4.5257  magn=  0.2223
     atom  12 (R=0.201)  charge=  8.6408  magn=  0.7435
     atom  13 (R=0.201)  charge=  8.6410  magn=  0.7280
     atom  14 (R=0.201)  charge=  8.6410  magn=  0.7280
     atom  15 (R=0.129)  charge=  4.5299  magn=  0.2188
     atom  16 (R=0.201)  charge=  8.6410  magn=  0.7280
     atom  17 (R=0.201)  charge=  8.6342  magn=  0.7179
     atom  18 (R=0.201)  charge=  8.6342  magn=  0.7180
     atom  19 (R=0.129)  charge=  4.5272  magn=  0.2275
     atom  20 (R=0.201)  charge=  8.6342  magn=  0.7180
     atom  21 (R=0.201)  charge=  8.5623  magn=  0.7664
     atom  22 (R=0.201)  charge=  8.5623  magn=  0.7664
     atom  23 (R=0.129)  charge=  4.5106  magn=  0.1093
     atom  24 (R=0.201)  charge=  8.5623  magn=  0.7664
     atom  25 (R=0.129)  charge=  0.7242  magn= -0.0073

     total cpu time spent up to now is   101261.8 secs

     End of self-consistent calculation

     Number of k-points >= 100: set verbosity='high' to print the bands.

     the Fermi energy is    -5.1647 ev

!    total energy              =   -5332.06543907 Ry
     total all-electron energy =   -115303.811580 Ry
     estimated scf accuracy    <          6.0E-11 Ry
     smearing contrib. (-TS)   =      -0.00223404 Ry
     internal energy E=F+TS    =   -5332.06320503 Ry

     The total energy is F=E-TS. E is the sum of the following terms:
     one-electron contribution =  -69932.84813784 Ry
     hartree contribution      =   35160.22702831 Ry
     xc contribution           =    -947.16075896 Ry
     ewald contribution        =   33461.31332044 Ry
     DFT-D3 Dispersion         =      -2.02387194 Ry
     one-center paw contrib.   =   -3071.57078504 Ry

     total magnetization       =    14.50 Bohr mag/cell
     absolute magnetization    =    16.36 Bohr mag/cell

     convergence has been achieved in  63 iterations

     negative rho (up, down):  2.420E-04 1.904E-04

     Forces acting on atoms (cartesian axes, Ry/au):

     atom    1 type  1   force =    -0.00000543    0.01361872    0.00385893
     atom    2 type  1   force =     0.01180254   -0.00680068    0.00384738
     atom    3 type  2   force =    -0.00000998    0.00000621   -0.01858586
     atom    4 type  1   force =    -0.01178720   -0.00682414    0.00383727
     atom    5 type  1   force =    -0.00000643    0.00095666    0.00023044
     atom    6 type  1   force =     0.00084025   -0.00046714    0.00021508
     atom    7 type  2   force =    -0.00001281    0.00000613    0.00392717
     atom    8 type  1   force =    -0.00082180   -0.00049681    0.00020062
     atom    9 type  1   force =     0.00000038    0.00040980    0.00031502
     atom   10 type  1   force =     0.00035493   -0.00020477    0.00031485
     atom   11 type  2   force =    -0.00000051    0.00000015   -0.00001216
     atom   12 type  1   force =    -0.00035452   -0.00020501    0.00031518
     atom   13 type  1   force =    -0.00000058    0.00017383    0.00004263
     atom   14 type  1   force =     0.00015065   -0.00008713    0.00004276
     atom   15 type  2   force =     0.00000030    0.00000004   -0.00047740
     atom   16 type  1   force =    -0.00015036   -0.00008638    0.00004220
     atom   17 type  1   force =     0.00000008   -0.00000845    0.00035606
     atom   18 type  1   force =    -0.00000756    0.00000435    0.00035598
     atom   19 type  2   force =     0.00000024    0.00000023    0.00047522
     atom   20 type  1   force =     0.00000759    0.00000423    0.00035616
     atom   21 type  1   force =     0.00000014    0.00021764    0.00016555
     atom   22 type  1   force =     0.00018849   -0.00010869    0.00016524
     atom   23 type  2   force =     0.00000005    0.00000007    0.00022937
     atom   24 type  1   force =    -0.00018845   -0.00010887    0.00016557
     atom   25 type  3   force =    -0.00000001    0.00000001   -0.00038322

     Total force =     0.001468     Total SCF correction =     0.000027


     Computing stress (Cartesian axis) and pressure


     negative rho (up, down):  2.420E-04 1.904E-04
          total   stress  (Ry/bohr**3)                   (kbar)     P=       -5.14
  -0.00005806   0.00000000   0.00000000           -8.54        0.00        0.00
   0.00000000  -0.00005806   0.00000000            0.00       -8.54        0.00
   0.00000000   0.00000000   0.00001133            0.00        0.00        1.67


     Writing all to output data dir /tmpu/isholek_g/isholek/MIGUEL/QE/Hydrogen/111_2x2/SAVE/Ni3Pd1_111-T2.save/ :
     XML data file, charge density, pseudopotentials, collected wavefunctions
 
     init_run     :    912.52s CPU    927.84s WALL (       1 calls)
     electrons    :  98169.24s CPU 100303.38s WALL (       1 calls)
     forces       :     71.04s CPU     72.08s WALL (       1 calls)
     force_dftd3  :      1.52s CPU      1.58s WALL (       1 calls)
     stress       :    664.39s CPU    676.37s WALL (       1 calls)
     stres_dftd3  :      1.88s CPU      1.88s WALL (       1 calls)

     Called by init_run:
     wfcinit      :    669.77s CPU    681.10s WALL (       1 calls)
     potinit      :      2.67s CPU      2.83s WALL (       1 calls)
     hinit0       :      0.67s CPU      1.44s WALL (       1 calls)

     Called by electrons:
     c_bands      :  80882.75s CPU  82683.32s WALL (      63 calls)
     sum_band     :  16053.17s CPU  16360.11s WALL (      63 calls)
     v_of_rho     :     58.58s CPU     60.84s WALL (      64 calls)
     newd         :     17.40s CPU     17.66s WALL (      64 calls)
     PAW_pot      :     87.45s CPU     89.12s WALL (      64 calls)
     mix_rho      :   1045.72s CPU   1066.29s WALL (      63 calls)
     energy_dftd3 :      0.41s CPU      0.41s WALL (       1 calls)

     Called by c_bands:
     init_us_2    :     58.82s CPU     60.36s WALL (    8256 calls)
     init_us_2:cp :     58.68s CPU     60.24s WALL (    8256 calls)
     cegterg      :  60464.40s CPU  61607.88s WALL (    4032 calls)

     Called by *egterg:
     cdiaghg      :   1531.06s CPU   1567.24s WALL (   12411 calls)
     h_psi        :  53094.94s CPU  54089.11s WALL (   12475 calls)
     s_psi        :    510.08s CPU    523.69s WALL (   12475 calls)
     g_psi        :     16.39s CPU     17.06s WALL (    8379 calls)

     Called by h_psi:
     h_psi:calbec :   1901.17s CPU   1938.09s WALL (   12475 calls)
     vloc_psi     :  50662.21s CPU  51601.42s WALL (   12475 calls)
     add_vuspsi   :    519.52s CPU    534.38s WALL (   12475 calls)

     General routines
     calbec       :   3064.88s CPU   3121.74s WALL (   16827 calls)
     fft          :     50.51s CPU     52.65s WALL (    1638 calls)
     ffts         :    149.13s CPU    152.79s WALL (    7880 calls)
     fftw         :  61883.98s CPU  63031.34s WALL ( 3016586 calls)
     interpolate  :      5.97s CPU      6.10s WALL (     128 calls)
 
     Parallel routines
 
     PWSCF        :   1d 4h53m CPU   1d 5h31m WALL

 
   This run was terminated on:  20:44:48  14May2026            

=------------------------------------------------------------------------------=
   JOB DONE.
=------------------------------------------------------------------------------=
