
     Program PWSCF v.7.3 starts on 20Mar2026 at 12: 5:55 

     This program is part of the open-source Quantum ESPRESSO suite
     for quantum simulation of materials; please cite
         "P. Giannozzi et al., J. Phys.:Condens. Matter 21 395502 (2009);
         "P. Giannozzi et al., J. Phys.:Condens. Matter 29 465901 (2017);
         "P. Giannozzi et al., J. Chem. Phys. 152 154105 (2020);
          URL http://www.quantum-espresso.org", 
     in publications or presentations arising from this work. More details at
     http://www.quantum-espresso.org/quote

     Parallel version (MPI), running on    64 processors

     MPI processes distributed on     4 nodes
     46743 MiB available memory on the printing compute node when the environment starts
 
     Reading input from /tmpu/isholek_g/isholek/MIGUEL/QE/Hydrogen/111_2x2/SCF/Ni3Pd1_111-H_hcp_1-SCF.in

     Current dimensions of program PWSCF are:
     Max number of different atomic species (ntypx) = 10
     Max number of k-points (npk) =  40000
     Max angular momentum in pseudopotentials (lmaxx) =  4
     file Ni.upf: wavefunction(s)  4S 3D renormalized
     file Pd.upf: wavefunction(s)  5S 4D renormalized
     file H.upf: wavefunction(s)  1S renormalized

     IMPORTANT: XC functional enforced from input :
     Exchange-correlation= PBE
                           (   1   4   3   4   0   0   0)
     Any further DFT definition will be discarded
     Please, verify this is what you really want

 
     K-points division:     npool     =       8
     R & G space division:  proc/nbgrp/npool/nimage =       8
     Subspace diagonalization in iterative solution of the eigenvalue problem:
     one sub-group per band group will be used
     scalapack distributed-memory algorithm (size of sub-group:  2*  2 procs)

 
     Parallelization info
     --------------------
     sticks:   dense  smooth     PW     G-vecs:    dense   smooth      PW
     Min         375     188     54               106317    37608    5906
     Max         376     189     55               106344    37623    5933
     Sum        3001    1507    433               850625   300931   47347
 
     Using Slab Decomposition
 

     Title: 
     Ni3Pd1_111-H_hcp_1-SCF                                                     


     bravais-lattice index     =            0
     lattice parameter (alat)  =       9.5206  a.u.
     unit-cell volume          =    4789.0025 (a.u.)^3
     number of atoms/cell      =           25
     number of atomic types    =            3
     number of electrons       =       241.00
     number of Kohn-Sham states=          145
     kinetic-energy cutoff     =      60.0000  Ry
     charge density cutoff     =     480.0000  Ry
     scf convergence threshold =      1.0E-10
     mixing beta               =       0.2000
     number of iterations used =           12  local-TF  mixing
     Exchange-correlation= PBE
                           (   1   4   3   4   0   0   0)

     celldm(1)=   9.520593  celldm(2)=   0.000000  celldm(3)=   0.000000
     celldm(4)=   0.000000  celldm(5)=   0.000000  celldm(6)=   0.000000

     crystal axes: (cart. coord. in units of alat)
               a(1) = (   1.000000   0.000000   0.000000 )  
               a(2) = (   0.500000   0.866025   0.000000 )  
               a(3) = (   0.000000   0.000000   6.408000 )  

     reciprocal axes: (cart. coord. in units 2 pi/alat)
               b(1) = (  1.000000 -0.577350  0.000000 )  
               b(2) = (  0.000000  1.154701  0.000000 )  
               b(3) = (  0.000000  0.000000  0.156055 )  


     PseudoPot. # 1 for Ni read from file:
     /tmpu/isholek_g/isholek/MIGUEL/PP/PAW/Ni.upf
     MD5 check sum: d88365a95a5e142bd87181c2c8b16588
     Pseudo is Projector augmented-wave + core cor, Zval = 10.0
     Generated using "atomic" code by A. Dal Corso  v.5.0.2 svn rev. 9415
     Shape of augmentation charge: PSQ
     Using radial grid of 1195 points,  6 beta functions with: 
                l(1) =   0
                l(2) =   0
                l(3) =   1
                l(4) =   1
                l(5) =   2
                l(6) =   2
     Q(r) pseudized with 0 coefficients 


     PseudoPot. # 2 for Pd read from file:
     /tmpu/isholek_g/isholek/MIGUEL/PP/PAW/Pd.upf
     MD5 check sum: e9d6f14fd83b79f8105499163af174c9
     Pseudo is Projector augmented-wave + core cor, Zval = 10.0
     Generated using "atomic" code by A. Dal Corso  v.5.0.2 svn rev. 9415
     Shape of augmentation charge: PSQ
     Using radial grid of 1235 points,  6 beta functions with: 
                l(1) =   0
                l(2) =   0
                l(3) =   1
                l(4) =   1
                l(5) =   2
                l(6) =   2
     Q(r) pseudized with 0 coefficients 


     PseudoPot. # 3 for H  read from file:
     /tmpu/isholek_g/isholek/MIGUEL/PP/PAW/H.upf
     MD5 check sum: 4cbe42a24e15140179a93d5bf84f2220
     Pseudo is Projector augmented-wave, Zval =  1.0
     Generated using "atomic" code by A. Dal Corso  v.5.0.2 svn rev. 9415
     Shape of augmentation charge: PSQ
     Using radial grid of  929 points,  2 beta functions with: 
                l(1) =   0
                l(2) =   0
     Q(r) pseudized with 0 coefficients 


     atomic species   valence    mass     pseudopotential
     Ni               10.00    58.69340     Ni( 1.00)
     Pd               10.00   106.42000     Pd( 1.00)
     H                 1.00     1.00794     H ( 1.00)

     Starting magnetic structure 
     atomic species   magnetization
     Ni              0.650
     Pd              0.100
     H               0.000

     No symmetry found



   Cartesian axes

     site n.     atom                  positions (alat units)
         1        Ni     tau(   1) = (   1.0000055   0.5773497   2.1833712  )
         2        Ni     tau(   2) = (   0.2499946   0.1443334   2.1833775  )
         3        Pd     tau(   3) = (   0.5000045   0.5773498   2.1833823  )
         4        Ni     tau(   4) = (   0.7499961   0.1443432   2.1833870  )
         5        Ni     tau(   5) = (   0.5000055   0.2886746   2.5916194  )
         6        Ni     tau(   6) = (   1.2499946   0.7216837   2.5916258  )
         7        Pd     tau(   7) = (   1.0000045   0.2886747   2.5916306  )
         8        Ni     tau(   8) = (   0.7499961   0.7216934   2.5916353  )
         9        Ni     tau(   9) = (   0.4999999   0.8658212   2.9993433  )
        10        Ni     tau(  10) = (   0.7494674   0.4333408   2.9997267  )
        11        Pd     tau(  11) = (   1.0000015   0.8662558   2.9983417  )
        12        Ni     tau(  12) = (   1.2505370   0.4333406   2.9997265  )
        13        Ni     tau(  13) = (   1.0000009   0.5783335   3.4062416  )
        14        Ni     tau(  14) = (   0.2505998   0.1446510   3.4068099  )
        15        Pd     tau(  15) = (   0.5000010   0.5778139   3.4100878  )
        16        Ni     tau(  16) = (   0.7494020   0.1446507   3.4068101  )
        17        Ni     tau(  17) = (   0.5000005   0.2885627   3.8186871  )
        18        Ni     tau(  18) = (   1.2464057   0.7258493   3.8154733  )
        19        Pd     tau(  19) = (   1.0000006   0.2906074   3.8114543  )
        20        Ni     tau(  20) = (   0.7535956   0.7258492   3.8154734  )
        21        Ni     tau(  21) = (   0.5000005   0.8623986   4.2154034  )
        22        Ni     tau(  22) = (   0.7439812   0.4392441   4.2194975  )
        23        Pd     tau(  23) = (   1.0000005   0.8738014   4.2431028  )
        24        Ni     tau(  24) = (   1.2560198   0.4392440   4.2194975  )
        25        H      tau(  25) = (   1.0000005   0.5469502   4.4110255  )

     --------------------------------------------
     DFT-D3 Dispersion Correction (3-body terms):
     --------------------------------------------
       Reference C6 values for interpolation: 

         atom   Coordination number   C6
         H          0.912             6.05
         H          0.000            15.18
         Ni         0.000          1149.49
         Ni         1.794           356.66
         Ni         6.546           257.56
         Ni         6.292           283.75
         Pd         0.000          1217.01
         Pd         1.863           573.90
         Pd         5.710           531.75

       Values used:

         atom   Coordination number  R0_AB[au]  C6      C8
         Ni         6.658            3.162    267.12  22382.81
         Ni         6.659            3.162    267.12  22382.64
         Pd         7.597            3.168    531.75  48720.73
         Ni         6.659            3.162    267.12  22382.44
         Ni         8.921            3.162    257.71  21594.62
         Ni         8.921            3.162    257.71  21594.61
         Pd        10.218            3.168    531.75  48720.73
         Ni         8.921            3.162    257.71  21594.61
         Ni         8.923            3.162    257.71  21594.57
         Ni         8.929            3.162    257.71  21594.42
         Pd        10.252            3.168    531.75  48720.73
         Ni         8.929            3.162    257.71  21594.42
         Ni         8.951            3.162    257.71  21593.88
         Ni         8.934            3.162    257.71  21594.30
         Pd        10.203            3.168    531.75  48720.73
         Ni         8.934            3.162    257.71  21594.30
         Ni         8.918            3.162    257.72  21594.68
         Ni         8.911            3.162    257.72  21594.88
         Pd        10.194            3.168    531.75  48720.73
         Ni         8.911            3.162    257.72  21594.88
         Ni         6.745            3.162    266.08  22295.54
         Ni         7.307            3.162    261.05  21874.45
         Pd         7.846            3.168    531.75  48720.73
         Ni         7.307            3.162    261.05  21874.45
         H          1.759            2.062      6.05     73.18

         Molecular C6 ( Ry / a.u.^6 ) =    185771.75


     number of k points=   256  Marzari-Vanderbilt smearing, width (Ry)=  0.0147

     Number of k-points >= 100: set verbosity='high' to print them.

     Dense  grid:   850625 G-vectors     FFT dimensions: (  72,  72, 432)

     Smooth grid:   300931 G-vectors     FFT dimensions: (  48,  48, 320)

     Estimated max dynamical RAM per process >     914.80 MB

     Estimated total dynamical RAM >      52.92 GB
 ----2D----2D----2D----2D----2D----2D----2D----2D----2D----2D----2D----2D
  The code is running with the 2D cutoff
  Please refer to:
  Sohier, T., Calandra, M., & Mauri, F. (2017), 
  Density functional perturbation theory for gated two-dimensional heterostructu
 res:
  Theoretical developments and application to flexural phonons in graphene.
  Physical Review B, 96(7), 75448. https://doi.org/10.1103/PhysRevB.96.075448
 ----2D----2D----2D----2D----2D----2D----2D----2D----2D----2D----2D----2D

     Check: negative core charge=   -0.000001
     Generating pointlists ...
     new r_m :   0.1392 (alat units)  1.3250 (a.u.) for type    1
     new r_m :   0.1516 (alat units)  1.4431 (a.u.) for type    2
     new r_m :   0.1392 (alat units)  1.3250 (a.u.) for type    3

     Initial potential from superposition of free atoms

     starting charge     240.9923, renormalised to     241.0000

     negative rho (up, down):  3.172E-04 6.773E-05
     Starting wfcs are  217 randomized atomic wfcs
     Checking if some PAW data can be deallocated... 

     total cpu time spent up to now is      814.7 secs

     Self-consistent Calculation

     iteration #  1     ecut=    60.00 Ry     beta= 0.20
     Davidson diagonalization with overlap
     ethr =  1.00E-02,  avg # of iterations =  2.0

     negative rho (up, down):  6.559E-05 2.268E-06

     total cpu time spent up to now is     2501.2 secs

     total energy              =   -5327.30111899 Ry
     estimated scf accuracy    <      35.54323703 Ry

     total magnetization       =    25.51 Bohr mag/cell
     absolute magnetization    =    25.53 Bohr mag/cell

     iteration #  2     ecut=    60.00 Ry     beta= 0.20
     Davidson diagonalization with overlap
     ethr =  1.00E-02,  avg # of iterations =  1.0

     negative rho (up, down):  3.165E-06 2.045E-07

     total cpu time spent up to now is     3928.2 secs

     total energy              =   -5329.66981857 Ry
     estimated scf accuracy    <      10.24506157 Ry

     total magnetization       =    27.52 Bohr mag/cell
     absolute magnetization    =    27.53 Bohr mag/cell

     iteration #  3     ecut=    60.00 Ry     beta= 0.20
     Davidson diagonalization with overlap
     ethr =  4.25E-03,  avg # of iterations =  1.1

     negative rho (up, down):  1.173E-07 1.806E-07

     total cpu time spent up to now is     5348.9 secs

     total energy              =   -5330.96480179 Ry
     estimated scf accuracy    <       3.77976217 Ry

     total magnetization       =    24.93 Bohr mag/cell
     absolute magnetization    =    25.08 Bohr mag/cell

     iteration #  4     ecut=    60.00 Ry     beta= 0.20
     Davidson diagonalization with overlap
     ethr =  1.57E-03,  avg # of iterations =  1.1

     negative rho (up, down):  8.327E-09 2.786E-07

     total cpu time spent up to now is     6730.5 secs

     total energy              =   -5331.69817882 Ry
     estimated scf accuracy    <       3.30052978 Ry

     total magnetization       =    22.16 Bohr mag/cell
     absolute magnetization    =    22.85 Bohr mag/cell

     iteration #  5     ecut=    60.00 Ry     beta= 0.20
     Davidson diagonalization with overlap
     ethr =  1.37E-03,  avg # of iterations =  1.0

     negative rho (up, down):  1.733E-08 1.166E-06

     total cpu time spent up to now is     8121.7 secs

     total energy              =   -5332.03269185 Ry
     estimated scf accuracy    <       1.16661387 Ry

     total magnetization       =    19.01 Bohr mag/cell
     absolute magnetization    =    20.54 Bohr mag/cell

     iteration #  6     ecut=    60.00 Ry     beta= 0.20
     Davidson diagonalization with overlap
     ethr =  4.84E-04,  avg # of iterations =  1.3

     negative rho (up, down):  5.568E-08 1.458E-06

     total cpu time spent up to now is     9528.6 secs

     total energy              =   -5332.09256959 Ry
     estimated scf accuracy    <       0.56205033 Ry

     total magnetization       =    15.17 Bohr mag/cell
     absolute magnetization    =    17.42 Bohr mag/cell

     iteration #  7     ecut=    60.00 Ry     beta= 0.20
     Davidson diagonalization with overlap
     ethr =  2.33E-04,  avg # of iterations =  1.5

     negative rho (up, down):  9.047E-08 1.124E-06

     total cpu time spent up to now is    10966.4 secs

     total energy              =   -5332.11300539 Ry
     estimated scf accuracy    <       0.28008928 Ry

     total magnetization       =    13.99 Bohr mag/cell
     absolute magnetization    =    16.34 Bohr mag/cell

     iteration #  8     ecut=    60.00 Ry     beta= 0.20
     Davidson diagonalization with overlap
     ethr =  1.16E-04,  avg # of iterations =  1.2

     negative rho (up, down):  9.756E-08 6.828E-07

     total cpu time spent up to now is    12388.9 secs

     total energy              =   -5332.12244194 Ry
     estimated scf accuracy    <       0.16731383 Ry

     total magnetization       =    13.99 Bohr mag/cell
     absolute magnetization    =    16.30 Bohr mag/cell

     iteration #  9     ecut=    60.00 Ry     beta= 0.20
     Davidson diagonalization with overlap
     ethr =  6.94E-05,  avg # of iterations =  1.6

     negative rho (up, down):  7.075E-08 3.690E-07

     total cpu time spent up to now is    13866.1 secs

     total energy              =   -5332.12730312 Ry
     estimated scf accuracy    <       0.22974108 Ry

     total magnetization       =    14.16 Bohr mag/cell
     absolute magnetization    =    16.32 Bohr mag/cell

     iteration # 10     ecut=    60.00 Ry     beta= 0.20
     Davidson diagonalization with overlap
     ethr =  6.94E-05,  avg # of iterations =  1.1

     negative rho (up, down):  1.218E-07 3.088E-07

     total cpu time spent up to now is    15288.2 secs

     total energy              =   -5332.11919987 Ry
     estimated scf accuracy    <       0.19060557 Ry

     total magnetization       =    14.15 Bohr mag/cell
     absolute magnetization    =    16.18 Bohr mag/cell

     iteration # 11     ecut=    60.00 Ry     beta= 0.20
     Davidson diagonalization with overlap
     ethr =  6.94E-05,  avg # of iterations =  1.5

     negative rho (up, down):  1.395E-07 2.638E-07

     total cpu time spent up to now is    16749.4 secs

     total energy              =   -5332.11965495 Ry
     estimated scf accuracy    <       0.17580237 Ry

     total magnetization       =    14.12 Bohr mag/cell
     absolute magnetization    =    15.85 Bohr mag/cell

     iteration # 12     ecut=    60.00 Ry     beta= 0.20
     Davidson diagonalization with overlap
     ethr =  6.94E-05,  avg # of iterations =  1.0

     negative rho (up, down):  9.386E-08 1.542E-07

     total cpu time spent up to now is    18126.8 secs

     total energy              =   -5332.11680626 Ry
     estimated scf accuracy    <       0.13265606 Ry

     total magnetization       =    14.19 Bohr mag/cell
     absolute magnetization    =    15.79 Bohr mag/cell

     iteration # 13     ecut=    60.00 Ry     beta= 0.20
     Davidson diagonalization with overlap
     ethr =  5.50E-05,  avg # of iterations =  1.1

     negative rho (up, down):  2.812E-08 4.654E-08

     total cpu time spent up to now is    19515.4 secs

     total energy              =   -5332.11353458 Ry
     estimated scf accuracy    <       0.10113021 Ry

     total magnetization       =    14.34 Bohr mag/cell
     absolute magnetization    =    15.88 Bohr mag/cell

     iteration # 14     ecut=    60.00 Ry     beta= 0.20
     Davidson diagonalization with overlap
     ethr =  4.20E-05,  avg # of iterations =  1.1

     negative rho (up, down):  1.261E-08 2.162E-08

     total cpu time spent up to now is    20988.1 secs

     total energy              =   -5332.11450687 Ry
     estimated scf accuracy    <       0.06857673 Ry

     total magnetization       =    14.42 Bohr mag/cell
     absolute magnetization    =    15.98 Bohr mag/cell

     iteration # 15     ecut=    60.00 Ry     beta= 0.20
     Davidson diagonalization with overlap
     ethr =  2.85E-05,  avg # of iterations =  1.4

     negative rho (up, down):  9.864E-05 1.453E-05

     total cpu time spent up to now is    22549.1 secs

     total energy              =   -5332.11073492 Ry
     estimated scf accuracy    <       0.04226014 Ry

     total magnetization       =    14.33 Bohr mag/cell
     absolute magnetization    =    15.97 Bohr mag/cell

     iteration # 16     ecut=    60.00 Ry     beta= 0.20
     Davidson diagonalization with overlap
     ethr =  1.75E-05,  avg # of iterations =  1.6

     negative rho (up, down):  3.517E-03 3.009E-03

     total cpu time spent up to now is    24032.8 secs

     total energy              =   -5332.10835171 Ry
     estimated scf accuracy    <       0.01740405 Ry

     total magnetization       =    14.22 Bohr mag/cell
     absolute magnetization    =    16.01 Bohr mag/cell

     iteration # 17     ecut=    60.00 Ry     beta= 0.20
     Davidson diagonalization with overlap
     ethr =  7.22E-06,  avg # of iterations =  3.3

     negative rho (up, down):  2.149E-03 1.808E-03

     total cpu time spent up to now is    25820.5 secs

     total energy              =   -5332.10914930 Ry
     estimated scf accuracy    <       0.01146875 Ry

     total magnetization       =    14.31 Bohr mag/cell
     absolute magnetization    =    16.16 Bohr mag/cell

     iteration # 18     ecut=    60.00 Ry     beta= 0.20
     Davidson diagonalization with overlap
     ethr =  4.76E-06,  avg # of iterations =  2.2

     negative rho (up, down):  3.322E-04 2.311E-04

     total cpu time spent up to now is    27390.2 secs

     total energy              =   -5332.10992921 Ry
     estimated scf accuracy    <       0.01024411 Ry

     total magnetization       =    14.33 Bohr mag/cell
     absolute magnetization    =    16.18 Bohr mag/cell

     iteration # 19     ecut=    60.00 Ry     beta= 0.20
     Davidson diagonalization with overlap
     ethr =  4.25E-06,  avg # of iterations =  1.9

     total cpu time spent up to now is    28926.5 secs

     total energy              =   -5332.11070742 Ry
     estimated scf accuracy    <       0.01032707 Ry

     total magnetization       =    14.41 Bohr mag/cell
     absolute magnetization    =    16.26 Bohr mag/cell

     iteration # 20     ecut=    60.00 Ry     beta= 0.20
     Davidson diagonalization with overlap
     ethr =  4.25E-06,  avg # of iterations =  1.1

     total cpu time spent up to now is    30413.4 secs

     total energy              =   -5332.11044860 Ry
     estimated scf accuracy    <       0.00835128 Ry

     total magnetization       =    14.44 Bohr mag/cell
     absolute magnetization    =    16.29 Bohr mag/cell

     iteration # 21     ecut=    60.00 Ry     beta= 0.20
     Davidson diagonalization with overlap
     ethr =  3.47E-06,  avg # of iterations =  1.8

     total cpu time spent up to now is    31999.1 secs

     total energy              =   -5332.11005423 Ry
     estimated scf accuracy    <       0.00896610 Ry

     total magnetization       =    14.44 Bohr mag/cell
     absolute magnetization    =    16.27 Bohr mag/cell

     iteration # 22     ecut=    60.00 Ry     beta= 0.20
     Davidson diagonalization with overlap
     ethr =  3.47E-06,  avg # of iterations =  2.2

     negative rho (up, down):  2.273E-03 2.242E-03

     total cpu time spent up to now is    33617.8 secs

     total energy              =   -5332.10753920 Ry
     estimated scf accuracy    <       0.00654183 Ry

     total magnetization       =    14.32 Bohr mag/cell
     absolute magnetization    =    16.19 Bohr mag/cell

     iteration # 23     ecut=    60.00 Ry     beta= 0.20
     Davidson diagonalization with overlap
     c_bands:  1 eigenvalues not converged
     c_bands:  1 eigenvalues not converged
     ethr =  2.71E-06,  avg # of iterations =  5.1

     negative rho (up, down):  2.152E-03 2.142E-03

     total cpu time spent up to now is    35492.4 secs

     total energy              =   -5332.10702648 Ry
     estimated scf accuracy    <       0.01890554 Ry

     total magnetization       =    14.38 Bohr mag/cell
     absolute magnetization    =    16.26 Bohr mag/cell

     iteration # 24     ecut=    60.00 Ry     beta= 0.20
     Davidson diagonalization with overlap
     ethr =  2.71E-06,  avg # of iterations =  2.2

     negative rho (up, down):  1.816E-04 1.785E-04

     total cpu time spent up to now is    37070.0 secs

     total energy              =   -5332.10757340 Ry
     estimated scf accuracy    <       0.01386913 Ry

     total magnetization       =    14.40 Bohr mag/cell
     absolute magnetization    =    16.18 Bohr mag/cell

     iteration # 25     ecut=    60.00 Ry     beta= 0.20
     Davidson diagonalization with overlap
     ethr =  2.71E-06,  avg # of iterations =  1.4

     negative rho (up, down):  3.278E-03 3.279E-03

     total cpu time spent up to now is    38511.8 secs

     total energy              =   -5332.10708820 Ry
     estimated scf accuracy    <       0.00513105 Ry

     total magnetization       =    14.38 Bohr mag/cell
     absolute magnetization    =    16.14 Bohr mag/cell

     iteration # 26     ecut=    60.00 Ry     beta= 0.20
     Davidson diagonalization with overlap
     ethr =  2.13E-06,  avg # of iterations =  3.8

     negative rho (up, down):  2.651E-03 2.653E-03

     total cpu time spent up to now is    40264.6 secs

     total energy              =   -5332.10705630 Ry
     estimated scf accuracy    <       0.00730749 Ry

     total magnetization       =    14.42 Bohr mag/cell
     absolute magnetization    =    16.20 Bohr mag/cell

     iteration # 27     ecut=    60.00 Ry     beta= 0.20
     Davidson diagonalization with overlap
     ethr =  2.13E-06,  avg # of iterations =  1.8

     negative rho (up, down):  9.981E-04 9.990E-04

     total cpu time spent up to now is    41778.8 secs

     total energy              =   -5332.10684881 Ry
     estimated scf accuracy    <       0.00341311 Ry

     total magnetization       =    14.41 Bohr mag/cell
     absolute magnetization    =    16.19 Bohr mag/cell

     iteration # 28     ecut=    60.00 Ry     beta= 0.20
     Davidson diagonalization with overlap
     ethr =  1.42E-06,  avg # of iterations =  2.0

     negative rho (up, down):  4.903E-04 4.865E-04

     total cpu time spent up to now is    43294.9 secs

     total energy              =   -5332.10692445 Ry
     estimated scf accuracy    <       0.00274276 Ry

     total magnetization       =    14.37 Bohr mag/cell
     absolute magnetization    =    16.17 Bohr mag/cell

     iteration # 29     ecut=    60.00 Ry     beta= 0.20
     Davidson diagonalization with overlap
     ethr =  1.14E-06,  avg # of iterations =  1.4

     negative rho (up, down):  6.642E-04 6.594E-04

     total cpu time spent up to now is    44770.4 secs

     total energy              =   -5332.10701478 Ry
     estimated scf accuracy    <       0.00112866 Ry

     total magnetization       =    14.36 Bohr mag/cell
     absolute magnetization    =    16.16 Bohr mag/cell

     iteration # 30     ecut=    60.00 Ry     beta= 0.20
     Davidson diagonalization with overlap
     ethr =  4.68E-07,  avg # of iterations =  1.9

     negative rho (up, down):  3.172E-04 3.079E-04

     total cpu time spent up to now is    46261.4 secs

     total energy              =   -5332.10708913 Ry
     estimated scf accuracy    <       0.00046828 Ry

     total magnetization       =    14.37 Bohr mag/cell
     absolute magnetization    =    16.17 Bohr mag/cell

     iteration # 31     ecut=    60.00 Ry     beta= 0.20
     Davidson diagonalization with overlap
     ethr =  1.94E-07,  avg # of iterations =  2.4

     negative rho (up, down):  2.818E-04 2.494E-04

     total cpu time spent up to now is    47815.6 secs

     total energy              =   -5332.10712564 Ry
     estimated scf accuracy    <       0.00026344 Ry

     total magnetization       =    14.39 Bohr mag/cell
     absolute magnetization    =    16.22 Bohr mag/cell

     iteration # 32     ecut=    60.00 Ry     beta= 0.20
     Davidson diagonalization with overlap
     ethr =  1.09E-07,  avg # of iterations =  2.1

     negative rho (up, down):  6.222E-04 5.896E-04

     total cpu time spent up to now is    49335.9 secs

     total energy              =   -5332.10714236 Ry
     estimated scf accuracy    <       0.00005624 Ry

     total magnetization       =    14.40 Bohr mag/cell
     absolute magnetization    =    16.24 Bohr mag/cell

     iteration # 33     ecut=    60.00 Ry     beta= 0.20
     Davidson diagonalization with overlap
     ethr =  2.33E-08,  avg # of iterations =  4.8

     negative rho (up, down):  1.839E-04 1.475E-04

     total cpu time spent up to now is    51098.5 secs

     total energy              =   -5332.10715584 Ry
     estimated scf accuracy    <       0.00008989 Ry

     total magnetization       =    14.40 Bohr mag/cell
     absolute magnetization    =    16.25 Bohr mag/cell

     iteration # 34     ecut=    60.00 Ry     beta= 0.20
     Davidson diagonalization with overlap
     ethr =  2.33E-08,  avg # of iterations =  2.0

     negative rho (up, down):  2.657E-04 2.207E-04

     total cpu time spent up to now is    52597.9 secs

     total energy              =   -5332.10716038 Ry
     estimated scf accuracy    <       0.00001610 Ry

     total magnetization       =    14.39 Bohr mag/cell
     absolute magnetization    =    16.24 Bohr mag/cell

     iteration # 35     ecut=    60.00 Ry     beta= 0.20
     Davidson diagonalization with overlap
     ethr =  6.68E-09,  avg # of iterations =  1.7

     negative rho (up, down):  2.286E-04 1.796E-04

     total cpu time spent up to now is    54136.9 secs

     total energy              =   -5332.10716084 Ry
     estimated scf accuracy    <       0.00000328 Ry

     total magnetization       =    14.39 Bohr mag/cell
     absolute magnetization    =    16.24 Bohr mag/cell

     iteration # 36     ecut=    60.00 Ry     beta= 0.20
     Davidson diagonalization with overlap
     ethr =  1.36E-09,  avg # of iterations =  3.9

     negative rho (up, down):  1.969E-04 1.475E-04

     total cpu time spent up to now is    55972.4 secs

     total energy              =   -5332.10716087 Ry
     estimated scf accuracy    <       0.00000325 Ry

     total magnetization       =    14.38 Bohr mag/cell
     absolute magnetization    =    16.24 Bohr mag/cell

     iteration # 37     ecut=    60.00 Ry     beta= 0.20
     Davidson diagonalization with overlap
     ethr =  1.35E-09,  avg # of iterations =  1.4

     negative rho (up, down):  2.089E-04 1.606E-04

     total cpu time spent up to now is    57444.2 secs

     total energy              =   -5332.10716092 Ry
     estimated scf accuracy    <       0.00000388 Ry

     total magnetization       =    14.38 Bohr mag/cell
     absolute magnetization    =    16.24 Bohr mag/cell

     iteration # 38     ecut=    60.00 Ry     beta= 0.20
     Davidson diagonalization with overlap
     ethr =  1.35E-09,  avg # of iterations =  1.0

     negative rho (up, down):  2.373E-04 1.896E-04

     total cpu time spent up to now is    58859.4 secs

     total energy              =   -5332.10716125 Ry
     estimated scf accuracy    <       0.00000195 Ry

     total magnetization       =    14.38 Bohr mag/cell
     absolute magnetization    =    16.24 Bohr mag/cell

     iteration # 39     ecut=    60.00 Ry     beta= 0.20
     Davidson diagonalization with overlap
     ethr =  8.09E-10,  avg # of iterations =  1.1

     negative rho (up, down):  2.791E-04 2.320E-04

     total cpu time spent up to now is    60222.1 secs

     total energy              =   -5332.10716171 Ry
     estimated scf accuracy    <       0.00000165 Ry

     total magnetization       =    14.38 Bohr mag/cell
     absolute magnetization    =    16.24 Bohr mag/cell

     iteration # 40     ecut=    60.00 Ry     beta= 0.20
     Davidson diagonalization with overlap
     ethr =  6.84E-10,  avg # of iterations =  1.1

     negative rho (up, down):  2.880E-04 2.399E-04

     total cpu time spent up to now is    61540.0 secs

     total energy              =   -5332.10716198 Ry
     estimated scf accuracy    <       0.00000193 Ry

     total magnetization       =    14.39 Bohr mag/cell
     absolute magnetization    =    16.24 Bohr mag/cell

     iteration # 41     ecut=    60.00 Ry     beta= 0.20
     Davidson diagonalization with overlap
     ethr =  6.84E-10,  avg # of iterations =  1.0

     negative rho (up, down):  2.716E-04 2.205E-04

     total cpu time spent up to now is    62898.0 secs

     total energy              =   -5332.10716222 Ry
     estimated scf accuracy    <       0.00000107 Ry

     total magnetization       =    14.39 Bohr mag/cell
     absolute magnetization    =    16.24 Bohr mag/cell

     iteration # 42     ecut=    60.00 Ry     beta= 0.20
     Davidson diagonalization with overlap
     ethr =  4.44E-10,  avg # of iterations =  1.0

     negative rho (up, down):  1.932E-04 1.437E-04

     total cpu time spent up to now is    64341.4 secs

     total energy              =   -5332.10716216 Ry
     estimated scf accuracy    <       0.00000082 Ry

     total magnetization       =    14.39 Bohr mag/cell
     absolute magnetization    =    16.24 Bohr mag/cell

     iteration # 43     ecut=    60.00 Ry     beta= 0.20
     Davidson diagonalization with overlap
     ethr =  3.41E-10,  avg # of iterations =  2.1

     negative rho (up, down):  1.821E-04 1.318E-04

     total cpu time spent up to now is    65855.1 secs

     total energy              =   -5332.10716216 Ry
     estimated scf accuracy    <       0.00000072 Ry

     total magnetization       =    14.39 Bohr mag/cell
     absolute magnetization    =    16.24 Bohr mag/cell

     iteration # 44     ecut=    60.00 Ry     beta= 0.20
     Davidson diagonalization with overlap
     ethr =  3.01E-10,  avg # of iterations =  1.1

     negative rho (up, down):  1.811E-04 1.311E-04

     total cpu time spent up to now is    67335.9 secs

     total energy              =   -5332.10716216 Ry
     estimated scf accuracy    <       0.00000021 Ry

     total magnetization       =    14.39 Bohr mag/cell
     absolute magnetization    =    16.24 Bohr mag/cell

     iteration # 45     ecut=    60.00 Ry     beta= 0.20
     Davidson diagonalization with overlap
     ethr =  8.57E-11,  avg # of iterations =  1.2

     negative rho (up, down):  2.212E-04 1.702E-04

     total cpu time spent up to now is    68764.3 secs

     total energy              =   -5332.10716225 Ry
     estimated scf accuracy    <       0.00000013 Ry

     total magnetization       =    14.39 Bohr mag/cell
     absolute magnetization    =    16.24 Bohr mag/cell

     iteration # 46     ecut=    60.00 Ry     beta= 0.20
     Davidson diagonalization with overlap
     ethr =  5.26E-11,  avg # of iterations =  2.0

     negative rho (up, down):  2.457E-04 1.938E-04

     total cpu time spent up to now is    70320.2 secs

     total energy              =   -5332.10716233 Ry
     estimated scf accuracy    <       0.00000004 Ry

     total magnetization       =    14.39 Bohr mag/cell
     absolute magnetization    =    16.24 Bohr mag/cell

     iteration # 47     ecut=    60.00 Ry     beta= 0.20
     Davidson diagonalization with overlap
     ethr =  1.57E-11,  avg # of iterations =  3.7

     negative rho (up, down):  2.455E-04 1.934E-04

     total cpu time spent up to now is    72374.9 secs

     total energy              =   -5332.10716234 Ry
     estimated scf accuracy    <       0.00000002 Ry

     total magnetization       =    14.39 Bohr mag/cell
     absolute magnetization    =    16.24 Bohr mag/cell

     iteration # 48     ecut=    60.00 Ry     beta= 0.20
     Davidson diagonalization with overlap
     ethr =  8.52E-12,  avg # of iterations =  2.1

     negative rho (up, down):  2.473E-04 1.948E-04

     total cpu time spent up to now is    74066.5 secs

     total energy              =   -5332.10716235 Ry
     estimated scf accuracy    <          8.8E-09 Ry

     total magnetization       =    14.39 Bohr mag/cell
     absolute magnetization    =    16.24 Bohr mag/cell

     iteration # 49     ecut=    60.00 Ry     beta= 0.20
     Davidson diagonalization with overlap
     ethr =  3.66E-12,  avg # of iterations =  3.5

     negative rho (up, down):  2.451E-04 1.924E-04

     total cpu time spent up to now is    75863.3 secs

     total energy              =   -5332.10716235 Ry
     estimated scf accuracy    <          3.0E-09 Ry

     total magnetization       =    14.39 Bohr mag/cell
     absolute magnetization    =    16.24 Bohr mag/cell

     iteration # 50     ecut=    60.00 Ry     beta= 0.20
     Davidson diagonalization with overlap
     ethr =  1.24E-12,  avg # of iterations =  3.9

     negative rho (up, down):  2.453E-04 1.925E-04

     total cpu time spent up to now is    78110.2 secs

     total energy              =   -5332.10716235 Ry
     estimated scf accuracy    <          1.2E-09 Ry

     total magnetization       =    14.39 Bohr mag/cell
     absolute magnetization    =    16.24 Bohr mag/cell

     iteration # 51     ecut=    60.00 Ry     beta= 0.20
     Davidson diagonalization with overlap
     ethr =  4.98E-13,  avg # of iterations =  2.8

     negative rho (up, down):  2.457E-04 1.929E-04

     total cpu time spent up to now is    79766.9 secs

     total energy              =   -5332.10716235 Ry
     estimated scf accuracy    <          5.6E-10 Ry

     total magnetization       =    14.39 Bohr mag/cell
     absolute magnetization    =    16.24 Bohr mag/cell

     iteration # 52     ecut=    60.00 Ry     beta= 0.20
     Davidson diagonalization with overlap
     ethr =  2.34E-13,  avg # of iterations =  2.6

     negative rho (up, down):  2.462E-04 1.933E-04

     total cpu time spent up to now is    81409.6 secs

     total energy              =   -5332.10716236 Ry
     estimated scf accuracy    <          2.3E-10 Ry

     total magnetization       =    14.39 Bohr mag/cell
     absolute magnetization    =    16.24 Bohr mag/cell

     iteration # 53     ecut=    60.00 Ry     beta= 0.20
     Davidson diagonalization with overlap
     ethr =  1.00E-13,  avg # of iterations =  3.2

     negative rho (up, down):  2.460E-04 1.931E-04

     total cpu time spent up to now is    83235.0 secs

     total energy              =   -5332.10716236 Ry
     estimated scf accuracy    <          2.2E-10 Ry

     total magnetization       =    14.39 Bohr mag/cell
     absolute magnetization    =    16.24 Bohr mag/cell

     iteration # 54     ecut=    60.00 Ry     beta= 0.20
     Davidson diagonalization with overlap
     ethr =  1.00E-13,  avg # of iterations =  1.9

     negative rho (up, down):  2.460E-04 1.931E-04
 
     Magnetic moment per site  (integrated on atomic sphere of radius R)
     atom   1 (R=0.139)  charge=  6.8692  magn=  0.7291
     atom   2 (R=0.139)  charge=  6.8690  magn=  0.7321
     atom   3 (R=0.152)  charge=  5.7513  magn=  0.2379
     atom   4 (R=0.139)  charge=  6.8690  magn=  0.7321
     atom   5 (R=0.139)  charge=  6.8651  magn=  0.7452
     atom   6 (R=0.139)  charge=  6.8654  magn=  0.7344
     atom   7 (R=0.152)  charge=  5.7387  magn=  0.2872
     atom   8 (R=0.139)  charge=  6.8654  magn=  0.7344
     atom   9 (R=0.139)  charge=  6.8645  magn=  0.7161
     atom  10 (R=0.139)  charge=  6.8652  magn=  0.6971
     atom  11 (R=0.152)  charge=  5.7360  magn=  0.2725
     atom  12 (R=0.139)  charge=  6.8652  magn=  0.6971
     atom  13 (R=0.139)  charge=  6.8657  magn=  0.6999
     atom  14 (R=0.139)  charge=  6.8652  magn=  0.7001
     atom  15 (R=0.152)  charge=  5.7356  magn=  0.2722
     atom  16 (R=0.139)  charge=  6.8652  magn=  0.7001
     atom  17 (R=0.139)  charge=  6.8666  magn=  0.6388
     atom  18 (R=0.139)  charge=  6.8652  magn=  0.7348
     atom  19 (R=0.152)  charge=  5.7399  magn=  0.2829
     atom  20 (R=0.139)  charge=  6.8652  magn=  0.7348
     atom  21 (R=0.139)  charge=  6.8716  magn=  0.7343
     atom  22 (R=0.139)  charge=  6.8720  magn=  0.5502
     atom  23 (R=0.152)  charge=  5.7497  magn=  0.1779
     atom  24 (R=0.139)  charge=  6.8720  magn=  0.5502
     atom  25 (R=0.139)  charge=  0.9003  magn= -0.0072

     total cpu time spent up to now is    84760.7 secs

     End of self-consistent calculation

     Number of k-points >= 100: set verbosity='high' to print the bands.

     the Fermi energy is    -5.0834 ev

!    total energy              =   -5332.10716236 Ry
     total all-electron energy =   -115303.853304 Ry
     estimated scf accuracy    <          8.7E-11 Ry
     smearing contrib. (-TS)   =      -0.00184605 Ry
     internal energy E=F+TS    =   -5332.10531631 Ry

     The total energy is F=E-TS. E is the sum of the following terms:
     one-electron contribution =  -70008.88433627 Ry
     hartree contribution      =   35199.03452688 Ry
     xc contribution           =    -947.25409283 Ry
     ewald contribution        =   33498.60148832 Ry
     DFT-D3 Dispersion         =      -2.02353922 Ry
     one-center paw contrib.   =   -3071.57936320 Ry

     total magnetization       =    14.39 Bohr mag/cell
     absolute magnetization    =    16.24 Bohr mag/cell

     convergence has been achieved in  54 iterations

     negative rho (up, down):  2.460E-04 1.931E-04

     Forces acting on atoms (cartesian axes, Ry/au):

     atom    1 type  1   force =    -0.00000554    0.01342739    0.00384233
     atom    2 type  1   force =     0.01173227   -0.00671963    0.00376309
     atom    3 type  2   force =    -0.00000994   -0.00012226   -0.01849001
     atom    4 type  1   force =    -0.01171692   -0.00674298    0.00375304
     atom    5 type  1   force =    -0.00000669    0.00201309    0.00114579
     atom    6 type  1   force =     0.00151093   -0.00087326    0.00147508
     atom    7 type  2   force =    -0.00001257    0.00037404    0.00468554
     atom    8 type  1   force =    -0.00149248   -0.00090259    0.00146037
     atom    9 type  1   force =     0.00000019    0.00014161   -0.00019404
     atom   10 type  1   force =     0.00010355    0.00004349   -0.00017715
     atom   11 type  2   force =     0.00000007    0.00011505   -0.00029412
     atom   12 type  1   force =    -0.00010363    0.00004372   -0.00017703
     atom   13 type  1   force =     0.00000031    0.00037313   -0.00001271
     atom   14 type  1   force =    -0.00026498    0.00021113   -0.00031545
     atom   15 type  2   force =     0.00000006    0.00026477   -0.00008960
     atom   16 type  1   force =     0.00026494    0.00021153   -0.00031518
     atom   17 type  1   force =     0.00000012   -0.00010178    0.00005024
     atom   18 type  1   force =     0.00008316   -0.00012609    0.00039728
     atom   19 type  2   force =     0.00000007   -0.00016081    0.00042347
     atom   20 type  1   force =    -0.00008313   -0.00012556    0.00039711
     atom   21 type  1   force =     0.00000003   -0.00053672   -0.00022702
     atom   22 type  1   force =    -0.00010692   -0.00010120   -0.00018131
     atom   23 type  2   force =     0.00000004   -0.00046271   -0.00063914
     atom   24 type  1   force =     0.00010696   -0.00010102   -0.00018128
     atom   25 type  3   force =     0.00000008   -0.00014237   -0.00009931

     Total force =     0.001604     Total SCF correction =     0.000054


     Computing stress (Cartesian axis) and pressure


     negative rho (up, down):  2.460E-04 1.931E-04
          total   stress  (Ry/bohr**3)                   (kbar)     P=       -4.95
  -0.00005854   0.00000000   0.00000000           -8.61        0.00        0.00
   0.00000000  -0.00004514  -0.00000347            0.00       -6.64       -0.51
   0.00000000  -0.00000347   0.00000280            0.00       -0.51        0.41


     Writing all to output data dir /tmpu/isholek_g/isholek/MIGUEL/QE/Hydrogen/111_2x2/SAVE/Ni3Pd1_111-H_hcp_1.save/ :
     XML data file, charge density, pseudopotentials, collected wavefunctions
 
     init_run     :    399.40s CPU    788.36s WALL (       1 calls)
     electrons    :  43305.94s CPU  83946.52s WALL (       1 calls)
     forces       :     47.77s CPU     91.20s WALL (       1 calls)
     force_dftd3  :      0.64s CPU      1.35s WALL (       1 calls)
     stress       :    479.08s CPU    937.96s WALL (       1 calls)
     stres_dftd3  :      1.01s CPU      1.25s WALL (       1 calls)

     Called by init_run:
     wfcinit      :    289.51s CPU    573.65s WALL (       1 calls)
     potinit      :      1.32s CPU      2.72s WALL (       1 calls)
     hinit0       :      0.74s CPU      1.49s WALL (       1 calls)

     Called by electrons:
     c_bands      :  35929.27s CPU  69673.56s WALL (      54 calls)
     sum_band     :   7016.41s CPU  13576.55s WALL (      54 calls)
     v_of_rho     :     35.41s CPU     69.15s WALL (      55 calls)
     newd         :      9.80s CPU     19.61s WALL (      55 calls)
     PAW_pot      :     28.10s CPU     54.20s WALL (      55 calls)
     mix_rho      :    274.67s CPU    530.46s WALL (      54 calls)
     energy_dftd3 :      0.14s CPU      0.28s WALL (       1 calls)

     Called by c_bands:
     init_us_2    :     71.34s CPU    128.82s WALL (    7104 calls)
     init_us_2:cp :     71.23s CPU    128.70s WALL (    7104 calls)
     cegterg      :  26847.18s CPU  52136.09s WALL (    3456 calls)

     Called by *egterg:
     cdiaghg      :   2517.97s CPU   4900.59s WALL (   10353 calls)
     h_psi        :  20378.49s CPU  39672.35s WALL (   10417 calls)
     s_psi        :    830.20s CPU   1606.83s WALL (   10417 calls)
     g_psi        :     27.79s CPU     59.18s WALL (    6897 calls)

     Called by h_psi:
     h_psi:calbec :   1116.04s CPU   2148.32s WALL (   10417 calls)
     vloc_psi     :  18396.37s CPU  35823.96s WALL (   10417 calls)
     add_vuspsi   :    851.13s CPU   1624.97s WALL (   10417 calls)

     General routines
     calbec       :   1675.36s CPU   3224.55s WALL (   14193 calls)
     fft          :     23.85s CPU     46.84s WALL (    1413 calls)
     ffts         :     61.00s CPU    122.20s WALL (    6737 calls)
     fftw         :  21911.44s CPU  42243.21s WALL ( 2595560 calls)
     interpolate  :      2.88s CPU      5.49s WALL (     110 calls)
 
     Parallel routines
 
     PWSCF        :     12h22m CPU     23h59m WALL

 
   This run was terminated on:  12: 5:33  21Mar2026            

=------------------------------------------------------------------------------=
   JOB DONE.
=------------------------------------------------------------------------------=
