
     Program PWSCF v.7.3 starts on 22Apr2026 at 22:16: 5 

     This program is part of the open-source Quantum ESPRESSO suite
     for quantum simulation of materials; please cite
         "P. Giannozzi et al., J. Phys.:Condens. Matter 21 395502 (2009);
         "P. Giannozzi et al., J. Phys.:Condens. Matter 29 465901 (2017);
         "P. Giannozzi et al., J. Chem. Phys. 152 154105 (2020);
          URL http://www.quantum-espresso.org", 
     in publications or presentations arising from this work. More details at
     http://www.quantum-espresso.org/quote

     Parallel version (MPI), running on    64 processors

     MPI processes distributed on     4 nodes
     51722 MiB available memory on the printing compute node when the environment starts
 
     Reading input from /tmpu/isholek_g/isholek/MIGUEL/QE/Hydrogen/111_2x2/SCF/Ni3Pd1_111-B3-SCF.in

     Current dimensions of program PWSCF are:
     Max number of different atomic species (ntypx) = 10
     Max number of k-points (npk) =  40000
     Max angular momentum in pseudopotentials (lmaxx) =  4
     file Ni.upf: wavefunction(s)  4S 3D renormalized
     file Pd.upf: wavefunction(s)  5S 4D renormalized
     file H.upf: wavefunction(s)  1S renormalized

     IMPORTANT: XC functional enforced from input :
     Exchange-correlation= PBE
                           (   1   4   3   4   0   0   0)
     Any further DFT definition will be discarded
     Please, verify this is what you really want

 
     K-points division:     npool     =       8
     R & G space division:  proc/nbgrp/npool/nimage =       8
     Subspace diagonalization in iterative solution of the eigenvalue problem:
     one sub-group per band group will be used
     scalapack distributed-memory algorithm (size of sub-group:  2*  2 procs)

 
     Parallelization info
     --------------------
     sticks:   dense  smooth     PW     G-vecs:    dense   smooth      PW
     Min         375     188     54               106317    37608    5906
     Max         376     189     55               106344    37623    5933
     Sum        3001    1507    433               850625   300931   47347
 
     Using Slab Decomposition
 

     Title: 
     Ni3Pd1_111-B3-SCF                                                          


     bravais-lattice index     =            0
     lattice parameter (alat)  =       9.5206  a.u.
     unit-cell volume          =    4789.0025 (a.u.)^3
     number of atoms/cell      =           25
     number of atomic types    =            3
     number of electrons       =       241.00
     number of Kohn-Sham states=          145
     kinetic-energy cutoff     =      60.0000  Ry
     charge density cutoff     =     480.0000  Ry
     scf convergence threshold =      1.0E-10
     mixing beta               =       0.2000
     number of iterations used =           12  local-TF  mixing
     Exchange-correlation= PBE
                           (   1   4   3   4   0   0   0)

     celldm(1)=   9.520593  celldm(2)=   0.000000  celldm(3)=   0.000000
     celldm(4)=   0.000000  celldm(5)=   0.000000  celldm(6)=   0.000000

     crystal axes: (cart. coord. in units of alat)
               a(1) = (   1.000000   0.000000   0.000000 )  
               a(2) = (   0.500000   0.866025   0.000000 )  
               a(3) = (   0.000000   0.000000   6.408000 )  

     reciprocal axes: (cart. coord. in units 2 pi/alat)
               b(1) = (  1.000000 -0.577350  0.000000 )  
               b(2) = (  0.000000  1.154701  0.000000 )  
               b(3) = (  0.000000  0.000000  0.156055 )  


     PseudoPot. # 1 for Ni read from file:
     /tmpu/isholek_g/isholek/MIGUEL/PP/PAW/Ni.upf
     MD5 check sum: d88365a95a5e142bd87181c2c8b16588
     Pseudo is Projector augmented-wave + core cor, Zval = 10.0
     Generated using "atomic" code by A. Dal Corso  v.5.0.2 svn rev. 9415
     Shape of augmentation charge: PSQ
     Using radial grid of 1195 points,  6 beta functions with: 
                l(1) =   0
                l(2) =   0
                l(3) =   1
                l(4) =   1
                l(5) =   2
                l(6) =   2
     Q(r) pseudized with 0 coefficients 


     PseudoPot. # 2 for Pd read from file:
     /tmpu/isholek_g/isholek/MIGUEL/PP/PAW/Pd.upf
     MD5 check sum: e9d6f14fd83b79f8105499163af174c9
     Pseudo is Projector augmented-wave + core cor, Zval = 10.0
     Generated using "atomic" code by A. Dal Corso  v.5.0.2 svn rev. 9415
     Shape of augmentation charge: PSQ
     Using radial grid of 1235 points,  6 beta functions with: 
                l(1) =   0
                l(2) =   0
                l(3) =   1
                l(4) =   1
                l(5) =   2
                l(6) =   2
     Q(r) pseudized with 0 coefficients 


     PseudoPot. # 3 for H  read from file:
     /tmpu/isholek_g/isholek/MIGUEL/PP/PAW/H.upf
     MD5 check sum: 4cbe42a24e15140179a93d5bf84f2220
     Pseudo is Projector augmented-wave, Zval =  1.0
     Generated using "atomic" code by A. Dal Corso  v.5.0.2 svn rev. 9415
     Shape of augmentation charge: PSQ
     Using radial grid of  929 points,  2 beta functions with: 
                l(1) =   0
                l(2) =   0
     Q(r) pseudized with 0 coefficients 


     atomic species   valence    mass     pseudopotential
     Ni               10.00    58.69340     Ni( 1.00)
     Pd               10.00   106.42000     Pd( 1.00)
     H                 1.00     1.00794     H ( 1.00)

     Starting magnetic structure 
     atomic species   magnetization
     Ni              0.650
     Pd              0.100
     H               0.000

     No symmetry found



   Cartesian axes

     site n.     atom                  positions (alat units)
         1        Ni     tau(   1) = (   1.0000055   0.5773497   2.1833712  )
         2        Ni     tau(   2) = (   0.2499946   0.1443334   2.1833775  )
         3        Pd     tau(   3) = (   0.5000045   0.5773498   2.1833823  )
         4        Ni     tau(   4) = (   0.7499961   0.1443432   2.1833870  )
         5        Ni     tau(   5) = (   0.5000055   0.2886746   2.5916194  )
         6        Ni     tau(   6) = (   1.2499946   0.7216837   2.5916258  )
         7        Pd     tau(   7) = (   1.0000045   0.2886747   2.5916306  )
         8        Ni     tau(   8) = (   0.7499961   0.7216934   2.5916353  )
         9        Ni     tau(   9) = (   0.4999998   0.8656275   2.9991968  )
        10        Ni     tau(  10) = (   0.7496155   0.4329578   2.9992692  )
        11        Pd     tau(  11) = (   1.0000013   0.8656803   2.9977276  )
        12        Ni     tau(  12) = (   1.2503886   0.4329577   2.9992690  )
        13        Ni     tau(  13) = (   1.0000008   0.5773190   3.4074239  )
        14        Ni     tau(  14) = (   0.2505274   0.1442254   3.4055461  )
        15        Pd     tau(  15) = (   0.5000008   0.5775383   3.4094118  )
        16        Ni     tau(  16) = (   0.7494738   0.1442254   3.4055463  )
        17        Ni     tau(  17) = (   0.5000004   0.2855496   3.8148325  )
        18        Ni     tau(  18) = (   1.2464534   0.7229697   3.8149998  )
        19        Pd     tau(  19) = (   1.0000004   0.2875566   3.8139302  )
        20        Ni     tau(  20) = (   0.7535474   0.7229698   3.8149999  )
        21        Ni     tau(  21) = (   0.5000003   0.8581483   4.2170818  )
        22        Ni     tau(  22) = (   0.7479254   0.4358699   4.2183342  )
        23        Pd     tau(  23) = (   1.0000003   0.8668576   4.2381565  )
        24        Ni     tau(  24) = (   1.2520749   0.4358700   4.2183343  )
        25        H      tau(  25) = (   0.5000001   0.4364801   4.4258618  )

     --------------------------------------------
     DFT-D3 Dispersion Correction (3-body terms):
     --------------------------------------------
       Reference C6 values for interpolation: 

         atom   Coordination number   C6
         H          0.912             6.05
         H          0.000            15.18
         Ni         0.000          1149.49
         Ni         1.794           356.66
         Ni         6.546           257.56
         Ni         6.292           283.75
         Pd         0.000          1217.01
         Pd         1.863           573.90
         Pd         5.710           531.75

       Values used:

         atom   Coordination number  R0_AB[au]  C6      C8
         Ni         6.658            3.162    267.12  22382.76
         Ni         6.659            3.162    267.12  22382.60
         Pd         7.597            3.168    531.75  48720.73
         Ni         6.659            3.162    267.12  22382.40
         Ni         8.928            3.162    257.71  21594.45
         Ni         8.927            3.162    257.71  21594.46
         Pd        10.225            3.168    531.75  48720.73
         Ni         8.927            3.162    257.71  21594.46
         Ni         8.942            3.162    257.71  21594.10
         Ni         8.934            3.162    257.71  21594.30
         Pd        10.256            3.168    531.75  48720.73
         Ni         8.934            3.162    257.71  21594.30
         Ni         8.944            3.162    257.71  21594.04
         Ni         8.942            3.162    257.71  21594.09
         Pd        10.213            3.168    531.75  48720.73
         Ni         8.942            3.162    257.71  21594.09
         Ni         8.903            3.162    257.72  21595.08
         Ni         8.936            3.162    257.71  21594.24
         Pd        10.217            3.168    531.75  48720.73
         Ni         8.936            3.162    257.71  21594.24
         Ni         6.743            3.162    266.11  22297.91
         Ni         7.473            3.162    260.15  21798.87
         Pd         7.416            3.168    531.75  48720.73
         Ni         7.473            3.162    260.15  21798.87
         H          1.571            2.062      6.06     73.20

         Molecular C6 ( Ry / a.u.^6 ) =    185724.52


     number of k points=   256  Marzari-Vanderbilt smearing, width (Ry)=  0.0147

     Number of k-points >= 100: set verbosity='high' to print them.

     Dense  grid:   850625 G-vectors     FFT dimensions: (  72,  72, 432)

     Smooth grid:   300931 G-vectors     FFT dimensions: (  48,  48, 320)

     Estimated max dynamical RAM per process >     914.80 MB

     Estimated total dynamical RAM >      52.92 GB
 ----2D----2D----2D----2D----2D----2D----2D----2D----2D----2D----2D----2D
  The code is running with the 2D cutoff
  Please refer to:
  Sohier, T., Calandra, M., & Mauri, F. (2017), 
  Density functional perturbation theory for gated two-dimensional heterostructu
 res:
  Theoretical developments and application to flexural phonons in graphene.
  Physical Review B, 96(7), 75448. https://doi.org/10.1103/PhysRevB.96.075448
 ----2D----2D----2D----2D----2D----2D----2D----2D----2D----2D----2D----2D

     Check: negative core charge=   -0.000001
     Generating pointlists ...
     new r_m :   0.1334 (alat units)  1.2698 (a.u.) for type    1
     new r_m :   0.1957 (alat units)  1.8629 (a.u.) for type    2
     new r_m :   0.1334 (alat units)  1.2698 (a.u.) for type    3

     Initial potential from superposition of free atoms

     starting charge     240.9923, renormalised to     241.0000

     negative rho (up, down):  3.177E-04 6.767E-05
     Starting wfcs are  217 randomized atomic wfcs
     Checking if some PAW data can be deallocated... 

     total cpu time spent up to now is      206.0 secs

     Self-consistent Calculation

     iteration #  1     ecut=    60.00 Ry     beta= 0.20
     Davidson diagonalization with overlap
     ethr =  1.00E-02,  avg # of iterations =  2.0

     negative rho (up, down):  6.868E-05 4.129E-06

     total cpu time spent up to now is      664.4 secs

     total energy              =   -5327.27051515 Ry
     estimated scf accuracy    <      36.18346207 Ry

     total magnetization       =    25.18 Bohr mag/cell
     absolute magnetization    =    25.21 Bohr mag/cell

     iteration #  2     ecut=    60.00 Ry     beta= 0.20
     Davidson diagonalization with overlap
     ethr =  1.00E-02,  avg # of iterations =  1.0

     negative rho (up, down):  2.870E-06 2.003E-07

     total cpu time spent up to now is     1038.9 secs

     total energy              =   -5329.65344207 Ry
     estimated scf accuracy    <      10.17551633 Ry

     total magnetization       =    27.38 Bohr mag/cell
     absolute magnetization    =    27.41 Bohr mag/cell

     iteration #  3     ecut=    60.00 Ry     beta= 0.20
     Davidson diagonalization with overlap
     ethr =  4.22E-03,  avg # of iterations =  1.1

     negative rho (up, down):  1.180E-07 6.993E-07

     total cpu time spent up to now is     1424.2 secs

     total energy              =   -5331.03247584 Ry
     estimated scf accuracy    <       3.82282746 Ry

     total magnetization       =    24.60 Bohr mag/cell
     absolute magnetization    =    24.79 Bohr mag/cell

     iteration #  4     ecut=    60.00 Ry     beta= 0.20
     Davidson diagonalization with overlap
     ethr =  1.59E-03,  avg # of iterations =  1.1

     negative rho (up, down):  2.060E-08 7.169E-07

     total cpu time spent up to now is     1806.0 secs

     total energy              =   -5331.70661109 Ry
     estimated scf accuracy    <       3.58794254 Ry

     total magnetization       =    21.98 Bohr mag/cell
     absolute magnetization    =    22.73 Bohr mag/cell

     iteration #  5     ecut=    60.00 Ry     beta= 0.20
     Davidson diagonalization with overlap
     ethr =  1.49E-03,  avg # of iterations =  1.0

     negative rho (up, down):  3.081E-08 1.337E-06

     total cpu time spent up to now is     2183.6 secs

     total energy              =   -5332.03367465 Ry
     estimated scf accuracy    <       1.27245023 Ry

     total magnetization       =    18.94 Bohr mag/cell
     absolute magnetization    =    20.49 Bohr mag/cell

     iteration #  6     ecut=    60.00 Ry     beta= 0.20
     Davidson diagonalization with overlap
     ethr =  5.28E-04,  avg # of iterations =  1.3

     negative rho (up, down):  5.660E-08 1.218E-06

     total cpu time spent up to now is     2562.7 secs

     total energy              =   -5332.09685378 Ry
     estimated scf accuracy    <       0.77234594 Ry

     total magnetization       =    14.85 Bohr mag/cell
     absolute magnetization    =    17.13 Bohr mag/cell

     iteration #  7     ecut=    60.00 Ry     beta= 0.20
     Davidson diagonalization with overlap
     ethr =  3.20E-04,  avg # of iterations =  1.0

     negative rho (up, down):  8.142E-08 9.067E-07

     total cpu time spent up to now is     2945.6 secs

     total energy              =   -5332.10964360 Ry
     estimated scf accuracy    <       0.30950407 Ry

     total magnetization       =    14.05 Bohr mag/cell
     absolute magnetization    =    16.36 Bohr mag/cell

     iteration #  8     ecut=    60.00 Ry     beta= 0.20
     Davidson diagonalization with overlap
     ethr =  1.28E-04,  avg # of iterations =  1.4

     negative rho (up, down):  7.322E-08 5.766E-07

     total cpu time spent up to now is     3345.4 secs

     total energy              =   -5332.11965921 Ry
     estimated scf accuracy    <       0.19253467 Ry

     total magnetization       =    14.03 Bohr mag/cell
     absolute magnetization    =    16.29 Bohr mag/cell

     iteration #  9     ecut=    60.00 Ry     beta= 0.20
     Davidson diagonalization with overlap
     ethr =  7.99E-05,  avg # of iterations =  1.5

     negative rho (up, down):  5.375E-08 3.345E-07

     total cpu time spent up to now is     3749.4 secs

     total energy              =   -5332.12462119 Ry
     estimated scf accuracy    <       0.20735641 Ry

     total magnetization       =    14.18 Bohr mag/cell
     absolute magnetization    =    16.31 Bohr mag/cell

     iteration # 10     ecut=    60.00 Ry     beta= 0.20
     Davidson diagonalization with overlap
     ethr =  7.99E-05,  avg # of iterations =  1.0

     negative rho (up, down):  8.044E-08 2.600E-07

     total cpu time spent up to now is     4114.3 secs

     total energy              =   -5332.12075902 Ry
     estimated scf accuracy    <       0.17588680 Ry

     total magnetization       =    14.21 Bohr mag/cell
     absolute magnetization    =    16.23 Bohr mag/cell

     iteration # 11     ecut=    60.00 Ry     beta= 0.20
     Davidson diagonalization with overlap
     ethr =  7.30E-05,  avg # of iterations =  1.5

     negative rho (up, down):  9.598E-08 2.147E-07

     total cpu time spent up to now is     4512.6 secs

     total energy              =   -5332.11927950 Ry
     estimated scf accuracy    <       0.16749852 Ry

     total magnetization       =    14.21 Bohr mag/cell
     absolute magnetization    =    15.95 Bohr mag/cell

     iteration # 12     ecut=    60.00 Ry     beta= 0.20
     Davidson diagonalization with overlap
     ethr =  6.95E-05,  avg # of iterations =  1.0

     negative rho (up, down):  7.235E-08 1.204E-07

     total cpu time spent up to now is     4883.8 secs

     total energy              =   -5332.11578402 Ry
     estimated scf accuracy    <       0.12031101 Ry

     total magnetization       =    14.21 Bohr mag/cell
     absolute magnetization    =    15.80 Bohr mag/cell

     iteration # 13     ecut=    60.00 Ry     beta= 0.20
     Davidson diagonalization with overlap
     ethr =  4.99E-05,  avg # of iterations =  1.1

     negative rho (up, down):  3.434E-08 5.669E-08

     total cpu time spent up to now is     5260.9 secs

     total energy              =   -5332.11080427 Ry
     estimated scf accuracy    <       0.09132065 Ry

     total magnetization       =    14.39 Bohr mag/cell
     absolute magnetization    =    15.88 Bohr mag/cell

     iteration # 14     ecut=    60.00 Ry     beta= 0.20
     Davidson diagonalization with overlap
     ethr =  3.79E-05,  avg # of iterations =  1.1

     negative rho (up, down):  1.561E-08 2.675E-08

     total cpu time spent up to now is     5634.4 secs

     total energy              =   -5332.11116153 Ry
     estimated scf accuracy    <       0.06931622 Ry

     total magnetization       =    14.51 Bohr mag/cell
     absolute magnetization    =    16.00 Bohr mag/cell

     iteration # 15     ecut=    60.00 Ry     beta= 0.20
     Davidson diagonalization with overlap
     ethr =  2.88E-05,  avg # of iterations =  1.3

     negative rho (up, down):  2.363E-04 9.744E-05

     total cpu time spent up to now is     6015.6 secs

     total energy              =   -5332.10805090 Ry
     estimated scf accuracy    <       0.04787359 Ry

     total magnetization       =    14.33 Bohr mag/cell
     absolute magnetization    =    15.92 Bohr mag/cell

     iteration # 16     ecut=    60.00 Ry     beta= 0.20
     Davidson diagonalization with overlap
     ethr =  1.99E-05,  avg # of iterations =  1.6

     negative rho (up, down):  3.586E-03 3.207E-03

     total cpu time spent up to now is     6400.8 secs

     total energy              =   -5332.10570832 Ry
     estimated scf accuracy    <       0.02125868 Ry

     total magnetization       =    14.29 Bohr mag/cell
     absolute magnetization    =    15.99 Bohr mag/cell

     iteration # 17     ecut=    60.00 Ry     beta= 0.20
     Davidson diagonalization with overlap
     ethr =  8.82E-06,  avg # of iterations =  2.7

     negative rho (up, down):  1.410E-03 1.183E-03

     total cpu time spent up to now is     6808.8 secs

     total energy              =   -5332.10695102 Ry
     estimated scf accuracy    <       0.01270947 Ry

     total magnetization       =    14.39 Bohr mag/cell
     absolute magnetization    =    16.17 Bohr mag/cell

     iteration # 18     ecut=    60.00 Ry     beta= 0.20
     Davidson diagonalization with overlap
     ethr =  5.27E-06,  avg # of iterations =  2.6

     negative rho (up, down):  1.465E-04 8.329E-05

     total cpu time spent up to now is     7215.4 secs

     total energy              =   -5332.10741947 Ry
     estimated scf accuracy    <       0.01003420 Ry

     total magnetization       =    14.41 Bohr mag/cell
     absolute magnetization    =    16.19 Bohr mag/cell

     iteration # 19     ecut=    60.00 Ry     beta= 0.20
     Davidson diagonalization with overlap
     ethr =  4.16E-06,  avg # of iterations =  2.4

     total cpu time spent up to now is     7622.1 secs

     total energy              =   -5332.10812392 Ry
     estimated scf accuracy    <       0.00904893 Ry

     total magnetization       =    14.48 Bohr mag/cell
     absolute magnetization    =    16.28 Bohr mag/cell

     iteration # 20     ecut=    60.00 Ry     beta= 0.20
     Davidson diagonalization with overlap
     c_bands:  1 eigenvalues not converged
     ethr =  3.75E-06,  avg # of iterations =  2.1

     total cpu time spent up to now is     8026.8 secs

     total energy              =   -5332.10786286 Ry
     estimated scf accuracy    <       0.00890912 Ry

     total magnetization       =    14.45 Bohr mag/cell
     absolute magnetization    =    16.25 Bohr mag/cell

     iteration # 21     ecut=    60.00 Ry     beta= 0.20
     Davidson diagonalization with overlap
     ethr =  3.70E-06,  avg # of iterations =  1.5

     negative rho (up, down):  2.229E-08 2.078E-08

     total cpu time spent up to now is     8405.4 secs

     total energy              =   -5332.10618497 Ry
     estimated scf accuracy    <       0.00869330 Ry

     total magnetization       =    14.46 Bohr mag/cell
     absolute magnetization    =    16.26 Bohr mag/cell

     iteration # 22     ecut=    60.00 Ry     beta= 0.20
     Davidson diagonalization with overlap
     ethr =  3.61E-06,  avg # of iterations =  2.4

     negative rho (up, down):  2.527E-04 2.496E-04

     total cpu time spent up to now is     8816.6 secs

     total energy              =   -5332.10471633 Ry
     estimated scf accuracy    <       0.00608871 Ry

     total magnetization       =    14.44 Bohr mag/cell
     absolute magnetization    =    16.23 Bohr mag/cell

     iteration # 23     ecut=    60.00 Ry     beta= 0.20
     Davidson diagonalization with overlap
     ethr =  2.53E-06,  avg # of iterations =  4.4

     negative rho (up, down):  5.569E-05 5.439E-05

     total cpu time spent up to now is     9231.7 secs

     total energy              =   -5332.10517532 Ry
     estimated scf accuracy    <       0.00530024 Ry

     total magnetization       =    14.50 Bohr mag/cell
     absolute magnetization    =    16.24 Bohr mag/cell

     iteration # 24     ecut=    60.00 Ry     beta= 0.20
     Davidson diagonalization with overlap
     ethr =  2.20E-06,  avg # of iterations =  1.5

     negative rho (up, down):  2.883E-03 2.891E-03

     total cpu time spent up to now is     9610.9 secs

     total energy              =   -5332.10375878 Ry
     estimated scf accuracy    <       0.00399587 Ry

     total magnetization       =    14.50 Bohr mag/cell
     absolute magnetization    =    16.24 Bohr mag/cell

     iteration # 25     ecut=    60.00 Ry     beta= 0.20
     Davidson diagonalization with overlap
     ethr =  1.66E-06,  avg # of iterations =  7.4

     negative rho (up, down):  2.372E-03 2.381E-03

     total cpu time spent up to now is    10061.1 secs

     total energy              =   -5332.10379079 Ry
     estimated scf accuracy    <       0.00654535 Ry

     total magnetization       =    14.48 Bohr mag/cell
     absolute magnetization    =    16.25 Bohr mag/cell

     iteration # 26     ecut=    60.00 Ry     beta= 0.20
     Davidson diagonalization with overlap
     ethr =  1.66E-06,  avg # of iterations =  1.4

     negative rho (up, down):  1.585E-03 1.593E-03

     total cpu time spent up to now is    10445.4 secs

     total energy              =   -5332.10337599 Ry
     estimated scf accuracy    <       0.00384122 Ry

     total magnetization       =    14.46 Bohr mag/cell
     absolute magnetization    =    16.24 Bohr mag/cell

     iteration # 27     ecut=    60.00 Ry     beta= 0.20
     Davidson diagonalization with overlap
     ethr =  1.59E-06,  avg # of iterations =  1.8

     negative rho (up, down):  6.587E-04 6.550E-04

     total cpu time spent up to now is    10845.6 secs

     total energy              =   -5332.10365976 Ry
     estimated scf accuracy    <       0.00230288 Ry

     total magnetization       =    14.43 Bohr mag/cell
     absolute magnetization    =    16.19 Bohr mag/cell

     iteration # 28     ecut=    60.00 Ry     beta= 0.20
     Davidson diagonalization with overlap
     ethr =  9.56E-07,  avg # of iterations =  2.0

     negative rho (up, down):  4.050E-04 3.950E-04

     total cpu time spent up to now is    11276.8 secs

     total energy              =   -5332.10395708 Ry
     estimated scf accuracy    <       0.00139362 Ry

     total magnetization       =    14.40 Bohr mag/cell
     absolute magnetization    =    16.17 Bohr mag/cell

     iteration # 29     ecut=    60.00 Ry     beta= 0.20
     Davidson diagonalization with overlap
     ethr =  5.78E-07,  avg # of iterations =  2.0

     negative rho (up, down):  1.113E-04 9.592E-05

     total cpu time spent up to now is    11687.0 secs

     total energy              =   -5332.10398352 Ry
     estimated scf accuracy    <       0.00060198 Ry

     total magnetization       =    14.43 Bohr mag/cell
     absolute magnetization    =    16.20 Bohr mag/cell

     iteration # 30     ecut=    60.00 Ry     beta= 0.20
     Davidson diagonalization with overlap
     ethr =  2.50E-07,  avg # of iterations =  2.2

     negative rho (up, down):  1.061E-04 8.850E-05

     total cpu time spent up to now is    12097.8 secs

     total energy              =   -5332.10394319 Ry
     estimated scf accuracy    <       0.00036160 Ry

     total magnetization       =    14.45 Bohr mag/cell
     absolute magnetization    =    16.23 Bohr mag/cell

     iteration # 31     ecut=    60.00 Ry     beta= 0.20
     Davidson diagonalization with overlap
     ethr =  1.50E-07,  avg # of iterations =  1.8

     negative rho (up, down):  9.922E-05 8.022E-05

     total cpu time spent up to now is    12503.8 secs

     total energy              =   -5332.10398940 Ry
     estimated scf accuracy    <       0.00014274 Ry

     total magnetization       =    14.47 Bohr mag/cell
     absolute magnetization    =    16.25 Bohr mag/cell

     iteration # 32     ecut=    60.00 Ry     beta= 0.20
     Davidson diagonalization with overlap
     ethr =  5.92E-08,  avg # of iterations =  3.0

     negative rho (up, down):  1.187E-04 9.094E-05

     total cpu time spent up to now is    12936.2 secs

     total energy              =   -5332.10402792 Ry
     estimated scf accuracy    <       0.00003216 Ry

     total magnetization       =    14.47 Bohr mag/cell
     absolute magnetization    =    16.26 Bohr mag/cell

     iteration # 33     ecut=    60.00 Ry     beta= 0.20
     Davidson diagonalization with overlap
     ethr =  1.33E-08,  avg # of iterations =  4.3

     negative rho (up, down):  2.730E-04 2.331E-04

     total cpu time spent up to now is    13442.2 secs

     total energy              =   -5332.10404024 Ry
     estimated scf accuracy    <       0.00001752 Ry

     total magnetization       =    14.46 Bohr mag/cell
     absolute magnetization    =    16.26 Bohr mag/cell

     iteration # 34     ecut=    60.00 Ry     beta= 0.20
     Davidson diagonalization with overlap
     ethr =  7.27E-09,  avg # of iterations =  2.0

     negative rho (up, down):  2.386E-04 1.946E-04

     total cpu time spent up to now is    13865.5 secs

     total energy              =   -5332.10404265 Ry
     estimated scf accuracy    <       0.00001347 Ry

     total magnetization       =    14.46 Bohr mag/cell
     absolute magnetization    =    16.27 Bohr mag/cell

     iteration # 35     ecut=    60.00 Ry     beta= 0.20
     Davidson diagonalization with overlap
     ethr =  5.59E-09,  avg # of iterations =  1.2

     negative rho (up, down):  2.641E-04 2.141E-04

     total cpu time spent up to now is    14245.4 secs

     total energy              =   -5332.10404276 Ry
     estimated scf accuracy    <       0.00000458 Ry

     total magnetization       =    14.46 Bohr mag/cell
     absolute magnetization    =    16.27 Bohr mag/cell

     iteration # 36     ecut=    60.00 Ry     beta= 0.20
     Davidson diagonalization with overlap
     ethr =  1.90E-09,  avg # of iterations =  2.9

     negative rho (up, down):  3.075E-04 2.588E-04

     total cpu time spent up to now is    14662.3 secs

     total energy              =   -5332.10404316 Ry
     estimated scf accuracy    <       0.00000201 Ry

     total magnetization       =    14.47 Bohr mag/cell
     absolute magnetization    =    16.28 Bohr mag/cell

     iteration # 37     ecut=    60.00 Ry     beta= 0.20
     Davidson diagonalization with overlap
     ethr =  8.32E-10,  avg # of iterations =  2.4

     negative rho (up, down):  2.805E-04 2.337E-04

     total cpu time spent up to now is    15088.4 secs

     total energy              =   -5332.10404290 Ry
     estimated scf accuracy    <       0.00000089 Ry

     total magnetization       =    14.47 Bohr mag/cell
     absolute magnetization    =    16.28 Bohr mag/cell

     iteration # 38     ecut=    60.00 Ry     beta= 0.20
     Davidson diagonalization with overlap
     ethr =  3.69E-10,  avg # of iterations =  2.6

     negative rho (up, down):  3.032E-04 2.528E-04

     total cpu time spent up to now is    15525.8 secs

     total energy              =   -5332.10404344 Ry
     estimated scf accuracy    <       0.00000080 Ry

     total magnetization       =    14.47 Bohr mag/cell
     absolute magnetization    =    16.28 Bohr mag/cell

     iteration # 39     ecut=    60.00 Ry     beta= 0.20
     Davidson diagonalization with overlap
     ethr =  3.32E-10,  avg # of iterations =  1.9

     negative rho (up, down):  2.763E-04 2.251E-04

     total cpu time spent up to now is    15933.5 secs

     total energy              =   -5332.10404349 Ry
     estimated scf accuracy    <       0.00000049 Ry

     total magnetization       =    14.47 Bohr mag/cell
     absolute magnetization    =    16.28 Bohr mag/cell

     iteration # 40     ecut=    60.00 Ry     beta= 0.20
     Davidson diagonalization with overlap
     ethr =  2.02E-10,  avg # of iterations =  1.7

     negative rho (up, down):  2.594E-04 2.065E-04

     total cpu time spent up to now is    16328.5 secs

     total energy              =   -5332.10404355 Ry
     estimated scf accuracy    <       0.00000033 Ry

     total magnetization       =    14.47 Bohr mag/cell
     absolute magnetization    =    16.28 Bohr mag/cell

     iteration # 41     ecut=    60.00 Ry     beta= 0.20
     Davidson diagonalization with overlap
     ethr =  1.35E-10,  avg # of iterations =  1.9

     negative rho (up, down):  2.376E-04 1.851E-04

     total cpu time spent up to now is    16738.7 secs

     total energy              =   -5332.10404350 Ry
     estimated scf accuracy    <       0.00000026 Ry

     total magnetization       =    14.47 Bohr mag/cell
     absolute magnetization    =    16.28 Bohr mag/cell

     iteration # 42     ecut=    60.00 Ry     beta= 0.20
     Davidson diagonalization with overlap
     ethr =  1.10E-10,  avg # of iterations =  1.4

     negative rho (up, down):  2.277E-04 1.757E-04

     total cpu time spent up to now is    17130.4 secs

     total energy              =   -5332.10404353 Ry
     estimated scf accuracy    <       0.00000015 Ry

     total magnetization       =    14.47 Bohr mag/cell
     absolute magnetization    =    16.28 Bohr mag/cell

     iteration # 43     ecut=    60.00 Ry     beta= 0.20
     Davidson diagonalization with overlap
     ethr =  6.34E-11,  avg # of iterations =  2.0

     negative rho (up, down):  2.193E-04 1.676E-04

     total cpu time spent up to now is    17547.3 secs

     total energy              =   -5332.10404353 Ry
     estimated scf accuracy    <       0.00000015 Ry

     total magnetization       =    14.47 Bohr mag/cell
     absolute magnetization    =    16.28 Bohr mag/cell

     iteration # 44     ecut=    60.00 Ry     beta= 0.20
     Davidson diagonalization with overlap
     ethr =  6.30E-11,  avg # of iterations =  1.1

     negative rho (up, down):  2.222E-04 1.703E-04

     total cpu time spent up to now is    17926.6 secs

     total energy              =   -5332.10404356 Ry
     estimated scf accuracy    <       0.00000011 Ry

     total magnetization       =    14.47 Bohr mag/cell
     absolute magnetization    =    16.28 Bohr mag/cell

     iteration # 45     ecut=    60.00 Ry     beta= 0.20
     Davidson diagonalization with overlap
     ethr =  4.57E-11,  avg # of iterations =  1.2

     negative rho (up, down):  2.315E-04 1.793E-04

     total cpu time spent up to now is    18312.3 secs

     total energy              =   -5332.10404362 Ry
     estimated scf accuracy    <       0.00000010 Ry

     total magnetization       =    14.47 Bohr mag/cell
     absolute magnetization    =    16.28 Bohr mag/cell

     iteration # 46     ecut=    60.00 Ry     beta= 0.20
     Davidson diagonalization with overlap
     ethr =  4.27E-11,  avg # of iterations =  1.6

     negative rho (up, down):  2.207E-04 1.689E-04

     total cpu time spent up to now is    18717.1 secs

     total energy              =   -5332.10404359 Ry
     estimated scf accuracy    <       0.00000009 Ry

     total magnetization       =    14.47 Bohr mag/cell
     absolute magnetization    =    16.28 Bohr mag/cell

     iteration # 47     ecut=    60.00 Ry     beta= 0.20
     Davidson diagonalization with overlap
     ethr =  3.85E-11,  avg # of iterations =  1.5

     negative rho (up, down):  2.262E-04 1.741E-04

     total cpu time spent up to now is    19112.0 secs

     total energy              =   -5332.10404361 Ry
     estimated scf accuracy    <       0.00000004 Ry

     total magnetization       =    14.47 Bohr mag/cell
     absolute magnetization    =    16.28 Bohr mag/cell

     iteration # 48     ecut=    60.00 Ry     beta= 0.20
     Davidson diagonalization with overlap
     ethr =  1.71E-11,  avg # of iterations =  1.3

     negative rho (up, down):  2.255E-04 1.734E-04

     total cpu time spent up to now is    19498.2 secs

     total energy              =   -5332.10404361 Ry
     estimated scf accuracy    <       0.00000005 Ry

     total magnetization       =    14.47 Bohr mag/cell
     absolute magnetization    =    16.28 Bohr mag/cell

     iteration # 49     ecut=    60.00 Ry     beta= 0.20
     Davidson diagonalization with overlap
     ethr =  1.71E-11,  avg # of iterations =  1.2

     negative rho (up, down):  2.368E-04 1.843E-04

     total cpu time spent up to now is    19877.5 secs

     total energy              =   -5332.10404364 Ry
     estimated scf accuracy    <       0.00000002 Ry

     total magnetization       =    14.47 Bohr mag/cell
     absolute magnetization    =    16.28 Bohr mag/cell

     iteration # 50     ecut=    60.00 Ry     beta= 0.20
     Davidson diagonalization with overlap
     ethr =  7.79E-12,  avg # of iterations =  1.9

     negative rho (up, down):  2.408E-04 1.883E-04

     total cpu time spent up to now is    20291.1 secs

     total energy              =   -5332.10404365 Ry
     estimated scf accuracy    <       0.00000001 Ry

     total magnetization       =    14.47 Bohr mag/cell
     absolute magnetization    =    16.28 Bohr mag/cell

     iteration # 51     ecut=    60.00 Ry     beta= 0.20
     Davidson diagonalization with overlap
     ethr =  4.23E-12,  avg # of iterations =  1.7

     negative rho (up, down):  2.424E-04 1.899E-04

     total cpu time spent up to now is    20696.6 secs

     total energy              =   -5332.10404366 Ry
     estimated scf accuracy    <          3.8E-09 Ry

     total magnetization       =    14.47 Bohr mag/cell
     absolute magnetization    =    16.28 Bohr mag/cell

     iteration # 52     ecut=    60.00 Ry     beta= 0.20
     Davidson diagonalization with overlap
     ethr =  1.59E-12,  avg # of iterations =  2.3

     negative rho (up, down):  2.446E-04 1.921E-04

     total cpu time spent up to now is    21118.7 secs

     total energy              =   -5332.10404367 Ry
     estimated scf accuracy    <          1.3E-09 Ry

     total magnetization       =    14.47 Bohr mag/cell
     absolute magnetization    =    16.28 Bohr mag/cell

     iteration # 53     ecut=    60.00 Ry     beta= 0.20
     Davidson diagonalization with overlap
     ethr =  5.52E-13,  avg # of iterations =  4.2

     negative rho (up, down):  2.460E-04 1.935E-04

     total cpu time spent up to now is    21605.9 secs

     total energy              =   -5332.10404367 Ry
     estimated scf accuracy    <          6.9E-10 Ry

     total magnetization       =    14.47 Bohr mag/cell
     absolute magnetization    =    16.28 Bohr mag/cell

     iteration # 54     ecut=    60.00 Ry     beta= 0.20
     Davidson diagonalization with overlap
     ethr =  2.87E-13,  avg # of iterations =  2.9

     negative rho (up, down):  2.463E-04 1.938E-04

     total cpu time spent up to now is    22020.2 secs

     total energy              =   -5332.10404367 Ry
     estimated scf accuracy    <          4.5E-10 Ry

     total magnetization       =    14.47 Bohr mag/cell
     absolute magnetization    =    16.28 Bohr mag/cell

     iteration # 55     ecut=    60.00 Ry     beta= 0.20
     Davidson diagonalization with overlap
     ethr =  1.85E-13,  avg # of iterations =  2.2

     negative rho (up, down):  2.465E-04 1.939E-04

     total cpu time spent up to now is    22442.4 secs

     total energy              =   -5332.10404367 Ry
     estimated scf accuracy    <          1.1E-10 Ry

     total magnetization       =    14.47 Bohr mag/cell
     absolute magnetization    =    16.28 Bohr mag/cell

     iteration # 56     ecut=    60.00 Ry     beta= 0.20
     Davidson diagonalization with overlap
     ethr =  1.00E-13,  avg # of iterations =  1.9

     negative rho (up, down):  2.461E-04 1.936E-04
 
     Magnetic moment per site  (integrated on atomic sphere of radius R)
     atom   1 (R=0.133)  charge=  6.6681  magn=  0.7195
     atom   2 (R=0.133)  charge=  6.6682  magn=  0.7171
     atom   3 (R=0.196)  charge=  7.5993  magn=  0.2765
     atom   4 (R=0.133)  charge=  6.6682  magn=  0.7171
     atom   5 (R=0.133)  charge=  6.6624  magn=  0.7265
     atom   6 (R=0.133)  charge=  6.6629  magn=  0.7192
     atom   7 (R=0.196)  charge=  7.6222  magn=  0.3375
     atom   8 (R=0.133)  charge=  6.6629  magn=  0.7192
     atom   9 (R=0.133)  charge=  6.6628  magn=  0.6773
     atom  10 (R=0.133)  charge=  6.6627  magn=  0.6881
     atom  11 (R=0.196)  charge=  7.6213  magn=  0.3239
     atom  12 (R=0.133)  charge=  6.6627  magn=  0.6881
     atom  13 (R=0.133)  charge=  6.6628  magn=  0.6687
     atom  14 (R=0.133)  charge=  6.6620  magn=  0.6931
     atom  15 (R=0.196)  charge=  7.6180  magn=  0.3185
     atom  16 (R=0.133)  charge=  6.6620  magn=  0.6931
     atom  17 (R=0.133)  charge=  6.6622  magn=  0.7189
     atom  18 (R=0.133)  charge=  6.6622  magn=  0.7248
     atom  19 (R=0.196)  charge=  7.6221  magn=  0.2903
     atom  20 (R=0.133)  charge=  6.6622  magn=  0.7248
     atom  21 (R=0.133)  charge=  6.6701  magn=  0.7086
     atom  22 (R=0.133)  charge=  6.6690  magn=  0.5138
     atom  23 (R=0.196)  charge=  7.5943  magn=  0.2631
     atom  24 (R=0.133)  charge=  6.6690  magn=  0.5138
     atom  25 (R=0.133)  charge=  0.8212  magn= -0.0056

     total cpu time spent up to now is    22828.6 secs

     End of self-consistent calculation

     Number of k-points >= 100: set verbosity='high' to print the bands.

     the Fermi energy is    -5.0885 ev

!    total energy              =   -5332.10404367 Ry
     total all-electron energy =   -115303.850185 Ry
     estimated scf accuracy    <          9.6E-11 Ry
     smearing contrib. (-TS)   =      -0.00183579 Ry
     internal energy E=F+TS    =   -5332.10220788 Ry

     The total energy is F=E-TS. E is the sum of the following terms:
     one-electron contribution =  -70041.78563165 Ry
     hartree contribution      =   35215.46789031 Ry
     xc contribution           =    -947.25349438 Ry
     ewald contribution        =   33515.07718899 Ry
     DFT-D3 Dispersion         =      -2.02418741 Ry
     one-center paw contrib.   =   -3071.58397375 Ry

     total magnetization       =    14.47 Bohr mag/cell
     absolute magnetization    =    16.28 Bohr mag/cell

     convergence has been achieved in  56 iterations

     negative rho (up, down):  2.461E-04 1.936E-04

     Forces acting on atoms (cartesian axes, Ry/au):

     atom    1 type  1   force =    -0.00000545    0.01333136    0.00378122
     atom    2 type  1   force =     0.01167555   -0.00658568    0.00373437
     atom    3 type  2   force =    -0.00001004   -0.00009401   -0.01846572
     atom    4 type  1   force =    -0.01166013   -0.00660924    0.00372432
     atom    5 type  1   force =    -0.00000632    0.00197477    0.00067461
     atom    6 type  1   force =     0.00159774   -0.00124909    0.00124013
     atom    7 type  2   force =    -0.00001285    0.00044700    0.00347927
     atom    8 type  1   force =    -0.00157939   -0.00127898    0.00122578
     atom    9 type  1   force =    -0.00000008   -0.00009886    0.00013627
     atom   10 type  1   force =    -0.00001975   -0.00002297    0.00007564
     atom   11 type  2   force =     0.00000020   -0.00001659    0.00021015
     atom   12 type  1   force =     0.00001986   -0.00002285    0.00007558
     atom   13 type  1   force =     0.00000011   -0.00029055    0.00003468
     atom   14 type  1   force =    -0.00006064    0.00006381    0.00023352
     atom   15 type  2   force =     0.00000005   -0.00008521   -0.00015791
     atom   16 type  1   force =     0.00006078    0.00006370    0.00023351
     atom   17 type  1   force =     0.00000007   -0.00010488    0.00022989
     atom   18 type  1   force =     0.00020640    0.00000376   -0.00020081
     atom   19 type  2   force =     0.00000009   -0.00009480    0.00031135
     atom   20 type  1   force =    -0.00020633    0.00000368   -0.00020078
     atom   21 type  1   force =    -0.00000001    0.00018616   -0.00004792
     atom   22 type  1   force =     0.00009866   -0.00038109   -0.00010134
     atom   23 type  2   force =    -0.00000002   -0.00026209   -0.00035847
     atom   24 type  1   force =    -0.00009857   -0.00038101   -0.00010138
     atom   25 type  3   force =     0.00000006    0.00150367    0.00023402

     Total force =     0.001133     Total SCF correction =     0.000039


     Computing stress (Cartesian axis) and pressure


     negative rho (up, down):  2.461E-04 1.936E-04
          total   stress  (Ry/bohr**3)                   (kbar)     P=       -5.12
  -0.00005423   0.00000000   0.00000000           -7.98        0.00        0.00
   0.00000000  -0.00005630   0.00000171            0.00       -8.28        0.25
   0.00000000   0.00000171   0.00000608            0.00        0.25        0.89


     Writing all to output data dir /tmpu/isholek_g/isholek/MIGUEL/QE/Hydrogen/111_2x2/SAVE/Ni3Pd1_111-B3.save/ :
     XML data file, charge density, pseudopotentials, collected wavefunctions
 
     init_run     :    201.27s CPU    205.17s WALL (       1 calls)
     electrons    :  21056.17s CPU  22623.05s WALL (       1 calls)
     forces       :     55.16s CPU     55.88s WALL (       1 calls)
     force_dftd3  :      0.43s CPU      0.43s WALL (       1 calls)
     stress       :    564.28s CPU    584.98s WALL (       1 calls)
     stres_dftd3  :      0.55s CPU      0.55s WALL (       1 calls)

     Called by init_run:
     wfcinit      :    116.77s CPU    120.34s WALL (       1 calls)
     potinit      :      1.46s CPU      1.51s WALL (       1 calls)
     hinit0       :      0.83s CPU      0.85s WALL (       1 calls)

     Called by electrons:
     c_bands      :  17006.59s CPU  18299.22s WALL (      56 calls)
     sum_band     :   3896.49s CPU   4155.05s WALL (      56 calls)
     v_of_rho     :     40.03s CPU     43.80s WALL (      57 calls)
     newd         :     11.66s CPU     13.42s WALL (      57 calls)
     PAW_pot      :     19.54s CPU     20.89s WALL (      57 calls)
     mix_rho      :     76.49s CPU     84.11s WALL (      56 calls)
     energy_dftd3 :      0.09s CPU      0.09s WALL (       1 calls)

     Called by c_bands:
     init_us_2    :    120.14s CPU    133.77s WALL (    7360 calls)
     init_us_2:cp :    120.03s CPU    133.66s WALL (    7360 calls)
     cegterg      :  15243.29s CPU  16453.03s WALL (    3584 calls)

     Called by *egterg:
     cdiaghg      :    357.40s CPU    386.95s WALL (   10939 calls)
     h_psi        :  10335.66s CPU  11220.19s WALL (   11003 calls)
     s_psi        :    891.32s CPU    947.14s WALL (   11003 calls)
     g_psi        :     29.33s CPU     32.00s WALL (    7355 calls)

     Called by h_psi:
     h_psi:calbec :   1302.57s CPU   1389.04s WALL (   11003 calls)
     vloc_psi     :   8094.06s CPU   8793.91s WALL (   11003 calls)
     add_vuspsi   :    905.15s CPU    973.02s WALL (   11003 calls)

     General routines
     calbec       :   1938.79s CPU   2061.06s WALL (   14907 calls)
     fft          :     29.00s CPU     31.96s WALL (    1463 calls)
     ffts         :     22.91s CPU     25.45s WALL (    6991 calls)
     fftw         :   7778.96s CPU   8228.46s WALL ( 2694954 calls)
     interpolate  :      2.45s CPU      2.66s WALL (     114 calls)
 
     Parallel routines
 
     PWSCF        :      6h 4m CPU      6h31m WALL

 
   This run was terminated on:   4:47:35  23Apr2026            

=------------------------------------------------------------------------------=
   JOB DONE.
=------------------------------------------------------------------------------=
