
     Program PWSCF v.7.3 starts on 26Apr2026 at 17:36: 7 

     This program is part of the open-source Quantum ESPRESSO suite
     for quantum simulation of materials; please cite
         "P. Giannozzi et al., J. Phys.:Condens. Matter 21 395502 (2009);
         "P. Giannozzi et al., J. Phys.:Condens. Matter 29 465901 (2017);
         "P. Giannozzi et al., J. Chem. Phys. 152 154105 (2020);
          URL http://www.quantum-espresso.org", 
     in publications or presentations arising from this work. More details at
     http://www.quantum-espresso.org/quote

     Parallel version (MPI), running on    64 processors

     MPI processes distributed on     4 nodes
     52931 MiB available memory on the printing compute node when the environment starts
 
     Reading input from /tmpu/isholek_g/isholek/MIGUEL/QE/Hydrogen/111_2x2/SCF/Ni3Pd1_111-B1-SCF.in

     Current dimensions of program PWSCF are:
     Max number of different atomic species (ntypx) = 10
     Max number of k-points (npk) =  40000
     Max angular momentum in pseudopotentials (lmaxx) =  4
     file Ni.upf: wavefunction(s)  4S 3D renormalized
     file Pd.upf: wavefunction(s)  5S 4D renormalized
     file H.upf: wavefunction(s)  1S renormalized

     IMPORTANT: XC functional enforced from input :
     Exchange-correlation= PBE
                           (   1   4   3   4   0   0   0)
     Any further DFT definition will be discarded
     Please, verify this is what you really want

 
     K-points division:     npool     =       8
     R & G space division:  proc/nbgrp/npool/nimage =       8
     Subspace diagonalization in iterative solution of the eigenvalue problem:
     one sub-group per band group will be used
     scalapack distributed-memory algorithm (size of sub-group:  2*  2 procs)

 
     Parallelization info
     --------------------
     sticks:   dense  smooth     PW     G-vecs:    dense   smooth      PW
     Min         375     188     54               106317    37608    5906
     Max         376     189     55               106344    37623    5933
     Sum        3001    1507    433               850625   300931   47347
 
     Using Slab Decomposition
 

     Title: 
     Ni3Pd1_111-B1-SCF                                                          


     bravais-lattice index     =            0
     lattice parameter (alat)  =       9.5206  a.u.
     unit-cell volume          =    4789.0025 (a.u.)^3
     number of atoms/cell      =           25
     number of atomic types    =            3
     number of electrons       =       241.00
     number of Kohn-Sham states=          145
     kinetic-energy cutoff     =      60.0000  Ry
     charge density cutoff     =     480.0000  Ry
     scf convergence threshold =      1.0E-10
     mixing beta               =       0.2000
     number of iterations used =           12  local-TF  mixing
     Exchange-correlation= PBE
                           (   1   4   3   4   0   0   0)

     celldm(1)=   9.520593  celldm(2)=   0.000000  celldm(3)=   0.000000
     celldm(4)=   0.000000  celldm(5)=   0.000000  celldm(6)=   0.000000

     crystal axes: (cart. coord. in units of alat)
               a(1) = (   1.000000   0.000000   0.000000 )  
               a(2) = (   0.500000   0.866025   0.000000 )  
               a(3) = (   0.000000   0.000000   6.408000 )  

     reciprocal axes: (cart. coord. in units 2 pi/alat)
               b(1) = (  1.000000 -0.577350  0.000000 )  
               b(2) = (  0.000000  1.154701  0.000000 )  
               b(3) = (  0.000000  0.000000  0.156055 )  


     PseudoPot. # 1 for Ni read from file:
     /tmpu/isholek_g/isholek/MIGUEL/PP/PAW/Ni.upf
     MD5 check sum: d88365a95a5e142bd87181c2c8b16588
     Pseudo is Projector augmented-wave + core cor, Zval = 10.0
     Generated using "atomic" code by A. Dal Corso  v.5.0.2 svn rev. 9415
     Shape of augmentation charge: PSQ
     Using radial grid of 1195 points,  6 beta functions with: 
                l(1) =   0
                l(2) =   0
                l(3) =   1
                l(4) =   1
                l(5) =   2
                l(6) =   2
     Q(r) pseudized with 0 coefficients 


     PseudoPot. # 2 for Pd read from file:
     /tmpu/isholek_g/isholek/MIGUEL/PP/PAW/Pd.upf
     MD5 check sum: e9d6f14fd83b79f8105499163af174c9
     Pseudo is Projector augmented-wave + core cor, Zval = 10.0
     Generated using "atomic" code by A. Dal Corso  v.5.0.2 svn rev. 9415
     Shape of augmentation charge: PSQ
     Using radial grid of 1235 points,  6 beta functions with: 
                l(1) =   0
                l(2) =   0
                l(3) =   1
                l(4) =   1
                l(5) =   2
                l(6) =   2
     Q(r) pseudized with 0 coefficients 


     PseudoPot. # 3 for H  read from file:
     /tmpu/isholek_g/isholek/MIGUEL/PP/PAW/H.upf
     MD5 check sum: 4cbe42a24e15140179a93d5bf84f2220
     Pseudo is Projector augmented-wave, Zval =  1.0
     Generated using "atomic" code by A. Dal Corso  v.5.0.2 svn rev. 9415
     Shape of augmentation charge: PSQ
     Using radial grid of  929 points,  2 beta functions with: 
                l(1) =   0
                l(2) =   0
     Q(r) pseudized with 0 coefficients 


     atomic species   valence    mass     pseudopotential
     Ni               10.00    58.69340     Ni( 1.00)
     Pd               10.00   106.42000     Pd( 1.00)
     H                 1.00     1.00794     H ( 1.00)

     Starting magnetic structure 
     atomic species   magnetization
     Ni              0.650
     Pd              0.100
     H               0.000

     No symmetry found



   Cartesian axes

     site n.     atom                  positions (alat units)
         1        Ni     tau(   1) = (   1.0000055   0.5773497   2.1833712  )
         2        Ni     tau(   2) = (   0.2499946   0.1443334   2.1833775  )
         3        Pd     tau(   3) = (   0.5000045   0.5773498   2.1833823  )
         4        Ni     tau(   4) = (   0.7499961   0.1443432   2.1833870  )
         5        Ni     tau(   5) = (   0.5000055   0.2886746   2.5916194  )
         6        Ni     tau(   6) = (   1.2499946   0.7216837   2.5916258  )
         7        Pd     tau(   7) = (   1.0000045   0.2886747   2.5916306  )
         8        Ni     tau(   8) = (   0.7499961   0.7216934   2.5916353  )
         9        Ni     tau(   9) = (   0.5000002   0.8644891   2.9990244  )
        10        Ni     tau(  10) = (   0.7495167   0.4326942   2.9993142  )
        11        Pd     tau(  11) = (   1.0000017   0.8656103   2.9978283  )
        12        Ni     tau(  12) = (   1.2504881   0.4326942   2.9993140  )
        13        Ni     tau(  13) = (   1.0000014   0.5770240   3.4062792  )
        14        Ni     tau(  14) = (   0.2498930   0.1425981   3.4053517  )
        15        Pd     tau(  15) = (   0.5000014   0.5751266   3.4106077  )
        16        Ni     tau(  16) = (   0.7501095   0.1425981   3.4053520  )
        17        Ni     tau(  17) = (   0.5000010   0.2810834   3.8167592  )
        18        Ni     tau(  18) = (   1.2470347   0.7206896   3.8154312  )
        19        Pd     tau(  19) = (   1.0000010   0.2859488   3.8104211  )
        20        Ni     tau(  20) = (   0.7529673   0.7206897   3.8154313  )
        21        Ni     tau(  21) = (   0.5000008   0.8575028   4.2172716  )
        22        Ni     tau(  22) = (   0.7422736   0.4321846   4.2179231  )
        23        Pd     tau(  23) = (   1.0000008   0.8622797   4.2401787  )
        24        Ni     tau(  24) = (   1.2577279   0.4321845   4.2179232  )
        25        H      tau(  25) = (   1.0000008   0.4364801   4.4148897  )

     --------------------------------------------
     DFT-D3 Dispersion Correction (3-body terms):
     --------------------------------------------
       Reference C6 values for interpolation: 

         atom   Coordination number   C6
         H          0.912             6.05
         H          0.000            15.18
         Ni         0.000          1149.49
         Ni         1.794           356.66
         Ni         6.546           257.56
         Ni         6.292           283.75
         Pd         0.000          1217.01
         Pd         1.863           573.90
         Pd         5.710           531.75

       Values used:

         atom   Coordination number  R0_AB[au]  C6      C8
         Ni         6.658            3.162    267.12  22382.76
         Ni         6.659            3.162    267.12  22382.60
         Pd         7.597            3.168    531.75  48720.73
         Ni         6.659            3.162    267.12  22382.40
         Ni         8.929            3.162    257.71  21594.43
         Ni         8.929            3.162    257.71  21594.42
         Pd        10.222            3.168    531.75  48720.73
         Ni         8.929            3.162    257.71  21594.42
         Ni         8.943            3.162    257.71  21594.06
         Ni         8.934            3.162    257.71  21594.30
         Pd        10.262            3.168    531.75  48720.73
         Ni         8.934            3.162    257.71  21594.30
         Ni         8.953            3.162    257.71  21593.84
         Ni         8.942            3.162    257.71  21594.08
         Pd        10.205            3.168    531.75  48720.73
         Ni         8.942            3.162    257.71  21594.08
         Ni         8.932            3.162    257.71  21594.35
         Ni         8.920            3.162    257.71  21594.65
         Pd        10.191            3.168    531.75  48720.73
         Ni         8.920            3.162    257.71  21594.65
         Ni         6.726            3.162    266.30  22314.34
         Ni         7.452            3.162    260.25  21807.23
         Pd         7.406            3.168    531.75  48720.73
         Ni         7.452            3.162    260.25  21807.23
         H          1.559            2.062      6.06     73.20

         Molecular C6 ( Ry / a.u.^6 ) =    185734.74


     number of k points=   256  Marzari-Vanderbilt smearing, width (Ry)=  0.0147

     Number of k-points >= 100: set verbosity='high' to print them.

     Dense  grid:   850625 G-vectors     FFT dimensions: (  72,  72, 432)

     Smooth grid:   300931 G-vectors     FFT dimensions: (  48,  48, 320)

     Estimated max dynamical RAM per process >     914.80 MB

     Estimated total dynamical RAM >      52.92 GB
 ----2D----2D----2D----2D----2D----2D----2D----2D----2D----2D----2D----2D
  The code is running with the 2D cutoff
  Please refer to:
  Sohier, T., Calandra, M., & Mauri, F. (2017), 
  Density functional perturbation theory for gated two-dimensional heterostructu
 res:
  Theoretical developments and application to flexural phonons in graphene.
  Physical Review B, 96(7), 75448. https://doi.org/10.1103/PhysRevB.96.075448
 ----2D----2D----2D----2D----2D----2D----2D----2D----2D----2D----2D----2D

     Check: negative core charge=   -0.000001
     Generating pointlists ...
     new r_m :   0.1338 (alat units)  1.2740 (a.u.) for type    1
     new r_m :   0.1899 (alat units)  1.8075 (a.u.) for type    2
     new r_m :   0.1338 (alat units)  1.2740 (a.u.) for type    3

     Initial potential from superposition of free atoms

     starting charge     240.9923, renormalised to     241.0000

     negative rho (up, down):  3.175E-04 6.778E-05
     Starting wfcs are  217 randomized atomic wfcs
     Checking if some PAW data can be deallocated... 

     total cpu time spent up to now is      204.9 secs

     Self-consistent Calculation

     iteration #  1     ecut=    60.00 Ry     beta= 0.20
     Davidson diagonalization with overlap
     ethr =  1.00E-02,  avg # of iterations =  2.0

     negative rho (up, down):  6.440E-05 1.707E-06

     total cpu time spent up to now is      661.8 secs

     total energy              =   -5327.27967567 Ry
     estimated scf accuracy    <      35.72575555 Ry

     total magnetization       =    25.76 Bohr mag/cell
     absolute magnetization    =    25.76 Bohr mag/cell

     iteration #  2     ecut=    60.00 Ry     beta= 0.20
     Davidson diagonalization with overlap
     ethr =  1.00E-02,  avg # of iterations =  1.0

     negative rho (up, down):  4.759E-06 3.456E-07

     total cpu time spent up to now is     1038.8 secs

     total energy              =   -5329.64307498 Ry
     estimated scf accuracy    <      10.18594380 Ry

     total magnetization       =    27.76 Bohr mag/cell
     absolute magnetization    =    27.76 Bohr mag/cell

     iteration #  3     ecut=    60.00 Ry     beta= 0.20
     Davidson diagonalization with overlap
     ethr =  4.23E-03,  avg # of iterations =  1.1

     negative rho (up, down):  1.414E-07 2.482E-07

     total cpu time spent up to now is     1422.5 secs

     total energy              =   -5330.97024645 Ry
     estimated scf accuracy    <       3.76009106 Ry

     total magnetization       =    25.10 Bohr mag/cell
     absolute magnetization    =    25.23 Bohr mag/cell

     iteration #  4     ecut=    60.00 Ry     beta= 0.20
     Davidson diagonalization with overlap
     ethr =  1.56E-03,  avg # of iterations =  1.1

     negative rho (up, down):  1.391E-08 5.315E-07

     total cpu time spent up to now is     1807.5 secs

     total energy              =   -5331.67176576 Ry
     estimated scf accuracy    <       3.34416006 Ry

     total magnetization       =    22.05 Bohr mag/cell
     absolute magnetization    =    22.77 Bohr mag/cell

     iteration #  5     ecut=    60.00 Ry     beta= 0.20
     Davidson diagonalization with overlap
     ethr =  1.39E-03,  avg # of iterations =  1.0

     negative rho (up, down):  2.830E-08 1.834E-06

     total cpu time spent up to now is     2168.9 secs

     total energy              =   -5332.02221385 Ry
     estimated scf accuracy    <       1.20474303 Ry

     total magnetization       =    19.03 Bohr mag/cell
     absolute magnetization    =    20.55 Bohr mag/cell

     iteration #  6     ecut=    60.00 Ry     beta= 0.20
     Davidson diagonalization with overlap
     ethr =  5.00E-04,  avg # of iterations =  1.3

     negative rho (up, down):  7.319E-08 2.109E-06

     total cpu time spent up to now is     2541.4 secs

     total energy              =   -5332.09025891 Ry
     estimated scf accuracy    <       0.73296784 Ry

     total magnetization       =    14.95 Bohr mag/cell
     absolute magnetization    =    17.24 Bohr mag/cell

     iteration #  7     ecut=    60.00 Ry     beta= 0.20
     Davidson diagonalization with overlap
     ethr =  3.04E-04,  avg # of iterations =  1.2

     negative rho (up, down):  1.174E-07 1.488E-06

     total cpu time spent up to now is     2926.1 secs

     total energy              =   -5332.10746362 Ry
     estimated scf accuracy    <       0.27655751 Ry

     total magnetization       =    13.96 Bohr mag/cell
     absolute magnetization    =    16.30 Bohr mag/cell

     iteration #  8     ecut=    60.00 Ry     beta= 0.20
     Davidson diagonalization with overlap
     ethr =  1.15E-04,  avg # of iterations =  1.5

     negative rho (up, down):  1.053E-07 8.361E-07

     total cpu time spent up to now is     3334.3 secs

     total energy              =   -5332.11834346 Ry
     estimated scf accuracy    <       0.17146517 Ry

     total magnetization       =    14.01 Bohr mag/cell
     absolute magnetization    =    16.29 Bohr mag/cell

     iteration #  9     ecut=    60.00 Ry     beta= 0.20
     Davidson diagonalization with overlap
     ethr =  7.11E-05,  avg # of iterations =  1.5

     negative rho (up, down):  1.052E-07 5.385E-07

     total cpu time spent up to now is     3736.5 secs

     total energy              =   -5332.12245104 Ry
     estimated scf accuracy    <       0.19781123 Ry

     total magnetization       =    14.17 Bohr mag/cell
     absolute magnetization    =    16.29 Bohr mag/cell

     iteration # 10     ecut=    60.00 Ry     beta= 0.20
     Davidson diagonalization with overlap
     ethr =  7.11E-05,  avg # of iterations =  1.1

     negative rho (up, down):  1.546E-07 3.984E-07

     total cpu time spent up to now is     4104.1 secs

     total energy              =   -5332.11427062 Ry
     estimated scf accuracy    <       0.15765962 Ry

     total magnetization       =    14.16 Bohr mag/cell
     absolute magnetization    =    16.18 Bohr mag/cell

     iteration # 11     ecut=    60.00 Ry     beta= 0.20
     Davidson diagonalization with overlap
     ethr =  6.54E-05,  avg # of iterations =  1.5

     negative rho (up, down):  1.565E-07 3.139E-07

     total cpu time spent up to now is     4498.9 secs

     total energy              =   -5332.11700971 Ry
     estimated scf accuracy    <       0.16729433 Ry

     total magnetization       =    14.08 Bohr mag/cell
     absolute magnetization    =    15.80 Bohr mag/cell

     iteration # 12     ecut=    60.00 Ry     beta= 0.20
     Davidson diagonalization with overlap
     ethr =  6.54E-05,  avg # of iterations =  1.0

     negative rho (up, down):  1.280E-07 1.938E-07

     total cpu time spent up to now is     4874.0 secs

     total energy              =   -5332.11230471 Ry
     estimated scf accuracy    <       0.13620181 Ry

     total magnetization       =    14.13 Bohr mag/cell
     absolute magnetization    =    15.75 Bohr mag/cell

     iteration # 13     ecut=    60.00 Ry     beta= 0.20
     Davidson diagonalization with overlap
     ethr =  5.65E-05,  avg # of iterations =  1.1

     negative rho (up, down):  7.539E-08 1.074E-07

     total cpu time spent up to now is     5255.8 secs

     total energy              =   -5332.10800263 Ry
     estimated scf accuracy    <       0.10005795 Ry

     total magnetization       =    14.35 Bohr mag/cell
     absolute magnetization    =    15.88 Bohr mag/cell

     iteration # 14     ecut=    60.00 Ry     beta= 0.20
     Davidson diagonalization with overlap
     ethr =  4.15E-05,  avg # of iterations =  1.1

     negative rho (up, down):  2.992E-08 4.883E-08

     total cpu time spent up to now is     5632.9 secs

     total energy              =   -5332.10880031 Ry
     estimated scf accuracy    <       0.07291614 Ry

     total magnetization       =    14.41 Bohr mag/cell
     absolute magnetization    =    15.93 Bohr mag/cell

     iteration # 15     ecut=    60.00 Ry     beta= 0.20
     Davidson diagonalization with overlap
     ethr =  3.03E-05,  avg # of iterations =  1.5

     negative rho (up, down):  7.317E-09 1.470E-08

     total cpu time spent up to now is     6012.4 secs

     total energy              =   -5332.10601208 Ry
     estimated scf accuracy    <       0.04904510 Ry

     total magnetization       =    14.28 Bohr mag/cell
     absolute magnetization    =    15.89 Bohr mag/cell

     iteration # 16     ecut=    60.00 Ry     beta= 0.20
     Davidson diagonalization with overlap
     ethr =  2.04E-05,  avg # of iterations =  1.5

     negative rho (up, down):  3.079E-03 2.583E-03

     total cpu time spent up to now is     6415.2 secs

     total energy              =   -5332.10351168 Ry
     estimated scf accuracy    <       0.02156497 Ry

     total magnetization       =    14.17 Bohr mag/cell
     absolute magnetization    =    15.93 Bohr mag/cell

     iteration # 17     ecut=    60.00 Ry     beta= 0.20
     Davidson diagonalization with overlap
     ethr =  8.95E-06,  avg # of iterations =  2.7

     negative rho (up, down):  1.759E-03 1.417E-03

     total cpu time spent up to now is     6820.1 secs

     total energy              =   -5332.10403221 Ry
     estimated scf accuracy    <       0.01220120 Ry

     total magnetization       =    14.28 Bohr mag/cell
     absolute magnetization    =    16.09 Bohr mag/cell

     iteration # 18     ecut=    60.00 Ry     beta= 0.20
     Davidson diagonalization with overlap
     ethr =  5.06E-06,  avg # of iterations =  2.8

     negative rho (up, down):  4.495E-05 1.368E-05

     total cpu time spent up to now is     7222.7 secs

     total energy              =   -5332.10455823 Ry
     estimated scf accuracy    <       0.01033516 Ry

     total magnetization       =    14.32 Bohr mag/cell
     absolute magnetization    =    16.12 Bohr mag/cell

     iteration # 19     ecut=    60.00 Ry     beta= 0.20
     Davidson diagonalization with overlap
     ethr =  4.29E-06,  avg # of iterations =  2.2

     total cpu time spent up to now is     7620.1 secs

     total energy              =   -5332.10541127 Ry
     estimated scf accuracy    <       0.00917798 Ry

     total magnetization       =    14.42 Bohr mag/cell
     absolute magnetization    =    16.23 Bohr mag/cell

     iteration # 20     ecut=    60.00 Ry     beta= 0.20
     Davidson diagonalization with overlap
     ethr =  3.81E-06,  avg # of iterations =  1.3

     total cpu time spent up to now is     8001.1 secs

     total energy              =   -5332.10508630 Ry
     estimated scf accuracy    <       0.00818209 Ry

     total magnetization       =    14.42 Bohr mag/cell
     absolute magnetization    =    16.24 Bohr mag/cell

     iteration # 21     ecut=    60.00 Ry     beta= 0.20
     Davidson diagonalization with overlap
     ethr =  3.40E-06,  avg # of iterations =  1.7

     total cpu time spent up to now is     8392.5 secs

     total energy              =   -5332.10485053 Ry
     estimated scf accuracy    <       0.00921061 Ry

     total magnetization       =    14.41 Bohr mag/cell
     absolute magnetization    =    16.23 Bohr mag/cell

     iteration # 22     ecut=    60.00 Ry     beta= 0.20
     Davidson diagonalization with overlap
     ethr =  3.40E-06,  avg # of iterations =  1.2

     negative rho (up, down):  3.645E-04 3.530E-04

     total cpu time spent up to now is     8772.1 secs

     total energy              =   -5332.10128111 Ry
     estimated scf accuracy    <       0.00754659 Ry

     total magnetization       =    14.35 Bohr mag/cell
     absolute magnetization    =    16.19 Bohr mag/cell

     iteration # 23     ecut=    60.00 Ry     beta= 0.20
     Davidson diagonalization with overlap
     c_bands:  1 eigenvalues not converged
     c_bands:  1 eigenvalues not converged
     ethr =  3.13E-06,  avg # of iterations =  5.8

     negative rho (up, down):  4.807E-05 4.619E-05

     total cpu time spent up to now is     9211.9 secs

     total energy              =   -5332.10146768 Ry
     estimated scf accuracy    <       0.02105051 Ry

     total magnetization       =    14.37 Bohr mag/cell
     absolute magnetization    =    16.20 Bohr mag/cell

     iteration # 24     ecut=    60.00 Ry     beta= 0.20
     Davidson diagonalization with overlap
     ethr =  3.13E-06,  avg # of iterations =  1.7

     negative rho (up, down):  2.936E-05 2.840E-05

     total cpu time spent up to now is     9598.8 secs

     total energy              =   -5332.10144510 Ry
     estimated scf accuracy    <       0.01077699 Ry

     total magnetization       =    14.37 Bohr mag/cell
     absolute magnetization    =    16.13 Bohr mag/cell

     iteration # 25     ecut=    60.00 Ry     beta= 0.20
     Davidson diagonalization with overlap
     ethr =  3.13E-06,  avg # of iterations =  2.1

     negative rho (up, down):  1.948E-03 1.959E-03

     total cpu time spent up to now is    10004.9 secs

     total energy              =   -5332.10091261 Ry
     estimated scf accuracy    <       0.00562897 Ry

     total magnetization       =    14.31 Bohr mag/cell
     absolute magnetization    =    16.11 Bohr mag/cell

     iteration # 26     ecut=    60.00 Ry     beta= 0.20
     Davidson diagonalization with overlap
     ethr =  2.34E-06,  avg # of iterations =  2.8

     negative rho (up, down):  7.805E-04 7.826E-04

     total cpu time spent up to now is    10407.4 secs

     total energy              =   -5332.10099053 Ry
     estimated scf accuracy    <       0.00568716 Ry

     total magnetization       =    14.30 Bohr mag/cell
     absolute magnetization    =    16.13 Bohr mag/cell

     iteration # 27     ecut=    60.00 Ry     beta= 0.20
     Davidson diagonalization with overlap
     ethr =  2.34E-06,  avg # of iterations =  1.7

     negative rho (up, down):  6.347E-04 6.346E-04

     total cpu time spent up to now is    10780.1 secs

     total energy              =   -5332.10105246 Ry
     estimated scf accuracy    <       0.00123157 Ry

     total magnetization       =    14.31 Bohr mag/cell
     absolute magnetization    =    16.09 Bohr mag/cell

     iteration # 28     ecut=    60.00 Ry     beta= 0.20
     Davidson diagonalization with overlap
     ethr =  5.11E-07,  avg # of iterations =  2.3

     negative rho (up, down):  4.714E-04 4.693E-04

     total cpu time spent up to now is    11192.4 secs

     total energy              =   -5332.10118484 Ry
     estimated scf accuracy    <       0.00148289 Ry

     total magnetization       =    14.32 Bohr mag/cell
     absolute magnetization    =    16.10 Bohr mag/cell

     iteration # 29     ecut=    60.00 Ry     beta= 0.20
     Davidson diagonalization with overlap
     ethr =  5.11E-07,  avg # of iterations =  1.2

     negative rho (up, down):  4.863E-04 4.781E-04

     total cpu time spent up to now is    11569.7 secs

     total energy              =   -5332.10129795 Ry
     estimated scf accuracy    <       0.00076039 Ry

     total magnetization       =    14.32 Bohr mag/cell
     absolute magnetization    =    16.10 Bohr mag/cell

     iteration # 30     ecut=    60.00 Ry     beta= 0.20
     Davidson diagonalization with overlap
     ethr =  3.16E-07,  avg # of iterations =  2.2

     negative rho (up, down):  2.524E-04 2.376E-04

     total cpu time spent up to now is    11985.3 secs

     total energy              =   -5332.10140105 Ry
     estimated scf accuracy    <       0.00035615 Ry

     total magnetization       =    14.34 Bohr mag/cell
     absolute magnetization    =    16.12 Bohr mag/cell

     iteration # 31     ecut=    60.00 Ry     beta= 0.20
     Davidson diagonalization with overlap
     ethr =  1.48E-07,  avg # of iterations =  2.4

     negative rho (up, down):  4.888E-04 4.532E-04

     total cpu time spent up to now is    12392.9 secs

     total energy              =   -5332.10142604 Ry
     estimated scf accuracy    <       0.00022044 Ry

     total magnetization       =    14.35 Bohr mag/cell
     absolute magnetization    =    16.15 Bohr mag/cell

     iteration # 32     ecut=    60.00 Ry     beta= 0.20
     Davidson diagonalization with overlap
     ethr =  9.15E-08,  avg # of iterations =  2.2

     negative rho (up, down):  6.559E-04 6.229E-04

     total cpu time spent up to now is    12800.9 secs

     total energy              =   -5332.10143525 Ry
     estimated scf accuracy    <       0.00003282 Ry

     total magnetization       =    14.37 Bohr mag/cell
     absolute magnetization    =    16.20 Bohr mag/cell

     iteration # 33     ecut=    60.00 Ry     beta= 0.20
     Davidson diagonalization with overlap
     ethr =  1.36E-08,  avg # of iterations =  5.3

     negative rho (up, down):  5.918E-04 5.503E-04

     total cpu time spent up to now is    13257.7 secs

     total energy              =   -5332.10144068 Ry
     estimated scf accuracy    <       0.00001520 Ry

     total magnetization       =    14.37 Bohr mag/cell
     absolute magnetization    =    16.20 Bohr mag/cell

     iteration # 34     ecut=    60.00 Ry     beta= 0.20
     Davidson diagonalization with overlap
     ethr =  6.31E-09,  avg # of iterations =  2.7

     negative rho (up, down):  4.811E-04 4.378E-04

     total cpu time spent up to now is    13760.0 secs

     total energy              =   -5332.10144955 Ry
     estimated scf accuracy    <       0.00001180 Ry

     total magnetization       =    14.37 Bohr mag/cell
     absolute magnetization    =    16.21 Bohr mag/cell

     iteration # 35     ecut=    60.00 Ry     beta= 0.20
     Davidson diagonalization with overlap
     ethr =  4.89E-09,  avg # of iterations =  2.0

     negative rho (up, down):  3.782E-04 3.275E-04

     total cpu time spent up to now is    14203.6 secs

     total energy              =   -5332.10145193 Ry
     estimated scf accuracy    <       0.00000811 Ry

     total magnetization       =    14.37 Bohr mag/cell
     absolute magnetization    =    16.21 Bohr mag/cell

     iteration # 36     ecut=    60.00 Ry     beta= 0.20
     Davidson diagonalization with overlap
     ethr =  3.37E-09,  avg # of iterations =  1.1

     negative rho (up, down):  2.173E-04 1.643E-04

     total cpu time spent up to now is    14581.2 secs

     total energy              =   -5332.10145160 Ry
     estimated scf accuracy    <       0.00000290 Ry

     total magnetization       =    14.37 Bohr mag/cell
     absolute magnetization    =    16.21 Bohr mag/cell

     iteration # 37     ecut=    60.00 Ry     beta= 0.20
     Davidson diagonalization with overlap
     ethr =  1.20E-09,  avg # of iterations =  2.1

     negative rho (up, down):  2.567E-04 2.046E-04

     total cpu time spent up to now is    14988.4 secs

     total energy              =   -5332.10145188 Ry
     estimated scf accuracy    <       0.00000251 Ry

     total magnetization       =    14.37 Bohr mag/cell
     absolute magnetization    =    16.21 Bohr mag/cell

     iteration # 38     ecut=    60.00 Ry     beta= 0.20
     Davidson diagonalization with overlap
     ethr =  1.04E-09,  avg # of iterations =  1.2

     negative rho (up, down):  2.568E-04 2.046E-04

     total cpu time spent up to now is    15365.2 secs

     total energy              =   -5332.10145204 Ry
     estimated scf accuracy    <       0.00000099 Ry

     total magnetization       =    14.37 Bohr mag/cell
     absolute magnetization    =    16.21 Bohr mag/cell

     iteration # 39     ecut=    60.00 Ry     beta= 0.20
     Davidson diagonalization with overlap
     ethr =  4.10E-10,  avg # of iterations =  1.7

     negative rho (up, down):  2.653E-04 2.128E-04

     total cpu time spent up to now is    15758.4 secs

     total energy              =   -5332.10145213 Ry
     estimated scf accuracy    <       0.00000040 Ry

     total magnetization       =    14.37 Bohr mag/cell
     absolute magnetization    =    16.21 Bohr mag/cell

     iteration # 40     ecut=    60.00 Ry     beta= 0.20
     Davidson diagonalization with overlap
     ethr =  1.66E-10,  avg # of iterations =  2.6

     negative rho (up, down):  2.749E-04 2.222E-04

     total cpu time spent up to now is    16163.8 secs

     total energy              =   -5332.10145219 Ry
     estimated scf accuracy    <       0.00000022 Ry

     total magnetization       =    14.37 Bohr mag/cell
     absolute magnetization    =    16.21 Bohr mag/cell

     iteration # 41     ecut=    60.00 Ry     beta= 0.20
     Davidson diagonalization with overlap
     ethr =  9.33E-11,  avg # of iterations =  2.0

     negative rho (up, down):  2.812E-04 2.285E-04

     total cpu time spent up to now is    16576.3 secs

     total energy              =   -5332.10145224 Ry
     estimated scf accuracy    <       0.00000013 Ry

     total magnetization       =    14.37 Bohr mag/cell
     absolute magnetization    =    16.21 Bohr mag/cell

     iteration # 42     ecut=    60.00 Ry     beta= 0.20
     Davidson diagonalization with overlap
     ethr =  5.48E-11,  avg # of iterations =  2.1

     negative rho (up, down):  2.796E-04 2.275E-04

     total cpu time spent up to now is    16985.9 secs

     total energy              =   -5332.10145225 Ry
     estimated scf accuracy    <       0.00000010 Ry

     total magnetization       =    14.37 Bohr mag/cell
     absolute magnetization    =    16.21 Bohr mag/cell

     iteration # 43     ecut=    60.00 Ry     beta= 0.20
     Davidson diagonalization with overlap
     ethr =  4.06E-11,  avg # of iterations =  1.8

     negative rho (up, down):  2.656E-04 2.126E-04

     total cpu time spent up to now is    17417.8 secs

     total energy              =   -5332.10145222 Ry
     estimated scf accuracy    <       0.00000025 Ry

     total magnetization       =    14.37 Bohr mag/cell
     absolute magnetization    =    16.21 Bohr mag/cell

     iteration # 44     ecut=    60.00 Ry     beta= 0.20
     Davidson diagonalization with overlap
     ethr =  4.06E-11,  avg # of iterations =  1.5

     negative rho (up, down):  2.513E-04 1.984E-04

     total cpu time spent up to now is    17814.7 secs

     total energy              =   -5332.10145218 Ry
     estimated scf accuracy    <       0.00000003 Ry

     total magnetization       =    14.37 Bohr mag/cell
     absolute magnetization    =    16.21 Bohr mag/cell

     iteration # 45     ecut=    60.00 Ry     beta= 0.20
     Davidson diagonalization with overlap
     ethr =  1.23E-11,  avg # of iterations =  3.2

     negative rho (up, down):  2.496E-04 1.969E-04

     total cpu time spent up to now is    18276.5 secs

     total energy              =   -5332.10145217 Ry
     estimated scf accuracy    <          8.6E-09 Ry

     total magnetization       =    14.37 Bohr mag/cell
     absolute magnetization    =    16.21 Bohr mag/cell

     iteration # 46     ecut=    60.00 Ry     beta= 0.20
     Davidson diagonalization with overlap
     ethr =  3.55E-12,  avg # of iterations =  4.2

     negative rho (up, down):  2.453E-04 1.928E-04

     total cpu time spent up to now is    18773.6 secs

     total energy              =   -5332.10145216 Ry
     estimated scf accuracy    <          9.3E-09 Ry

     total magnetization       =    14.37 Bohr mag/cell
     absolute magnetization    =    16.21 Bohr mag/cell

     iteration # 47     ecut=    60.00 Ry     beta= 0.20
     Davidson diagonalization with overlap
     ethr =  3.55E-12,  avg # of iterations =  1.5

     negative rho (up, down):  2.452E-04 1.928E-04

     total cpu time spent up to now is    19163.9 secs

     total energy              =   -5332.10145216 Ry
     estimated scf accuracy    <          2.3E-09 Ry

     total magnetization       =    14.37 Bohr mag/cell
     absolute magnetization    =    16.21 Bohr mag/cell

     iteration # 48     ecut=    60.00 Ry     beta= 0.20
     Davidson diagonalization with overlap
     ethr =  9.65E-13,  avg # of iterations =  2.3

     negative rho (up, down):  2.461E-04 1.938E-04

     total cpu time spent up to now is    19567.3 secs

     total energy              =   -5332.10145216 Ry
     estimated scf accuracy    <          1.0E-09 Ry

     total magnetization       =    14.37 Bohr mag/cell
     absolute magnetization    =    16.21 Bohr mag/cell

     iteration # 49     ecut=    60.00 Ry     beta= 0.20
     Davidson diagonalization with overlap
     ethr =  4.20E-13,  avg # of iterations =  2.7

     negative rho (up, down):  2.470E-04 1.946E-04

     total cpu time spent up to now is    20012.6 secs

     total energy              =   -5332.10145217 Ry
     estimated scf accuracy    <          1.4E-09 Ry

     total magnetization       =    14.37 Bohr mag/cell
     absolute magnetization    =    16.21 Bohr mag/cell

     iteration # 50     ecut=    60.00 Ry     beta= 0.20
     Davidson diagonalization with overlap
     ethr =  4.20E-13,  avg # of iterations =  1.3

     negative rho (up, down):  2.463E-04 1.939E-04

     total cpu time spent up to now is    20396.8 secs

     total energy              =   -5332.10145216 Ry
     estimated scf accuracy    <          4.2E-10 Ry

     total magnetization       =    14.37 Bohr mag/cell
     absolute magnetization    =    16.21 Bohr mag/cell

     iteration # 51     ecut=    60.00 Ry     beta= 0.20
     Davidson diagonalization with overlap
     ethr =  1.74E-13,  avg # of iterations =  1.7

     negative rho (up, down):  2.459E-04 1.935E-04

     total cpu time spent up to now is    20794.8 secs

     total energy              =   -5332.10145216 Ry
     estimated scf accuracy    <          1.1E-10 Ry

     total magnetization       =    14.37 Bohr mag/cell
     absolute magnetization    =    16.21 Bohr mag/cell

     iteration # 52     ecut=    60.00 Ry     beta= 0.20
     Davidson diagonalization with overlap
     ethr =  1.00E-13,  avg # of iterations =  1.7

     negative rho (up, down):  2.460E-04 1.936E-04
 
     Magnetic moment per site  (integrated on atomic sphere of radius R)
     atom   1 (R=0.134)  charge=  6.6843  magn=  0.7157
     atom   2 (R=0.134)  charge=  6.6842  magn=  0.7186
     atom   3 (R=0.190)  charge=  7.3863  magn=  0.2774
     atom   4 (R=0.134)  charge=  6.6842  magn=  0.7186
     atom   5 (R=0.134)  charge=  6.6787  magn=  0.7312
     atom   6 (R=0.134)  charge=  6.6790  magn=  0.7214
     atom   7 (R=0.190)  charge=  7.3997  magn=  0.3336
     atom   8 (R=0.134)  charge=  6.6790  magn=  0.7214
     atom   9 (R=0.134)  charge=  6.6780  magn=  0.7007
     atom  10 (R=0.134)  charge=  6.6786  magn=  0.6896
     atom  11 (R=0.190)  charge=  7.3992  magn=  0.3125
     atom  12 (R=0.134)  charge=  6.6786  magn=  0.6896
     atom  13 (R=0.134)  charge=  6.6786  magn=  0.6897
     atom  14 (R=0.134)  charge=  6.6783  magn=  0.6941
     atom  15 (R=0.190)  charge=  7.3956  magn=  0.3121
     atom  16 (R=0.134)  charge=  6.6783  magn=  0.6941
     atom  17 (R=0.134)  charge=  6.6796  magn=  0.6411
     atom  18 (R=0.134)  charge=  6.6784  magn=  0.7238
     atom  19 (R=0.190)  charge=  7.4007  magn=  0.3267
     atom  20 (R=0.134)  charge=  6.6784  magn=  0.7238
     atom  21 (R=0.134)  charge=  6.6868  magn=  0.7034
     atom  22 (R=0.134)  charge=  6.6850  magn=  0.4974
     atom  23 (R=0.190)  charge=  7.3816  magn=  0.2456
     atom  24 (R=0.134)  charge=  6.6850  magn=  0.4974
     atom  25 (R=0.134)  charge=  0.8237  magn= -0.0081

     total cpu time spent up to now is    21189.8 secs

     End of self-consistent calculation

     Number of k-points >= 100: set verbosity='high' to print the bands.

     the Fermi energy is    -5.0858 ev

!    total energy              =   -5332.10145216 Ry
     total all-electron energy =   -115303.847593 Ry
     estimated scf accuracy    <          7.3E-11 Ry
     smearing contrib. (-TS)   =      -0.00176300 Ry
     internal energy E=F+TS    =   -5332.09968916 Ry

     The total energy is F=E-TS. E is the sum of the following terms:
     one-electron contribution =  -70043.61050530 Ry
     hartree contribution      =   35216.41125840 Ry
     xc contribution           =    -947.25063091 Ry
     ewald contribution        =   33515.95778255 Ry
     DFT-D3 Dispersion         =      -2.02426934 Ry
     one-center paw contrib.   =   -3071.58332457 Ry

     total magnetization       =    14.37 Bohr mag/cell
     absolute magnetization    =    16.21 Bohr mag/cell

     convergence has been achieved in  52 iterations

     negative rho (up, down):  2.460E-04 1.936E-04

     Forces acting on atoms (cartesian axes, Ry/au):

     atom    1 type  1   force =    -0.00000546    0.01325352    0.00382759
     atom    2 type  1   force =     0.01165585   -0.00665046    0.00370113
     atom    3 type  2   force =    -0.00000999   -0.00015808   -0.01847612
     atom    4 type  1   force =    -0.01164048   -0.00667392    0.00369123
     atom    5 type  1   force =    -0.00000616    0.00205342    0.00085217
     atom    6 type  1   force =     0.00178322   -0.00123558    0.00100873
     atom    7 type  2   force =    -0.00001273   -0.00009160    0.00364618
     atom    8 type  1   force =    -0.00176464   -0.00126551    0.00099452
     atom    9 type  1   force =    -0.00000015    0.00045329    0.00014628
     atom   10 type  1   force =     0.00023786   -0.00028007    0.00026565
     atom   11 type  2   force =     0.00000006   -0.00022709    0.00002804
     atom   12 type  1   force =    -0.00023782   -0.00028007    0.00026553
     atom   13 type  1   force =    -0.00000008   -0.00044137   -0.00018149
     atom   14 type  1   force =     0.00010124   -0.00022550   -0.00005182
     atom   15 type  2   force =     0.00000005   -0.00004178   -0.00035614
     atom   16 type  1   force =    -0.00010113   -0.00022572   -0.00005189
     atom   17 type  1   force =    -0.00000007    0.00041386    0.00042410
     atom   18 type  1   force =     0.00042368   -0.00009441    0.00051643
     atom   19 type  2   force =     0.00000004    0.00022403    0.00003792
     atom   20 type  1   force =    -0.00042350   -0.00009459    0.00051639
     atom   21 type  1   force =     0.00000007   -0.00033592   -0.00007880
     atom   22 type  1   force =    -0.00000116   -0.00043643   -0.00013928
     atom   23 type  2   force =     0.00000003   -0.00016354   -0.00044427
     atom   24 type  1   force =     0.00000122   -0.00043647   -0.00013925
     atom   25 type  3   force =     0.00000004    0.00296001   -0.00000282

     Total force =     0.001803     Total SCF correction =     0.000043


     Computing stress (Cartesian axis) and pressure


     negative rho (up, down):  2.460E-04 1.936E-04
          total   stress  (Ry/bohr**3)                   (kbar)     P=       -5.24
  -0.00005418   0.00000000   0.00000000           -7.97        0.00        0.00
   0.00000000  -0.00005928   0.00000576            0.00       -8.72        0.85
   0.00000000   0.00000576   0.00000655            0.00        0.85        0.96


     Writing all to output data dir /tmpu/isholek_g/isholek/MIGUEL/QE/Hydrogen/111_2x2/SAVE/Ni3Pd1_111-B1.save/ :
     XML data file, charge density, pseudopotentials, collected wavefunctions
 
     init_run     :    200.17s CPU    203.93s WALL (       1 calls)
     electrons    :  19503.81s CPU  20985.16s WALL (       1 calls)
     forces       :     52.20s CPU     56.69s WALL (       1 calls)
     force_dftd3  :      0.17s CPU      0.17s WALL (       1 calls)
     stress       :    507.50s CPU    538.74s WALL (       1 calls)
     stres_dftd3  :      0.18s CPU      0.19s WALL (       1 calls)

     Called by init_run:
     wfcinit      :    117.80s CPU    121.19s WALL (       1 calls)
     potinit      :      1.58s CPU      1.65s WALL (       1 calls)
     hinit0       :      0.59s CPU      0.62s WALL (       1 calls)

     Called by electrons:
     c_bands      :  15768.37s CPU  16999.90s WALL (      52 calls)
     sum_band     :   3594.15s CPU   3830.91s WALL (      52 calls)
     v_of_rho     :     36.70s CPU     40.09s WALL (      53 calls)
     newd         :     10.27s CPU     11.97s WALL (      53 calls)
     PAW_pot      :     19.14s CPU     20.22s WALL (      53 calls)
     mix_rho      :     70.07s CPU     76.10s WALL (      52 calls)
     energy_dftd3 :      0.08s CPU      0.08s WALL (       1 calls)

     Called by c_bands:
     init_us_2    :    112.15s CPU    124.12s WALL (    6848 calls)
     init_us_2:cp :    112.06s CPU    124.04s WALL (    6848 calls)
     cegterg      :  14205.75s CPU  15362.26s WALL (    3328 calls)

     Called by *egterg:
     cdiaghg      :    328.77s CPU    352.83s WALL (   10029 calls)
     h_psi        :   9658.53s CPU  10512.68s WALL (   10093 calls)
     s_psi        :    830.43s CPU    881.34s WALL (   10093 calls)
     g_psi        :     27.45s CPU     29.99s WALL (    6701 calls)

     Called by h_psi:
     h_psi:calbec :   1213.37s CPU   1295.49s WALL (   10093 calls)
     vloc_psi     :   7570.74s CPU   8245.40s WALL (   10093 calls)
     add_vuspsi   :    843.19s CPU    910.00s WALL (   10093 calls)

     General routines
     calbec       :   1811.57s CPU   1928.23s WALL (   13741 calls)
     fft          :     26.28s CPU     28.80s WALL (    1363 calls)
     ffts         :     20.85s CPU     23.19s WALL (    6483 calls)
     fftw         :   7200.32s CPU   7708.24s WALL ( 2510244 calls)
     interpolate  :      2.29s CPU      2.46s WALL (     106 calls)
 
     Parallel routines
 
     PWSCF        :      5h37m CPU      6h 3m WALL

 
   This run was terminated on:  23:39:32  26Apr2026            

=------------------------------------------------------------------------------=
   JOB DONE.
=------------------------------------------------------------------------------=
