
     Program PWSCF v.7.3 starts on  7Nov2025 at 19:36:25 

     This program is part of the open-source Quantum ESPRESSO suite
     for quantum simulation of materials; please cite
         "P. Giannozzi et al., J. Phys.:Condens. Matter 21 395502 (2009);
         "P. Giannozzi et al., J. Phys.:Condens. Matter 29 465901 (2017);
         "P. Giannozzi et al., J. Chem. Phys. 152 154105 (2020);
          URL http://www.quantum-espresso.org", 
     in publications or presentations arising from this work. More details at
     http://www.quantum-espresso.org/quote

     Parallel version (MPI), running on    64 processors

     MPI processes distributed on     4 nodes
     241527 MiB available memory on the printing compute node when the environment starts
 
     Reading input from /tmpu/isholek_g/isholek/MIGUEL/QE/Hydrogen/111_2x2-H/SCF/Pd_111_B1-SCF.in

     Current dimensions of program PWSCF are:
     Max number of different atomic species (ntypx) = 10
     Max number of k-points (npk) =  40000
     Max angular momentum in pseudopotentials (lmaxx) =  4
     Message from routine input:
     WARNING: "startingwfc" set to atomic+random may spoil restart
     Message from routine input:
     WARNING: "startingpot" set to atomic may spoil restart
     file Pd.upf: wavefunction(s)  5S 4D renormalized
     file H.upf: wavefunction(s)  1S renormalized

     IMPORTANT: XC functional enforced from input :
     Exchange-correlation= PBE
                           (   1   4   3   4   0   0   0)
     Any further DFT definition will be discarded
     Please, verify this is what you really want

 
     K-points division:     npool     =       8
     R & G space division:  proc/nbgrp/npool/nimage =       8
     Subspace diagonalization in iterative solution of the eigenvalue problem:
     one sub-group per band group will be used
     scalapack distributed-memory algorithm (size of sub-group:  2*  2 procs)

 
     Parallelization info
     --------------------
     sticks:   dense  smooth     PW     G-vecs:    dense   smooth      PW
     Min         432     216     62               125994    44518    6898
     Max         433     217     63               126031    44543    6927
     Sum        3463    1735    499              1008141   356271   55299
 
     Using Slab Decomposition
 

     Title: 
     Pd_111_B1-SCF                                                              


     bravais-lattice index     =            0
     lattice parameter (alat)  =      10.2412  a.u.
     unit-cell volume          =    5675.0250 (a.u.)^3
     number of atoms/cell      =           25
     number of atomic types    =            2
     number of electrons       =       241.00
     number of Kohn-Sham states=          145
     kinetic-energy cutoff     =      60.0000  Ry
     charge density cutoff     =     480.0000  Ry
     scf convergence threshold =      1.0E-10
     mixing beta               =       0.2000
     number of iterations used =           12  local-TF  mixing
     Exchange-correlation= PBE
                           (   1   4   3   4   0   0   0)

     celldm(1)=  10.241232  celldm(2)=   0.000000  celldm(3)=   0.000000
     celldm(4)=   0.000000  celldm(5)=   0.000000  celldm(6)=   0.000000

     crystal axes: (cart. coord. in units of alat)
               a(1) = (   1.000000   0.000000   0.000000 )  
               a(2) = (   0.500000   0.866025   0.000000 )  
               a(3) = (   0.000000   0.000000   6.100712 )  

     reciprocal axes: (cart. coord. in units 2 pi/alat)
               b(1) = (  1.000000 -0.577350  0.000000 )  
               b(2) = (  0.000000  1.154701  0.000000 )  
               b(3) = (  0.000000  0.000000  0.163915 )  


     PseudoPot. # 1 for Pd read from file:
     /tmpu/isholek_g/isholek/MIGUEL/PP/Pd.upf
     MD5 check sum: e9d6f14fd83b79f8105499163af174c9
     Pseudo is Projector augmented-wave + core cor, Zval = 10.0
     Generated using "atomic" code by A. Dal Corso  v.5.0.2 svn rev. 9415
     Shape of augmentation charge: PSQ
     Using radial grid of 1235 points,  6 beta functions with: 
                l(1) =   0
                l(2) =   0
                l(3) =   1
                l(4) =   1
                l(5) =   2
                l(6) =   2
     Q(r) pseudized with 0 coefficients 


     PseudoPot. # 2 for H  read from file:
     /tmpu/isholek_g/isholek/MIGUEL/PP/H.upf
     MD5 check sum: 4cbe42a24e15140179a93d5bf84f2220
     Pseudo is Projector augmented-wave, Zval =  1.0
     Generated using "atomic" code by A. Dal Corso  v.5.0.2 svn rev. 9415
     Shape of augmentation charge: PSQ
     Using radial grid of  929 points,  2 beta functions with: 
                l(1) =   0
                l(2) =   0
     Q(r) pseudized with 0 coefficients 


     atomic species   valence    mass     pseudopotential
     Pd               10.00   106.42000     Pd( 1.00)
     H                 1.00     1.00784     H ( 1.00)

     Starting magnetic structure 
     atomic species   magnetization
     Pd              0.010
     H               1.000

     No symmetry found


                                    s                        frac. trans.

      isym =  1     identity                                     

 cryst.   s( 1) = (     1          0          0      )
                  (     0          1          0      )
                  (     0          0          1      )

 cart.    s( 1) = (  1.0000000  0.0000000  0.0000000 )
                  (  0.0000000  1.0000000  0.0000000 )
                  (  0.0000000  0.0000000  1.0000000 )


   Cartesian axes

     site n.     atom                  positions (alat units)
         1        Pd     tau(   1) = (   0.7499990   0.1443381   2.0297350  )
         2        Pd     tau(   2) = (   0.2500010   0.1443381   2.0297350  )
         3        Pd     tau(   3) = (   0.5000000   0.5773491   2.0297350  )
         4        Pd     tau(   4) = (   1.0000000   0.5773503   2.0297357  )
         5        Pd     tau(   5) = (   0.7499990   0.7216884   2.4379833  )
         6        Pd     tau(   6) = (   1.0000000   0.2886740   2.4379833  )
         7        Pd     tau(   7) = (   1.2500010   0.7216884   2.4379833  )
         8        Pd     tau(   8) = (   0.5000000   0.2886751   2.4379840  )
         9        Pd     tau(   9) = (   1.0000000   0.8660243   2.8462316  )
        10        Pd     tau(  10) = (   1.2499990   0.4330133   2.8462316  )
        11        Pd     tau(  11) = (   0.7500010   0.4330133   2.8462316  )
        12        Pd     tau(  12) = (   1.0000000   0.0000000   2.8462323  )
        13        Pd     tau(  13) = (   0.7499990   0.1443381   3.2544799  )
        14        Pd     tau(  14) = (   0.5000000   0.5773491   3.2544799  )
        15        Pd     tau(  15) = (   0.2500010   0.1443381   3.2544799  )
        16        Pd     tau(  16) = (   1.0000000   0.5773503   3.2544806  )
        17        Pd     tau(  17) = (   0.7499990   0.7216884   3.6627282  )
        18        Pd     tau(  18) = (   1.0000000   0.2886740   3.6627282  )
        19        Pd     tau(  19) = (   1.2500010   0.7216884   3.6627282  )
        20        Pd     tau(  20) = (   0.5000000   0.2886751   3.6627289  )
        21        Pd     tau(  21) = (   1.2499990   0.4330133   4.0709765  )
        22        Pd     tau(  22) = (   1.0000000   0.8660243   4.0709765  )
        23        Pd     tau(  23) = (   0.7500010   0.4330133   4.0709765  )
        24        Pd     tau(  24) = (   1.5000000   0.8660254   4.0709772  )
        25        H      tau(  25) = (   0.5000000   0.4330133   4.2601904  )

     --------------------------------------------
     DFT-D3 Dispersion Correction (3-body terms):
     --------------------------------------------
       Reference C6 values for interpolation: 

         atom   Coordination number   C6
         H          0.912             6.05
         H          0.000            15.18
         Pd         0.000          1217.01
         Pd         1.863           573.90
         Pd         5.710           531.75

       Values used:

         atom   Coordination number  R0_AB[au]  C6      C8
         Pd         6.690            3.168    531.75  48720.73
         Pd         6.690            3.168    531.75  48720.73
         Pd         6.690            3.168    531.75  48720.73
         Pd         6.690            3.168    531.75  48720.73
         Pd         8.957            3.168    531.75  48720.73
         Pd         8.957            3.168    531.75  48720.73
         Pd         8.957            3.168    531.75  48720.73
         Pd         8.957            3.168    531.75  48720.73
         Pd         8.967            3.168    531.75  48720.73
         Pd         8.967            3.168    531.75  48720.73
         Pd         8.967            3.168    531.75  48720.73
         Pd         8.967            3.168    531.75  48720.73
         Pd         8.967            3.168    531.75  48720.73
         Pd         8.967            3.168    531.75  48720.73
         Pd         8.967            3.168    531.75  48720.73
         Pd         8.967            3.168    531.75  48720.73
         Pd         8.958            3.168    531.75  48720.73
         Pd         8.957            3.168    531.75  48720.73
         Pd         8.958            3.168    531.75  48720.73
         Pd         8.958            3.168    531.75  48720.73
         Pd         7.520            3.168    531.75  48720.73
         Pd         6.704            3.168    531.75  48720.73
         Pd         7.520            3.168    531.75  48720.73
         Pd         6.704            3.168    531.75  48720.73
         H          1.689            2.062      6.05     73.19

         Molecular C6 ( Ry / a.u.^6 ) =    308987.85


   Crystallographic axes

     site n.     atom                  positions (cryst. coord.)
         1        Pd     tau(   1) = (  0.6666653  0.1666673  0.3327046  )
         2        Pd     tau(   2) = (  0.1666673  0.1666673  0.3327046  )
         3        Pd     tau(   3) = (  0.1666673  0.6666653  0.3327046  )
         4        Pd     tau(   4) = (  0.6666667  0.6666667  0.3327047  )
         5        Pd     tau(   5) = (  0.3333320  0.8333340  0.3996227  )
         6        Pd     tau(   6) = (  0.8333340  0.3333320  0.3996227  )
         7        Pd     tau(   7) = (  0.8333340  0.8333340  0.3996227  )
         8        Pd     tau(   8) = (  0.3333333  0.3333333  0.3996229  )
         9        Pd     tau(   9) = (  0.5000007  0.9999987  0.4665409  )
        10        Pd     tau(  10) = (  0.9999987  0.5000007  0.4665409  )
        11        Pd     tau(  11) = (  0.5000007  0.5000007  0.4665409  )
        12        Pd     tau(  12) = (  1.0000000  0.0000000  0.4665410  )
        13        Pd     tau(  13) = (  0.6666653  0.1666673  0.5334590  )
        14        Pd     tau(  14) = (  0.1666673  0.6666653  0.5334590  )
        15        Pd     tau(  15) = (  0.1666673  0.1666673  0.5334590  )
        16        Pd     tau(  16) = (  0.6666667  0.6666667  0.5334591  )
        17        Pd     tau(  17) = (  0.3333320  0.8333340  0.6003771  )
        18        Pd     tau(  18) = (  0.8333340  0.3333320  0.6003771  )
        19        Pd     tau(  19) = (  0.8333340  0.8333340  0.6003771  )
        20        Pd     tau(  20) = (  0.3333333  0.3333333  0.6003773  )
        21        Pd     tau(  21) = (  0.9999987  0.5000007  0.6672953  )
        22        Pd     tau(  22) = (  0.5000007  0.9999987  0.6672953  )
        23        Pd     tau(  23) = (  0.5000007  0.5000007  0.6672953  )
        24        Pd     tau(  24) = (  1.0000000  1.0000000  0.6672954  )
        25        H      tau(  25) = (  0.2499997  0.5000007  0.6983103  )

     number of k points=   130  Marzari-Vanderbilt smearing, width (Ry)=  0.0147
                       cart. coord. in units 2pi/alat
        k(    1) = (   0.0000000   0.0000000   0.0000000), wk =   0.0039062
        k(    2) = (   0.0000000   0.0721688   0.0000000), wk =   0.0078125
        k(    3) = (   0.0000000   0.1443376   0.0000000), wk =   0.0078125
        k(    4) = (   0.0000000   0.2165064   0.0000000), wk =   0.0078125
        k(    5) = (   0.0000000   0.2886751   0.0000000), wk =   0.0078125
        k(    6) = (   0.0000000   0.3608439   0.0000000), wk =   0.0078125
        k(    7) = (   0.0000000   0.4330127   0.0000000), wk =   0.0078125
        k(    8) = (   0.0000000   0.5051815   0.0000000), wk =   0.0078125
        k(    9) = (   0.0000000  -0.5773503   0.0000000), wk =   0.0039062
        k(   10) = (   0.0625000  -0.0360844   0.0000000), wk =   0.0078125
        k(   11) = (   0.0625000   0.0360844   0.0000000), wk =   0.0078125
        k(   12) = (   0.0625000   0.1082532   0.0000000), wk =   0.0078125
        k(   13) = (   0.0625000   0.1804220   0.0000000), wk =   0.0078125
        k(   14) = (   0.0625000   0.2525907   0.0000000), wk =   0.0078125
        k(   15) = (   0.0625000   0.3247595   0.0000000), wk =   0.0078125
        k(   16) = (   0.0625000   0.3969283   0.0000000), wk =   0.0078125
        k(   17) = (   0.0625000   0.4690971   0.0000000), wk =   0.0078125
        k(   18) = (   0.0625000  -0.6134347   0.0000000), wk =   0.0078125
        k(   19) = (   0.0625000  -0.5412659   0.0000000), wk =   0.0078125
        k(   20) = (   0.0625000  -0.4690971   0.0000000), wk =   0.0078125
        k(   21) = (   0.0625000  -0.3969283   0.0000000), wk =   0.0078125
        k(   22) = (   0.0625000  -0.3247595   0.0000000), wk =   0.0078125
        k(   23) = (   0.0625000  -0.2525907   0.0000000), wk =   0.0078125
        k(   24) = (   0.0625000  -0.1804220   0.0000000), wk =   0.0078125
        k(   25) = (   0.0625000  -0.1082532   0.0000000), wk =   0.0078125
        k(   26) = (   0.1250000  -0.0721688   0.0000000), wk =   0.0078125
        k(   27) = (   0.1250000   0.0000000   0.0000000), wk =   0.0078125
        k(   28) = (   0.1250000   0.0721688   0.0000000), wk =   0.0078125
        k(   29) = (   0.1250000   0.1443376   0.0000000), wk =   0.0078125
        k(   30) = (   0.1250000   0.2165064   0.0000000), wk =   0.0078125
        k(   31) = (   0.1250000   0.2886751   0.0000000), wk =   0.0078125
        k(   32) = (   0.1250000   0.3608439   0.0000000), wk =   0.0078125
        k(   33) = (   0.1250000   0.4330127   0.0000000), wk =   0.0078125
        k(   34) = (   0.1250000  -0.6495191   0.0000000), wk =   0.0078125
        k(   35) = (   0.1250000  -0.5773503   0.0000000), wk =   0.0078125
        k(   36) = (   0.1250000  -0.5051815   0.0000000), wk =   0.0078125
        k(   37) = (   0.1250000  -0.4330127   0.0000000), wk =   0.0078125
        k(   38) = (   0.1250000  -0.3608439   0.0000000), wk =   0.0078125
        k(   39) = (   0.1250000  -0.2886751   0.0000000), wk =   0.0078125
        k(   40) = (   0.1250000  -0.2165064   0.0000000), wk =   0.0078125
        k(   41) = (   0.1250000  -0.1443376   0.0000000), wk =   0.0078125
        k(   42) = (   0.1875000  -0.1082532   0.0000000), wk =   0.0078125
        k(   43) = (   0.1875000  -0.0360844   0.0000000), wk =   0.0078125
        k(   44) = (   0.1875000   0.0360844   0.0000000), wk =   0.0078125
        k(   45) = (   0.1875000   0.1082532   0.0000000), wk =   0.0078125
        k(   46) = (   0.1875000   0.1804220   0.0000000), wk =   0.0078125
        k(   47) = (   0.1875000   0.2525907   0.0000000), wk =   0.0078125
        k(   48) = (   0.1875000   0.3247595   0.0000000), wk =   0.0078125
        k(   49) = (   0.1875000   0.3969283   0.0000000), wk =   0.0078125
        k(   50) = (   0.1875000  -0.6856034   0.0000000), wk =   0.0078125
        k(   51) = (   0.1875000  -0.6134347   0.0000000), wk =   0.0078125
        k(   52) = (   0.1875000  -0.5412659   0.0000000), wk =   0.0078125
        k(   53) = (   0.1875000  -0.4690971   0.0000000), wk =   0.0078125
        k(   54) = (   0.1875000  -0.3969283   0.0000000), wk =   0.0078125
        k(   55) = (   0.1875000  -0.3247595   0.0000000), wk =   0.0078125
        k(   56) = (   0.1875000  -0.2525907   0.0000000), wk =   0.0078125
        k(   57) = (   0.1875000  -0.1804220   0.0000000), wk =   0.0078125
        k(   58) = (   0.2500000  -0.1443376   0.0000000), wk =   0.0078125
        k(   59) = (   0.2500000  -0.0721688   0.0000000), wk =   0.0078125
        k(   60) = (   0.2500000   0.0000000   0.0000000), wk =   0.0078125
        k(   61) = (   0.2500000   0.0721688   0.0000000), wk =   0.0078125
        k(   62) = (   0.2500000   0.1443376   0.0000000), wk =   0.0078125
        k(   63) = (   0.2500000   0.2165064   0.0000000), wk =   0.0078125
        k(   64) = (   0.2500000   0.2886751   0.0000000), wk =   0.0078125
        k(   65) = (   0.2500000   0.3608439   0.0000000), wk =   0.0078125
        k(   66) = (   0.2500000  -0.7216878   0.0000000), wk =   0.0078125
        k(   67) = (   0.2500000  -0.6495191   0.0000000), wk =   0.0078125
        k(   68) = (   0.2500000  -0.5773503   0.0000000), wk =   0.0078125
        k(   69) = (   0.2500000  -0.5051815   0.0000000), wk =   0.0078125
        k(   70) = (   0.2500000  -0.4330127   0.0000000), wk =   0.0078125
        k(   71) = (   0.2500000  -0.3608439   0.0000000), wk =   0.0078125
        k(   72) = (   0.2500000  -0.2886751   0.0000000), wk =   0.0078125
        k(   73) = (   0.2500000  -0.2165064   0.0000000), wk =   0.0078125
        k(   74) = (   0.3125000  -0.1804220   0.0000000), wk =   0.0078125
        k(   75) = (   0.3125000  -0.1082532   0.0000000), wk =   0.0078125
        k(   76) = (   0.3125000  -0.0360844   0.0000000), wk =   0.0078125
        k(   77) = (   0.3125000   0.0360844   0.0000000), wk =   0.0078125
        k(   78) = (   0.3125000   0.1082532   0.0000000), wk =   0.0078125
        k(   79) = (   0.3125000   0.1804220   0.0000000), wk =   0.0078125
        k(   80) = (   0.3125000   0.2525907   0.0000000), wk =   0.0078125
        k(   81) = (   0.3125000   0.3247595   0.0000000), wk =   0.0078125
        k(   82) = (   0.3125000  -0.7577722   0.0000000), wk =   0.0078125
        k(   83) = (   0.3125000  -0.6856034   0.0000000), wk =   0.0078125
        k(   84) = (   0.3125000  -0.6134347   0.0000000), wk =   0.0078125
        k(   85) = (   0.3125000  -0.5412659   0.0000000), wk =   0.0078125
        k(   86) = (   0.3125000  -0.4690971   0.0000000), wk =   0.0078125
        k(   87) = (   0.3125000  -0.3969283   0.0000000), wk =   0.0078125
        k(   88) = (   0.3125000  -0.3247595   0.0000000), wk =   0.0078125
        k(   89) = (   0.3125000  -0.2525907   0.0000000), wk =   0.0078125
        k(   90) = (   0.3750000  -0.2165064   0.0000000), wk =   0.0078125
        k(   91) = (   0.3750000  -0.1443376   0.0000000), wk =   0.0078125
        k(   92) = (   0.3750000  -0.0721688   0.0000000), wk =   0.0078125
        k(   93) = (   0.3750000   0.0000000   0.0000000), wk =   0.0078125
        k(   94) = (   0.3750000   0.0721688   0.0000000), wk =   0.0078125
        k(   95) = (   0.3750000   0.1443376   0.0000000), wk =   0.0078125
        k(   96) = (   0.3750000   0.2165064   0.0000000), wk =   0.0078125
        k(   97) = (   0.3750000   0.2886751   0.0000000), wk =   0.0078125
        k(   98) = (   0.3750000  -0.7938566   0.0000000), wk =   0.0078125
        k(   99) = (   0.3750000  -0.7216878   0.0000000), wk =   0.0078125
        k(  100) = (   0.3750000  -0.6495191   0.0000000), wk =   0.0078125
        k(  101) = (   0.3750000  -0.5773503   0.0000000), wk =   0.0078125
        k(  102) = (   0.3750000  -0.5051815   0.0000000), wk =   0.0078125
        k(  103) = (   0.3750000  -0.4330127   0.0000000), wk =   0.0078125
        k(  104) = (   0.3750000  -0.3608439   0.0000000), wk =   0.0078125
        k(  105) = (   0.3750000  -0.2886751   0.0000000), wk =   0.0078125
        k(  106) = (   0.4375000  -0.2525907   0.0000000), wk =   0.0078125
        k(  107) = (   0.4375000  -0.1804220   0.0000000), wk =   0.0078125
        k(  108) = (   0.4375000  -0.1082532   0.0000000), wk =   0.0078125
        k(  109) = (   0.4375000  -0.0360844   0.0000000), wk =   0.0078125
        k(  110) = (   0.4375000   0.0360844   0.0000000), wk =   0.0078125
        k(  111) = (   0.4375000   0.1082532   0.0000000), wk =   0.0078125
        k(  112) = (   0.4375000   0.1804220   0.0000000), wk =   0.0078125
        k(  113) = (   0.4375000   0.2525907   0.0000000), wk =   0.0078125
        k(  114) = (   0.4375000  -0.8299410   0.0000000), wk =   0.0078125
        k(  115) = (   0.4375000  -0.7577722   0.0000000), wk =   0.0078125
        k(  116) = (   0.4375000  -0.6856034   0.0000000), wk =   0.0078125
        k(  117) = (   0.4375000  -0.6134347   0.0000000), wk =   0.0078125
        k(  118) = (   0.4375000  -0.5412659   0.0000000), wk =   0.0078125
        k(  119) = (   0.4375000  -0.4690971   0.0000000), wk =   0.0078125
        k(  120) = (   0.4375000  -0.3969283   0.0000000), wk =   0.0078125
        k(  121) = (   0.4375000  -0.3247595   0.0000000), wk =   0.0078125
        k(  122) = (  -0.5000000   0.2886751   0.0000000), wk =   0.0039062
        k(  123) = (  -0.5000000   0.3608439   0.0000000), wk =   0.0078125
        k(  124) = (  -0.5000000   0.4330127   0.0000000), wk =   0.0078125
        k(  125) = (  -0.5000000   0.5051815   0.0000000), wk =   0.0078125
        k(  126) = (  -0.5000000   0.5773503   0.0000000), wk =   0.0078125
        k(  127) = (  -0.5000000   0.6495191   0.0000000), wk =   0.0078125
        k(  128) = (  -0.5000000   0.7216878   0.0000000), wk =   0.0078125
        k(  129) = (  -0.5000000   0.7938566   0.0000000), wk =   0.0078125
        k(  130) = (  -0.5000000  -0.2886751   0.0000000), wk =   0.0039062

                       cryst. coord.
        k(    1) = (   0.0000000   0.0000000   0.0000000), wk =   0.0039062
        k(    2) = (   0.0000000   0.0625000   0.0000000), wk =   0.0078125
        k(    3) = (   0.0000000   0.1250000   0.0000000), wk =   0.0078125
        k(    4) = (   0.0000000   0.1875000   0.0000000), wk =   0.0078125
        k(    5) = (   0.0000000   0.2500000   0.0000000), wk =   0.0078125
        k(    6) = (   0.0000000   0.3125000   0.0000000), wk =   0.0078125
        k(    7) = (   0.0000000   0.3750000   0.0000000), wk =   0.0078125
        k(    8) = (   0.0000000   0.4375000   0.0000000), wk =   0.0078125
        k(    9) = (   0.0000000  -0.5000000   0.0000000), wk =   0.0039062
        k(   10) = (   0.0625000   0.0000000   0.0000000), wk =   0.0078125
        k(   11) = (   0.0625000   0.0625000   0.0000000), wk =   0.0078125
        k(   12) = (   0.0625000   0.1250000   0.0000000), wk =   0.0078125
        k(   13) = (   0.0625000   0.1875000   0.0000000), wk =   0.0078125
        k(   14) = (   0.0625000   0.2500000   0.0000000), wk =   0.0078125
        k(   15) = (   0.0625000   0.3125000   0.0000000), wk =   0.0078125
        k(   16) = (   0.0625000   0.3750000   0.0000000), wk =   0.0078125
        k(   17) = (   0.0625000   0.4375000   0.0000000), wk =   0.0078125
        k(   18) = (   0.0625000  -0.5000000   0.0000000), wk =   0.0078125
        k(   19) = (   0.0625000  -0.4375000   0.0000000), wk =   0.0078125
        k(   20) = (   0.0625000  -0.3750000   0.0000000), wk =   0.0078125
        k(   21) = (   0.0625000  -0.3125000   0.0000000), wk =   0.0078125
        k(   22) = (   0.0625000  -0.2500000   0.0000000), wk =   0.0078125
        k(   23) = (   0.0625000  -0.1875000   0.0000000), wk =   0.0078125
        k(   24) = (   0.0625000  -0.1250000   0.0000000), wk =   0.0078125
        k(   25) = (   0.0625000  -0.0625000   0.0000000), wk =   0.0078125
        k(   26) = (   0.1250000   0.0000000   0.0000000), wk =   0.0078125
        k(   27) = (   0.1250000   0.0625000   0.0000000), wk =   0.0078125
        k(   28) = (   0.1250000   0.1250000   0.0000000), wk =   0.0078125
        k(   29) = (   0.1250000   0.1875000   0.0000000), wk =   0.0078125
        k(   30) = (   0.1250000   0.2500000   0.0000000), wk =   0.0078125
        k(   31) = (   0.1250000   0.3125000   0.0000000), wk =   0.0078125
        k(   32) = (   0.1250000   0.3750000   0.0000000), wk =   0.0078125
        k(   33) = (   0.1250000   0.4375000   0.0000000), wk =   0.0078125
        k(   34) = (   0.1250000  -0.5000000   0.0000000), wk =   0.0078125
        k(   35) = (   0.1250000  -0.4375000   0.0000000), wk =   0.0078125
        k(   36) = (   0.1250000  -0.3750000   0.0000000), wk =   0.0078125
        k(   37) = (   0.1250000  -0.3125000   0.0000000), wk =   0.0078125
        k(   38) = (   0.1250000  -0.2500000   0.0000000), wk =   0.0078125
        k(   39) = (   0.1250000  -0.1875000   0.0000000), wk =   0.0078125
        k(   40) = (   0.1250000  -0.1250000   0.0000000), wk =   0.0078125
        k(   41) = (   0.1250000  -0.0625000   0.0000000), wk =   0.0078125
        k(   42) = (   0.1875000   0.0000000   0.0000000), wk =   0.0078125
        k(   43) = (   0.1875000   0.0625000   0.0000000), wk =   0.0078125
        k(   44) = (   0.1875000   0.1250000   0.0000000), wk =   0.0078125
        k(   45) = (   0.1875000   0.1875000   0.0000000), wk =   0.0078125
        k(   46) = (   0.1875000   0.2500000   0.0000000), wk =   0.0078125
        k(   47) = (   0.1875000   0.3125000   0.0000000), wk =   0.0078125
        k(   48) = (   0.1875000   0.3750000   0.0000000), wk =   0.0078125
        k(   49) = (   0.1875000   0.4375000   0.0000000), wk =   0.0078125
        k(   50) = (   0.1875000  -0.5000000   0.0000000), wk =   0.0078125
        k(   51) = (   0.1875000  -0.4375000   0.0000000), wk =   0.0078125
        k(   52) = (   0.1875000  -0.3750000   0.0000000), wk =   0.0078125
        k(   53) = (   0.1875000  -0.3125000   0.0000000), wk =   0.0078125
        k(   54) = (   0.1875000  -0.2500000   0.0000000), wk =   0.0078125
        k(   55) = (   0.1875000  -0.1875000   0.0000000), wk =   0.0078125
        k(   56) = (   0.1875000  -0.1250000   0.0000000), wk =   0.0078125
        k(   57) = (   0.1875000  -0.0625000   0.0000000), wk =   0.0078125
        k(   58) = (   0.2500000   0.0000000   0.0000000), wk =   0.0078125
        k(   59) = (   0.2500000   0.0625000   0.0000000), wk =   0.0078125
        k(   60) = (   0.2500000   0.1250000   0.0000000), wk =   0.0078125
        k(   61) = (   0.2500000   0.1875000   0.0000000), wk =   0.0078125
        k(   62) = (   0.2500000   0.2500000   0.0000000), wk =   0.0078125
        k(   63) = (   0.2500000   0.3125000   0.0000000), wk =   0.0078125
        k(   64) = (   0.2500000   0.3750000   0.0000000), wk =   0.0078125
        k(   65) = (   0.2500000   0.4375000   0.0000000), wk =   0.0078125
        k(   66) = (   0.2500000  -0.5000000   0.0000000), wk =   0.0078125
        k(   67) = (   0.2500000  -0.4375000   0.0000000), wk =   0.0078125
        k(   68) = (   0.2500000  -0.3750000   0.0000000), wk =   0.0078125
        k(   69) = (   0.2500000  -0.3125000   0.0000000), wk =   0.0078125
        k(   70) = (   0.2500000  -0.2500000   0.0000000), wk =   0.0078125
        k(   71) = (   0.2500000  -0.1875000   0.0000000), wk =   0.0078125
        k(   72) = (   0.2500000  -0.1250000   0.0000000), wk =   0.0078125
        k(   73) = (   0.2500000  -0.0625000   0.0000000), wk =   0.0078125
        k(   74) = (   0.3125000   0.0000000   0.0000000), wk =   0.0078125
        k(   75) = (   0.3125000   0.0625000   0.0000000), wk =   0.0078125
        k(   76) = (   0.3125000   0.1250000   0.0000000), wk =   0.0078125
        k(   77) = (   0.3125000   0.1875000   0.0000000), wk =   0.0078125
        k(   78) = (   0.3125000   0.2500000   0.0000000), wk =   0.0078125
        k(   79) = (   0.3125000   0.3125000   0.0000000), wk =   0.0078125
        k(   80) = (   0.3125000   0.3750000   0.0000000), wk =   0.0078125
        k(   81) = (   0.3125000   0.4375000   0.0000000), wk =   0.0078125
        k(   82) = (   0.3125000  -0.5000000   0.0000000), wk =   0.0078125
        k(   83) = (   0.3125000  -0.4375000   0.0000000), wk =   0.0078125
        k(   84) = (   0.3125000  -0.3750000   0.0000000), wk =   0.0078125
        k(   85) = (   0.3125000  -0.3125000   0.0000000), wk =   0.0078125
        k(   86) = (   0.3125000  -0.2500000   0.0000000), wk =   0.0078125
        k(   87) = (   0.3125000  -0.1875000   0.0000000), wk =   0.0078125
        k(   88) = (   0.3125000  -0.1250000   0.0000000), wk =   0.0078125
        k(   89) = (   0.3125000  -0.0625000   0.0000000), wk =   0.0078125
        k(   90) = (   0.3750000   0.0000000   0.0000000), wk =   0.0078125
        k(   91) = (   0.3750000   0.0625000   0.0000000), wk =   0.0078125
        k(   92) = (   0.3750000   0.1250000   0.0000000), wk =   0.0078125
        k(   93) = (   0.3750000   0.1875000   0.0000000), wk =   0.0078125
        k(   94) = (   0.3750000   0.2500000   0.0000000), wk =   0.0078125
        k(   95) = (   0.3750000   0.3125000   0.0000000), wk =   0.0078125
        k(   96) = (   0.3750000   0.3750000   0.0000000), wk =   0.0078125
        k(   97) = (   0.3750000   0.4375000   0.0000000), wk =   0.0078125
        k(   98) = (   0.3750000  -0.5000000   0.0000000), wk =   0.0078125
        k(   99) = (   0.3750000  -0.4375000   0.0000000), wk =   0.0078125
        k(  100) = (   0.3750000  -0.3750000   0.0000000), wk =   0.0078125
        k(  101) = (   0.3750000  -0.3125000   0.0000000), wk =   0.0078125
        k(  102) = (   0.3750000  -0.2500000   0.0000000), wk =   0.0078125
        k(  103) = (   0.3750000  -0.1875000   0.0000000), wk =   0.0078125
        k(  104) = (   0.3750000  -0.1250000   0.0000000), wk =   0.0078125
        k(  105) = (   0.3750000  -0.0625000   0.0000000), wk =   0.0078125
        k(  106) = (   0.4375000   0.0000000   0.0000000), wk =   0.0078125
        k(  107) = (   0.4375000   0.0625000   0.0000000), wk =   0.0078125
        k(  108) = (   0.4375000   0.1250000   0.0000000), wk =   0.0078125
        k(  109) = (   0.4375000   0.1875000   0.0000000), wk =   0.0078125
        k(  110) = (   0.4375000   0.2500000   0.0000000), wk =   0.0078125
        k(  111) = (   0.4375000   0.3125000   0.0000000), wk =   0.0078125
        k(  112) = (   0.4375000   0.3750000   0.0000000), wk =   0.0078125
        k(  113) = (   0.4375000   0.4375000   0.0000000), wk =   0.0078125
        k(  114) = (   0.4375000  -0.5000000   0.0000000), wk =   0.0078125
        k(  115) = (   0.4375000  -0.4375000   0.0000000), wk =   0.0078125
        k(  116) = (   0.4375000  -0.3750000   0.0000000), wk =   0.0078125
        k(  117) = (   0.4375000  -0.3125000   0.0000000), wk =   0.0078125
        k(  118) = (   0.4375000  -0.2500000   0.0000000), wk =   0.0078125
        k(  119) = (   0.4375000  -0.1875000   0.0000000), wk =   0.0078125
        k(  120) = (   0.4375000  -0.1250000   0.0000000), wk =   0.0078125
        k(  121) = (   0.4375000  -0.0625000   0.0000000), wk =   0.0078125
        k(  122) = (  -0.5000000  -0.0000000   0.0000000), wk =   0.0039062
        k(  123) = (  -0.5000000   0.0625000   0.0000000), wk =   0.0078125
        k(  124) = (  -0.5000000   0.1250000   0.0000000), wk =   0.0078125
        k(  125) = (  -0.5000000   0.1875000   0.0000000), wk =   0.0078125
        k(  126) = (  -0.5000000   0.2500000   0.0000000), wk =   0.0078125
        k(  127) = (  -0.5000000   0.3125000   0.0000000), wk =   0.0078125
        k(  128) = (  -0.5000000   0.3750000   0.0000000), wk =   0.0078125
        k(  129) = (  -0.5000000   0.4375000   0.0000000), wk =   0.0078125
        k(  130) = (  -0.5000000  -0.5000000   0.0000000), wk =   0.0039062

     Dense  grid:  1008141 G-vectors     FFT dimensions: (  72,  72, 450)

     Smooth grid:   356271 G-vectors     FFT dimensions: (  54,  54, 320)

     Dynamical RAM for                 wfc:      12.32 MB

     Dynamical RAM for     wfc (w. buffer):     418.78 MB

     Dynamical RAM for           str. fact:       3.85 MB

     Dynamical RAM for           local pot:       0.00 MB

     Dynamical RAM for          nlocal pot:      36.87 MB

     Dynamical RAM for                qrad:       3.52 MB

     Dynamical RAM for          rho,v,vnew:      25.06 MB

     Dynamical RAM for               rhoin:       8.35 MB

     Dynamical RAM for            rho*nmix:      92.28 MB

     Dynamical RAM for           G-vectors:       7.55 MB

     Dynamical RAM for          h,s,v(r/c):       0.96 MB

     Dynamical RAM for          <psi|beta>:       0.96 MB

     Dynamical RAM for                 psi:      24.63 MB

     Dynamical RAM for                hpsi:      24.63 MB

     Dynamical RAM for                spsi:      24.63 MB

     Dynamical RAM for      wfcinit/wfcrot:      37.95 MB

     Dynamical RAM for           addusdens:      54.07 MB

     Dynamical RAM for          addusforce:      63.63 MB

     Dynamical RAM for         addusstress:      50.35 MB

     Estimated static dynamical RAM per process >     523.27 MB

     Estimated max dynamical RAM per process >     691.37 MB

     Estimated total dynamical RAM >      38.16 GB
 ----2D----2D----2D----2D----2D----2D----2D----2D----2D----2D----2D----2D
  The code is running with the 2D cutoff
  Please refer to:
  Sohier, T., Calandra, M., & Mauri, F. (2017), 
  Density functional perturbation theory for gated two-dimensional heterostructu
 res:
  Theoretical developments and application to flexural phonons in graphene.
  Physical Review B, 96(7), 75448. https://doi.org/10.1103/PhysRevB.96.075448
 ----2D----2D----2D----2D----2D----2D----2D----2D----2D----2D----2D----2D

     Atomic positions and unit cell read from directory:
     /tmpu/isholek_g/isholek/MIGUEL/QE/Hydrogen/111_2x2-H/SAVE/Pd_111_B1.save/
     Atomic positions from file used, from input discarded
 

     Check: negative core charge=   -0.000002
     Generating pointlists ...
     new r_m :   0.1309 (alat units)  1.3407 (a.u.) for type    1
     new r_m :   0.1309 (alat units)  1.3407 (a.u.) for type    2

     The initial density is read from file :
     /tmpu/isholek_g/isholek/MIGUEL/QE/Hydrogen/111_2x2-H/SAVE/Pd_111_B1.save/charge-density


     negative rho (up, down):  7.349E-06 7.361E-06
     Starting wfcs are  217 randomized atomic wfcs
     Checking if some PAW data can be deallocated... 
       PAW data deallocated on    2 nodes for type:  1
       PAW data deallocated on   62 nodes for type:  2

     total cpu time spent up to now is      407.6 secs

     Self-consistent Calculation

     iteration #  1     ecut=    60.00 Ry     beta= 0.20
     Davidson diagonalization with overlap

---- Real-time Memory Report at c_bands before calling an iterative solver
           789 MiB given to the printing process from OS
             0 MiB allocation reported by mallinfo(arena+hblkhd)
        232221 MiB available memory on the node where the printing process lives
------------------
     c_bands:  1 eigenvalues not converged
     c_bands:  1 eigenvalues not converged
     c_bands:  2 eigenvalues not converged
     c_bands:  3 eigenvalues not converged
     c_bands:  2 eigenvalues not converged
     c_bands:  2 eigenvalues not converged
     c_bands:  1 eigenvalues not converged
     c_bands:  1 eigenvalues not converged
     c_bands:  1 eigenvalues not converged
     c_bands:  3 eigenvalues not converged
     c_bands:  2 eigenvalues not converged
     c_bands:  2 eigenvalues not converged
     c_bands:  1 eigenvalues not converged
     c_bands:  3 eigenvalues not converged
     c_bands:  3 eigenvalues not converged
     c_bands:  1 eigenvalues not converged
     c_bands:  1 eigenvalues not converged
     c_bands:  3 eigenvalues not converged
     c_bands:  3 eigenvalues not converged
     c_bands:  1 eigenvalues not converged
     c_bands:  2 eigenvalues not converged
     c_bands:  2 eigenvalues not converged
     c_bands:  2 eigenvalues not converged
     c_bands:  4 eigenvalues not converged
     c_bands:  5 eigenvalues not converged
     c_bands:  2 eigenvalues not converged
     c_bands:  2 eigenvalues not converged
     c_bands:  1 eigenvalues not converged
     c_bands:  3 eigenvalues not converged
     ethr =  1.00E-05,  avg # of iterations = 19.9

     Threshold (ethr) on eigenvalues was too large:
     Diagonalizing with lowered threshold

     Davidson diagonalization with overlap

---- Real-time Memory Report at c_bands before calling an iterative solver
           886 MiB given to the printing process from OS
             0 MiB allocation reported by mallinfo(arena+hblkhd)
        231691 MiB available memory on the node where the printing process lives
------------------
     c_bands:  1 eigenvalues not converged
     c_bands:  1 eigenvalues not converged
     ethr =  1.95E-07,  avg # of iterations =  9.3

     negative rho (up, down):  9.914E-06 9.923E-06

     total cpu time spent up to now is     4288.7 secs

     total energy              =   -7950.20035087 Ry
     estimated scf accuracy    <       0.00042684 Ry

     total magnetization       =     4.63 Bohr mag/cell
     absolute magnetization    =     4.88 Bohr mag/cell

     iteration #  2     ecut=    60.00 Ry     beta= 0.20
     Davidson diagonalization with overlap

---- Real-time Memory Report at c_bands before calling an iterative solver
           918 MiB given to the printing process from OS
             0 MiB allocation reported by mallinfo(arena+hblkhd)
        234341 MiB available memory on the node where the printing process lives
------------------
     ethr =  1.77E-07,  avg # of iterations =  1.2

     negative rho (up, down):  1.450E-05 1.450E-05

     total cpu time spent up to now is     4887.7 secs

     total energy              =   -7950.20036101 Ry
     estimated scf accuracy    <       0.00003911 Ry

     total magnetization       =     4.62 Bohr mag/cell
     absolute magnetization    =     4.87 Bohr mag/cell

     iteration #  3     ecut=    60.00 Ry     beta= 0.20
     Davidson diagonalization with overlap

---- Real-time Memory Report at c_bands before calling an iterative solver
           923 MiB given to the printing process from OS
             0 MiB allocation reported by mallinfo(arena+hblkhd)
        234303 MiB available memory on the node where the printing process lives
------------------
     ethr =  1.62E-08,  avg # of iterations =  2.4

     negative rho (up, down):  1.899E-05 1.899E-05

     total cpu time spent up to now is     5572.4 secs

     total energy              =   -7950.20036657 Ry
     estimated scf accuracy    <       0.00002591 Ry

     total magnetization       =     4.61 Bohr mag/cell
     absolute magnetization    =     4.86 Bohr mag/cell

     iteration #  4     ecut=    60.00 Ry     beta= 0.20
     Davidson diagonalization with overlap

---- Real-time Memory Report at c_bands before calling an iterative solver
           925 MiB given to the printing process from OS
             0 MiB allocation reported by mallinfo(arena+hblkhd)
        234281 MiB available memory on the node where the printing process lives
------------------
     ethr =  1.07E-08,  avg # of iterations =  1.0

     negative rho (up, down):  3.238E-05 3.238E-05

     total cpu time spent up to now is     6189.8 secs

     total energy              =   -7950.20036989 Ry
     estimated scf accuracy    <       0.00001286 Ry

     total magnetization       =     4.60 Bohr mag/cell
     absolute magnetization    =     4.85 Bohr mag/cell

     iteration #  5     ecut=    60.00 Ry     beta= 0.20
     Davidson diagonalization with overlap

---- Real-time Memory Report at c_bands before calling an iterative solver
           929 MiB given to the printing process from OS
             0 MiB allocation reported by mallinfo(arena+hblkhd)
        234258 MiB available memory on the node where the printing process lives
------------------
     ethr =  5.34E-09,  avg # of iterations =  1.2

     negative rho (up, down):  3.584E-05 3.584E-05

     total cpu time spent up to now is     6824.2 secs

     total energy              =   -7950.20037358 Ry
     estimated scf accuracy    <       0.00000325 Ry

     total magnetization       =     4.56 Bohr mag/cell
     absolute magnetization    =     4.81 Bohr mag/cell

     iteration #  6     ecut=    60.00 Ry     beta= 0.20
     Davidson diagonalization with overlap

---- Real-time Memory Report at c_bands before calling an iterative solver
           933 MiB given to the printing process from OS
             0 MiB allocation reported by mallinfo(arena+hblkhd)
        234229 MiB available memory on the node where the printing process lives
------------------
     ethr =  1.35E-09,  avg # of iterations =  2.0

     negative rho (up, down):  3.254E-05 3.255E-05

     total cpu time spent up to now is     7519.5 secs

     total energy              =   -7950.20037600 Ry
     estimated scf accuracy    <       0.00000237 Ry

     total magnetization       =     4.54 Bohr mag/cell
     absolute magnetization    =     4.78 Bohr mag/cell

     iteration #  7     ecut=    60.00 Ry     beta= 0.20
     Davidson diagonalization with overlap

---- Real-time Memory Report at c_bands before calling an iterative solver
           936 MiB given to the printing process from OS
             0 MiB allocation reported by mallinfo(arena+hblkhd)
        234207 MiB available memory on the node where the printing process lives
------------------
     ethr =  9.82E-10,  avg # of iterations =  2.0

     negative rho (up, down):  2.642E-05 2.643E-05

     total cpu time spent up to now is     8216.5 secs

     total energy              =   -7950.20037845 Ry
     estimated scf accuracy    <       0.00000190 Ry

     total magnetization       =     4.50 Bohr mag/cell
     absolute magnetization    =     4.75 Bohr mag/cell

     iteration #  8     ecut=    60.00 Ry     beta= 0.20
     Davidson diagonalization with overlap

---- Real-time Memory Report at c_bands before calling an iterative solver
           940 MiB given to the printing process from OS
             0 MiB allocation reported by mallinfo(arena+hblkhd)
        234179 MiB available memory on the node where the printing process lives
------------------
     ethr =  7.89E-10,  avg # of iterations =  2.1

     negative rho (up, down):  1.662E-05 1.663E-05

     total cpu time spent up to now is     8958.3 secs

     total energy              =   -7950.20038212 Ry
     estimated scf accuracy    <       0.00000179 Ry

     total magnetization       =     4.44 Bohr mag/cell
     absolute magnetization    =     4.69 Bohr mag/cell

     iteration #  9     ecut=    60.00 Ry     beta= 0.20
     Davidson diagonalization with overlap

---- Real-time Memory Report at c_bands before calling an iterative solver
           942 MiB given to the printing process from OS
             0 MiB allocation reported by mallinfo(arena+hblkhd)
        234159 MiB available memory on the node where the printing process lives
------------------
     ethr =  7.45E-10,  avg # of iterations =  2.0

     negative rho (up, down):  1.988E-06 1.994E-06

     total cpu time spent up to now is     9755.2 secs

     total energy              =   -7950.20038200 Ry
     estimated scf accuracy    <       0.00000165 Ry

     total magnetization       =     4.39 Bohr mag/cell
     absolute magnetization    =     4.63 Bohr mag/cell

     iteration # 10     ecut=    60.00 Ry     beta= 0.20
     Davidson diagonalization with overlap

---- Real-time Memory Report at c_bands before calling an iterative solver
           946 MiB given to the printing process from OS
             0 MiB allocation reported by mallinfo(arena+hblkhd)
        234127 MiB available memory on the node where the printing process lives
------------------
     ethr =  6.84E-10,  avg # of iterations =  2.9

     negative rho (up, down):  2.090E-08 2.100E-08

     total cpu time spent up to now is    10607.9 secs

     total energy              =   -7950.20037545 Ry
     estimated scf accuracy    <       0.00000122 Ry

     total magnetization       =     4.29 Bohr mag/cell
     absolute magnetization    =     4.52 Bohr mag/cell

     iteration # 11     ecut=    60.00 Ry     beta= 0.20
     Davidson diagonalization with overlap

---- Real-time Memory Report at c_bands before calling an iterative solver
           949 MiB given to the printing process from OS
             0 MiB allocation reported by mallinfo(arena+hblkhd)
        234106 MiB available memory on the node where the printing process lives
------------------
     ethr =  5.06E-10,  avg # of iterations =  4.2

     negative rho (up, down):  1.266E-08 1.270E-08

     total cpu time spent up to now is    11600.7 secs

     total energy              =   -7950.20039580 Ry
     estimated scf accuracy    <       0.00000051 Ry

     total magnetization       =     4.13 Bohr mag/cell
     absolute magnetization    =     4.36 Bohr mag/cell

     iteration # 12     ecut=    60.00 Ry     beta= 0.20
     Davidson diagonalization with overlap

---- Real-time Memory Report at c_bands before calling an iterative solver
           954 MiB given to the printing process from OS
             0 MiB allocation reported by mallinfo(arena+hblkhd)
        234082 MiB available memory on the node where the printing process lives
------------------
     ethr =  2.11E-10,  avg # of iterations =  3.5

     negative rho (up, down):  2.885E-08 2.887E-08

     total cpu time spent up to now is    12429.1 secs

     total energy              =   -7950.20039440 Ry
     estimated scf accuracy    <       0.00000047 Ry

     total magnetization       =     4.11 Bohr mag/cell
     absolute magnetization    =     4.33 Bohr mag/cell

     iteration # 13     ecut=    60.00 Ry     beta= 0.20
     Davidson diagonalization with overlap

---- Real-time Memory Report at c_bands before calling an iterative solver
           956 MiB given to the printing process from OS
             0 MiB allocation reported by mallinfo(arena+hblkhd)
        234058 MiB available memory on the node where the printing process lives
------------------
     ethr =  1.95E-10,  avg # of iterations =  3.0

     negative rho (up, down):  4.463E-08 4.474E-08

     total cpu time spent up to now is    13354.8 secs

     total energy              =   -7950.20039636 Ry
     estimated scf accuracy    <       0.00000036 Ry

     total magnetization       =     4.05 Bohr mag/cell
     absolute magnetization    =     4.27 Bohr mag/cell

     iteration # 14     ecut=    60.00 Ry     beta= 0.20
     Davidson diagonalization with overlap

---- Real-time Memory Report at c_bands before calling an iterative solver
           958 MiB given to the printing process from OS
             0 MiB allocation reported by mallinfo(arena+hblkhd)
        234034 MiB available memory on the node where the printing process lives
------------------
     ethr =  1.49E-10,  avg # of iterations =  3.4

     negative rho (up, down):  4.220E-08 4.230E-08

     total cpu time spent up to now is    14277.8 secs

     total energy              =   -7950.20039816 Ry
     estimated scf accuracy    <       0.00000018 Ry

     total magnetization       =     4.00 Bohr mag/cell
     absolute magnetization    =     4.21 Bohr mag/cell

     iteration # 15     ecut=    60.00 Ry     beta= 0.20
     Davidson diagonalization with overlap

---- Real-time Memory Report at c_bands before calling an iterative solver
           958 MiB given to the printing process from OS
             0 MiB allocation reported by mallinfo(arena+hblkhd)
        234033 MiB available memory on the node where the printing process lives
------------------
     ethr =  7.44E-11,  avg # of iterations =  1.0

     negative rho (up, down):  6.924E-07 6.940E-07

     total cpu time spent up to now is    14891.9 secs

     total energy              =   -7950.20039813 Ry
     estimated scf accuracy    <       0.00000021 Ry

     total magnetization       =     4.01 Bohr mag/cell
     absolute magnetization    =     4.22 Bohr mag/cell

     iteration # 16     ecut=    60.00 Ry     beta= 0.20
     Davidson diagonalization with overlap

---- Real-time Memory Report at c_bands before calling an iterative solver
           958 MiB given to the printing process from OS
             0 MiB allocation reported by mallinfo(arena+hblkhd)
        234032 MiB available memory on the node where the printing process lives
------------------
     ethr =  7.44E-11,  avg # of iterations =  1.4

     negative rho (up, down):  3.581E-06 3.585E-06

     total cpu time spent up to now is    15524.4 secs

     total energy              =   -7950.20039700 Ry
     estimated scf accuracy    <       0.00000015 Ry

     total magnetization       =     4.02 Bohr mag/cell
     absolute magnetization    =     4.23 Bohr mag/cell

     iteration # 17     ecut=    60.00 Ry     beta= 0.20
     Davidson diagonalization with overlap

---- Real-time Memory Report at c_bands before calling an iterative solver
           959 MiB given to the printing process from OS
             0 MiB allocation reported by mallinfo(arena+hblkhd)
        234029 MiB available memory on the node where the printing process lives
------------------
     ethr =  6.15E-11,  avg # of iterations =  3.0

     negative rho (up, down):  5.822E-06 5.829E-06

     total cpu time spent up to now is    16461.7 secs

     total energy              =   -7950.20039858 Ry
     estimated scf accuracy    <       0.00000017 Ry

     total magnetization       =     3.97 Bohr mag/cell
     absolute magnetization    =     4.18 Bohr mag/cell

     iteration # 18     ecut=    60.00 Ry     beta= 0.20
     Davidson diagonalization with overlap

---- Real-time Memory Report at c_bands before calling an iterative solver
           959 MiB given to the printing process from OS
             0 MiB allocation reported by mallinfo(arena+hblkhd)
        234030 MiB available memory on the node where the printing process lives
------------------
     ethr =  6.15E-11,  avg # of iterations =  2.8

     negative rho (up, down):  5.384E-06 5.391E-06

     total cpu time spent up to now is    17267.1 secs

     total energy              =   -7950.20039716 Ry
     estimated scf accuracy    <       0.00000011 Ry

     total magnetization       =     3.95 Bohr mag/cell
     absolute magnetization    =     4.16 Bohr mag/cell

     iteration # 19     ecut=    60.00 Ry     beta= 0.20
     Davidson diagonalization with overlap

---- Real-time Memory Report at c_bands before calling an iterative solver
           959 MiB given to the printing process from OS
             0 MiB allocation reported by mallinfo(arena+hblkhd)
        234028 MiB available memory on the node where the printing process lives
------------------
     ethr =  4.40E-11,  avg # of iterations =  4.6

     negative rho (up, down):  7.317E-06 7.325E-06

     total cpu time spent up to now is    18277.6 secs

     total energy              =   -7950.20039883 Ry
     estimated scf accuracy    <       0.00000014 Ry

     total magnetization       =     3.90 Bohr mag/cell
     absolute magnetization    =     4.11 Bohr mag/cell

     iteration # 20     ecut=    60.00 Ry     beta= 0.20
     Davidson diagonalization with overlap

---- Real-time Memory Report at c_bands before calling an iterative solver
           959 MiB given to the printing process from OS
             0 MiB allocation reported by mallinfo(arena+hblkhd)
        234023 MiB available memory on the node where the printing process lives
------------------
     ethr =  4.40E-11,  avg # of iterations =  3.1

     negative rho (up, down):  6.536E-06 6.544E-06

     total cpu time spent up to now is    19070.5 secs

     total energy              =   -7950.20039923 Ry
     estimated scf accuracy    <       0.00000010 Ry

     total magnetization       =     3.88 Bohr mag/cell
     absolute magnetization    =     4.09 Bohr mag/cell

     iteration # 21     ecut=    60.00 Ry     beta= 0.20
     Davidson diagonalization with overlap

---- Real-time Memory Report at c_bands before calling an iterative solver
           959 MiB given to the printing process from OS
             0 MiB allocation reported by mallinfo(arena+hblkhd)
        234026 MiB available memory on the node where the printing process lives
------------------
     ethr =  3.99E-11,  avg # of iterations =  2.0

     negative rho (up, down):  8.945E-06 8.954E-06

     total cpu time spent up to now is    19697.8 secs

     total energy              =   -7950.20039924 Ry
     estimated scf accuracy    <          7.8E-09 Ry

     total magnetization       =     3.88 Bohr mag/cell
     absolute magnetization    =     4.08 Bohr mag/cell

     iteration # 22     ecut=    60.00 Ry     beta= 0.20
     Davidson diagonalization with overlap

---- Real-time Memory Report at c_bands before calling an iterative solver
           960 MiB given to the printing process from OS
             0 MiB allocation reported by mallinfo(arena+hblkhd)
        234027 MiB available memory on the node where the printing process lives
------------------
     ethr =  3.22E-12,  avg # of iterations =  2.2

     negative rho (up, down):  8.696E-06 8.705E-06

     total cpu time spent up to now is    20469.9 secs

     total energy              =   -7950.20039923 Ry
     estimated scf accuracy    <          2.3E-09 Ry

     total magnetization       =     3.88 Bohr mag/cell
     absolute magnetization    =     4.08 Bohr mag/cell

     iteration # 23     ecut=    60.00 Ry     beta= 0.20
     Davidson diagonalization with overlap

---- Real-time Memory Report at c_bands before calling an iterative solver
           960 MiB given to the printing process from OS
             0 MiB allocation reported by mallinfo(arena+hblkhd)
        234027 MiB available memory on the node where the printing process lives
------------------
     ethr =  9.61E-13,  avg # of iterations =  5.1

     negative rho (up, down):  8.211E-06 8.219E-06

     total cpu time spent up to now is    21504.6 secs

     total energy              =   -7950.20039926 Ry
     estimated scf accuracy    <          2.8E-09 Ry

     total magnetization       =     3.87 Bohr mag/cell
     absolute magnetization    =     4.08 Bohr mag/cell

     iteration # 24     ecut=    60.00 Ry     beta= 0.20
     Davidson diagonalization with overlap

---- Real-time Memory Report at c_bands before calling an iterative solver
           960 MiB given to the printing process from OS
             0 MiB allocation reported by mallinfo(arena+hblkhd)
        234026 MiB available memory on the node where the printing process lives
------------------
     ethr =  9.61E-13,  avg # of iterations =  2.3

     negative rho (up, down):  8.176E-06 8.184E-06

     total cpu time spent up to now is    22277.0 secs

     total energy              =   -7950.20039926 Ry
     estimated scf accuracy    <          3.3E-09 Ry

     total magnetization       =     3.87 Bohr mag/cell
     absolute magnetization    =     4.07 Bohr mag/cell

     iteration # 25     ecut=    60.00 Ry     beta= 0.20
     Davidson diagonalization with overlap

---- Real-time Memory Report at c_bands before calling an iterative solver
           960 MiB given to the printing process from OS
             0 MiB allocation reported by mallinfo(arena+hblkhd)
        234025 MiB available memory on the node where the printing process lives
------------------
     ethr =  9.61E-13,  avg # of iterations =  2.5

     negative rho (up, down):  7.718E-06 7.726E-06

     total cpu time spent up to now is    23045.4 secs

     total energy              =   -7950.20039924 Ry
     estimated scf accuracy    <          1.2E-09 Ry

     total magnetization       =     3.87 Bohr mag/cell
     absolute magnetization    =     4.07 Bohr mag/cell

     iteration # 26     ecut=    60.00 Ry     beta= 0.20
     Davidson diagonalization with overlap

---- Real-time Memory Report at c_bands before calling an iterative solver
           960 MiB given to the printing process from OS
             0 MiB allocation reported by mallinfo(arena+hblkhd)
        234027 MiB available memory on the node where the printing process lives
------------------
     ethr =  4.94E-13,  avg # of iterations =  3.5

     negative rho (up, down):  7.670E-06 7.678E-06

     total cpu time spent up to now is    24013.2 secs

     total energy              =   -7950.20039926 Ry
     estimated scf accuracy    <          7.1E-10 Ry

     total magnetization       =     3.87 Bohr mag/cell
     absolute magnetization    =     4.08 Bohr mag/cell

     iteration # 27     ecut=    60.00 Ry     beta= 0.20
     Davidson diagonalization with overlap

---- Real-time Memory Report at c_bands before calling an iterative solver
           960 MiB given to the printing process from OS
             0 MiB allocation reported by mallinfo(arena+hblkhd)
        234026 MiB available memory on the node where the printing process lives
------------------
     ethr =  2.93E-13,  avg # of iterations =  3.2

     negative rho (up, down):  7.902E-06 7.910E-06

     total cpu time spent up to now is    24938.7 secs

     total energy              =   -7950.20039926 Ry
     estimated scf accuracy    <          5.4E-10 Ry

     total magnetization       =     3.87 Bohr mag/cell
     absolute magnetization    =     4.08 Bohr mag/cell

     iteration # 28     ecut=    60.00 Ry     beta= 0.20
     Davidson diagonalization with overlap

---- Real-time Memory Report at c_bands before calling an iterative solver
           961 MiB given to the printing process from OS
             0 MiB allocation reported by mallinfo(arena+hblkhd)
        234026 MiB available memory on the node where the printing process lives
------------------
     ethr =  2.24E-13,  avg # of iterations =  3.1

     negative rho (up, down):  7.533E-06 7.541E-06

     total cpu time spent up to now is    25900.1 secs

     total energy              =   -7950.20039926 Ry
     estimated scf accuracy    <          2.5E-10 Ry

     total magnetization       =     3.87 Bohr mag/cell
     absolute magnetization    =     4.08 Bohr mag/cell

     iteration # 29     ecut=    60.00 Ry     beta= 0.20
     Davidson diagonalization with overlap

---- Real-time Memory Report at c_bands before calling an iterative solver
           961 MiB given to the printing process from OS
             0 MiB allocation reported by mallinfo(arena+hblkhd)
        234025 MiB available memory on the node where the printing process lives
------------------
     ethr =  1.03E-13,  avg # of iterations =  3.3

     negative rho (up, down):  7.294E-06 7.302E-06

     total cpu time spent up to now is    26857.6 secs

     total energy              =   -7950.20039926 Ry
     estimated scf accuracy    <          1.3E-10 Ry

     total magnetization       =     3.87 Bohr mag/cell
     absolute magnetization    =     4.08 Bohr mag/cell

     iteration # 30     ecut=    60.00 Ry     beta= 0.20
     Davidson diagonalization with overlap

---- Real-time Memory Report at c_bands before calling an iterative solver
           961 MiB given to the printing process from OS
             0 MiB allocation reported by mallinfo(arena+hblkhd)
        234021 MiB available memory on the node where the printing process lives
------------------
     ethr =  1.00E-13,  avg # of iterations =  3.3

     negative rho (up, down):  7.315E-06 7.322E-06

     total cpu time spent up to now is    27811.2 secs

     total energy              =   -7950.20039926 Ry
     estimated scf accuracy    <          1.9E-10 Ry

     total magnetization       =     3.87 Bohr mag/cell
     absolute magnetization    =     4.07 Bohr mag/cell

     iteration # 31     ecut=    60.00 Ry     beta= 0.20
     Davidson diagonalization with overlap

---- Real-time Memory Report at c_bands before calling an iterative solver
           961 MiB given to the printing process from OS
             0 MiB allocation reported by mallinfo(arena+hblkhd)
        234024 MiB available memory on the node where the printing process lives
------------------
     ethr =  1.00E-13,  avg # of iterations =  1.9

     negative rho (up, down):  7.330E-06 7.338E-06

     total cpu time spent up to now is    28504.0 secs

     total energy              =   -7950.20039927 Ry
     estimated scf accuracy    <          1.2E-10 Ry

     total magnetization       =     3.87 Bohr mag/cell
     absolute magnetization    =     4.07 Bohr mag/cell

     iteration # 32     ecut=    60.00 Ry     beta= 0.20
     Davidson diagonalization with overlap

---- Real-time Memory Report at c_bands before calling an iterative solver
           961 MiB given to the printing process from OS
             0 MiB allocation reported by mallinfo(arena+hblkhd)
        234019 MiB available memory on the node where the printing process lives
------------------
     ethr =  1.00E-13,  avg # of iterations =  1.3

     negative rho (up, down):  7.356E-06 7.363E-06
 
     Magnetic moment per site  (integrated on atomic sphere of radius R)
     atom   1 (R=0.131)  charge=  5.2186  magn=  0.1039
     atom   2 (R=0.131)  charge=  5.2186  magn=  0.1039
     atom   3 (R=0.131)  charge=  5.2185  magn=  0.1046
     atom   4 (R=0.131)  charge=  5.2188  magn=  0.1054
     atom   5 (R=0.131)  charge=  5.2048  magn=  0.1586
     atom   6 (R=0.131)  charge=  5.2049  magn=  0.1553
     atom   7 (R=0.131)  charge=  5.2048  magn=  0.1586
     atom   8 (R=0.131)  charge=  5.2051  magn=  0.1577
     atom   9 (R=0.131)  charge=  5.2042  magn=  0.1650
     atom  10 (R=0.131)  charge=  5.2038  magn=  0.1599
     atom  11 (R=0.131)  charge=  5.2038  magn=  0.1599
     atom  12 (R=0.131)  charge=  5.2043  magn=  0.1585
     atom  13 (R=0.131)  charge=  5.2052  magn=  0.1413
     atom  14 (R=0.131)  charge=  5.2035  magn=  0.1442
     atom  15 (R=0.131)  charge=  5.2052  magn=  0.1413
     atom  16 (R=0.131)  charge=  5.2034  magn=  0.1400
     atom  17 (R=0.131)  charge=  5.2057  magn=  0.1173
     atom  18 (R=0.131)  charge=  5.2072  magn=  0.0991
     atom  19 (R=0.131)  charge=  5.2057  magn=  0.1173
     atom  20 (R=0.131)  charge=  5.2049  magn=  0.1052
     atom  21 (R=0.131)  charge=  5.2114  magn=  0.0413
     atom  22 (R=0.131)  charge=  5.2229  magn=  0.0656
     atom  23 (R=0.131)  charge=  5.2114  magn=  0.0413
     atom  24 (R=0.131)  charge=  5.2199  magn=  0.0645
     atom  25 (R=0.131)  charge=  0.9009  magn= -0.0009

     total cpu time spent up to now is    29175.0 secs

     End of self-consistent calculation

 ------ SPIN UP ------------


          k = 0.0000 0.0000 0.0000 ( 44627 PWs)   bands (ev):

   -12.6009 -12.1393 -11.6335 -11.0700 -10.9985 -10.9983 -10.9915 -10.9691
   -10.8537 -10.8524 -10.8467 -10.7265 -10.7264 -10.7238 -10.6316 -10.6196
   -10.6187 -10.6098 -10.4585 -10.4376 -10.4370 -10.3513 -10.2416 -10.2348
   -10.2273 -10.1990 -10.1406 -10.0768 -10.0360 -10.0022  -9.6465  -9.4884
    -9.4768  -9.1641  -8.8655  -8.8553  -8.7229  -8.6247  -8.6134  -8.5398
    -8.5298  -8.4989  -8.4822  -8.4811  -8.4286  -8.4286  -8.3624  -8.3621
    -8.3330  -8.3310  -8.3302  -8.2544  -8.2451  -8.2419  -8.1516  -8.1489
    -8.0718  -7.9181  -7.8832  -7.8766  -7.8264  -7.8177  -7.8047  -7.7446
    -7.6235  -7.6056  -7.5982  -7.4172  -7.2889  -7.2870  -7.1787  -7.1513
    -7.1445  -6.9055  -6.7321  -6.7280  -6.7255  -6.6882  -6.6584  -6.6495
    -6.5898  -6.5085  -6.4358  -6.4092  -6.3965  -6.3928  -6.1930  -6.1926
    -6.1834  -6.0655  -6.0185  -5.8465  -5.8298  -5.8041  -5.7544  -5.7400
    -5.7146  -5.6356  -5.6211  -5.5055  -5.4912  -5.4821  -5.4375  -5.4342
    -5.4184  -5.4065  -5.4063  -5.4048  -5.3344  -5.3336  -5.3328  -5.3300
    -5.3212  -5.2585  -5.2517  -5.2514  -5.1807  -5.1730  -5.1595  -5.1135
    -5.0744  -5.0307  -4.9990  -4.9914  -4.9909  -4.9884  -4.2388  -3.8543
    -3.7665  -3.7509  -3.0806  -2.7260  -2.6851  -2.2034  -1.8725  -1.8311
    -1.6778  -1.6582  -1.6563  -1.5313  -1.4103  -1.3897  -1.3537  -1.3519
    -1.3497

     occupation numbers 
     1.0000   1.0000   1.0000   1.0000   1.0000   1.0000   1.0000   1.0000
     1.0000   1.0000   1.0000   1.0000   1.0000   1.0000   1.0000   1.0000
     1.0000   1.0000   1.0000   1.0000   1.0000   1.0000   1.0000   1.0000
     1.0000   1.0000   1.0000   1.0000   1.0000   1.0000   1.0000   1.0000
     1.0000   1.0000   1.0000   1.0000   1.0000   1.0000   1.0000   1.0000
     1.0000   1.0000   1.0000   1.0000   1.0000   1.0000   1.0000   1.0000
     1.0000   1.0000   1.0000   1.0000   1.0000   1.0000   1.0000   1.0000
     1.0000   1.0000   1.0000   1.0000   1.0000   1.0000   1.0000   1.0000
     1.0000   1.0000   1.0000   1.0000   1.0000   1.0000   1.0000   1.0000
     1.0000   1.0000   1.0000   1.0000   1.0000   1.0000   1.0000   1.0000
     1.0000   1.0000   1.0000   1.0000   1.0000   1.0000   1.0000   1.0000
     1.0000   1.0000   1.0001   1.0037   1.0051   1.0081   1.0180   1.0222
     1.0309   1.0660   1.0721   1.0483   1.0295   1.0152   0.9173   0.9086
     0.8625   0.8251   0.8242   0.8193   0.5641   0.5609   0.5581   0.5474
     0.5145   0.3016   0.2815   0.2806   0.1220   0.1099   0.0909   0.0446
     0.0226   0.0096   0.0049   0.0041   0.0041   0.0039   0.0000   0.0000
     0.0000   0.0000   0.0000   0.0000   0.0000   0.0000   0.0000   0.0000
     0.0000   0.0000   0.0000   0.0000   0.0000   0.0000   0.0000   0.0000
     0.0000

          k = 0.0000 0.0722 0.0000 ( 44605 PWs)   bands (ev):

   -12.5692 -12.1153 -11.6103 -11.0428 -10.9800 -10.9765 -10.9706 -10.9437
   -10.8394 -10.8326 -10.8300 -10.7120 -10.7098 -10.7073 -10.6089 -10.6010
   -10.5944 -10.5843 -10.4393 -10.4238 -10.4131 -10.3315 -10.2250 -10.2205
   -10.2131 -10.1757 -10.1171 -10.0621 -10.0137  -9.9769  -9.6376  -9.4776
    -9.4687  -9.1638  -8.8630  -8.8626  -8.7284  -8.6264  -8.6138  -8.5613
    -8.5386  -8.5195  -8.4817  -8.4678  -8.4475  -8.4069  -8.3478  -8.3432
    -8.3259  -8.3247  -8.3191  -8.2821  -8.2579  -8.2200  -8.1319  -8.1199
    -8.0801  -7.9012  -7.8991  -7.8567  -7.8449  -7.8307  -7.8167  -7.7499
    -7.6277  -7.6240  -7.6060  -7.4713  -7.3763  -7.3114  -7.1761  -7.1667
    -7.0927  -6.9235  -6.7725  -6.7674  -6.7568  -6.7175  -6.6545  -6.6392
    -6.6201  -6.5119  -6.4805  -6.4698  -6.3960  -6.3725  -6.2913  -6.2121
    -6.1941  -6.0661  -5.9662  -5.8382  -5.8294  -5.8225  -5.7936  -5.7658
    -5.7468  -5.7247  -5.6367  -5.5855  -5.5124  -5.5046  -5.4986  -5.4905
    -5.4900  -5.4402  -5.4339  -5.3800  -5.3710  -5.3679  -5.3588  -5.3512
    -5.3424  -5.2964  -5.2907  -5.2773  -5.2086  -5.2008  -5.1862  -5.1233
    -5.0678  -5.0599  -5.0466  -5.0386  -5.0217  -4.9332  -4.0877  -3.9612
    -3.7397  -3.6642  -3.0596  -2.9712  -2.6767  -2.3482  -2.2532  -2.0858
    -1.9231  -1.8103  -1.7717  -1.5085  -1.3494  -1.2818  -0.9714  -0.9264
    -0.5750

     occupation numbers 
     1.0000   1.0000   1.0000   1.0000   1.0000   1.0000   1.0000   1.0000
     1.0000   1.0000   1.0000   1.0000   1.0000   1.0000   1.0000   1.0000
     1.0000   1.0000   1.0000   1.0000   1.0000   1.0000   1.0000   1.0000
     1.0000   1.0000   1.0000   1.0000   1.0000   1.0000   1.0000   1.0000
     1.0000   1.0000   1.0000   1.0000   1.0000   1.0000   1.0000   1.0000
     1.0000   1.0000   1.0000   1.0000   1.0000   1.0000   1.0000   1.0000
     1.0000   1.0000   1.0000   1.0000   1.0000   1.0000   1.0000   1.0000
     1.0000   1.0000   1.0000   1.0000   1.0000   1.0000   1.0000   1.0000
     1.0000   1.0000   1.0000   1.0000   1.0000   1.0000   1.0000   1.0000
     1.0000   1.0000   1.0000   1.0000   1.0000   1.0000   1.0000   1.0000
     1.0000   1.0000   1.0000   1.0000   1.0000   1.0000   1.0000   1.0000
     1.0000   1.0000   1.0002   1.0043   1.0051   1.0058   1.0097   1.0152
     1.0201   1.0272   1.0655   1.0823   1.0558   1.0473   1.0399   1.0284
     1.0277   0.9247   0.9075   0.7338   0.7011   0.6896   0.6558   0.6272
     0.5941   0.4251   0.4050   0.3602   0.1743   0.1583   0.1313   0.0524
     0.0199   0.0172   0.0133   0.0113   0.0080   0.0010   0.0000   0.0000
     0.0000   0.0000   0.0000   0.0000   0.0000   0.0000   0.0000   0.0000
     0.0000   0.0000   0.0000   0.0000   0.0000   0.0000   0.0000   0.0000
     0.0000

          k = 0.0000 0.1443 0.0000 ( 44584 PWs)   bands (ev):

   -12.4755 -12.0464 -11.5414 -10.9644 -10.9285 -10.9131 -10.9062 -10.8683
   -10.8134 -10.7704 -10.7682 -10.6698 -10.6588 -10.6565 -10.5625 -10.5329
   -10.5226 -10.5029 -10.4051 -10.3602 -10.3428 -10.2727 -10.1784 -10.1784
   -10.1706 -10.1067 -10.0487 -10.0219  -9.9432  -9.9013  -9.6113  -9.4459
    -9.4452  -9.1644  -8.8881  -8.8550  -8.7508  -8.6589  -8.6481  -8.6158
    -8.5745  -8.5103  -8.5010  -8.4569  -8.4262  -8.3446  -8.3423  -8.3133
    -8.3081  -8.3064  -8.3010  -8.2887  -8.2837  -8.1550  -8.1129  -8.0735
    -8.0682  -7.9451  -7.9076  -7.8981  -7.8376  -7.8022  -7.7938  -7.7867
    -7.6977  -7.6316  -7.6314  -7.5842  -7.5266  -7.3800  -7.2456  -7.1684
    -7.0521  -6.9647  -6.8538  -6.8384  -6.8380  -6.8080  -6.8005  -6.6618
    -6.6327  -6.6066  -6.6061  -6.5049  -6.4490  -6.3938  -6.2922  -6.2581
    -6.2237  -6.1190  -6.0692  -5.9280  -5.9124  -5.8888  -5.8704  -5.8591
    -5.8485  -5.8440  -5.7195  -5.7158  -5.6401  -5.5852  -5.5788  -5.5389
    -5.5275  -5.5090  -5.4574  -5.4526  -5.4385  -5.4326  -5.4226  -5.4171
    -5.3930  -5.3923  -5.3561  -5.3488  -5.3303  -5.3261  -5.2572  -5.2281
    -5.1896  -5.1489  -5.1201  -5.1051  -5.1009  -4.6186  -4.4264  -3.7511
    -3.5838  -3.4760  -3.4708  -3.1632  -2.9562  -2.6623  -2.4922  -2.2756
    -2.1076  -1.9182  -1.7550  -1.2565  -1.0625  -0.9969  -0.4369  -0.3826
     0.1080

     occupation numbers 
     1.0000   1.0000   1.0000   1.0000   1.0000   1.0000   1.0000   1.0000
     1.0000   1.0000   1.0000   1.0000   1.0000   1.0000   1.0000   1.0000
     1.0000   1.0000   1.0000   1.0000   1.0000   1.0000   1.0000   1.0000
     1.0000   1.0000   1.0000   1.0000   1.0000   1.0000   1.0000   1.0000
     1.0000   1.0000   1.0000   1.0000   1.0000   1.0000   1.0000   1.0000
     1.0000   1.0000   1.0000   1.0000   1.0000   1.0000   1.0000   1.0000
     1.0000   1.0000   1.0000   1.0000   1.0000   1.0000   1.0000   1.0000
     1.0000   1.0000   1.0000   1.0000   1.0000   1.0000   1.0000   1.0000
     1.0000   1.0000   1.0000   1.0000   1.0000   1.0000   1.0000   1.0000
     1.0000   1.0000   1.0000   1.0000   1.0000   1.0000   1.0000   1.0000
     1.0000   1.0000   1.0000   1.0000   1.0000   1.0000   1.0000   1.0000
     1.0000   1.0000   1.0000   1.0006   1.0009   1.0015   1.0022   1.0028
     1.0035   1.0038   1.0290   1.0304   1.0640   1.0824   1.0831   1.0756
     1.0687   1.0523   0.9666   0.9555   0.9202   0.9041   0.8752   0.8586
     0.7796   0.7771   0.6457   0.6184   0.5487   0.5330   0.2976   0.2187
     0.1372   0.0779   0.0497   0.0388   0.0361   0.0000   0.0000   0.0000
     0.0000   0.0000   0.0000   0.0000   0.0000   0.0000   0.0000   0.0000
     0.0000   0.0000   0.0000   0.0000   0.0000   0.0000   0.0000   0.0000
     0.0000

          k = 0.0000 0.2165 0.0000 ( 44580 PWs)   bands (ev):

   -12.3245 -11.9416 -11.4282 -10.8596 -10.8319 -10.8145 -10.8060 -10.7728
   -10.7431 -10.6705 -10.6686 -10.6010 -10.5712 -10.5693 -10.4986 -10.4176
   -10.4078 -10.3754 -10.3559 -10.2498 -10.2312 -10.1770 -10.1112 -10.1092
   -10.0965  -9.9968  -9.9592  -9.9412  -9.8241  -9.7768  -9.5684  -9.4084
    -9.3953  -9.1703  -8.9362  -8.8460  -8.7947  -8.7710  -8.7026  -8.7003
    -8.5935  -8.5510  -8.4787  -8.4172  -8.4005  -8.3653  -8.3580  -8.2997
    -8.2715  -8.2666  -8.2496  -8.2387  -8.2357  -8.1247  -8.0675  -8.0487
    -7.9977  -7.9964  -7.9780  -7.9607  -7.8634  -7.8099  -7.7758  -7.7617
    -7.7456  -7.7152  -7.6954  -7.6152  -7.6118  -7.4864  -7.3773  -7.1638
    -7.1186  -7.1104  -7.0016  -6.9588  -6.9468  -6.9211  -6.9074  -6.8437
    -6.7813  -6.6453  -6.6389  -6.6170  -6.5121  -6.4072  -6.3904  -6.3234
    -6.3021  -6.2597  -6.1932  -6.1723  -6.0700  -6.0619  -6.0299  -6.0208
    -5.9140  -5.9096  -5.8908  -5.8777  -5.7222  -5.7169  -5.6877  -5.6591
    -5.6333  -5.6229  -5.6191  -5.5932  -5.5818  -5.5800  -5.5550  -5.4881
    -5.4655  -5.4642  -5.4441  -5.4406  -5.4202  -5.3596  -5.2975  -5.2805
    -5.2633  -5.2097  -5.1509  -5.1409  -5.1265  -5.0173  -4.3292  -4.2078
    -3.9192  -3.4092  -3.2650  -3.1529  -2.9077  -2.7451  -2.6503  -2.3584
    -2.2048  -1.8273  -1.5928  -1.2901  -0.7680  -0.6033   0.1151   0.2046
     0.3930

     occupation numbers 
     1.0000   1.0000   1.0000   1.0000   1.0000   1.0000   1.0000   1.0000
     1.0000   1.0000   1.0000   1.0000   1.0000   1.0000   1.0000   1.0000
     1.0000   1.0000   1.0000   1.0000   1.0000   1.0000   1.0000   1.0000
     1.0000   1.0000   1.0000   1.0000   1.0000   1.0000   1.0000   1.0000
     1.0000   1.0000   1.0000   1.0000   1.0000   1.0000   1.0000   1.0000
     1.0000   1.0000   1.0000   1.0000   1.0000   1.0000   1.0000   1.0000
     1.0000   1.0000   1.0000   1.0000   1.0000   1.0000   1.0000   1.0000
     1.0000   1.0000   1.0000   1.0000   1.0000   1.0000   1.0000   1.0000
     1.0000   1.0000   1.0000   1.0000   1.0000   1.0000   1.0000   1.0000
     1.0000   1.0000   1.0000   1.0000   1.0000   1.0000   1.0000   1.0000
     1.0000   1.0000   1.0000   1.0000   1.0000   1.0000   1.0000   1.0000
     1.0000   1.0000   1.0000   1.0000   1.0000   1.0000   1.0000   1.0001
     1.0008   1.0009   1.0014   1.0019   1.0281   1.0300   1.0420   1.0552
     1.0670   1.0714   1.0729   1.0809   1.0828   1.0830   1.0814   1.0249
     0.9840   0.9813   0.9347   0.9255   0.8678   0.6589   0.4289   0.3708
     0.3160   0.1766   0.0802   0.0690   0.0551   0.0073   0.0000   0.0000
     0.0000   0.0000   0.0000   0.0000   0.0000   0.0000   0.0000   0.0000
     0.0000   0.0000   0.0000   0.0000   0.0000   0.0000   0.0000   0.0000
     0.0000

          k = 0.0000 0.2887 0.0000 ( 44592 PWs)   bands (ev):

   -12.1270 -11.8136 -11.2731 -10.7565 -10.7418 -10.6938 -10.6916 -10.6439
   -10.5826 -10.5399 -10.5385 -10.5093 -10.4437 -10.4429 -10.4207 -10.2978
   -10.2683 -10.2602 -10.2068 -10.1068 -10.0892 -10.0545 -10.0226 -10.0109
    -9.9916  -9.8764  -9.8561  -9.8081  -9.6657  -9.6093  -9.5065  -9.3600
    -9.3295  -9.1843  -8.9983  -8.9489  -8.8595  -8.7936  -8.7876  -8.7484
    -8.7055  -8.6033  -8.5074  -8.4399  -8.4147  -8.3587  -8.3269  -8.2913
    -8.2529  -8.2187  -8.2096  -8.1586  -8.1279  -8.1076  -8.1005  -8.0916
    -8.0544  -8.0135  -7.9566  -7.9071  -7.9054  -7.8837  -7.8758  -7.8539
    -7.7388  -7.6340  -7.6226  -7.6040  -7.6019  -7.5582  -7.5270  -7.3717
    -7.3600  -7.2593  -7.1820  -7.1412  -7.0419  -6.9947  -6.9885  -6.9428
    -6.9403  -6.8843  -6.7005  -6.6623  -6.5689  -6.5614  -6.5191  -6.5144
    -6.4392  -6.4181  -6.3872  -6.3593  -6.3446  -6.3047  -6.2897  -6.0940
    -6.0318  -6.0073  -5.9972  -5.9052  -5.8998  -5.8941  -5.8761  -5.8730
    -5.8542  -5.8283  -5.8154  -5.7457  -5.7362  -5.6885  -5.6386  -5.5973
    -5.5822  -5.5339  -5.5170  -5.4893  -5.4590  -5.4575  -5.4461  -5.4075
    -5.3104  -5.2821  -5.2763  -5.1449  -5.1338  -4.9846  -4.8553  -4.6144
    -3.9098  -3.2766  -3.1137  -3.0938  -2.8275  -2.6405  -2.5310  -2.3107
    -2.1933  -1.7455  -1.4581  -1.3994  -0.4490  -0.2368   0.1967   0.7562
     0.7974

     occupation numbers 
     1.0000   1.0000   1.0000   1.0000   1.0000   1.0000   1.0000   1.0000
     1.0000   1.0000   1.0000   1.0000   1.0000   1.0000   1.0000   1.0000
     1.0000   1.0000   1.0000   1.0000   1.0000   1.0000   1.0000   1.0000
     1.0000   1.0000   1.0000   1.0000   1.0000   1.0000   1.0000   1.0000
     1.0000   1.0000   1.0000   1.0000   1.0000   1.0000   1.0000   1.0000
     1.0000   1.0000   1.0000   1.0000   1.0000   1.0000   1.0000   1.0000
     1.0000   1.0000   1.0000   1.0000   1.0000   1.0000   1.0000   1.0000
     1.0000   1.0000   1.0000   1.0000   1.0000   1.0000   1.0000   1.0000
     1.0000   1.0000   1.0000   1.0000   1.0000   1.0000   1.0000   1.0000
     1.0000   1.0000   1.0000   1.0000   1.0000   1.0000   1.0000   1.0000
     1.0000   1.0000   1.0000   1.0000   1.0000   1.0000   1.0000   1.0000
     1.0000   1.0000   1.0000   1.0000   1.0000   1.0000   1.0000   1.0000
     1.0000   1.0001   1.0001   1.0010   1.0012   1.0013   1.0020   1.0021
     1.0031   1.0052   1.0066   1.0204   1.0234   1.0416   1.0647   1.0799
     1.0827   1.0728   1.0602   1.0267   0.9701   0.9668   0.9397   0.8282
     0.4751   0.3760   0.3569   0.0733   0.0618   0.0036   0.0001   0.0000
     0.0000   0.0000   0.0000   0.0000   0.0000   0.0000   0.0000   0.0000
     0.0000   0.0000   0.0000   0.0000   0.0000   0.0000   0.0000   0.0000
     0.0000

          k = 0.0000 0.3608 0.0000 ( 44550 PWs)   bands (ev):

   -11.9105 -11.6651 -11.0836 -10.7111 -10.6364 -10.5572 -10.5557 -10.4771
   -10.4190 -10.3955 -10.3911 -10.3862 -10.3350 -10.2797 -10.2776 -10.2161
   -10.1055 -10.0995 -10.0309  -9.9506  -9.9379  -9.9362  -9.8919  -9.8797
    -9.8583  -9.7713  -9.7117  -9.6740  -9.4968  -9.4142  -9.4045  -9.2936
    -9.2559  -9.1993  -9.1162  -9.0496  -8.9157  -8.8602  -8.8417  -8.8057
    -8.7753  -8.7010  -8.6355  -8.5171  -8.4133  -8.4080  -8.3069  -8.2799
    -8.2719  -8.2562  -8.1850  -8.1613  -8.1438  -8.1172  -8.1037  -8.0769
    -8.0768  -8.0504  -7.9635  -7.9475  -7.9137  -7.8264  -7.7514  -7.7425
    -7.7097  -7.6998  -7.6951  -7.6748  -7.6609  -7.5733  -7.5668  -7.5366
    -7.4742  -7.4557  -7.3940  -7.2884  -7.1736  -7.1320  -7.1065  -7.0171
    -6.9916  -6.9615  -6.8802  -6.8716  -6.8164  -6.7708  -6.7464  -6.6818
    -6.6698  -6.5864  -6.5820  -6.5256  -6.5189  -6.3880  -6.3387  -6.2574
    -6.2341  -6.2067  -6.2054  -6.1770  -6.1680  -6.0901  -6.0676  -6.0492
    -6.0383  -6.0070  -5.9510  -5.9436  -5.9288  -5.8538  -5.7560  -5.7000
    -5.6343  -5.6049  -5.5669  -5.5491  -5.5459  -5.4869  -5.4460  -5.4427
    -5.4003  -5.3124  -5.3028  -5.2822  -5.2043  -5.1467  -5.1365  -4.5260
    -3.8666  -3.3250  -2.9702  -2.9452  -2.6741  -2.6234  -2.3769  -2.1305
    -1.9861  -1.8852  -1.3867  -1.2270  -0.3238   0.0308   0.0588   1.2247
     1.3403

     occupation numbers 
     1.0000   1.0000   1.0000   1.0000   1.0000   1.0000   1.0000   1.0000
     1.0000   1.0000   1.0000   1.0000   1.0000   1.0000   1.0000   1.0000
     1.0000   1.0000   1.0000   1.0000   1.0000   1.0000   1.0000   1.0000
     1.0000   1.0000   1.0000   1.0000   1.0000   1.0000   1.0000   1.0000
     1.0000   1.0000   1.0000   1.0000   1.0000   1.0000   1.0000   1.0000
     1.0000   1.0000   1.0000   1.0000   1.0000   1.0000   1.0000   1.0000
     1.0000   1.0000   1.0000   1.0000   1.0000   1.0000   1.0000   1.0000
     1.0000   1.0000   1.0000   1.0000   1.0000   1.0000   1.0000   1.0000
     1.0000   1.0000   1.0000   1.0000   1.0000   1.0000   1.0000   1.0000
     1.0000   1.0000   1.0000   1.0000   1.0000   1.0000   1.0000   1.0000
     1.0000   1.0000   1.0000   1.0000   1.0000   1.0000   1.0000   1.0000
     1.0000   1.0000   1.0000   1.0000   1.0000   1.0000   1.0000   1.0000
     1.0000   1.0000   1.0000   1.0000   1.0000   1.0000   1.0000   1.0000
     1.0000   1.0001   1.0003   1.0004   1.0006   1.0032   1.0176   1.0367
     1.0666   1.0778   1.0831   1.0797   1.0786   1.0229   0.9395   0.9311
     0.8044   0.4822   0.4477   0.3766   0.1654   0.0754   0.0645   0.0000
     0.0000   0.0000   0.0000   0.0000   0.0000   0.0000   0.0000   0.0000
     0.0000   0.0000   0.0000   0.0000   0.0000   0.0000   0.0000   0.0000
     0.0000

          k = 0.0000 0.4330 0.0000 ( 44520 PWs)   bands (ev):

   -11.7402 -11.4640 -10.8793 -10.7126 -10.5213 -10.4203 -10.4185 -10.3783
   -10.3402 -10.2499 -10.2494 -10.2354 -10.1935 -10.1189 -10.1098 -10.0957
    -9.9435  -9.9389  -9.8843  -9.8307  -9.8136  -9.8086  -9.7449  -9.7281
    -9.7091  -9.6477  -9.5728  -9.5482  -9.3660  -9.3057  -9.2507  -9.2390
    -9.1933  -9.1853  -9.1516  -9.0711  -9.0165  -8.9669  -8.9039  -8.8598
    -8.8445  -8.7648  -8.6799  -8.6309  -8.5510  -8.4961  -8.4122  -8.3905
    -8.3226  -8.2484  -8.2172  -8.1574  -8.1402  -8.1148  -8.1113  -8.0998
    -8.0526  -8.0145  -7.9541  -7.9286  -7.9250  -7.9063  -7.8895  -7.8373
    -7.7630  -7.7107  -7.6908  -7.6600  -7.6551  -7.6263  -7.5787  -7.5346
    -7.5186  -7.5066  -7.4233  -7.3320  -7.2465  -7.2354  -7.2055  -7.1352
    -7.1311  -7.1159  -7.0869  -7.0274  -6.9808  -6.9605  -6.9586  -6.8787
    -6.7828  -6.7340  -6.6895  -6.6627  -6.6570  -6.6400  -6.4615  -6.4591
    -6.4529  -6.4000  -6.3852  -6.3689  -6.3611  -6.3069  -6.2738  -6.1983
    -6.1866  -6.1418  -6.1313  -6.0825  -6.0328  -5.9947  -5.9889  -5.9423
    -5.8571  -5.6540  -5.6190  -5.5698  -5.5520  -5.4980  -5.4191  -5.4150
    -5.3892  -5.3287  -5.3023  -5.2971  -5.2623  -5.1487  -5.1376  -4.4003
    -3.9374  -3.2015  -2.8916  -2.8595  -2.5990  -2.5112  -2.3216  -2.1316
    -2.0643  -1.4660  -1.1903  -1.0981  -0.6074   0.1279   0.2627   0.9553
     1.6922

     occupation numbers 
     1.0000   1.0000   1.0000   1.0000   1.0000   1.0000   1.0000   1.0000
     1.0000   1.0000   1.0000   1.0000   1.0000   1.0000   1.0000   1.0000
     1.0000   1.0000   1.0000   1.0000   1.0000   1.0000   1.0000   1.0000
     1.0000   1.0000   1.0000   1.0000   1.0000   1.0000   1.0000   1.0000
     1.0000   1.0000   1.0000   1.0000   1.0000   1.0000   1.0000   1.0000
     1.0000   1.0000   1.0000   1.0000   1.0000   1.0000   1.0000   1.0000
     1.0000   1.0000   1.0000   1.0000   1.0000   1.0000   1.0000   1.0000
     1.0000   1.0000   1.0000   1.0000   1.0000   1.0000   1.0000   1.0000
     1.0000   1.0000   1.0000   1.0000   1.0000   1.0000   1.0000   1.0000
     1.0000   1.0000   1.0000   1.0000   1.0000   1.0000   1.0000   1.0000
     1.0000   1.0000   1.0000   1.0000   1.0000   1.0000   1.0000   1.0000
     1.0000   1.0000   1.0000   1.0000   1.0000   1.0000   1.0000   1.0000
     1.0000   1.0000   1.0000   1.0000   1.0000   1.0000   1.0000   1.0000
     1.0000   1.0000   1.0000   1.0000   1.0000   1.0001   1.0001   1.0004
     1.0030   1.0576   1.0729   1.0833   1.0806   1.0390   0.8646   0.8519
     0.7665   0.5426   0.4457   0.4273   0.3128   0.0776   0.0656   0.0000
     0.0000   0.0000   0.0000   0.0000   0.0000   0.0000   0.0000   0.0000
     0.0000   0.0000   0.0000   0.0000   0.0000   0.0000   0.0000   0.0000
     0.0000

          k = 0.0000 0.5052 0.0000 ( 44502 PWs)   bands (ev):

   -11.6525 -11.2098 -10.7950 -10.6846 -10.4694 -10.3548 -10.2904 -10.2897
   -10.2749 -10.1654 -10.1652 -10.1322 -10.0575 -10.0005 -10.0005  -9.9773
    -9.8121  -9.8044  -9.7936  -9.7202  -9.6960  -9.6837  -9.6388  -9.6246
    -9.5738  -9.5290  -9.4758  -9.4191  -9.4007  -9.2636  -9.2113  -9.1981
    -9.1595  -9.1210  -9.0951  -9.0835  -9.0569  -9.0011  -8.9434  -8.8962
    -8.8609  -8.7932  -8.7082  -8.6954  -8.6517  -8.6112  -8.5112  -8.4915
    -8.4073  -8.2917  -8.2612  -8.2570  -8.2183  -8.1792  -8.1442  -8.0627
    -8.0428  -8.0330  -8.0265  -8.0244  -7.9888  -7.9858  -7.8030  -7.7522
    -7.7512  -7.7374  -7.7342  -7.6672  -7.6186  -7.5863  -7.5679  -7.5444
    -7.5173  -7.5134  -7.4882  -7.3976  -7.3665  -7.3077  -7.3039  -7.2848
    -7.2179  -7.1864  -7.1512  -7.0943  -7.0530  -7.0168  -6.9969  -6.9952
    -6.9109  -6.8190  -6.8056  -6.7899  -6.7868  -6.6996  -6.6900  -6.5971
    -6.5848  -6.5819  -6.5450  -6.5320  -6.5312  -6.5142  -6.3638  -6.3548
    -6.3427  -6.3059  -6.2548  -6.1553  -6.1273  -6.0475  -6.0045  -5.9976
    -5.9557  -5.7948  -5.6602  -5.5748  -5.5514  -5.5039  -5.3898  -5.3832
    -5.3786  -5.3404  -5.3085  -5.2986  -5.1498  -5.1391  -5.0870  -4.5203
    -3.8163  -3.1092  -2.8493  -2.8343  -2.6029  -2.5779  -2.3012  -2.0184
    -1.9216  -1.3249  -1.0202  -0.9550  -0.7287   0.1895   0.3773   0.4714
     1.8777

     occupation numbers 
     1.0000   1.0000   1.0000   1.0000   1.0000   1.0000   1.0000   1.0000
     1.0000   1.0000   1.0000   1.0000   1.0000   1.0000   1.0000   1.0000
     1.0000   1.0000   1.0000   1.0000   1.0000   1.0000   1.0000   1.0000
     1.0000   1.0000   1.0000   1.0000   1.0000   1.0000   1.0000   1.0000
     1.0000   1.0000   1.0000   1.0000   1.0000   1.0000   1.0000   1.0000
     1.0000   1.0000   1.0000   1.0000   1.0000   1.0000   1.0000   1.0000
     1.0000   1.0000   1.0000   1.0000   1.0000   1.0000   1.0000   1.0000
     1.0000   1.0000   1.0000   1.0000   1.0000   1.0000   1.0000   1.0000
     1.0000   1.0000   1.0000   1.0000   1.0000   1.0000   1.0000   1.0000
     1.0000   1.0000   1.0000   1.0000   1.0000   1.0000   1.0000   1.0000
     1.0000   1.0000   1.0000   1.0000   1.0000   1.0000   1.0000   1.0000
     1.0000   1.0000   1.0000   1.0000   1.0000   1.0000   1.0000   1.0000
     1.0000   1.0000   1.0000   1.0000   1.0000   1.0000   1.0000   1.0000
     1.0000   1.0000   1.0000   1.0000   1.0000   1.0000   1.0001   1.0001
     1.0003   1.0095   1.0546   1.0833   1.0804   1.0465   0.7684   0.7452
     0.7288   0.5866   0.4682   0.4328   0.0789   0.0671   0.0283   0.0000
     0.0000   0.0000   0.0000   0.0000   0.0000   0.0000   0.0000   0.0000
     0.0000   0.0000   0.0000   0.0000   0.0000   0.0000   0.0000   0.0000
     0.0000

          k = 0.0000-0.5774 0.0000 ( 44486 PWs)   bands (ev):

   -11.6260 -10.9804 -10.9526 -10.5650 -10.5218 -10.2978 -10.2873 -10.1958
   -10.1901 -10.1884 -10.1802 -10.0918 -10.0116  -9.9714  -9.9688  -9.8536
    -9.8305  -9.7672  -9.7593  -9.6428  -9.6355  -9.6119  -9.5597  -9.5381
    -9.5264  -9.5079  -9.4554  -9.4235  -9.3970  -9.3196  -9.1848  -9.1668
    -9.1663  -9.1226  -9.1130  -9.0356  -9.0209  -9.0192  -8.9432  -8.8627
    -8.8564  -8.8536  -8.7607  -8.6674  -8.6451  -8.6101  -8.5530  -8.5484
    -8.5234  -8.3676  -8.3342  -8.2811  -8.2704  -8.1758  -8.1710  -8.0911
    -8.0845  -8.0535  -8.0326  -8.0031  -7.9952  -7.8222  -7.8084  -7.7474
    -7.7403  -7.7129  -7.6980  -7.6818  -7.6242  -7.6220  -7.6166  -7.5878
    -7.5820  -7.5769  -7.4844  -7.4551  -7.3391  -7.3267  -7.2986  -7.2914
    -7.2442  -7.2297  -7.1459  -7.1284  -7.1091  -7.0864  -6.9853  -6.9561
    -6.9526  -6.9369  -6.8127  -6.7912  -6.7850  -6.7663  -6.7615  -6.6712
    -6.6600  -6.6204  -6.6165  -6.5962  -6.5779  -6.5545  -6.4570  -6.4295
    -6.4117  -6.3587  -6.2755  -6.2161  -6.1222  -6.0619  -6.0086  -5.9829
    -5.9628  -5.8979  -5.6617  -5.5758  -5.5509  -5.5040  -5.3776  -5.3702
    -5.3651  -5.3455  -5.3155  -5.3084  -5.1501  -5.1380  -4.9737  -4.6318
    -3.7299  -3.0787  -2.8429  -2.8360  -2.6812  -2.5698  -2.2807  -2.0024
    -1.6984  -1.4064  -1.0847  -0.9943  -0.2950  -0.0729   0.3259   0.4136
     1.9246

     occupation numbers 
     1.0000   1.0000   1.0000   1.0000   1.0000   1.0000   1.0000   1.0000
     1.0000   1.0000   1.0000   1.0000   1.0000   1.0000   1.0000   1.0000
     1.0000   1.0000   1.0000   1.0000   1.0000   1.0000   1.0000   1.0000
     1.0000   1.0000   1.0000   1.0000   1.0000   1.0000   1.0000   1.0000
     1.0000   1.0000   1.0000   1.0000   1.0000   1.0000   1.0000   1.0000
     1.0000   1.0000   1.0000   1.0000   1.0000   1.0000   1.0000   1.0000
     1.0000   1.0000   1.0000   1.0000   1.0000   1.0000   1.0000   1.0000
     1.0000   1.0000   1.0000   1.0000   1.0000   1.0000   1.0000   1.0000
     1.0000   1.0000   1.0000   1.0000   1.0000   1.0000   1.0000   1.0000
     1.0000   1.0000   1.0000   1.0000   1.0000   1.0000   1.0000   1.0000
     1.0000   1.0000   1.0000   1.0000   1.0000   1.0000   1.0000   1.0000
     1.0000   1.0000   1.0000   1.0000   1.0000   1.0000   1.0000   1.0000
     1.0000   1.0000   1.0000   1.0000   1.0000   1.0000   1.0000   1.0000
     1.0000   1.0000   1.0000   1.0000   1.0000   1.0000   1.0001   1.0001
     1.0003   1.0012   1.0539   1.0832   1.0803   1.0465   0.7251   0.6981
     0.6792   0.6057   0.4937   0.4676   0.0792   0.0660   0.0028   0.0000
     0.0000   0.0000   0.0000   0.0000   0.0000   0.0000   0.0000   0.0000
     0.0000   0.0000   0.0000   0.0000   0.0000   0.0000   0.0000   0.0000
     0.0000

          k = 0.0625-0.0361 0.0000 ( 44605 PWs)   bands (ev):

   -12.5684 -12.1105 -11.6065 -11.0418 -10.9813 -10.9766 -10.9694 -10.9435
   -10.8445 -10.8319 -10.8258 -10.7117 -10.7097 -10.7075 -10.6134 -10.5988
   -10.5944 -10.5826 -10.4415 -10.4199 -10.4137 -10.3286 -10.2267 -10.2199
   -10.2104 -10.1813 -10.1225 -10.0542 -10.0169  -9.9825  -9.6337  -9.4803
    -9.4675  -9.1611  -8.8726  -8.8578  -8.7276  -8.6364  -8.6108  -8.5606
    -8.5388  -8.5180  -8.4769  -8.4710  -8.4476  -8.4069  -8.3478  -8.3440
    -8.3271  -8.3229  -8.3201  -8.2823  -8.2558  -8.2226  -8.1301  -8.1185
    -8.0709  -7.9243  -7.8975  -7.8637  -7.8501  -7.8328  -7.8029  -7.7484
    -7.6414  -7.6144  -7.6085  -7.4672  -7.3783  -7.3396  -7.1600  -7.1258
    -7.1114  -6.9406  -6.7749  -6.7660  -6.7574  -6.7243  -6.6661  -6.6364
    -6.6235  -6.5174  -6.4742  -6.4359  -6.4045  -6.3664  -6.3091  -6.2055
    -6.1968  -6.0332  -5.9723  -5.9013  -5.8229  -5.8021  -5.7775  -5.7678
    -5.7488  -5.7294  -5.6246  -5.5848  -5.5129  -5.5027  -5.4958  -5.4922
    -5.4896  -5.4398  -5.4321  -5.3783  -5.3718  -5.3685  -5.3589  -5.3527
    -5.3404  -5.2961  -5.2904  -5.2776  -5.2131  -5.2006  -5.1902  -5.1174
    -5.0854  -5.0508  -5.0464  -5.0381  -5.0213  -4.9368  -4.1220  -3.9283
    -3.7067  -3.6751  -3.1744  -2.7982  -2.7101  -2.4308  -2.2249  -1.9809
    -1.9510  -1.8000  -1.7753  -1.5006  -1.3681  -1.2906  -0.9561  -0.9328
    -0.5903

     occupation numbers 
     1.0000   1.0000   1.0000   1.0000   1.0000   1.0000   1.0000   1.0000
     1.0000   1.0000   1.0000   1.0000   1.0000   1.0000   1.0000   1.0000
     1.0000   1.0000   1.0000   1.0000   1.0000   1.0000   1.0000   1.0000
     1.0000   1.0000   1.0000   1.0000   1.0000   1.0000   1.0000   1.0000
     1.0000   1.0000   1.0000   1.0000   1.0000   1.0000   1.0000   1.0000
     1.0000   1.0000   1.0000   1.0000   1.0000   1.0000   1.0000   1.0000
     1.0000   1.0000   1.0000   1.0000   1.0000   1.0000   1.0000   1.0000
     1.0000   1.0000   1.0000   1.0000   1.0000   1.0000   1.0000   1.0000
     1.0000   1.0000   1.0000   1.0000   1.0000   1.0000   1.0000   1.0000
     1.0000   1.0000   1.0000   1.0000   1.0000   1.0000   1.0000   1.0000
     1.0000   1.0000   1.0000   1.0000   1.0000   1.0000   1.0000   1.0000
     1.0000   1.0000   1.0002   1.0011   1.0058   1.0084   1.0127   1.0147
     1.0196   1.0256   1.0707   1.0824   1.0563   1.0450   1.0360   1.0310
     1.0271   0.9234   0.9027   0.7278   0.7041   0.6918   0.6562   0.6329
     0.5868   0.4238   0.4043   0.3612   0.1839   0.1578   0.1383   0.0476
     0.0275   0.0144   0.0132   0.0112   0.0079   0.0011   0.0000   0.0000
     0.0000   0.0000   0.0000   0.0000   0.0000   0.0000   0.0000   0.0000
     0.0000   0.0000   0.0000   0.0000   0.0000   0.0000   0.0000   0.0000
     0.0000

          k = 0.0625 0.0361 0.0000 ( 44605 PWs)   bands (ev):

   -12.5684 -12.1105 -11.6065 -11.0418 -10.9813 -10.9766 -10.9694 -10.9435
   -10.8445 -10.8319 -10.8258 -10.7117 -10.7097 -10.7075 -10.6134 -10.5988
   -10.5944 -10.5826 -10.4415 -10.4199 -10.4137 -10.3286 -10.2267 -10.2199
   -10.2104 -10.1813 -10.1225 -10.0542 -10.0169  -9.9825  -9.6337  -9.4803
    -9.4675  -9.1611  -8.8726  -8.8578  -8.7276  -8.6364  -8.6108  -8.5606
    -8.5388  -8.5180  -8.4769  -8.4710  -8.4476  -8.4069  -8.3478  -8.3440
    -8.3271  -8.3229  -8.3201  -8.2823  -8.2558  -8.2226  -8.1301  -8.1185
    -8.0709  -7.9243  -7.8975  -7.8637  -7.8501  -7.8328  -7.8029  -7.7484
    -7.6414  -7.6144  -7.6085  -7.4672  -7.3783  -7.3396  -7.1600  -7.1258
    -7.1114  -6.9406  -6.7749  -6.7660  -6.7574  -6.7243  -6.6661  -6.6364
    -6.6235  -6.5174  -6.4742  -6.4359  -6.4045  -6.3664  -6.3091  -6.2055
    -6.1968  -6.0332  -5.9723  -5.9013  -5.8229  -5.8021  -5.7775  -5.7678
    -5.7488  -5.7294  -5.6246  -5.5848  -5.5129  -5.5027  -5.4958  -5.4922
    -5.4896  -5.4398  -5.4321  -5.3783  -5.3718  -5.3685  -5.3589  -5.3527
    -5.3404  -5.2961  -5.2904  -5.2776  -5.2131  -5.2006  -5.1902  -5.1174
    -5.0854  -5.0508  -5.0464  -5.0381  -5.0213  -4.9368  -4.1220  -3.9283
    -3.7067  -3.6751  -3.1744  -2.7982  -2.7101  -2.4308  -2.2249  -1.9809
    -1.9510  -1.8000  -1.7753  -1.5006  -1.3681  -1.2906  -0.9561  -0.9328
    -0.5903

     occupation numbers 
     1.0000   1.0000   1.0000   1.0000   1.0000   1.0000   1.0000   1.0000
     1.0000   1.0000   1.0000   1.0000   1.0000   1.0000   1.0000   1.0000
     1.0000   1.0000   1.0000   1.0000   1.0000   1.0000   1.0000   1.0000
     1.0000   1.0000   1.0000   1.0000   1.0000   1.0000   1.0000   1.0000
     1.0000   1.0000   1.0000   1.0000   1.0000   1.0000   1.0000   1.0000
     1.0000   1.0000   1.0000   1.0000   1.0000   1.0000   1.0000   1.0000
     1.0000   1.0000   1.0000   1.0000   1.0000   1.0000   1.0000   1.0000
     1.0000   1.0000   1.0000   1.0000   1.0000   1.0000   1.0000   1.0000
     1.0000   1.0000   1.0000   1.0000   1.0000   1.0000   1.0000   1.0000
     1.0000   1.0000   1.0000   1.0000   1.0000   1.0000   1.0000   1.0000
     1.0000   1.0000   1.0000   1.0000   1.0000   1.0000   1.0000   1.0000
     1.0000   1.0000   1.0002   1.0011   1.0058   1.0084   1.0127   1.0147
     1.0196   1.0256   1.0707   1.0824   1.0563   1.0450   1.0360   1.0310
     1.0271   0.9234   0.9027   0.7278   0.7041   0.6918   0.6562   0.6329
     0.5868   0.4238   0.4043   0.3612   0.1839   0.1578   0.1383   0.0476
     0.0275   0.0144   0.0132   0.0112   0.0079   0.0011   0.0000   0.0000
     0.0000   0.0000   0.0000   0.0000   0.0000   0.0000   0.0000   0.0000
     0.0000   0.0000   0.0000   0.0000   0.0000   0.0000   0.0000   0.0000
     0.0000

          k = 0.0625 0.1083 0.0000 ( 44583 PWs)   bands (ev):

   -12.5056 -12.0636 -11.5605 -10.9888 -10.9442 -10.9375 -10.9255 -10.8930
   -10.8157 -10.8087 -10.7775 -10.6818 -10.6802 -10.6711 -10.5740 -10.5652
   -10.5409 -10.5293 -10.4075 -10.3950 -10.3609 -10.2887 -10.1948 -10.1921
   -10.1823 -10.1383 -10.0734 -10.0253  -9.9775  -9.9262  -9.6161  -9.4595
    -9.4514  -9.1611  -8.8755  -8.8670  -8.7440  -8.6452  -8.6145  -8.6024
    -8.5920  -8.5101  -8.4848  -8.4616  -8.4413  -8.3640  -8.3405  -8.3181
    -8.3167  -8.3079  -8.3022  -8.2958  -8.2803  -8.1784  -8.1041  -8.0915
    -8.0746  -7.9358  -7.9083  -7.8726  -7.8474  -7.8306  -7.8140  -7.7595
    -7.6611  -7.6488  -7.6128  -7.5649  -7.4559  -7.4036  -7.2094  -7.1308
    -7.0754  -6.9594  -6.8288  -6.8176  -6.8102  -6.7838  -6.7583  -6.6377
    -6.6284  -6.6013  -6.5411  -6.5064  -6.4156  -6.3681  -6.3152  -6.2375
    -6.2192  -6.1155  -6.0272  -5.8943  -5.8708  -5.8437  -5.8345  -5.8241
    -5.8186  -5.8011  -5.7115  -5.6722  -5.5793  -5.5563  -5.5529  -5.5401
    -5.5294  -5.4805  -5.4437  -5.4317  -5.4299  -5.4273  -5.4061  -5.3913
    -5.3801  -5.3584  -5.3450  -5.3424  -5.2759  -5.2626  -5.2470  -5.2020
    -5.1567  -5.1471  -5.1089  -5.0919  -5.0860  -4.7057  -4.0593  -4.0258
    -3.7705  -3.3667  -3.2219  -3.1784  -2.8037  -2.6851  -2.5454  -2.2739
    -2.1826  -1.7795  -1.3868  -1.3064  -1.1459  -1.1122  -1.0784  -0.1961
    -0.1245

     occupation numbers 
     1.0000   1.0000   1.0000   1.0000   1.0000   1.0000   1.0000   1.0000
     1.0000   1.0000   1.0000   1.0000   1.0000   1.0000   1.0000   1.0000
     1.0000   1.0000   1.0000   1.0000   1.0000   1.0000   1.0000   1.0000
     1.0000   1.0000   1.0000   1.0000   1.0000   1.0000   1.0000   1.0000
     1.0000   1.0000   1.0000   1.0000   1.0000   1.0000   1.0000   1.0000
     1.0000   1.0000   1.0000   1.0000   1.0000   1.0000   1.0000   1.0000
     1.0000   1.0000   1.0000   1.0000   1.0000   1.0000   1.0000   1.0000
     1.0000   1.0000   1.0000   1.0000   1.0000   1.0000   1.0000   1.0000
     1.0000   1.0000   1.0000   1.0000   1.0000   1.0000   1.0000   1.0000
     1.0000   1.0000   1.0000   1.0000   1.0000   1.0000   1.0000   1.0000
     1.0000   1.0000   1.0000   1.0000   1.0000   1.0000   1.0000   1.0000
     1.0000   1.0000   1.0000   1.0013   1.0022   1.0039   1.0046   1.0056
     1.0062   1.0085   1.0321   1.0490   1.0830   1.0817   1.0809   1.0761
     1.0701   1.0124   0.9337   0.9015   0.8965   0.8891   0.8235   0.7738
     0.7341   0.6543   0.6040   0.5942   0.3555   0.3140   0.2683   0.1607
     0.0872   0.0758   0.0413   0.0308   0.0278   0.0000   0.0000   0.0000
     0.0000   0.0000   0.0000   0.0000   0.0000   0.0000   0.0000   0.0000
     0.0000   0.0000   0.0000   0.0000   0.0000   0.0000   0.0000   0.0000
     0.0000

          k = 0.0625 0.1804 0.0000 ( 44578 PWs)   bands (ev):

   -12.3828 -11.9759 -11.4697 -10.8919 -10.8723 -10.8583 -10.8415 -10.7957
   -10.7745 -10.7454 -10.6854 -10.6262 -10.6172 -10.5957 -10.5116 -10.4880
   -10.4404 -10.4234 -10.3623 -10.3227 -10.2619 -10.2092 -10.1372 -10.1357
   -10.1260 -10.0541  -9.9813  -9.9721  -9.8904  -9.8185  -9.5815  -9.4211
    -9.4187  -9.1642  -8.9114  -8.8598  -8.7854  -8.7215  -8.6904  -8.6621
    -8.5645  -8.5516  -8.4943  -8.4289  -8.3914  -8.3757  -8.3326  -8.3101
    -8.2878  -8.2752  -8.2733  -8.2659  -8.2599  -8.1228  -8.0913  -8.0582
    -8.0164  -7.9816  -7.9652  -7.9280  -7.8649  -7.8300  -7.7662  -7.7410
    -7.7177  -7.7092  -7.6700  -7.6260  -7.5773  -7.4712  -7.3274  -7.1426
    -7.0805  -7.0421  -6.9346  -6.9159  -6.9050  -6.8893  -6.8766  -6.8084
    -6.6966  -6.6383  -6.6063  -6.5692  -6.5072  -6.3989  -6.3379  -6.2766
    -6.2654  -6.2167  -6.1433  -6.0633  -6.0433  -6.0006  -5.9848  -5.9188
    -5.9008  -5.8639  -5.8371  -5.7862  -5.6765  -5.6623  -5.6560  -5.6492
    -5.6311  -5.5480  -5.5387  -5.5295  -5.5102  -5.4978  -5.4882  -5.4655
    -5.4561  -5.4459  -5.4397  -5.4291  -5.4104  -5.3587  -5.2879  -5.2779
    -5.2553  -5.2022  -5.1707  -5.1535  -5.1382  -4.5677  -4.3742  -3.9130
    -3.8403  -3.5068  -3.4314  -3.2317  -2.9799  -2.8809  -2.6381  -2.3610
    -2.1350  -1.6748  -1.3492  -1.1388  -0.9479  -0.8457  -0.5724   0.2388
     0.3867

     occupation numbers 
     1.0000   1.0000   1.0000   1.0000   1.0000   1.0000   1.0000   1.0000
     1.0000   1.0000   1.0000   1.0000   1.0000   1.0000   1.0000   1.0000
     1.0000   1.0000   1.0000   1.0000   1.0000   1.0000   1.0000   1.0000
     1.0000   1.0000   1.0000   1.0000   1.0000   1.0000   1.0000   1.0000
     1.0000   1.0000   1.0000   1.0000   1.0000   1.0000   1.0000   1.0000
     1.0000   1.0000   1.0000   1.0000   1.0000   1.0000   1.0000   1.0000
     1.0000   1.0000   1.0000   1.0000   1.0000   1.0000   1.0000   1.0000
     1.0000   1.0000   1.0000   1.0000   1.0000   1.0000   1.0000   1.0000
     1.0000   1.0000   1.0000   1.0000   1.0000   1.0000   1.0000   1.0000
     1.0000   1.0000   1.0000   1.0000   1.0000   1.0000   1.0000   1.0000
     1.0000   1.0000   1.0000   1.0000   1.0000   1.0000   1.0000   1.0000
     1.0000   1.0000   1.0000   1.0000   1.0000   1.0001   1.0001   1.0008
     1.0011   1.0026   1.0044   1.0110   1.0470   1.0537   1.0566   1.0598
     1.0680   1.0794   1.0755   1.0701   1.0536   1.0388   1.0250   0.9840
     0.9636   0.9392   0.9232   0.8941   0.8375   0.6553   0.3957   0.3622
     0.2920   0.1611   0.1065   0.0834   0.0662   0.0000   0.0000   0.0000
     0.0000   0.0000   0.0000   0.0000   0.0000   0.0000   0.0000   0.0000
     0.0000   0.0000   0.0000   0.0000   0.0000   0.0000   0.0000   0.0000
     0.0000

          k = 0.0625 0.2526 0.0000 ( 44582 PWs)   bands (ev):

   -12.2072 -11.8588 -11.3357 -10.7901 -10.7531 -10.7486 -10.7420 -10.7023
   -10.6504 -10.6392 -10.5608 -10.5458 -10.5198 -10.4783 -10.4393 -10.3596
   -10.3105 -10.3058 -10.2729 -10.2038 -10.1311 -10.0945 -10.0590 -10.0517
   -10.0379  -9.9347  -9.9001  -9.8530  -9.7569  -9.6663  -9.5293  -9.3777
    -9.3620  -9.1747  -8.9699  -8.8769  -8.8524  -8.8248  -8.7765  -8.7035
    -8.6580  -8.5525  -8.4749  -8.4479  -8.3957  -8.3817  -8.3336  -8.3026
    -8.2671  -8.2352  -8.2268  -8.1860  -8.1519  -8.1300  -8.0928  -8.0572
    -8.0291  -7.9866  -7.9633  -7.9305  -7.9111  -7.9002  -7.8524  -7.8056
    -7.7535  -7.6660  -7.6387  -7.6168  -7.5953  -7.5558  -7.4667  -7.2644
    -7.2532  -7.1785  -7.1292  -7.0761  -6.9936  -6.9630  -6.9465  -6.9341
    -6.8703  -6.7719  -6.6742  -6.6392  -6.5735  -6.4776  -6.4383  -6.3922
    -6.3694  -6.3566  -6.3440  -6.2997  -6.2436  -6.2353  -6.1718  -6.0790
    -5.9871  -5.9649  -5.9511  -5.8681  -5.8416  -5.8176  -5.7996  -5.7818
    -5.7655  -5.7529  -5.7192  -5.7126  -5.6658  -5.6332  -5.5966  -5.5785
    -5.5233  -5.5072  -5.4910  -5.4815  -5.4700  -5.4516  -5.4330  -5.3237
    -5.2955  -5.2598  -5.1676  -5.1554  -5.0770  -4.9213  -4.5232  -4.2466
    -4.0190  -3.7354  -3.3377  -3.1349  -2.9492  -2.7570  -2.5945  -2.2361
    -2.0097  -1.6572  -1.3981  -1.0949  -0.7304  -0.3985   0.0805   0.3450
     0.7335

     occupation numbers 
     1.0000   1.0000   1.0000   1.0000   1.0000   1.0000   1.0000   1.0000
     1.0000   1.0000   1.0000   1.0000   1.0000   1.0000   1.0000   1.0000
     1.0000   1.0000   1.0000   1.0000   1.0000   1.0000   1.0000   1.0000
     1.0000   1.0000   1.0000   1.0000   1.0000   1.0000   1.0000   1.0000
     1.0000   1.0000   1.0000   1.0000   1.0000   1.0000   1.0000   1.0000
     1.0000   1.0000   1.0000   1.0000   1.0000   1.0000   1.0000   1.0000
     1.0000   1.0000   1.0000   1.0000   1.0000   1.0000   1.0000   1.0000
     1.0000   1.0000   1.0000   1.0000   1.0000   1.0000   1.0000   1.0000
     1.0000   1.0000   1.0000   1.0000   1.0000   1.0000   1.0000   1.0000
     1.0000   1.0000   1.0000   1.0000   1.0000   1.0000   1.0000   1.0000
     1.0000   1.0000   1.0000   1.0000   1.0000   1.0000   1.0000   1.0000
     1.0000   1.0000   1.0000   1.0000   1.0000   1.0000   1.0000   1.0000
     1.0001   1.0002   1.0003   1.0024   1.0040   1.0064   1.0087   1.0118
     1.0153   1.0184   1.0291   1.0316   1.0520   1.0671   1.0801   1.0831
     1.0656   1.0503   1.0292   1.0142   0.9931   0.9532   0.9050   0.5241
     0.4219   0.3054   0.1020   0.0857   0.0236   0.0008   0.0000   0.0000
     0.0000   0.0000   0.0000   0.0000   0.0000   0.0000   0.0000   0.0000
     0.0000   0.0000   0.0000   0.0000   0.0000   0.0000   0.0000   0.0000
     0.0000

          k = 0.0625 0.3248 0.0000 ( 44578 PWs)   bands (ev):

   -11.9955 -11.7227 -11.1624 -10.7059 -10.6756 -10.6174 -10.6119 -10.5391
   -10.5062 -10.4740 -10.4464 -10.4132 -10.3855 -10.3597 -10.3193 -10.2405
   -10.1981 -10.1558 -10.1018 -10.0566  -9.9868  -9.9693  -9.9573  -9.9270
    -9.9173  -9.8075  -9.7921  -9.7142  -9.5884  -9.4927  -9.4433  -9.3216
    -9.2927  -9.1915  -9.0430  -9.0231  -8.9103  -8.8684  -8.8184  -8.7835
    -8.7358  -8.6353  -8.5775  -8.4761  -8.4168  -8.3555  -8.3257  -8.3010
    -8.2724  -8.2186  -8.1989  -8.1489  -8.1365  -8.1079  -8.0997  -8.0887
    -8.0769  -8.0377  -7.9889  -7.9503  -7.9308  -7.8883  -7.8029  -7.7866
    -7.7675  -7.6648  -7.6326  -7.6006  -7.5934  -7.5407  -7.5124  -7.4961
    -7.4473  -7.4261  -7.3716  -7.1768  -7.1261  -7.0628  -7.0413  -6.9992
    -6.9855  -6.9328  -6.8016  -6.7546  -6.7309  -6.6993  -6.6231  -6.5929
    -6.5674  -6.5396  -6.5062  -6.4685  -6.4542  -6.3827  -6.3427  -6.2127
    -6.1516  -6.1248  -6.1140  -6.1019  -6.0446  -6.0041  -5.9812  -5.9700
    -5.9472  -5.9286  -5.9221  -5.8180  -5.7909  -5.7690  -5.7226  -5.6749
    -5.6094  -5.5528  -5.5336  -5.4920  -5.4842  -5.4774  -5.4467  -5.4191
    -5.3290  -5.3095  -5.3017  -5.1719  -5.1611  -5.1271  -4.8778  -4.5900
    -3.8690  -3.6222  -3.3516  -3.2098  -2.9079  -2.4505  -2.3034  -2.0293
    -1.9260  -1.7481  -1.5064  -0.8812  -0.5500  -0.0357   0.1916   0.7827
     1.0404

     occupation numbers 
     1.0000   1.0000   1.0000   1.0000   1.0000   1.0000   1.0000   1.0000
     1.0000   1.0000   1.0000   1.0000   1.0000   1.0000   1.0000   1.0000
     1.0000   1.0000   1.0000   1.0000   1.0000   1.0000   1.0000   1.0000
     1.0000   1.0000   1.0000   1.0000   1.0000   1.0000   1.0000   1.0000
     1.0000   1.0000   1.0000   1.0000   1.0000   1.0000   1.0000   1.0000
     1.0000   1.0000   1.0000   1.0000   1.0000   1.0000   1.0000   1.0000
     1.0000   1.0000   1.0000   1.0000   1.0000   1.0000   1.0000   1.0000
     1.0000   1.0000   1.0000   1.0000   1.0000   1.0000   1.0000   1.0000
     1.0000   1.0000   1.0000   1.0000   1.0000   1.0000   1.0000   1.0000
     1.0000   1.0000   1.0000   1.0000   1.0000   1.0000   1.0000   1.0000
     1.0000   1.0000   1.0000   1.0000   1.0000   1.0000   1.0000   1.0000
     1.0000   1.0000   1.0000   1.0000   1.0000   1.0000   1.0000   1.0000
     1.0000   1.0000   1.0000   1.0000   1.0000   1.0001   1.0002   1.0002
     1.0004   1.0006   1.0007   1.0063   1.0101   1.0145   1.0279   1.0478
     1.0764   1.0808   1.0727   1.0307   1.0186   1.0070   0.9411   0.8648
     0.5438   0.4718   0.4436   0.1082   0.0930   0.0556   0.0002   0.0000
     0.0000   0.0000   0.0000   0.0000   0.0000   0.0000   0.0000   0.0000
     0.0000   0.0000   0.0000   0.0000   0.0000   0.0000   0.0000   0.0000
     0.0000

          k = 0.0625 0.3969 0.0000 ( 44528 PWs)   bands (ev):

   -11.7934 -11.5536 -10.9623 -10.6850 -10.5554 -10.4853 -10.4685 -10.3805
   -10.3701 -10.3598 -10.2870 -10.2624 -10.2595 -10.2181 -10.1510 -10.1372
   -10.0270 -10.0050  -9.9372  -9.9082  -9.8655  -9.8364  -9.8261  -9.7758
    -9.7689  -9.6948  -9.6557  -9.5861  -9.4182  -9.3563  -9.2734  -9.2508
    -9.2256  -9.2123  -9.1701  -9.0662  -8.9685  -8.9405  -8.9344  -8.8456
    -8.7578  -8.7339  -8.6794  -8.5806  -8.4864  -8.4482  -8.3590  -8.3403
    -8.3081  -8.2720  -8.2258  -8.2028  -8.1666  -8.1261  -8.0843  -8.0782
    -8.0373  -8.0310  -7.9710  -7.9326  -7.8767  -7.8629  -7.8541  -7.8000
    -7.7873  -7.7632  -7.7104  -7.6503  -7.6442  -7.5942  -7.5887  -7.5710
    -7.5015  -7.4368  -7.3719  -7.3227  -7.2767  -7.1659  -7.1500  -7.0879
    -7.0213  -7.0091  -6.9928  -6.9831  -6.9604  -6.9312  -6.9246  -6.8027
    -6.7707  -6.6586  -6.6218  -6.5983  -6.5903  -6.5847  -6.4382  -6.3897
    -6.3675  -6.3378  -6.3184  -6.2951  -6.2410  -6.1996  -6.1547  -6.1372
    -6.0962  -6.0741  -6.0430  -6.0138  -5.9687  -5.9028  -5.8723  -5.7848
    -5.6915  -5.5920  -5.5722  -5.5620  -5.5189  -5.4700  -5.4544  -5.4380
    -5.4015  -5.3421  -5.3249  -5.2984  -5.2420  -5.1747  -5.1629  -4.4066
    -3.8830  -3.5823  -3.3944  -3.0952  -2.7096  -2.2993  -2.2136  -1.9383
    -1.8549  -1.6198  -1.4076  -0.7131  -0.4166  -0.2781   0.5334   1.1517
     1.3382

     occupation numbers 
     1.0000   1.0000   1.0000   1.0000   1.0000   1.0000   1.0000   1.0000
     1.0000   1.0000   1.0000   1.0000   1.0000   1.0000   1.0000   1.0000
     1.0000   1.0000   1.0000   1.0000   1.0000   1.0000   1.0000   1.0000
     1.0000   1.0000   1.0000   1.0000   1.0000   1.0000   1.0000   1.0000
     1.0000   1.0000   1.0000   1.0000   1.0000   1.0000   1.0000   1.0000
     1.0000   1.0000   1.0000   1.0000   1.0000   1.0000   1.0000   1.0000
     1.0000   1.0000   1.0000   1.0000   1.0000   1.0000   1.0000   1.0000
     1.0000   1.0000   1.0000   1.0000   1.0000   1.0000   1.0000   1.0000
     1.0000   1.0000   1.0000   1.0000   1.0000   1.0000   1.0000   1.0000
     1.0000   1.0000   1.0000   1.0000   1.0000   1.0000   1.0000   1.0000
     1.0000   1.0000   1.0000   1.0000   1.0000   1.0000   1.0000   1.0000
     1.0000   1.0000   1.0000   1.0000   1.0000   1.0000   1.0000   1.0000
     1.0000   1.0000   1.0000   1.0000   1.0000   1.0000   1.0000   1.0000
     1.0000   1.0000   1.0000   1.0001   1.0002   1.0011   1.0022   1.0112
     1.0403   1.0812   1.0833   1.0826   1.0619   0.9930   0.9598   0.9188
     0.8083   0.5929   0.5286   0.4322   0.2546   0.1125   0.0955   0.0000
     0.0000   0.0000   0.0000   0.0000   0.0000   0.0000   0.0000   0.0000
     0.0000   0.0000   0.0000   0.0000   0.0000   0.0000   0.0000   0.0000
     0.0000

          k = 0.0625 0.4691 0.0000 ( 44509 PWs)   bands (ev):

   -11.6671 -11.3189 -10.7671 -10.7120 -10.4566 -10.3544 -10.3490 -10.3336
   -10.2731 -10.2329 -10.1636 -10.1471 -10.1017 -10.0597 -10.0319 -10.0026
    -9.8699  -9.8348  -9.8206  -9.7942  -9.7543  -9.7320  -9.7037  -9.6315
    -9.6243  -9.5637  -9.5120  -9.4481  -9.4124  -9.2685  -9.2400  -9.1840
    -9.1663  -9.1430  -9.1172  -9.1002  -9.0598  -9.0040  -8.9594  -8.9227
    -8.8259  -8.7603  -8.7046  -8.6697  -8.6127  -8.6017  -8.4946  -8.4476
    -8.3760  -8.2687  -8.2392  -8.2051  -8.1661  -8.1492  -8.1329  -8.1192
    -8.0959  -8.0391  -8.0130  -8.0013  -7.9780  -7.9716  -7.9033  -7.8095
    -7.7845  -7.7584  -7.6907  -7.6808  -7.6025  -7.5915  -7.5843  -7.5612
    -7.5150  -7.4759  -7.3990  -7.3657  -7.3311  -7.2908  -7.2666  -7.2403
    -7.2055  -7.1757  -7.1110  -7.0849  -7.0516  -6.9929  -6.9628  -6.9505
    -6.8692  -6.8293  -6.7939  -6.7497  -6.7334  -6.6490  -6.6126  -6.5762
    -6.5199  -6.5120  -6.4810  -6.4306  -6.3968  -6.3664  -6.3287  -6.3045
    -6.2434  -6.2107  -6.1811  -6.1066  -6.0602  -6.0147  -5.9499  -5.9343
    -5.8641  -5.6966  -5.6712  -5.5664  -5.5610  -5.5059  -5.4400  -5.4162
    -5.4120  -5.3629  -5.3313  -5.3122  -5.1765  -5.1646  -5.1333  -4.4119
    -3.8738  -3.5058  -3.3432  -3.0265  -2.6328  -2.2826  -2.1792  -1.8985
    -1.7951  -1.4046  -1.0609  -0.7982  -0.4115  -0.2993   0.6547   0.9024
     1.3546

     occupation numbers 
     1.0000   1.0000   1.0000   1.0000   1.0000   1.0000   1.0000   1.0000
     1.0000   1.0000   1.0000   1.0000   1.0000   1.0000   1.0000   1.0000
     1.0000   1.0000   1.0000   1.0000   1.0000   1.0000   1.0000   1.0000
     1.0000   1.0000   1.0000   1.0000   1.0000   1.0000   1.0000   1.0000
     1.0000   1.0000   1.0000   1.0000   1.0000   1.0000   1.0000   1.0000
     1.0000   1.0000   1.0000   1.0000   1.0000   1.0000   1.0000   1.0000
     1.0000   1.0000   1.0000   1.0000   1.0000   1.0000   1.0000   1.0000
     1.0000   1.0000   1.0000   1.0000   1.0000   1.0000   1.0000   1.0000
     1.0000   1.0000   1.0000   1.0000   1.0000   1.0000   1.0000   1.0000
     1.0000   1.0000   1.0000   1.0000   1.0000   1.0000   1.0000   1.0000
     1.0000   1.0000   1.0000   1.0000   1.0000   1.0000   1.0000   1.0000
     1.0000   1.0000   1.0000   1.0000   1.0000   1.0000   1.0000   1.0000
     1.0000   1.0000   1.0000   1.0000   1.0000   1.0000   1.0000   1.0000
     1.0000   1.0000   1.0000   1.0000   1.0000   1.0001   1.0004   1.0005
     1.0026   1.0381   1.0495   1.0831   1.0825   1.0488   0.9241   0.8558
     0.8425   0.6710   0.5524   0.4816   0.1152   0.0977   0.0614   0.0000
     0.0000   0.0000   0.0000   0.0000   0.0000   0.0000   0.0000   0.0000
     0.0000   0.0000   0.0000   0.0000   0.0000   0.0000   0.0000   0.0000
     0.0000

          k = 0.0625-0.6134 0.0000 ( 44516 PWs)   bands (ev):

   -11.6128 -11.0618 -10.8457 -10.5911 -10.4727 -10.2991 -10.2504 -10.2252
   -10.2238 -10.1771 -10.1359 -10.0845 -10.0064  -9.9779  -9.9485  -9.8975
    -9.7997  -9.7810  -9.7394  -9.6765  -9.6357  -9.6173  -9.5893  -9.5621
    -9.5417  -9.5086  -9.4324  -9.4020  -9.3740  -9.2842  -9.2358  -9.2179
    -9.1722  -9.1319  -9.0914  -9.0666  -9.0273  -9.0022  -8.9638  -8.9217
    -8.8396  -8.7979  -8.7681  -8.6998  -8.6533  -8.6272  -8.5682  -8.5271
    -8.4831  -8.3829  -8.3352  -8.2899  -8.2722  -8.1992  -8.1538  -8.1117
    -8.0725  -8.0533  -8.0493  -8.0110  -7.9895  -7.9385  -7.7969  -7.7775
    -7.7581  -7.7478  -7.7330  -7.6929  -7.6752  -7.6407  -7.6190  -7.6016
    -7.5553  -7.5397  -7.5164  -7.4034  -7.3795  -7.3319  -7.3201  -7.3041
    -7.2444  -7.1802  -7.1590  -7.1133  -7.0793  -7.0457  -7.0189  -6.9892
    -6.8886  -6.8686  -6.8176  -6.7799  -6.7708  -6.7585  -6.7158  -6.6828
    -6.6603  -6.6097  -6.5838  -6.5536  -6.5315  -6.4763  -6.4128  -6.3760
    -6.3357  -6.3003  -6.2635  -6.1709  -6.1248  -6.0580  -6.0055  -5.9915
    -5.9287  -5.8247  -5.6823  -5.5834  -5.5626  -5.5090  -5.4140  -5.4045
    -5.3817  -5.3741  -5.3434  -5.3280  -5.1769  -5.1628  -4.9695  -4.5635
    -3.7754  -3.4621  -3.2444  -3.0333  -2.7732  -2.2253  -2.1112  -1.7989
    -1.6634  -1.3661  -1.1819  -0.5412  -0.2929  -0.2488   0.1710   1.0035
     1.3894

     occupation numbers 
     1.0000   1.0000   1.0000   1.0000   1.0000   1.0000   1.0000   1.0000
     1.0000   1.0000   1.0000   1.0000   1.0000   1.0000   1.0000   1.0000
     1.0000   1.0000   1.0000   1.0000   1.0000   1.0000   1.0000   1.0000
     1.0000   1.0000   1.0000   1.0000   1.0000   1.0000   1.0000   1.0000
     1.0000   1.0000   1.0000   1.0000   1.0000   1.0000   1.0000   1.0000
     1.0000   1.0000   1.0000   1.0000   1.0000   1.0000   1.0000   1.0000
     1.0000   1.0000   1.0000   1.0000   1.0000   1.0000   1.0000   1.0000
     1.0000   1.0000   1.0000   1.0000   1.0000   1.0000   1.0000   1.0000
     1.0000   1.0000   1.0000   1.0000   1.0000   1.0000   1.0000   1.0000
     1.0000   1.0000   1.0000   1.0000   1.0000   1.0000   1.0000   1.0000
     1.0000   1.0000   1.0000   1.0000   1.0000   1.0000   1.0000   1.0000
     1.0000   1.0000   1.0000   1.0000   1.0000   1.0000   1.0000   1.0000
     1.0000   1.0000   1.0000   1.0000   1.0000   1.0000   1.0000   1.0000
     1.0000   1.0000   1.0000   1.0000   1.0000   1.0000   1.0001   1.0001
     1.0006   1.0056   1.0444   1.0826   1.0827   1.0523   0.8490   0.8182
     0.7399   0.7124   0.5980   0.5398   0.1160   0.0953   0.0025   0.0000
     0.0000   0.0000   0.0000   0.0000   0.0000   0.0000   0.0000   0.0000
     0.0000   0.0000   0.0000   0.0000   0.0000   0.0000   0.0000   0.0000
     0.0000

          k = 0.0625-0.5413 0.0000 ( 44516 PWs)   bands (ev):

   -11.6128 -11.0618 -10.8457 -10.5911 -10.4727 -10.2991 -10.2504 -10.2252
   -10.2238 -10.1771 -10.1359 -10.0845 -10.0064  -9.9779  -9.9485  -9.8975
    -9.7997  -9.7810  -9.7394  -9.6765  -9.6357  -9.6173  -9.5893  -9.5621
    -9.5417  -9.5086  -9.4324  -9.4020  -9.3740  -9.2842  -9.2358  -9.2179
    -9.1722  -9.1319  -9.0914  -9.0666  -9.0273  -9.0022  -8.9637  -8.9217
    -8.8396  -8.7979  -8.7681  -8.6998  -8.6533  -8.6272  -8.5682  -8.5271
    -8.4831  -8.3829  -8.3352  -8.2899  -8.2722  -8.1992  -8.1538  -8.1117
    -8.0725  -8.0533  -8.0493  -8.0110  -7.9895  -7.9385  -7.7969  -7.7775
    -7.7581  -7.7478  -7.7330  -7.6929  -7.6752  -7.6407  -7.6190  -7.6016
    -7.5553  -7.5397  -7.5164  -7.4034  -7.3795  -7.3319  -7.3201  -7.3041
    -7.2444  -7.1802  -7.1590  -7.1133  -7.0793  -7.0457  -7.0189  -6.9892
    -6.8886  -6.8686  -6.8176  -6.7799  -6.7708  -6.7585  -6.7158  -6.6828
    -6.6603  -6.6097  -6.5838  -6.5536  -6.5315  -6.4763  -6.4128  -6.3760
    -6.3357  -6.3003  -6.2635  -6.1709  -6.1248  -6.0580  -6.0055  -5.9915
    -5.9287  -5.8247  -5.6823  -5.5834  -5.5626  -5.5090  -5.4140  -5.4045
    -5.3817  -5.3741  -5.3434  -5.3280  -5.1769  -5.1628  -4.9695  -4.5635
    -3.7754  -3.4621  -3.2444  -3.0333  -2.7732  -2.2253  -2.1112  -1.7989
    -1.6634  -1.3661  -1.1819  -0.5412  -0.2929  -0.2488   0.1710   1.0035
     1.3894

     occupation numbers 
     1.0000   1.0000   1.0000   1.0000   1.0000   1.0000   1.0000   1.0000
     1.0000   1.0000   1.0000   1.0000   1.0000   1.0000   1.0000   1.0000
     1.0000   1.0000   1.0000   1.0000   1.0000   1.0000   1.0000   1.0000
     1.0000   1.0000   1.0000   1.0000   1.0000   1.0000   1.0000   1.0000
     1.0000   1.0000   1.0000   1.0000   1.0000   1.0000   1.0000   1.0000
     1.0000   1.0000   1.0000   1.0000   1.0000   1.0000   1.0000   1.0000
     1.0000   1.0000   1.0000   1.0000   1.0000   1.0000   1.0000   1.0000
     1.0000   1.0000   1.0000   1.0000   1.0000   1.0000   1.0000   1.0000
     1.0000   1.0000   1.0000   1.0000   1.0000   1.0000   1.0000   1.0000
     1.0000   1.0000   1.0000   1.0000   1.0000   1.0000   1.0000   1.0000
     1.0000   1.0000   1.0000   1.0000   1.0000   1.0000   1.0000   1.0000
     1.0000   1.0000   1.0000   1.0000   1.0000   1.0000   1.0000   1.0000
     1.0000   1.0000   1.0000   1.0000   1.0000   1.0000   1.0000   1.0000
     1.0000   1.0000   1.0000   1.0000   1.0000   1.0000   1.0001   1.0001
     1.0006   1.0056   1.0444   1.0826   1.0827   1.0523   0.8490   0.8182
     0.7399   0.7124   0.5980   0.5398   0.1160   0.0953   0.0025   0.0000
     0.0000   0.0000   0.0000   0.0000   0.0000   0.0000   0.0000   0.0000
     0.0000   0.0000   0.0000   0.0000   0.0000   0.0000   0.0000   0.0000
     0.0000

          k = 0.0625-0.4691 0.0000 ( 44509 PWs)   bands (ev):

   -11.6671 -11.3189 -10.7671 -10.7120 -10.4566 -10.3544 -10.3490 -10.3336
   -10.2731 -10.2329 -10.1636 -10.1471 -10.1017 -10.0597 -10.0319 -10.0026
    -9.8699  -9.8348  -9.8206  -9.7942  -9.7543  -9.7320  -9.7037  -9.6315
    -9.6243  -9.5637  -9.5120  -9.4481  -9.4124  -9.2685  -9.2400  -9.1840
    -9.1663  -9.1430  -9.1172  -9.1002  -9.0598  -9.0040  -8.9594  -8.9227
    -8.8259  -8.7603  -8.7046  -8.6697  -8.6127  -8.6017  -8.4946  -8.4476
    -8.3760  -8.2687  -8.2392  -8.2051  -8.1661  -8.1492  -8.1329  -8.1192
    -8.0959  -8.0391  -8.0130  -8.0013  -7.9780  -7.9716  -7.9033  -7.8095
    -7.7845  -7.7584  -7.6907  -7.6808  -7.6025  -7.5915  -7.5843  -7.5612
    -7.5150  -7.4759  -7.3990  -7.3657  -7.3311  -7.2908  -7.2666  -7.2403
    -7.2055  -7.1757  -7.1110  -7.0849  -7.0516  -6.9929  -6.9628  -6.9505
    -6.8692  -6.8293  -6.7939  -6.7497  -6.7334  -6.6490  -6.6126  -6.5762
    -6.5199  -6.5120  -6.4810  -6.4306  -6.3968  -6.3664  -6.3287  -6.3045
    -6.2434  -6.2107  -6.1811  -6.1066  -6.0602  -6.0147  -5.9499  -5.9343
    -5.8641  -5.6966  -5.6712  -5.5664  -5.5610  -5.5059  -5.4400  -5.4162
    -5.4120  -5.3629  -5.3313  -5.3122  -5.1765  -5.1646  -5.1333  -4.4119
    -3.8738  -3.5058  -3.3432  -3.0265  -2.6328  -2.2826  -2.1792  -1.8985
    -1.7951  -1.4046  -1.0609  -0.7982  -0.4115  -0.2993   0.6547   0.9024
     1.3546

     occupation numbers 
     1.0000   1.0000   1.0000   1.0000   1.0000   1.0000   1.0000   1.0000
     1.0000   1.0000   1.0000   1.0000   1.0000   1.0000   1.0000   1.0000
     1.0000   1.0000   1.0000   1.0000   1.0000   1.0000   1.0000   1.0000
     1.0000   1.0000   1.0000   1.0000   1.0000   1.0000   1.0000   1.0000
     1.0000   1.0000   1.0000   1.0000   1.0000   1.0000   1.0000   1.0000
     1.0000   1.0000   1.0000   1.0000   1.0000   1.0000   1.0000   1.0000
     1.0000   1.0000   1.0000   1.0000   1.0000   1.0000   1.0000   1.0000
     1.0000   1.0000   1.0000   1.0000   1.0000   1.0000   1.0000   1.0000
     1.0000   1.0000   1.0000   1.0000   1.0000   1.0000   1.0000   1.0000
     1.0000   1.0000   1.0000   1.0000   1.0000   1.0000   1.0000   1.0000
     1.0000   1.0000   1.0000   1.0000   1.0000   1.0000   1.0000   1.0000
     1.0000   1.0000   1.0000   1.0000   1.0000   1.0000   1.0000   1.0000
     1.0000   1.0000   1.0000   1.0000   1.0000   1.0000   1.0000   1.0000
     1.0000   1.0000   1.0000   1.0000   1.0000   1.0001   1.0004   1.0005
     1.0026   1.0381   1.0495   1.0831   1.0825   1.0488   0.9241   0.8558
     0.8425   0.6710   0.5524   0.4816   0.1152   0.0977   0.0614   0.0000
     0.0000   0.0000   0.0000   0.0000   0.0000   0.0000   0.0000   0.0000
     0.0000   0.0000   0.0000   0.0000   0.0000   0.0000   0.0000   0.0000
     0.0000

          k = 0.0625-0.3969 0.0000 ( 44528 PWs)   bands (ev):

   -11.7934 -11.5536 -10.9623 -10.6850 -10.5554 -10.4853 -10.4685 -10.3805
   -10.3701 -10.3598 -10.2870 -10.2624 -10.2595 -10.2181 -10.1510 -10.1372
   -10.0270 -10.0050  -9.9372  -9.9082  -9.8655  -9.8364  -9.8261  -9.7758
    -9.7689  -9.6948  -9.6557  -9.5861  -9.4182  -9.3563  -9.2734  -9.2508
    -9.2256  -9.2123  -9.1701  -9.0662  -8.9685  -8.9405  -8.9344  -8.8456
    -8.7578  -8.7339  -8.6794  -8.5806  -8.4864  -8.4482  -8.3590  -8.3403
    -8.3081  -8.2720  -8.2258  -8.2028  -8.1666  -8.1261  -8.0843  -8.0782
    -8.0373  -8.0310  -7.9710  -7.9326  -7.8767  -7.8629  -7.8541  -7.8000
    -7.7873  -7.7632  -7.7104  -7.6503  -7.6442  -7.5942  -7.5887  -7.5710
    -7.5015  -7.4368  -7.3719  -7.3227  -7.2767  -7.1659  -7.1500  -7.0879
    -7.0213  -7.0091  -6.9928  -6.9831  -6.9604  -6.9312  -6.9246  -6.8027
    -6.7707  -6.6586  -6.6218  -6.5983  -6.5903  -6.5847  -6.4382  -6.3897
    -6.3675  -6.3378  -6.3184  -6.2951  -6.2410  -6.1996  -6.1547  -6.1372
    -6.0962  -6.0741  -6.0430  -6.0138  -5.9687  -5.9028  -5.8723  -5.7848
    -5.6915  -5.5920  -5.5722  -5.5620  -5.5189  -5.4700  -5.4544  -5.4380
    -5.4015  -5.3421  -5.3249  -5.2984  -5.2420  -5.1747  -5.1629  -4.4066
    -3.8830  -3.5823  -3.3944  -3.0952  -2.7096  -2.2993  -2.2136  -1.9383
    -1.8549  -1.6198  -1.4076  -0.7131  -0.4166  -0.2781   0.5334   1.1517
     1.3380

     occupation numbers 
     1.0000   1.0000   1.0000   1.0000   1.0000   1.0000   1.0000   1.0000
     1.0000   1.0000   1.0000   1.0000   1.0000   1.0000   1.0000   1.0000
     1.0000   1.0000   1.0000   1.0000   1.0000   1.0000   1.0000   1.0000
     1.0000   1.0000   1.0000   1.0000   1.0000   1.0000   1.0000   1.0000
     1.0000   1.0000   1.0000   1.0000   1.0000   1.0000   1.0000   1.0000
     1.0000   1.0000   1.0000   1.0000   1.0000   1.0000   1.0000   1.0000
     1.0000   1.0000   1.0000   1.0000   1.0000   1.0000   1.0000   1.0000
     1.0000   1.0000   1.0000   1.0000   1.0000   1.0000   1.0000   1.0000
     1.0000   1.0000   1.0000   1.0000   1.0000   1.0000   1.0000   1.0000
     1.0000   1.0000   1.0000   1.0000   1.0000   1.0000   1.0000   1.0000
     1.0000   1.0000   1.0000   1.0000   1.0000   1.0000   1.0000   1.0000
     1.0000   1.0000   1.0000   1.0000   1.0000   1.0000   1.0000   1.0000
     1.0000   1.0000   1.0000   1.0000   1.0000   1.0000   1.0000   1.0000
     1.0000   1.0000   1.0000   1.0001   1.0002   1.0011   1.0022   1.0112
     1.0403   1.0812   1.0833   1.0826   1.0619   0.9930   0.9598   0.9188
     0.8083   0.5929   0.5286   0.4322   0.2546   0.1125   0.0955   0.0000
     0.0000   0.0000   0.0000   0.0000   0.0000   0.0000   0.0000   0.0000
     0.0000   0.0000   0.0000   0.0000   0.0000   0.0000   0.0000   0.0000
     0.0000

          k = 0.0625-0.3248 0.0000 ( 44578 PWs)   bands (ev):

   -11.9955 -11.7227 -11.1624 -10.7059 -10.6756 -10.6174 -10.6119 -10.5391
   -10.5062 -10.4740 -10.4464 -10.4132 -10.3855 -10.3597 -10.3193 -10.2405
   -10.1981 -10.1558 -10.1018 -10.0566  -9.9868  -9.9693  -9.9573  -9.9270
    -9.9173  -9.8075  -9.7921  -9.7142  -9.5884  -9.4927  -9.4433  -9.3216
    -9.2927  -9.1915  -9.0430  -9.0231  -8.9103  -8.8684  -8.8184  -8.7835
    -8.7358  -8.6353  -8.5775  -8.4761  -8.4168  -8.3555  -8.3257  -8.3010
    -8.2724  -8.2186  -8.1989  -8.1489  -8.1365  -8.1079  -8.0997  -8.0887
    -8.0769  -8.0377  -7.9889  -7.9503  -7.9308  -7.8883  -7.8029  -7.7866
    -7.7675  -7.6648  -7.6326  -7.6006  -7.5934  -7.5407  -7.5124  -7.4961
    -7.4473  -7.4261  -7.3716  -7.1768  -7.1261  -7.0628  -7.0413  -6.9992
    -6.9855  -6.9328  -6.8016  -6.7546  -6.7309  -6.6993  -6.6231  -6.5929
    -6.5674  -6.5396  -6.5062  -6.4685  -6.4542  -6.3827  -6.3427  -6.2127
    -6.1516  -6.1248  -6.1140  -6.1019  -6.0446  -6.0041  -5.9812  -5.9700
    -5.9472  -5.9286  -5.9221  -5.8180  -5.7909  -5.7690  -5.7226  -5.6749
    -5.6094  -5.5528  -5.5336  -5.4920  -5.4842  -5.4774  -5.4467  -5.4191
    -5.3290  -5.3095  -5.3017  -5.1719  -5.1611  -5.1271  -4.8778  -4.5900
    -3.8690  -3.6222  -3.3516  -3.2098  -2.9079  -2.4505  -2.3034  -2.0293
    -1.9260  -1.7481  -1.5064  -0.8812  -0.5500  -0.0357   0.1916   0.7827
     1.0404

     occupation numbers 
     1.0000   1.0000   1.0000   1.0000   1.0000   1.0000   1.0000   1.0000
     1.0000   1.0000   1.0000   1.0000   1.0000   1.0000   1.0000   1.0000
     1.0000   1.0000   1.0000   1.0000   1.0000   1.0000   1.0000   1.0000
     1.0000   1.0000   1.0000   1.0000   1.0000   1.0000   1.0000   1.0000
     1.0000   1.0000   1.0000   1.0000   1.0000   1.0000   1.0000   1.0000
     1.0000   1.0000   1.0000   1.0000   1.0000   1.0000   1.0000   1.0000
     1.0000   1.0000   1.0000   1.0000   1.0000   1.0000   1.0000   1.0000
     1.0000   1.0000   1.0000   1.0000   1.0000   1.0000   1.0000   1.0000
     1.0000   1.0000   1.0000   1.0000   1.0000   1.0000   1.0000   1.0000
     1.0000   1.0000   1.0000   1.0000   1.0000   1.0000   1.0000   1.0000
     1.0000   1.0000   1.0000   1.0000   1.0000   1.0000   1.0000   1.0000
     1.0000   1.0000   1.0000   1.0000   1.0000   1.0000   1.0000   1.0000
     1.0000   1.0000   1.0000   1.0000   1.0000   1.0001   1.0002   1.0002
     1.0004   1.0006   1.0007   1.0063   1.0101   1.0145   1.0279   1.0478
     1.0764   1.0808   1.0727   1.0307   1.0186   1.0070   0.9411   0.8648
     0.5438   0.4718   0.4436   0.1082   0.0930   0.0556   0.0002   0.0000
     0.0000   0.0000   0.0000   0.0000   0.0000   0.0000   0.0000   0.0000
     0.0000   0.0000   0.0000   0.0000   0.0000   0.0000   0.0000   0.0000
     0.0000

          k = 0.0625-0.2526 0.0000 ( 44582 PWs)   bands (ev):

   -12.2072 -11.8588 -11.3357 -10.7901 -10.7531 -10.7486 -10.7420 -10.7023
   -10.6504 -10.6392 -10.5608 -10.5458 -10.5198 -10.4783 -10.4393 -10.3596
   -10.3105 -10.3058 -10.2729 -10.2038 -10.1311 -10.0945 -10.0590 -10.0517
   -10.0379  -9.9347  -9.9001  -9.8530  -9.7569  -9.6663  -9.5293  -9.3777
    -9.3620  -9.1747  -8.9699  -8.8769  -8.8524  -8.8248  -8.7765  -8.7035
    -8.6580  -8.5525  -8.4749  -8.4479  -8.3957  -8.3817  -8.3336  -8.3026
    -8.2671  -8.2352  -8.2268  -8.1860  -8.1519  -8.1300  -8.0928  -8.0572
    -8.0291  -7.9866  -7.9633  -7.9305  -7.9111  -7.9002  -7.8524  -7.8056
    -7.7535  -7.6660  -7.6387  -7.6168  -7.5953  -7.5558  -7.4667  -7.2644
    -7.2532  -7.1785  -7.1292  -7.0761  -6.9936  -6.9630  -6.9465  -6.9341
    -6.8703  -6.7719  -6.6742  -6.6392  -6.5735  -6.4776  -6.4383  -6.3922
    -6.3694  -6.3566  -6.3440  -6.2997  -6.2436  -6.2353  -6.1718  -6.0790
    -5.9871  -5.9649  -5.9511  -5.8681  -5.8416  -5.8176  -5.7996  -5.7818
    -5.7655  -5.7529  -5.7192  -5.7126  -5.6658  -5.6332  -5.5966  -5.5785
    -5.5233  -5.5072  -5.4910  -5.4815  -5.4700  -5.4516  -5.4330  -5.3237
    -5.2955  -5.2598  -5.1676  -5.1554  -5.0770  -4.9213  -4.5232  -4.2466
    -4.0190  -3.7354  -3.3377  -3.1349  -2.9492  -2.7570  -2.5945  -2.2361
    -2.0097  -1.6572  -1.3981  -1.0949  -0.7304  -0.3985   0.0805   0.3450
     0.7335

     occupation numbers 
     1.0000   1.0000   1.0000   1.0000   1.0000   1.0000   1.0000   1.0000
     1.0000   1.0000   1.0000   1.0000   1.0000   1.0000   1.0000   1.0000
     1.0000   1.0000   1.0000   1.0000   1.0000   1.0000   1.0000   1.0000
     1.0000   1.0000   1.0000   1.0000   1.0000   1.0000   1.0000   1.0000
     1.0000   1.0000   1.0000   1.0000   1.0000   1.0000   1.0000   1.0000
     1.0000   1.0000   1.0000   1.0000   1.0000   1.0000   1.0000   1.0000
     1.0000   1.0000   1.0000   1.0000   1.0000   1.0000   1.0000   1.0000
     1.0000   1.0000   1.0000   1.0000   1.0000   1.0000   1.0000   1.0000
     1.0000   1.0000   1.0000   1.0000   1.0000   1.0000   1.0000   1.0000
     1.0000   1.0000   1.0000   1.0000   1.0000   1.0000   1.0000   1.0000
     1.0000   1.0000   1.0000   1.0000   1.0000   1.0000   1.0000   1.0000
     1.0000   1.0000   1.0000   1.0000   1.0000   1.0000   1.0000   1.0000
     1.0001   1.0002   1.0003   1.0024   1.0040   1.0064   1.0087   1.0118
     1.0153   1.0184   1.0291   1.0316   1.0520   1.0671   1.0801   1.0831
     1.0656   1.0503   1.0292   1.0142   0.9931   0.9532   0.9050   0.5241
     0.4219   0.3054   0.1020   0.0857   0.0236   0.0008   0.0000   0.0000
     0.0000   0.0000   0.0000   0.0000   0.0000   0.0000   0.0000   0.0000
     0.0000   0.0000   0.0000   0.0000   0.0000   0.0000   0.0000   0.0000
     0.0000

          k = 0.0625-0.1804 0.0000 ( 44578 PWs)   bands (ev):

   -12.3828 -11.9759 -11.4697 -10.8919 -10.8723 -10.8583 -10.8415 -10.7957
   -10.7745 -10.7454 -10.6854 -10.6262 -10.6172 -10.5957 -10.5116 -10.4880
   -10.4404 -10.4234 -10.3623 -10.3227 -10.2619 -10.2092 -10.1372 -10.1357
   -10.1260 -10.0541  -9.9813  -9.9721  -9.8904  -9.8185  -9.5815  -9.4211
    -9.4187  -9.1642  -8.9114  -8.8598  -8.7854  -8.7215  -8.6904  -8.6621
    -8.5645  -8.5516  -8.4943  -8.4289  -8.3914  -8.3757  -8.3326  -8.3101
    -8.2878  -8.2752  -8.2733  -8.2659  -8.2599  -8.1228  -8.0913  -8.0582
    -8.0164  -7.9816  -7.9652  -7.9280  -7.8649  -7.8300  -7.7662  -7.7410
    -7.7177  -7.7092  -7.6700  -7.6260  -7.5773  -7.4712  -7.3274  -7.1426
    -7.0805  -7.0421  -6.9346  -6.9159  -6.9050  -6.8893  -6.8766  -6.8084
    -6.6966  -6.6383  -6.6063  -6.5692  -6.5072  -6.3989  -6.3379  -6.2766
    -6.2654  -6.2167  -6.1433  -6.0633  -6.0433  -6.0006  -5.9848  -5.9188
    -5.9008  -5.8639  -5.8371  -5.7862  -5.6765  -5.6623  -5.6560  -5.6492
    -5.6311  -5.5480  -5.5387  -5.5295  -5.5102  -5.4978  -5.4882  -5.4655
    -5.4561  -5.4459  -5.4397  -5.4291  -5.4104  -5.3587  -5.2879  -5.2779
    -5.2553  -5.2022  -5.1707  -5.1535  -5.1382  -4.5677  -4.3742  -3.9130
    -3.8403  -3.5068  -3.4314  -3.2317  -2.9799  -2.8809  -2.6381  -2.3610
    -2.1350  -1.6748  -1.3492  -1.1388  -0.9479  -0.8457  -0.5724   0.2388
     0.3867

     occupation numbers 
     1.0000   1.0000   1.0000   1.0000   1.0000   1.0000   1.0000   1.0000
     1.0000   1.0000   1.0000   1.0000   1.0000   1.0000   1.0000   1.0000
     1.0000   1.0000   1.0000   1.0000   1.0000   1.0000   1.0000   1.0000
     1.0000   1.0000   1.0000   1.0000   1.0000   1.0000   1.0000   1.0000
     1.0000   1.0000   1.0000   1.0000   1.0000   1.0000   1.0000   1.0000
     1.0000   1.0000   1.0000   1.0000   1.0000   1.0000   1.0000   1.0000
     1.0000   1.0000   1.0000   1.0000   1.0000   1.0000   1.0000   1.0000
     1.0000   1.0000   1.0000   1.0000   1.0000   1.0000   1.0000   1.0000
     1.0000   1.0000   1.0000   1.0000   1.0000   1.0000   1.0000   1.0000
     1.0000   1.0000   1.0000   1.0000   1.0000   1.0000   1.0000   1.0000
     1.0000   1.0000   1.0000   1.0000   1.0000   1.0000   1.0000   1.0000
     1.0000   1.0000   1.0000   1.0000   1.0000   1.0001   1.0001   1.0008
     1.0011   1.0026   1.0044   1.0110   1.0470   1.0537   1.0566   1.0598
     1.0680   1.0794   1.0755   1.0701   1.0536   1.0388   1.0250   0.9840
     0.9636   0.9392   0.9232   0.8941   0.8375   0.6553   0.3957   0.3622
     0.2920   0.1611   0.1065   0.0834   0.0662   0.0000   0.0000   0.0000
     0.0000   0.0000   0.0000   0.0000   0.0000   0.0000   0.0000   0.0000
     0.0000   0.0000   0.0000   0.0000   0.0000   0.0000   0.0000   0.0000
     0.0000

          k = 0.0625-0.1083 0.0000 ( 44583 PWs)   bands (ev):

   -12.5056 -12.0636 -11.5605 -10.9888 -10.9442 -10.9375 -10.9255 -10.8930
   -10.8157 -10.8087 -10.7775 -10.6818 -10.6802 -10.6711 -10.5740 -10.5652
   -10.5409 -10.5293 -10.4075 -10.3950 -10.3609 -10.2887 -10.1948 -10.1921
   -10.1823 -10.1383 -10.0734 -10.0253  -9.9775  -9.9262  -9.6161  -9.4595
    -9.4514  -9.1611  -8.8755  -8.8670  -8.7440  -8.6452  -8.6145  -8.6024
    -8.5920  -8.5101  -8.4848  -8.4616  -8.4413  -8.3640  -8.3405  -8.3181
    -8.3167  -8.3079  -8.3022  -8.2958  -8.2803  -8.1784  -8.1041  -8.0915
    -8.0746  -7.9358  -7.9083  -7.8726  -7.8474  -7.8306  -7.8140  -7.7595
    -7.6611  -7.6488  -7.6128  -7.5649  -7.4559  -7.4036  -7.2094  -7.1308
    -7.0754  -6.9594  -6.8288  -6.8176  -6.8102  -6.7838  -6.7583  -6.6377
    -6.6284  -6.6013  -6.5411  -6.5064  -6.4156  -6.3681  -6.3152  -6.2375
    -6.2192  -6.1155  -6.0272  -5.8943  -5.8708  -5.8437  -5.8345  -5.8241
    -5.8186  -5.8011  -5.7115  -5.6722  -5.5793  -5.5563  -5.5529  -5.5401
    -5.5294  -5.4805  -5.4437  -5.4317  -5.4299  -5.4273  -5.4061  -5.3913
    -5.3801  -5.3584  -5.3450  -5.3424  -5.2759  -5.2626  -5.2470  -5.2020
    -5.1567  -5.1471  -5.1089  -5.0919  -5.0860  -4.7057  -4.0593  -4.0258
    -3.7705  -3.3667  -3.2219  -3.1784  -2.8037  -2.6851  -2.5454  -2.2739
    -2.1826  -1.7795  -1.3868  -1.3064  -1.1459  -1.1122  -1.0784  -0.1961
    -0.1245

     occupation numbers 
     1.0000   1.0000   1.0000   1.0000   1.0000   1.0000   1.0000   1.0000
     1.0000   1.0000   1.0000   1.0000   1.0000   1.0000   1.0000   1.0000
     1.0000   1.0000   1.0000   1.0000   1.0000   1.0000   1.0000   1.0000
     1.0000   1.0000   1.0000   1.0000   1.0000   1.0000   1.0000   1.0000
     1.0000   1.0000   1.0000   1.0000   1.0000   1.0000   1.0000   1.0000
     1.0000   1.0000   1.0000   1.0000   1.0000   1.0000   1.0000   1.0000
     1.0000   1.0000   1.0000   1.0000   1.0000   1.0000   1.0000   1.0000
     1.0000   1.0000   1.0000   1.0000   1.0000   1.0000   1.0000   1.0000
     1.0000   1.0000   1.0000   1.0000   1.0000   1.0000   1.0000   1.0000
     1.0000   1.0000   1.0000   1.0000   1.0000   1.0000   1.0000   1.0000
     1.0000   1.0000   1.0000   1.0000   1.0000   1.0000   1.0000   1.0000
     1.0000   1.0000   1.0000   1.0013   1.0022   1.0039   1.0046   1.0056
     1.0062   1.0085   1.0321   1.0490   1.0830   1.0817   1.0809   1.0761
     1.0701   1.0124   0.9337   0.9015   0.8965   0.8891   0.8235   0.7738
     0.7341   0.6543   0.6040   0.5942   0.3555   0.3140   0.2683   0.1607
     0.0872   0.0758   0.0413   0.0308   0.0278   0.0000   0.0000   0.0000
     0.0000   0.0000   0.0000   0.0000   0.0000   0.0000   0.0000   0.0000
     0.0000   0.0000   0.0000   0.0000   0.0000   0.0000   0.0000   0.0000
     0.0000

          k = 0.1250-0.0722 0.0000 ( 44584 PWs)   bands (ev):

   -12.4721 -12.0255 -11.5269 -10.9607 -10.9311 -10.9131 -10.9041 -10.8674
   -10.8205 -10.7697 -10.7633 -10.6691 -10.6587 -10.6566 -10.5715 -10.5286
   -10.5214 -10.5012 -10.4070 -10.3553 -10.3436 -10.2618 -10.1840 -10.1768
   -10.1605 -10.1325 -10.0650  -9.9916  -9.9634  -9.9153  -9.5961  -9.4568
    -9.4402  -9.1541  -8.8974  -8.8672  -8.7442  -8.6684  -8.6453  -8.6175
    -8.6001  -8.5039  -8.4932  -8.4432  -8.4333  -8.3499  -8.3420  -8.3150
    -8.3084  -8.3031  -8.3000  -8.2912  -8.2817  -8.1591  -8.0885  -8.0769
    -8.0660  -7.9553  -7.9322  -7.9017  -7.8832  -7.8067  -7.7829  -7.7682
    -7.7067  -7.6402  -7.6259  -7.5882  -7.5257  -7.4382  -7.2044  -7.1207
    -7.0719  -6.9948  -6.8602  -6.8403  -6.8366  -6.8264  -6.7983  -6.6765
    -6.6267  -6.6125  -6.5983  -6.4931  -6.4228  -6.3981  -6.3157  -6.2493
    -6.2198  -6.1261  -6.0299  -5.9488  -5.9080  -5.8975  -5.8686  -5.8566
    -5.8451  -5.8240  -5.7346  -5.7112  -5.6256  -5.5825  -5.5811  -5.5402
    -5.5323  -5.4962  -5.4558  -5.4536  -5.4462  -5.4387  -5.4270  -5.4122
    -5.3914  -5.3863  -5.3720  -5.3498  -5.3346  -5.3234  -5.2570  -5.2153
    -5.2053  -5.1482  -5.1159  -5.1101  -5.1035  -4.6958  -4.3443  -3.7709
    -3.5407  -3.4792  -3.4703  -3.2025  -2.8223  -2.6802  -2.5408  -2.1651
    -2.1186  -1.8727  -1.7682  -1.2793  -1.0348  -1.0161  -0.4318  -0.3880
     0.1067

     occupation numbers 
     1.0000   1.0000   1.0000   1.0000   1.0000   1.0000   1.0000   1.0000
     1.0000   1.0000   1.0000   1.0000   1.0000   1.0000   1.0000   1.0000
     1.0000   1.0000   1.0000   1.0000   1.0000   1.0000   1.0000   1.0000
     1.0000   1.0000   1.0000   1.0000   1.0000   1.0000   1.0000   1.0000
     1.0000   1.0000   1.0000   1.0000   1.0000   1.0000   1.0000   1.0000
     1.0000   1.0000   1.0000   1.0000   1.0000   1.0000   1.0000   1.0000
     1.0000   1.0000   1.0000   1.0000   1.0000   1.0000   1.0000   1.0000
     1.0000   1.0000   1.0000   1.0000   1.0000   1.0000   1.0000   1.0000
     1.0000   1.0000   1.0000   1.0000   1.0000   1.0000   1.0000   1.0000
     1.0000   1.0000   1.0000   1.0000   1.0000   1.0000   1.0000   1.0000
     1.0000   1.0000   1.0000   1.0000   1.0000   1.0000   1.0000   1.0000
     1.0000   1.0000   1.0000   1.0004   1.0010   1.0012   1.0023   1.0030
     1.0038   1.0056   1.0239   1.0322   1.0703   1.0827   1.0829   1.0762
     1.0719   1.0366   0.9629   0.9579   0.9399   0.9206   0.8881   0.8433
     0.7739   0.7564   0.7046   0.6222   0.5648   0.5230   0.2970   0.1887
     0.1673   0.0771   0.0464   0.0421   0.0378   0.0000   0.0000   0.0000
     0.0000   0.0000   0.0000   0.0000   0.0000   0.0000   0.0000   0.0000
     0.0000   0.0000   0.0000   0.0000   0.0000   0.0000   0.0000   0.0000
     0.0000

          k = 0.1250 0.0000 0.0000 ( 44583 PWs)   bands (ev):

   -12.5033 -12.0488 -11.5495 -10.9860 -10.9442 -10.9399 -10.9237 -10.8924
   -10.8164 -10.8140 -10.7723 -10.6818 -10.6795 -10.6713 -10.5777 -10.5682
   -10.5394 -10.5257 -10.4086 -10.3956 -10.3562 -10.2815 -10.1992 -10.1902
   -10.1729 -10.1506 -10.0939 -10.0064  -9.9738  -9.9525  -9.6047  -9.4663
    -9.4485  -9.1537  -8.8958  -8.8593  -8.7410  -8.6724  -8.6096  -8.5970
    -8.5928  -8.5057  -8.4854  -8.4534  -8.4460  -8.3640  -8.3440  -8.3228
    -8.3147  -8.3093  -8.3026  -8.2942  -8.2784  -8.1802  -8.0896  -8.0873
    -8.0662  -7.9519  -7.9278  -7.9017  -7.8358  -7.8297  -7.8216  -7.7620
    -7.6644  -7.6457  -7.6205  -7.5490  -7.4976  -7.4004  -7.1985  -7.0924
    -7.0779  -6.9977  -6.8342  -6.8197  -6.8106  -6.7983  -6.7599  -6.6464
    -6.6112  -6.5941  -6.5530  -6.4819  -6.4040  -6.3807  -6.3276  -6.2305
    -6.2134  -6.1273  -6.0015  -5.9210  -5.8479  -5.8421  -5.8376  -5.8195
    -5.8135  -5.8052  -5.6970  -5.6691  -5.5991  -5.5580  -5.5505  -5.5361
    -5.5257  -5.4796  -5.4406  -5.4332  -5.4294  -5.4261  -5.4095  -5.3924
    -5.3787  -5.3571  -5.3473  -5.3420  -5.2857  -5.2672  -5.2498  -5.1866
    -5.1848  -5.1315  -5.1112  -5.0948  -5.0847  -4.7050  -4.0769  -4.0147
    -3.7453  -3.3414  -3.2827  -3.1513  -2.8022  -2.6698  -2.4172  -2.3912
    -2.1590  -1.6537  -1.3422  -1.3005  -1.2202  -1.1217  -1.0670  -0.2306
    -0.1224

     occupation numbers 
     1.0000   1.0000   1.0000   1.0000   1.0000   1.0000   1.0000   1.0000
     1.0000   1.0000   1.0000   1.0000   1.0000   1.0000   1.0000   1.0000
     1.0000   1.0000   1.0000   1.0000   1.0000   1.0000   1.0000   1.0000
     1.0000   1.0000   1.0000   1.0000   1.0000   1.0000   1.0000   1.0000
     1.0000   1.0000   1.0000   1.0000   1.0000   1.0000   1.0000   1.0000
     1.0000   1.0000   1.0000   1.0000   1.0000   1.0000   1.0000   1.0000
     1.0000   1.0000   1.0000   1.0000   1.0000   1.0000   1.0000   1.0000
     1.0000   1.0000   1.0000   1.0000   1.0000   1.0000   1.0000   1.0000
     1.0000   1.0000   1.0000   1.0000   1.0000   1.0000   1.0000   1.0000
     1.0000   1.0000   1.0000   1.0000   1.0000   1.0000   1.0000   1.0000
     1.0000   1.0000   1.0000   1.0000   1.0000   1.0000   1.0000   1.0000
     1.0000   1.0000   1.0001   1.0007   1.0036   1.0040   1.0044   1.0061
     1.0068   1.0079   1.0380   1.0505   1.0795   1.0820   1.0802   1.0741
     1.0674   1.0109   0.9256   0.9056   0.8949   0.8854   0.8345   0.7776
     0.7291   0.6495   0.6128   0.5925   0.3880   0.3280   0.2761   0.1319
     0.1289   0.0596   0.0429   0.0325   0.0272   0.0000   0.0000   0.0000
     0.0000   0.0000   0.0000   0.0000   0.0000   0.0000   0.0000   0.0000
     0.0000   0.0000   0.0000   0.0000   0.0000   0.0000   0.0000   0.0000
     0.0000

          k = 0.1250 0.0722 0.0000 ( 44584 PWs)   bands (ev):

   -12.4721 -12.0255 -11.5269 -10.9607 -10.9311 -10.9131 -10.9041 -10.8674
   -10.8205 -10.7697 -10.7633 -10.6691 -10.6587 -10.6566 -10.5715 -10.5286
   -10.5214 -10.5012 -10.4070 -10.3553 -10.3436 -10.2618 -10.1840 -10.1768
   -10.1605 -10.1325 -10.0650  -9.9916  -9.9634  -9.9153  -9.5961  -9.4568
    -9.4402  -9.1541  -8.8974  -8.8672  -8.7442  -8.6684  -8.6453  -8.6175
    -8.6001  -8.5039  -8.4932  -8.4432  -8.4333  -8.3499  -8.3420  -8.3150
    -8.3084  -8.3031  -8.3000  -8.2912  -8.2817  -8.1591  -8.0885  -8.0769
    -8.0660  -7.9553  -7.9322  -7.9017  -7.8832  -7.8067  -7.7829  -7.7682
    -7.7067  -7.6402  -7.6259  -7.5882  -7.5257  -7.4382  -7.2044  -7.1207
    -7.0719  -6.9948  -6.8602  -6.8403  -6.8366  -6.8264  -6.7983  -6.6765
    -6.6267  -6.6125  -6.5983  -6.4931  -6.4228  -6.3981  -6.3157  -6.2493
    -6.2198  -6.1261  -6.0299  -5.9488  -5.9080  -5.8975  -5.8686  -5.8566
    -5.8451  -5.8240  -5.7346  -5.7112  -5.6256  -5.5825  -5.5811  -5.5402
    -5.5323  -5.4962  -5.4558  -5.4536  -5.4462  -5.4387  -5.4270  -5.4122
    -5.3914  -5.3863  -5.3720  -5.3498  -5.3346  -5.3234  -5.2570  -5.2153
    -5.2053  -5.1482  -5.1159  -5.1101  -5.1035  -4.6958  -4.3443  -3.7709
    -3.5407  -3.4792  -3.4703  -3.2025  -2.8223  -2.6802  -2.5408  -2.1651
    -2.1186  -1.8727  -1.7682  -1.2793  -1.0348  -1.0161  -0.4318  -0.3880
     0.1067

     occupation numbers 
     1.0000   1.0000   1.0000   1.0000   1.0000   1.0000   1.0000   1.0000
     1.0000   1.0000   1.0000   1.0000   1.0000   1.0000   1.0000   1.0000
     1.0000   1.0000   1.0000   1.0000   1.0000   1.0000   1.0000   1.0000
     1.0000   1.0000   1.0000   1.0000   1.0000   1.0000   1.0000   1.0000
     1.0000   1.0000   1.0000   1.0000   1.0000   1.0000   1.0000   1.0000
     1.0000   1.0000   1.0000   1.0000   1.0000   1.0000   1.0000   1.0000
     1.0000   1.0000   1.0000   1.0000   1.0000   1.0000   1.0000   1.0000
     1.0000   1.0000   1.0000   1.0000   1.0000   1.0000   1.0000   1.0000
     1.0000   1.0000   1.0000   1.0000   1.0000   1.0000   1.0000   1.0000
     1.0000   1.0000   1.0000   1.0000   1.0000   1.0000   1.0000   1.0000
     1.0000   1.0000   1.0000   1.0000   1.0000   1.0000   1.0000   1.0000
     1.0000   1.0000   1.0000   1.0004   1.0010   1.0012   1.0023   1.0030
     1.0038   1.0056   1.0239   1.0322   1.0703   1.0827   1.0829   1.0762
     1.0719   1.0366   0.9629   0.9579   0.9399   0.9206   0.8881   0.8433
     0.7739   0.7564   0.7046   0.6222   0.5648   0.5230   0.2970   0.1887
     0.1673   0.0771   0.0464   0.0421   0.0378   0.0000   0.0000   0.0000
     0.0000   0.0000   0.0000   0.0000   0.0000   0.0000   0.0000   0.0000
     0.0000   0.0000   0.0000   0.0000   0.0000   0.0000   0.0000   0.0000
     0.0000

          k = 0.1250 0.1443 0.0000 ( 44578 PWs)   bands (ev):

   -12.3798 -11.9587 -11.4595 -10.8899 -10.8745 -10.8566 -10.8402 -10.7940
   -10.7844 -10.7384 -10.6854 -10.6255 -10.6175 -10.5956 -10.5211 -10.4795
   -10.4407 -10.4228 -10.3647 -10.3202 -10.2615 -10.2018 -10.1394 -10.1361
   -10.1203 -10.0783  -9.9871  -9.9452  -9.9176  -9.8210  -9.5702  -9.4288
    -9.4160  -9.1567  -8.9079  -8.8833  -8.7797  -8.7194  -8.6924  -8.6492
    -8.6034  -8.5570  -8.4739  -8.4220  -8.3948  -8.3768  -8.3293  -8.3111
    -8.2931  -8.2746  -8.2724  -8.2664  -8.2602  -8.1193  -8.0903  -8.0652
    -8.0153  -7.9816  -7.9670  -7.9346  -7.8915  -7.8289  -7.7632  -7.7424
    -7.7140  -7.6987  -7.6799  -7.6381  -7.5642  -7.5184  -7.3029  -7.1114
    -7.0951  -7.0482  -6.9426  -6.9212  -6.9017  -6.8903  -6.8754  -6.8247
    -6.7069  -6.6401  -6.5967  -6.5800  -6.4794  -6.3900  -6.3382  -6.2940
    -6.2568  -6.2113  -6.1406  -6.0633  -6.0500  -6.0023  -5.9830  -5.9226
    -5.8805  -5.8654  -5.8284  -5.7941  -5.6908  -5.6603  -5.6483  -5.6416
    -5.6328  -5.5488  -5.5360  -5.5305  -5.5133  -5.5063  -5.4876  -5.4659
    -5.4522  -5.4449  -5.4391  -5.4269  -5.4120  -5.3601  -5.2967  -5.2738
    -5.2584  -5.2018  -5.1757  -5.1454  -5.1394  -4.6477  -4.2807  -3.9265
    -3.8389  -3.5432  -3.3069  -3.2642  -2.9454  -2.8718  -2.7101  -2.2687
    -2.1377  -1.6882  -1.3561  -1.1343  -0.9360  -0.8597  -0.5781   0.2388
     0.4071

     occupation numbers 
     1.0000   1.0000   1.0000   1.0000   1.0000   1.0000   1.0000   1.0000
     1.0000   1.0000   1.0000   1.0000   1.0000   1.0000   1.0000   1.0000
     1.0000   1.0000   1.0000   1.0000   1.0000   1.0000   1.0000   1.0000
     1.0000   1.0000   1.0000   1.0000   1.0000   1.0000   1.0000   1.0000
     1.0000   1.0000   1.0000   1.0000   1.0000   1.0000   1.0000   1.0000
     1.0000   1.0000   1.0000   1.0000   1.0000   1.0000   1.0000   1.0000
     1.0000   1.0000   1.0000   1.0000   1.0000   1.0000   1.0000   1.0000
     1.0000   1.0000   1.0000   1.0000   1.0000   1.0000   1.0000   1.0000
     1.0000   1.0000   1.0000   1.0000   1.0000   1.0000   1.0000   1.0000
     1.0000   1.0000   1.0000   1.0000   1.0000   1.0000   1.0000   1.0000
     1.0000   1.0000   1.0000   1.0000   1.0000   1.0000   1.0000   1.0000
     1.0000   1.0000   1.0000   1.0000   1.0000   1.0001   1.0001   1.0007
     1.0018   1.0025   1.0052   1.0096   1.0406   1.0546   1.0602   1.0633
     1.0673   1.0796   1.0740   1.0708   1.0567   1.0492   1.0240   0.9849
     0.9545   0.9368   0.9217   0.8878   0.8425   0.6606   0.4260   0.3489
     0.3012   0.1603   0.1141   0.0738   0.0674   0.0000   0.0000   0.0000
     0.0000   0.0000   0.0000   0.0000   0.0000   0.0000   0.0000   0.0000
     0.0000   0.0000   0.0000   0.0000   0.0000   0.0000   0.0000   0.0000
     0.0000

          k = 0.1250 0.2165 0.0000 ( 44571 PWs)   bands (ev):

   -12.2311 -11.8570 -11.3486 -10.7882 -10.7853 -10.7607 -10.7382 -10.7109
   -10.6971 -10.6716 -10.5683 -10.5528 -10.5500 -10.4900 -10.4238 -10.4142
   -10.3209 -10.2999 -10.2784 -10.2731 -10.1428 -10.1010 -10.0694 -10.0652
   -10.0516  -9.9883  -9.8840  -9.8686  -9.8198  -9.6814  -9.5266  -9.3843
    -9.3776  -9.1646  -8.9542  -8.8823  -8.8455  -8.8208  -8.7911  -8.6804
    -8.6411  -8.5479  -8.4825  -8.4347  -8.3865  -8.3808  -8.3400  -8.3172
    -8.2822  -8.2409  -8.2325  -8.1922  -8.1696  -8.1343  -8.0928  -8.0416
    -8.0067  -7.9903  -7.9655  -7.9621  -7.9252  -7.9086  -7.8410  -7.7711
    -7.7508  -7.6730  -7.6570  -7.6337  -7.5968  -7.5572  -7.4313  -7.2277
    -7.2048  -7.1838  -7.0905  -7.0439  -6.9934  -6.9543  -6.9458  -6.9208
    -6.8428  -6.7037  -6.6771  -6.6337  -6.5880  -6.4588  -6.3977  -6.3604
    -6.3467  -6.3368  -6.2969  -6.2788  -6.2248  -6.2092  -6.1373  -6.0208
    -5.9980  -5.9732  -5.9473  -5.9254  -5.8148  -5.7967  -5.7680  -5.7132
    -5.7102  -5.6821  -5.6750  -5.6510  -5.6333  -5.6182  -5.6052  -5.5772
    -5.5750  -5.5317  -5.4993  -5.4868  -5.4707  -5.4634  -5.3653  -5.3592
    -5.3150  -5.2248  -5.2160  -5.1898  -4.9638  -4.5073  -4.4478  -4.1484
    -3.9429  -3.8370  -3.5784  -3.5563  -2.9802  -2.6747  -2.5698  -2.3690
    -1.8352  -1.3974  -1.0683  -1.0126  -0.7939  -0.5822  -0.4648   0.4432
     0.6532

     occupation numbers 
     1.0000   1.0000   1.0000   1.0000   1.0000   1.0000   1.0000   1.0000
     1.0000   1.0000   1.0000   1.0000   1.0000   1.0000   1.0000   1.0000
     1.0000   1.0000   1.0000   1.0000   1.0000   1.0000   1.0000   1.0000
     1.0000   1.0000   1.0000   1.0000   1.0000   1.0000   1.0000   1.0000
     1.0000   1.0000   1.0000   1.0000   1.0000   1.0000   1.0000   1.0000
     1.0000   1.0000   1.0000   1.0000   1.0000   1.0000   1.0000   1.0000
     1.0000   1.0000   1.0000   1.0000   1.0000   1.0000   1.0000   1.0000
     1.0000   1.0000   1.0000   1.0000   1.0000   1.0000   1.0000   1.0000
     1.0000   1.0000   1.0000   1.0000   1.0000   1.0000   1.0000   1.0000
     1.0000   1.0000   1.0000   1.0000   1.0000   1.0000   1.0000   1.0000
     1.0000   1.0000   1.0000   1.0000   1.0000   1.0000   1.0000   1.0000
     1.0000   1.0000   1.0000   1.0000   1.0000   1.0000   1.0000   1.0001
     1.0001   1.0002   1.0004   1.0006   1.0067   1.0092   1.0147   1.0314
     1.0325   1.0445   1.0477   1.0590   1.0670   1.0732   1.0778   1.0832
     1.0833   1.0715   1.0408   1.0228   0.9944   0.9797   0.6801   0.6572
     0.4918   0.2108   0.1903   0.1377   0.0022   0.0000   0.0000   0.0000
     0.0000   0.0000   0.0000   0.0000   0.0000   0.0000   0.0000   0.0000
     0.0000   0.0000   0.0000   0.0000   0.0000   0.0000   0.0000   0.0000
     0.0000

          k = 0.1250 0.2887 0.0000 ( 44582 PWs)   bands (ev):

   -12.0364 -11.7324 -11.1960 -10.6810 -10.6662 -10.6548 -10.6483 -10.6020
   -10.5648 -10.5156 -10.4631 -10.4467 -10.4245 -10.3410 -10.3343 -10.2838
   -10.2180 -10.1845 -10.1581 -10.1355 -10.0085  -9.9857  -9.9809  -9.9501
    -9.9457  -9.8673  -9.7978  -9.7333  -9.6779  -9.5159  -9.4556  -9.3297
    -9.3224  -9.1819  -9.0238  -8.9604  -8.9197  -8.8923  -8.8616  -8.7599
    -8.7151  -8.5735  -8.5166  -8.4756  -8.4307  -8.3483  -8.3332  -8.3246
    -8.2928  -8.2185  -8.2130  -8.1647  -8.1365  -8.1155  -8.0923  -8.0727
    -8.0612  -8.0395  -7.9956  -7.9534  -7.9424  -7.8961  -7.8460  -7.8299
    -7.7883  -7.6713  -7.6347  -7.5632  -7.5533  -7.5271  -7.4831  -7.4435
    -7.4308  -7.3929  -7.3415  -7.1291  -7.0970  -7.0254  -7.0038  -6.9785
    -6.9615  -6.8728  -6.8103  -6.7605  -6.6782  -6.6299  -6.5653  -6.5480
    -6.5229  -6.4846  -6.4669  -6.4345  -6.4255  -6.3911  -6.2980  -6.2489
    -6.1374  -6.0854  -6.0591  -6.0494  -6.0442  -5.9982  -5.9749  -5.9232
    -5.8839  -5.8464  -5.8063  -5.7686  -5.7346  -5.7048  -5.7000  -5.5884
    -5.5805  -5.5653  -5.5393  -5.5220  -5.5004  -5.4894  -5.4735  -5.3832
    -5.3406  -5.2980  -5.2339  -5.2206  -4.9407  -4.7299  -4.5639  -4.3409
    -4.2493  -4.0362  -3.7690  -3.3779  -3.0575  -2.6631  -2.3350  -1.9421
    -1.6436  -1.3585  -1.0848  -0.9282  -0.5649  -0.1350   0.1510   0.3389
     0.7401

     occupation numbers 
     1.0000   1.0000   1.0000   1.0000   1.0000   1.0000   1.0000   1.0000
     1.0000   1.0000   1.0000   1.0000   1.0000   1.0000   1.0000   1.0000
     1.0000   1.0000   1.0000   1.0000   1.0000   1.0000   1.0000   1.0000
     1.0000   1.0000   1.0000   1.0000   1.0000   1.0000   1.0000   1.0000
     1.0000   1.0000   1.0000   1.0000   1.0000   1.0000   1.0000   1.0000
     1.0000   1.0000   1.0000   1.0000   1.0000   1.0000   1.0000   1.0000
     1.0000   1.0000   1.0000   1.0000   1.0000   1.0000   1.0000   1.0000
     1.0000   1.0000   1.0000   1.0000   1.0000   1.0000   1.0000   1.0000
     1.0000   1.0000   1.0000   1.0000   1.0000   1.0000   1.0000   1.0000
     1.0000   1.0000   1.0000   1.0000   1.0000   1.0000   1.0000   1.0000
     1.0000   1.0000   1.0000   1.0000   1.0000   1.0000   1.0000   1.0000
     1.0000   1.0000   1.0000   1.0000   1.0000   1.0000   1.0000   1.0000
     1.0000   1.0000   1.0000   1.0000   1.0000   1.0001   1.0002   1.0007
     1.0017   1.0037   1.0078   1.0146   1.0239   1.0347   1.0367   1.0818
     1.0829   1.0830   1.0758   1.0646   1.0422   1.0268   0.9997   0.7454
     0.5873   0.4305   0.2333   0.2008   0.0012   0.0000   0.0000   0.0000
     0.0000   0.0000   0.0000   0.0000   0.0000   0.0000   0.0000   0.0000
     0.0000   0.0000   0.0000   0.0000   0.0000   0.0000   0.0000   0.0000
     0.0000

          k = 0.1250 0.3608 0.0000 ( 44558 PWs)   bands (ev):

   -11.8236 -11.5861 -11.0087 -10.6325 -10.5565 -10.5263 -10.5045 -10.4670
   -10.3922 -10.3637 -10.3271 -10.3077 -10.2690 -10.2590 -10.1579 -10.1436
   -10.1108 -10.0486 -10.0142  -9.9682  -9.8929  -9.8839  -9.8431  -9.8157
    -9.7947  -9.7344  -9.6933  -9.5997  -9.5025  -9.4062  -9.2937  -9.2727
    -9.2484  -9.2004  -9.1296  -9.0647  -8.9903  -8.9656  -8.8937  -8.8601
    -8.7631  -8.7007  -8.5954  -8.5277  -8.4445  -8.4351  -8.3758  -8.3335
    -8.3003  -8.2951  -8.2762  -8.2318  -8.1850  -8.1237  -8.0816  -8.0578
    -8.0466  -8.0384  -7.9965  -7.9437  -7.9270  -7.9133  -7.8181  -7.8067
    -7.7938  -7.7305  -7.6780  -7.6621  -7.6370  -7.6122  -7.5744  -7.5320
    -7.4688  -7.3714  -7.3430  -7.3032  -7.2562  -7.1632  -7.0811  -7.0364
    -7.0175  -6.9931  -6.9764  -6.9234  -6.8974  -6.8490  -6.8345  -6.8002
    -6.7775  -6.6611  -6.5911  -6.5680  -6.5509  -6.5310  -6.4318  -6.3836
    -6.3209  -6.3089  -6.2855  -6.2437  -6.2132  -6.1272  -6.0967  -6.0548
    -6.0038  -5.9819  -5.9568  -5.9434  -5.8418  -5.7950  -5.7546  -5.6943
    -5.6052  -5.5909  -5.5570  -5.5436  -5.5186  -5.4925  -5.4025  -5.3793
    -5.3544  -5.3404  -5.3079  -5.2435  -5.2325  -5.1016  -4.8528  -4.4428
    -4.1913  -3.9755  -3.7305  -3.4947  -2.9825  -2.5329  -2.0207  -1.7248
    -1.6337  -1.2865  -1.0237  -0.8094  -0.2979   0.0048   0.4520   0.7858
     0.8802

     occupation numbers 
     1.0000   1.0000   1.0000   1.0000   1.0000   1.0000   1.0000   1.0000
     1.0000   1.0000   1.0000   1.0000   1.0000   1.0000   1.0000   1.0000
     1.0000   1.0000   1.0000   1.0000   1.0000   1.0000   1.0000   1.0000
     1.0000   1.0000   1.0000   1.0000   1.0000   1.0000   1.0000   1.0000
     1.0000   1.0000   1.0000   1.0000   1.0000   1.0000   1.0000   1.0000
     1.0000   1.0000   1.0000   1.0000   1.0000   1.0000   1.0000   1.0000
     1.0000   1.0000   1.0000   1.0000   1.0000   1.0000   1.0000   1.0000
     1.0000   1.0000   1.0000   1.0000   1.0000   1.0000   1.0000   1.0000
     1.0000   1.0000   1.0000   1.0000   1.0000   1.0000   1.0000   1.0000
     1.0000   1.0000   1.0000   1.0000   1.0000   1.0000   1.0000   1.0000
     1.0000   1.0000   1.0000   1.0000   1.0000   1.0000   1.0000   1.0000
     1.0000   1.0000   1.0000   1.0000   1.0000   1.0000   1.0000   1.0000
     1.0000   1.0000   1.0000   1.0000   1.0000   1.0000   1.0000   1.0000
     1.0001   1.0002   1.0003   1.0004   1.0040   1.0095   1.0180   1.0391
     1.0778   1.0814   1.0818   1.0777   1.0617   1.0315   0.8116   0.7314
     0.6392   0.5864   0.4658   0.2586   0.2296   0.0365   0.0001   0.0000
     0.0000   0.0000   0.0000   0.0000   0.0000   0.0000   0.0000   0.0000
     0.0000   0.0000   0.0000   0.0000   0.0000   0.0000   0.0000   0.0000
     0.0000

          k = 0.1250 0.4330 0.0000 ( 44545 PWs)   bands (ev):

   -11.6586 -11.3837 -10.8057 -10.6300 -10.4352 -10.3953 -10.3601 -10.3259
   -10.3012 -10.2481 -10.1811 -10.1425 -10.1322 -10.1253 -10.0414  -9.9965
    -9.9378  -9.8885  -9.8768  -9.8302  -9.7782  -9.7638  -9.7569  -9.6661
    -9.6362  -9.6125  -9.5711  -9.4735  -9.3504  -9.3150  -9.2746  -9.2254
    -9.1968  -9.1662  -9.1263  -9.0693  -9.0422  -9.0309  -9.0099  -8.9122
    -8.8360  -8.7382  -8.6741  -8.6421  -8.5758  -8.5673  -8.4806  -8.4194
    -8.3848  -8.3230  -8.2905  -8.2182  -8.1927  -8.1787  -8.1357  -8.0952
    -8.0845  -8.0325  -8.0137  -7.9989  -7.9766  -7.9483  -7.9323  -7.8763
    -7.8393  -7.8118  -7.7891  -7.6378  -7.6107  -7.5924  -7.5611  -7.5306
    -7.4707  -7.4399  -7.3910  -7.3509  -7.3060  -7.2158  -7.2038  -7.1933
    -7.1779  -7.1477  -7.1297  -7.0642  -7.0457  -7.0169  -6.9348  -6.9221
    -6.8838  -6.8228  -6.7395  -6.6965  -6.6897  -6.6765  -6.5917  -6.5096
    -6.4535  -6.4428  -6.4208  -6.3682  -6.3080  -6.2959  -6.2450  -6.1847
    -6.1460  -6.1079  -6.0887  -6.0204  -5.9347  -5.8656  -5.8530  -5.7578
    -5.7238  -5.5982  -5.5904  -5.5423  -5.5313  -5.5212  -5.5061  -5.4871
    -5.4045  -5.3903  -5.3775  -5.3103  -5.2492  -5.2345  -5.1082  -4.3543
    -4.1039  -3.9019  -3.7972  -3.5435  -2.8054  -2.3511  -2.1972  -1.5366
    -1.3774  -1.1244  -0.9475  -0.7006  -0.4474   0.1275   0.7755   0.9823
     1.1460

     occupation numbers 
     1.0000   1.0000   1.0000   1.0000   1.0000   1.0000   1.0000   1.0000
     1.0000   1.0000   1.0000   1.0000   1.0000   1.0000   1.0000   1.0000
     1.0000   1.0000   1.0000   1.0000   1.0000   1.0000   1.0000   1.0000
     1.0000   1.0000   1.0000   1.0000   1.0000   1.0000   1.0000   1.0000
     1.0000   1.0000   1.0000   1.0000   1.0000   1.0000   1.0000   1.0000
     1.0000   1.0000   1.0000   1.0000   1.0000   1.0000   1.0000   1.0000
     1.0000   1.0000   1.0000   1.0000   1.0000   1.0000   1.0000   1.0000
     1.0000   1.0000   1.0000   1.0000   1.0000   1.0000   1.0000   1.0000
     1.0000   1.0000   1.0000   1.0000   1.0000   1.0000   1.0000   1.0000
     1.0000   1.0000   1.0000   1.0000   1.0000   1.0000   1.0000   1.0000
     1.0000   1.0000   1.0000   1.0000   1.0000   1.0000   1.0000   1.0000
     1.0000   1.0000   1.0000   1.0000   1.0000   1.0000   1.0000   1.0000
     1.0000   1.0000   1.0000   1.0000   1.0000   1.0000   1.0000   1.0000
     1.0000   1.0000   1.0000   1.0001   1.0005   1.0025   1.0032   1.0171
     1.0275   1.0797   1.0815   1.0771   1.0713   1.0639   1.0491   1.0232
     0.8183   0.7701   0.7248   0.4744   0.2745   0.2347   0.0409   0.0000
     0.0000   0.0000   0.0000   0.0000   0.0000   0.0000   0.0000   0.0000
     0.0000   0.0000   0.0000   0.0000   0.0000   0.0000   0.0000   0.0000
     0.0000

          k = 0.1250-0.6495 0.0000 ( 44477 PWs)   bands (ev):

   -11.5744 -11.1269 -10.7083 -10.6116 -10.3883 -10.2682 -10.2605 -10.2424
   -10.2131 -10.1774 -10.0753 -10.0711 -10.0013  -9.9860  -9.9261  -9.9100
    -9.8265  -9.7560  -9.7284  -9.7260  -9.7084  -9.6561  -9.6374  -9.5532
    -9.5214  -9.4937  -9.4486  -9.4152  -9.3439  -9.2715  -9.2587  -9.2326
    -9.2025  -9.1633  -9.1376  -9.0663  -9.0298  -9.0159  -8.9826  -8.9546
    -8.8595  -8.7947  -8.7704  -8.7086  -8.6853  -8.6317  -8.5793  -8.4944
    -8.4467  -8.4081  -8.3424  -8.3181  -8.2618  -8.2216  -8.1833  -8.1392
    -8.1134  -8.0912  -8.0808  -8.0428  -8.0151  -7.9763  -7.9189  -7.8373
    -7.8325  -7.7899  -7.7383  -7.7323  -7.7163  -7.6766  -7.6334  -7.5921
    -7.5649  -7.4954  -7.4538  -7.3954  -7.3934  -7.3327  -7.3187  -7.2842
    -7.2613  -7.1985  -7.1267  -7.0723  -7.0606  -7.0322  -6.9951  -6.9496
    -6.9295  -6.8459  -6.8074  -6.7919  -6.7493  -6.7216  -6.6634  -6.6304
    -6.5879  -6.5182  -6.5028  -6.4726  -6.4343  -6.3739  -6.3091  -6.2503
    -6.2296  -6.2097  -6.1901  -6.1228  -6.0764  -5.9415  -5.8987  -5.8681
    -5.8534  -5.7479  -5.7061  -5.5915  -5.5583  -5.5257  -5.4977  -5.4731
    -5.4613  -5.4311  -5.4077  -5.3909  -5.2509  -5.2337  -4.9552  -4.4151
    -4.0744  -3.9788  -3.6976  -3.3996  -2.8375  -2.4410  -1.9969  -1.4771
    -1.2754  -1.0179  -0.8418  -0.6318  -0.4903   0.2871   0.5642   0.8483
     1.4714

     occupation numbers 
     1.0000   1.0000   1.0000   1.0000   1.0000   1.0000   1.0000   1.0000
     1.0000   1.0000   1.0000   1.0000   1.0000   1.0000   1.0000   1.0000
     1.0000   1.0000   1.0000   1.0000   1.0000   1.0000   1.0000   1.0000
     1.0000   1.0000   1.0000   1.0000   1.0000   1.0000   1.0000   1.0000
     1.0000   1.0000   1.0000   1.0000   1.0000   1.0000   1.0000   1.0000
     1.0000   1.0000   1.0000   1.0000   1.0000   1.0000   1.0000   1.0000
     1.0000   1.0000   1.0000   1.0000   1.0000   1.0000   1.0000   1.0000
     1.0000   1.0000   1.0000   1.0000   1.0000   1.0000   1.0000   1.0000
     1.0000   1.0000   1.0000   1.0000   1.0000   1.0000   1.0000   1.0000
     1.0000   1.0000   1.0000   1.0000   1.0000   1.0000   1.0000   1.0000
     1.0000   1.0000   1.0000   1.0000   1.0000   1.0000   1.0000   1.0000
     1.0000   1.0000   1.0000   1.0000   1.0000   1.0000   1.0000   1.0000
     1.0000   1.0000   1.0000   1.0000   1.0000   1.0000   1.0000   1.0000
     1.0000   1.0000   1.0000   1.0000   1.0000   1.0004   1.0012   1.0024
     1.0032   1.0198   1.0342   1.0813   1.0821   1.0674   1.0386   0.9992
     0.9752   0.8997   0.8287   0.7724   0.2794   0.2329   0.0018   0.0000
     0.0000   0.0000   0.0000   0.0000   0.0000   0.0000   0.0000   0.0000
     0.0000   0.0000   0.0000   0.0000   0.0000   0.0000   0.0000   0.0000
     0.0000

          k = 0.1250-0.5774 0.0000 ( 44554 PWs)   bands (ev):

   -11.5488 -10.8933 -10.8680 -10.4903 -10.4481 -10.2006 -10.1923 -10.1827
   -10.1785 -10.1447 -10.1314 -10.0237  -9.9527  -9.9424  -9.8859  -9.8080
    -9.7927  -9.7748  -9.7191  -9.6723  -9.5959  -9.5732  -9.5674  -9.5069
    -9.4503  -9.4448  -9.4325  -9.4154  -9.3897  -9.2922  -9.2451  -9.2195
    -9.2072  -9.1618  -9.1283  -9.0850  -9.0547  -8.9874  -8.9606  -8.9459
    -8.9293  -8.8125  -8.7878  -8.7084  -8.6954  -8.6362  -8.5823  -8.5688
    -8.5189  -8.5131  -8.4124  -8.2862  -8.2717  -8.2296  -8.2076  -8.1720
    -8.0994  -8.0885  -8.0870  -8.0179  -8.0160  -7.9469  -7.9370  -7.8485
    -7.8155  -7.7937  -7.7652  -7.7507  -7.7442  -7.7210  -7.6953  -7.6713
    -7.6351  -7.5743  -7.5684  -7.5556  -7.3375  -7.3228  -7.3044  -7.2089
    -7.1889  -7.1728  -7.1597  -7.1381  -7.1132  -7.0558  -7.0119  -6.9682
    -6.8754  -6.8302  -6.8165  -6.8140  -6.7447  -6.7350  -6.7274  -6.6461
    -6.5833  -6.5649  -6.5260  -6.5168  -6.4599  -6.4026  -6.3600  -6.3279
    -6.2931  -6.2299  -6.1739  -6.1200  -6.0848  -6.0786  -6.0360  -5.9248
    -5.8613  -5.7833  -5.7301  -5.5986  -5.5911  -5.5304  -5.4777  -5.4687
    -5.4447  -5.4345  -5.4231  -5.4117  -5.2511  -5.2330  -4.8498  -4.5091
    -4.0612  -3.9944  -3.6616  -3.2468  -2.9757  -2.4725  -1.8233  -1.4458
    -1.3005  -1.0888  -0.8927  -0.5448  -0.1457   0.0534   0.4432   0.8423
     1.6526

     occupation numbers 
     1.0000   1.0000   1.0000   1.0000   1.0000   1.0000   1.0000   1.0000
     1.0000   1.0000   1.0000   1.0000   1.0000   1.0000   1.0000   1.0000
     1.0000   1.0000   1.0000   1.0000   1.0000   1.0000   1.0000   1.0000
     1.0000   1.0000   1.0000   1.0000   1.0000   1.0000   1.0000   1.0000
     1.0000   1.0000   1.0000   1.0000   1.0000   1.0000   1.0000   1.0000
     1.0000   1.0000   1.0000   1.0000   1.0000   1.0000   1.0000   1.0000
     1.0000   1.0000   1.0000   1.0000   1.0000   1.0000   1.0000   1.0000
     1.0000   1.0000   1.0000   1.0000   1.0000   1.0000   1.0000   1.0000
     1.0000   1.0000   1.0000   1.0000   1.0000   1.0000   1.0000   1.0000
     1.0000   1.0000   1.0000   1.0000   1.0000   1.0000   1.0000   1.0000
     1.0000   1.0000   1.0000   1.0000   1.0000   1.0000   1.0000   1.0000
     1.0000   1.0000   1.0000   1.0000   1.0000   1.0000   1.0000   1.0000
     1.0000   1.0000   1.0000   1.0000   1.0000   1.0000   1.0000   1.0000
     1.0000   1.0000   1.0000   1.0000   1.0000   1.0000   1.0000   1.0007
     1.0027   1.0115   1.0253   1.0796   1.0814   1.0707   1.0075   0.9905
     0.9362   0.9092   0.8765   0.8415   0.2798   0.2311   0.0001   0.0000
     0.0000   0.0000   0.0000   0.0000   0.0000   0.0000   0.0000   0.0000
     0.0000   0.0000   0.0000   0.0000   0.0000   0.0000   0.0000   0.0000
     0.0000

          k = 0.1250-0.5052 0.0000 ( 44477 PWs)   bands (ev):

   -11.5744 -11.1269 -10.7083 -10.6116 -10.3883 -10.2682 -10.2605 -10.2424
   -10.2131 -10.1774 -10.0753 -10.0711 -10.0013  -9.9860  -9.9261  -9.9100
    -9.8265  -9.7560  -9.7284  -9.7260  -9.7084  -9.6561  -9.6374  -9.5532
    -9.5214  -9.4937  -9.4486  -9.4152  -9.3439  -9.2715  -9.2587  -9.2326
    -9.2025  -9.1633  -9.1376  -9.0663  -9.0298  -9.0159  -8.9826  -8.9546
    -8.8595  -8.7947  -8.7704  -8.7086  -8.6853  -8.6317  -8.5793  -8.4944
    -8.4467  -8.4081  -8.3424  -8.3181  -8.2618  -8.2216  -8.1833  -8.1392
    -8.1134  -8.0912  -8.0808  -8.0428  -8.0151  -7.9763  -7.9189  -7.8373
    -7.8325  -7.7899  -7.7383  -7.7323  -7.7163  -7.6766  -7.6334  -7.5921
    -7.5649  -7.4954  -7.4538  -7.3954  -7.3934  -7.3327  -7.3187  -7.2842
    -7.2613  -7.1985  -7.1267  -7.0723  -7.0606  -7.0322  -6.9951  -6.9496
    -6.9295  -6.8459  -6.8074  -6.7919  -6.7493  -6.7216  -6.6634  -6.6304
    -6.5879  -6.5182  -6.5028  -6.4726  -6.4343  -6.3739  -6.3091  -6.2503
    -6.2296  -6.2097  -6.1901  -6.1228  -6.0764  -5.9415  -5.8987  -5.8681
    -5.8534  -5.7479  -5.7061  -5.5915  -5.5583  -5.5257  -5.4977  -5.4731
    -5.4613  -5.4311  -5.4077  -5.3909  -5.2509  -5.2337  -4.9552  -4.4151
    -4.0744  -3.9788  -3.6976  -3.3996  -2.8375  -2.4410  -1.9969  -1.4771
    -1.2754  -1.0179  -0.8418  -0.6318  -0.4903   0.2871   0.5642   0.8483
     1.4714

     occupation numbers 
     1.0000   1.0000   1.0000   1.0000   1.0000   1.0000   1.0000   1.0000
     1.0000   1.0000   1.0000   1.0000   1.0000   1.0000   1.0000   1.0000
     1.0000   1.0000   1.0000   1.0000   1.0000   1.0000   1.0000   1.0000
     1.0000   1.0000   1.0000   1.0000   1.0000   1.0000   1.0000   1.0000
     1.0000   1.0000   1.0000   1.0000   1.0000   1.0000   1.0000   1.0000
     1.0000   1.0000   1.0000   1.0000   1.0000   1.0000   1.0000   1.0000
     1.0000   1.0000   1.0000   1.0000   1.0000   1.0000   1.0000   1.0000
     1.0000   1.0000   1.0000   1.0000   1.0000   1.0000   1.0000   1.0000
     1.0000   1.0000   1.0000   1.0000   1.0000   1.0000   1.0000   1.0000
     1.0000   1.0000   1.0000   1.0000   1.0000   1.0000   1.0000   1.0000
     1.0000   1.0000   1.0000   1.0000   1.0000   1.0000   1.0000   1.0000
     1.0000   1.0000   1.0000   1.0000   1.0000   1.0000   1.0000   1.0000
     1.0000   1.0000   1.0000   1.0000   1.0000   1.0000   1.0000   1.0000
     1.0000   1.0000   1.0000   1.0000   1.0000   1.0004   1.0012   1.0024
     1.0032   1.0198   1.0342   1.0813   1.0821   1.0674   1.0386   0.9992
     0.9752   0.8997   0.8287   0.7724   0.2794   0.2329   0.0018   0.0000
     0.0000   0.0000   0.0000   0.0000   0.0000   0.0000   0.0000   0.0000
     0.0000   0.0000   0.0000   0.0000   0.0000   0.0000   0.0000   0.0000
     0.0000

          k = 0.1250-0.4330 0.0000 ( 44545 PWs)   bands (ev):

   -11.6586 -11.3837 -10.8057 -10.6300 -10.4352 -10.3953 -10.3601 -10.3259
   -10.3012 -10.2481 -10.1811 -10.1425 -10.1322 -10.1253 -10.0414  -9.9965
    -9.9378  -9.8885  -9.8768  -9.8302  -9.7782  -9.7638  -9.7569  -9.6661
    -9.6362  -9.6125  -9.5711  -9.4735  -9.3504  -9.3150  -9.2746  -9.2254
    -9.1968  -9.1662  -9.1263  -9.0693  -9.0422  -9.0309  -9.0099  -8.9122
    -8.8360  -8.7382  -8.6741  -8.6421  -8.5758  -8.5673  -8.4806  -8.4194
    -8.3848  -8.3230  -8.2905  -8.2182  -8.1927  -8.1787  -8.1357  -8.0952
    -8.0845  -8.0325  -8.0137  -7.9989  -7.9766  -7.9483  -7.9323  -7.8763
    -7.8393  -7.8118  -7.7891  -7.6378  -7.6107  -7.5924  -7.5611  -7.5306
    -7.4707  -7.4399  -7.3910  -7.3509  -7.3060  -7.2158  -7.2038  -7.1933
    -7.1779  -7.1477  -7.1297  -7.0642  -7.0457  -7.0169  -6.9348  -6.9221
    -6.8838  -6.8228  -6.7395  -6.6965  -6.6897  -6.6765  -6.5917  -6.5096
    -6.4535  -6.4428  -6.4208  -6.3682  -6.3080  -6.2959  -6.2450  -6.1847
    -6.1460  -6.1079  -6.0887  -6.0204  -5.9347  -5.8656  -5.8530  -5.7578
    -5.7238  -5.5982  -5.5904  -5.5423  -5.5313  -5.5212  -5.5061  -5.4871
    -5.4045  -5.3903  -5.3775  -5.3103  -5.2492  -5.2345  -5.1082  -4.3543
    -4.1039  -3.9019  -3.7972  -3.5435  -2.8054  -2.3511  -2.1972  -1.5366
    -1.3774  -1.1244  -0.9475  -0.7006  -0.4474   0.1275   0.7755   0.9823
     1.1460

     occupation numbers 
     1.0000   1.0000   1.0000   1.0000   1.0000   1.0000   1.0000   1.0000
     1.0000   1.0000   1.0000   1.0000   1.0000   1.0000   1.0000   1.0000
     1.0000   1.0000   1.0000   1.0000   1.0000   1.0000   1.0000   1.0000
     1.0000   1.0000   1.0000   1.0000   1.0000   1.0000   1.0000   1.0000
     1.0000   1.0000   1.0000   1.0000   1.0000   1.0000   1.0000   1.0000
     1.0000   1.0000   1.0000   1.0000   1.0000   1.0000   1.0000   1.0000
     1.0000   1.0000   1.0000   1.0000   1.0000   1.0000   1.0000   1.0000
     1.0000   1.0000   1.0000   1.0000   1.0000   1.0000   1.0000   1.0000
     1.0000   1.0000   1.0000   1.0000   1.0000   1.0000   1.0000   1.0000
     1.0000   1.0000   1.0000   1.0000   1.0000   1.0000   1.0000   1.0000
     1.0000   1.0000   1.0000   1.0000   1.0000   1.0000   1.0000   1.0000
     1.0000   1.0000   1.0000   1.0000   1.0000   1.0000   1.0000   1.0000
     1.0000   1.0000   1.0000   1.0000   1.0000   1.0000   1.0000   1.0000
     1.0000   1.0000   1.0000   1.0001   1.0005   1.0025   1.0032   1.0171
     1.0275   1.0797   1.0815   1.0771   1.0713   1.0639   1.0491   1.0232
     0.8183   0.7701   0.7248   0.4744   0.2745   0.2347   0.0409   0.0000
     0.0000   0.0000   0.0000   0.0000   0.0000   0.0000   0.0000   0.0000
     0.0000   0.0000   0.0000   0.0000   0.0000   0.0000   0.0000   0.0000
     0.0000

          k = 0.1250-0.3608 0.0000 ( 44558 PWs)   bands (ev):

   -11.8236 -11.5861 -11.0087 -10.6325 -10.5565 -10.5263 -10.5045 -10.4670
   -10.3922 -10.3637 -10.3271 -10.3077 -10.2690 -10.2590 -10.1579 -10.1436
   -10.1108 -10.0486 -10.0142  -9.9682  -9.8929  -9.8839  -9.8431  -9.8157
    -9.7947  -9.7344  -9.6933  -9.5997  -9.5025  -9.4062  -9.2937  -9.2727
    -9.2484  -9.2004  -9.1296  -9.0647  -8.9903  -8.9656  -8.8937  -8.8601
    -8.7631  -8.7007  -8.5954  -8.5277  -8.4445  -8.4351  -8.3758  -8.3335
    -8.3003  -8.2951  -8.2762  -8.2318  -8.1850  -8.1237  -8.0816  -8.0578
    -8.0466  -8.0384  -7.9965  -7.9437  -7.9270  -7.9133  -7.8181  -7.8067
    -7.7938  -7.7305  -7.6780  -7.6621  -7.6370  -7.6122  -7.5744  -7.5320
    -7.4688  -7.3714  -7.3430  -7.3032  -7.2562  -7.1632  -7.0811  -7.0364
    -7.0175  -6.9931  -6.9764  -6.9234  -6.8974  -6.8490  -6.8345  -6.8002
    -6.7775  -6.6611  -6.5911  -6.5680  -6.5509  -6.5310  -6.4318  -6.3836
    -6.3209  -6.3089  -6.2855  -6.2437  -6.2132  -6.1272  -6.0967  -6.0548
    -6.0038  -5.9819  -5.9568  -5.9434  -5.8418  -5.7950  -5.7546  -5.6943
    -5.6052  -5.5909  -5.5570  -5.5436  -5.5186  -5.4925  -5.4025  -5.3793
    -5.3544  -5.3404  -5.3079  -5.2435  -5.2325  -5.1016  -4.8528  -4.4428
    -4.1913  -3.9755  -3.7305  -3.4947  -2.9825  -2.5329  -2.0207  -1.7248
    -1.6337  -1.2865  -1.0237  -0.8094  -0.2979   0.0048   0.4520   0.7858
     0.8802

     occupation numbers 
     1.0000   1.0000   1.0000   1.0000   1.0000   1.0000   1.0000   1.0000
     1.0000   1.0000   1.0000   1.0000   1.0000   1.0000   1.0000   1.0000
     1.0000   1.0000   1.0000   1.0000   1.0000   1.0000   1.0000   1.0000
     1.0000   1.0000   1.0000   1.0000   1.0000   1.0000   1.0000   1.0000
     1.0000   1.0000   1.0000   1.0000   1.0000   1.0000   1.0000   1.0000
     1.0000   1.0000   1.0000   1.0000   1.0000   1.0000   1.0000   1.0000
     1.0000   1.0000   1.0000   1.0000   1.0000   1.0000   1.0000   1.0000
     1.0000   1.0000   1.0000   1.0000   1.0000   1.0000   1.0000   1.0000
     1.0000   1.0000   1.0000   1.0000   1.0000   1.0000   1.0000   1.0000
     1.0000   1.0000   1.0000   1.0000   1.0000   1.0000   1.0000   1.0000
     1.0000   1.0000   1.0000   1.0000   1.0000   1.0000   1.0000   1.0000
     1.0000   1.0000   1.0000   1.0000   1.0000   1.0000   1.0000   1.0000
     1.0000   1.0000   1.0000   1.0000   1.0000   1.0000   1.0000   1.0000
     1.0001   1.0002   1.0003   1.0004   1.0040   1.0095   1.0180   1.0391
     1.0778   1.0814   1.0818   1.0777   1.0617   1.0315   0.8116   0.7314
     0.6392   0.5864   0.4658   0.2586   0.2296   0.0365   0.0001   0.0000
     0.0000   0.0000   0.0000   0.0000   0.0000   0.0000   0.0000   0.0000
     0.0000   0.0000   0.0000   0.0000   0.0000   0.0000   0.0000   0.0000
     0.0000

          k = 0.1250-0.2887 0.0000 ( 44582 PWs)   bands (ev):

   -12.0364 -11.7324 -11.1960 -10.6810 -10.6662 -10.6548 -10.6483 -10.6020
   -10.5648 -10.5156 -10.4631 -10.4467 -10.4245 -10.3410 -10.3343 -10.2838
   -10.2180 -10.1845 -10.1581 -10.1355 -10.0085  -9.9857  -9.9809  -9.9501
    -9.9457  -9.8673  -9.7978  -9.7333  -9.6779  -9.5159  -9.4556  -9.3297
    -9.3224  -9.1819  -9.0238  -8.9604  -8.9197  -8.8923  -8.8616  -8.7599
    -8.7151  -8.5735  -8.5166  -8.4756  -8.4307  -8.3483  -8.3332  -8.3246
    -8.2928  -8.2185  -8.2130  -8.1647  -8.1365  -8.1155  -8.0923  -8.0727
    -8.0612  -8.0395  -7.9956  -7.9534  -7.9424  -7.8961  -7.8460  -7.8299
    -7.7883  -7.6713  -7.6347  -7.5632  -7.5533  -7.5271  -7.4831  -7.4435
    -7.4308  -7.3929  -7.3415  -7.1291  -7.0970  -7.0254  -7.0038  -6.9785
    -6.9615  -6.8728  -6.8103  -6.7605  -6.6782  -6.6299  -6.5653  -6.5480
    -6.5229  -6.4846  -6.4669  -6.4345  -6.4255  -6.3911  -6.2980  -6.2489
    -6.1374  -6.0854  -6.0591  -6.0494  -6.0442  -5.9982  -5.9749  -5.9232
    -5.8839  -5.8464  -5.8063  -5.7686  -5.7346  -5.7048  -5.7000  -5.5884
    -5.5805  -5.5653  -5.5393  -5.5220  -5.5004  -5.4894  -5.4735  -5.3832
    -5.3406  -5.2980  -5.2339  -5.2206  -4.9407  -4.7299  -4.5639  -4.3409
    -4.2493  -4.0362  -3.7690  -3.3779  -3.0575  -2.6631  -2.3350  -1.9421
    -1.6436  -1.3585  -1.0848  -0.9282  -0.5649  -0.1350   0.1510   0.3389
     0.7401

     occupation numbers 
     1.0000   1.0000   1.0000   1.0000   1.0000   1.0000   1.0000   1.0000
     1.0000   1.0000   1.0000   1.0000   1.0000   1.0000   1.0000   1.0000
     1.0000   1.0000   1.0000   1.0000   1.0000   1.0000   1.0000   1.0000
     1.0000   1.0000   1.0000   1.0000   1.0000   1.0000   1.0000   1.0000
     1.0000   1.0000   1.0000   1.0000   1.0000   1.0000   1.0000   1.0000
     1.0000   1.0000   1.0000   1.0000   1.0000   1.0000   1.0000   1.0000
     1.0000   1.0000   1.0000   1.0000   1.0000   1.0000   1.0000   1.0000
     1.0000   1.0000   1.0000   1.0000   1.0000   1.0000   1.0000   1.0000
     1.0000   1.0000   1.0000   1.0000   1.0000   1.0000   1.0000   1.0000
     1.0000   1.0000   1.0000   1.0000   1.0000   1.0000   1.0000   1.0000
     1.0000   1.0000   1.0000   1.0000   1.0000   1.0000   1.0000   1.0000
     1.0000   1.0000   1.0000   1.0000   1.0000   1.0000   1.0000   1.0000
     1.0000   1.0000   1.0000   1.0000   1.0000   1.0001   1.0002   1.0007
     1.0017   1.0037   1.0078   1.0146   1.0239   1.0347   1.0367   1.0818
     1.0829   1.0830   1.0758   1.0646   1.0422   1.0268   0.9997   0.7454
     0.5873   0.4305   0.2333   0.2008   0.0012   0.0000   0.0000   0.0000
     0.0000   0.0000   0.0000   0.0000   0.0000   0.0000   0.0000   0.0000
     0.0000   0.0000   0.0000   0.0000   0.0000   0.0000   0.0000   0.0000
     0.0000

          k = 0.1250-0.2165 0.0000 ( 44571 PWs)   bands (ev):

   -12.2311 -11.8570 -11.3486 -10.7882 -10.7853 -10.7607 -10.7382 -10.7109
   -10.6971 -10.6716 -10.5683 -10.5528 -10.5500 -10.4900 -10.4238 -10.4142
   -10.3209 -10.2999 -10.2784 -10.2731 -10.1428 -10.1010 -10.0694 -10.0652
   -10.0516  -9.9883  -9.8840  -9.8686  -9.8198  -9.6814  -9.5266  -9.3843
    -9.3776  -9.1646  -8.9542  -8.8823  -8.8455  -8.8208  -8.7911  -8.6804
    -8.6411  -8.5479  -8.4825  -8.4347  -8.3865  -8.3808  -8.3400  -8.3172
    -8.2822  -8.2409  -8.2325  -8.1922  -8.1696  -8.1343  -8.0928  -8.0416
    -8.0067  -7.9903  -7.9655  -7.9621  -7.9252  -7.9086  -7.8410  -7.7711
    -7.7508  -7.6730  -7.6570  -7.6337  -7.5968  -7.5572  -7.4313  -7.2277
    -7.2048  -7.1838  -7.0905  -7.0439  -6.9934  -6.9543  -6.9458  -6.9208
    -6.8428  -6.7037  -6.6771  -6.6337  -6.5880  -6.4588  -6.3977  -6.3604
    -6.3467  -6.3368  -6.2969  -6.2788  -6.2248  -6.2092  -6.1373  -6.0208
    -5.9980  -5.9732  -5.9473  -5.9254  -5.8148  -5.7967  -5.7680  -5.7132
    -5.7102  -5.6821  -5.6750  -5.6510  -5.6333  -5.6182  -5.6052  -5.5772
    -5.5750  -5.5317  -5.4993  -5.4868  -5.4707  -5.4634  -5.3653  -5.3592
    -5.3150  -5.2248  -5.2160  -5.1898  -4.9638  -4.5073  -4.4478  -4.1484
    -3.9429  -3.8370  -3.5784  -3.5563  -2.9802  -2.6747  -2.5698  -2.3690
    -1.8352  -1.3974  -1.0683  -1.0126  -0.7939  -0.5822  -0.4648   0.4432
     0.6532

     occupation numbers 
     1.0000   1.0000   1.0000   1.0000   1.0000   1.0000   1.0000   1.0000
     1.0000   1.0000   1.0000   1.0000   1.0000   1.0000   1.0000   1.0000
     1.0000   1.0000   1.0000   1.0000   1.0000   1.0000   1.0000   1.0000
     1.0000   1.0000   1.0000   1.0000   1.0000   1.0000   1.0000   1.0000
     1.0000   1.0000   1.0000   1.0000   1.0000   1.0000   1.0000   1.0000
     1.0000   1.0000   1.0000   1.0000   1.0000   1.0000   1.0000   1.0000
     1.0000   1.0000   1.0000   1.0000   1.0000   1.0000   1.0000   1.0000
     1.0000   1.0000   1.0000   1.0000   1.0000   1.0000   1.0000   1.0000
     1.0000   1.0000   1.0000   1.0000   1.0000   1.0000   1.0000   1.0000
     1.0000   1.0000   1.0000   1.0000   1.0000   1.0000   1.0000   1.0000
     1.0000   1.0000   1.0000   1.0000   1.0000   1.0000   1.0000   1.0000
     1.0000   1.0000   1.0000   1.0000   1.0000   1.0000   1.0000   1.0001
     1.0001   1.0002   1.0004   1.0006   1.0067   1.0092   1.0147   1.0314
     1.0325   1.0445   1.0477   1.0590   1.0670   1.0732   1.0778   1.0832
     1.0833   1.0715   1.0408   1.0228   0.9944   0.9797   0.6801   0.6572
     0.4918   0.2108   0.1903   0.1377   0.0022   0.0000   0.0000   0.0000
     0.0000   0.0000   0.0000   0.0000   0.0000   0.0000   0.0000   0.0000
     0.0000   0.0000   0.0000   0.0000   0.0000   0.0000   0.0000   0.0000
     0.0000

          k = 0.1250-0.1443 0.0000 ( 44578 PWs)   bands (ev):

   -12.3798 -11.9587 -11.4595 -10.8899 -10.8745 -10.8566 -10.8402 -10.7940
   -10.7844 -10.7384 -10.6854 -10.6255 -10.6175 -10.5956 -10.5211 -10.4795
   -10.4407 -10.4228 -10.3647 -10.3202 -10.2615 -10.2018 -10.1394 -10.1361
   -10.1203 -10.0783  -9.9871  -9.9452  -9.9176  -9.8210  -9.5702  -9.4288
    -9.4160  -9.1567  -8.9079  -8.8833  -8.7797  -8.7194  -8.6924  -8.6492
    -8.6034  -8.5570  -8.4739  -8.4220  -8.3948  -8.3768  -8.3293  -8.3111
    -8.2931  -8.2746  -8.2724  -8.2664  -8.2602  -8.1193  -8.0903  -8.0652
    -8.0153  -7.9816  -7.9670  -7.9346  -7.8915  -7.8289  -7.7632  -7.7424
    -7.7140  -7.6987  -7.6799  -7.6381  -7.5642  -7.5184  -7.3029  -7.1114
    -7.0951  -7.0482  -6.9426  -6.9212  -6.9017  -6.8903  -6.8754  -6.8247
    -6.7069  -6.6401  -6.5967  -6.5800  -6.4794  -6.3900  -6.3382  -6.2940
    -6.2568  -6.2113  -6.1406  -6.0633  -6.0500  -6.0023  -5.9830  -5.9226
    -5.8805  -5.8654  -5.8284  -5.7941  -5.6908  -5.6603  -5.6483  -5.6416
    -5.6328  -5.5488  -5.5360  -5.5305  -5.5133  -5.5063  -5.4876  -5.4659
    -5.4522  -5.4449  -5.4391  -5.4269  -5.4120  -5.3601  -5.2967  -5.2738
    -5.2584  -5.2018  -5.1757  -5.1454  -5.1394  -4.6477  -4.2807  -3.9265
    -3.8389  -3.5432  -3.3069  -3.2642  -2.9454  -2.8718  -2.7101  -2.2687
    -2.1377  -1.6882  -1.3561  -1.1343  -0.9360  -0.8597  -0.5781   0.2388
     0.4071

     occupation numbers 
     1.0000   1.0000   1.0000   1.0000   1.0000   1.0000   1.0000   1.0000
     1.0000   1.0000   1.0000   1.0000   1.0000   1.0000   1.0000   1.0000
     1.0000   1.0000   1.0000   1.0000   1.0000   1.0000   1.0000   1.0000
     1.0000   1.0000   1.0000   1.0000   1.0000   1.0000   1.0000   1.0000
     1.0000   1.0000   1.0000   1.0000   1.0000   1.0000   1.0000   1.0000
     1.0000   1.0000   1.0000   1.0000   1.0000   1.0000   1.0000   1.0000
     1.0000   1.0000   1.0000   1.0000   1.0000   1.0000   1.0000   1.0000
     1.0000   1.0000   1.0000   1.0000   1.0000   1.0000   1.0000   1.0000
     1.0000   1.0000   1.0000   1.0000   1.0000   1.0000   1.0000   1.0000
     1.0000   1.0000   1.0000   1.0000   1.0000   1.0000   1.0000   1.0000
     1.0000   1.0000   1.0000   1.0000   1.0000   1.0000   1.0000   1.0000
     1.0000   1.0000   1.0000   1.0000   1.0000   1.0001   1.0001   1.0007
     1.0018   1.0025   1.0052   1.0096   1.0406   1.0546   1.0602   1.0633
     1.0673   1.0796   1.0740   1.0708   1.0567   1.0492   1.0240   0.9849
     0.9545   0.9368   0.9217   0.8878   0.8425   0.6606   0.4260   0.3489
     0.3012   0.1603   0.1141   0.0738   0.0674   0.0000   0.0000   0.0000
     0.0000   0.0000   0.0000   0.0000   0.0000   0.0000   0.0000   0.0000
     0.0000   0.0000   0.0000   0.0000   0.0000   0.0000   0.0000   0.0000
     0.0000

          k = 0.1875-0.1083 0.0000 ( 44580 PWs)   bands (ev):

   -12.3152 -11.8897 -11.3995 -10.8595 -10.8290 -10.8143 -10.7996 -10.7827
   -10.7445 -10.6700 -10.6631 -10.6000 -10.5711 -10.5686 -10.5081 -10.4139
   -10.4057 -10.3730 -10.3604 -10.2451 -10.2320 -10.1587 -10.1158 -10.1086
   -10.0841 -10.0526  -9.9671  -9.9135  -9.8620  -9.7951  -9.5362  -9.4199
    -9.3967  -9.1501  -8.9451  -8.8903  -8.7854  -8.7597  -8.7087  -8.7020
    -8.6174  -8.5889  -8.4471  -8.4145  -8.3901  -8.3742  -8.3561  -8.3024
    -8.2882  -8.2645  -8.2521  -8.2386  -8.2359  -8.1065  -8.0880  -8.0472
    -8.0055  -7.9972  -7.9768  -7.9577  -7.9257  -7.8172  -7.7905  -7.7540
    -7.7258  -7.7201  -7.6992  -7.6534  -7.6227  -7.5466  -7.3309  -7.1285
    -7.1195  -7.1116  -7.0156  -6.9773  -6.9409  -6.9219  -6.9078  -6.8888
    -6.7762  -6.7007  -6.6237  -6.5963  -6.4514  -6.4114  -6.3841  -6.3298
    -6.2930  -6.2594  -6.2033  -6.1800  -6.0783  -6.0358  -6.0211  -6.0116
    -5.9259  -5.9008  -5.8887  -5.8788  -5.7255  -5.7171  -5.6872  -5.6397
    -5.6298  -5.6218  -5.6135  -5.6032  -5.5904  -5.5847  -5.5567  -5.4807
    -5.4684  -5.4609  -5.4460  -5.4412  -5.4201  -5.3643  -5.2974  -5.2904
    -5.2703  -5.2145  -5.1933  -5.1326  -5.1222  -4.9912  -4.4153  -4.1061
    -3.8520  -3.3306  -3.2646  -3.1536  -2.9291  -2.6795  -2.6523  -2.2798
    -2.2080  -1.7795  -1.6001  -1.2998  -0.7545  -0.6195   0.1074   0.2012
     0.4277

     occupation numbers 
     1.0000   1.0000   1.0000   1.0000   1.0000   1.0000   1.0000   1.0000
     1.0000   1.0000   1.0000   1.0000   1.0000   1.0000   1.0000   1.0000
     1.0000   1.0000   1.0000   1.0000   1.0000   1.0000   1.0000   1.0000
     1.0000   1.0000   1.0000   1.0000   1.0000   1.0000   1.0000   1.0000
     1.0000   1.0000   1.0000   1.0000   1.0000   1.0000   1.0000   1.0000
     1.0000   1.0000   1.0000   1.0000   1.0000   1.0000   1.0000   1.0000
     1.0000   1.0000   1.0000   1.0000   1.0000   1.0000   1.0000   1.0000
     1.0000   1.0000   1.0000   1.0000   1.0000   1.0000   1.0000   1.0000
     1.0000   1.0000   1.0000   1.0000   1.0000   1.0000   1.0000   1.0000
     1.0000   1.0000   1.0000   1.0000   1.0000   1.0000   1.0000   1.0000
     1.0000   1.0000   1.0000   1.0000   1.0000   1.0000   1.0000   1.0000
     1.0000   1.0000   1.0000   1.0000   1.0000   1.0000   1.0001   1.0001
     1.0006   1.0012   1.0015   1.0019   1.0269   1.0299   1.0422   1.0642
     1.0685   1.0718   1.0750   1.0784   1.0815   1.0824   1.0818   1.0127
     0.9899   0.9742   0.9394   0.9272   0.8676   0.6765   0.4286   0.4042
     0.3378   0.1871   0.1440   0.0607   0.0514   0.0041   0.0000   0.0000
     0.0000   0.0000   0.0000   0.0000   0.0000   0.0000   0.0000   0.0000
     0.0000   0.0000   0.0000   0.0000   0.0000   0.0000   0.0000   0.0000
     0.0000

          k = 0.1875-0.0361 0.0000 ( 44578 PWs)   bands (ev):

   -12.3758 -11.9335 -11.4429 -10.8884 -10.8728 -10.8577 -10.8391 -10.7933
   -10.7840 -10.7455 -10.6801 -10.6253 -10.6169 -10.5952 -10.5214 -10.4874
   -10.4375 -10.4198 -10.3646 -10.3224 -10.2559 -10.1950 -10.1431 -10.1339
   -10.1022 -10.0862 -10.0280  -9.9350  -9.8864  -9.8731  -9.5527  -9.4356
    -9.4135  -9.1461  -8.9380  -8.8701  -8.7771  -8.7253  -8.7055  -8.6763
    -8.5783  -8.5571  -8.4735  -8.4177  -8.4004  -8.3785  -8.3283  -8.3115
    -8.3049  -8.2746  -8.2721  -8.2658  -8.2597  -8.1020  -8.0801  -8.0694
    -8.0135  -7.9811  -7.9657  -7.9557  -7.9090  -7.8459  -7.8011  -7.7328
    -7.7101  -7.6896  -7.6710  -7.6506  -7.6124  -7.4987  -7.3008  -7.1100
    -7.0820  -7.0600  -6.9436  -6.9283  -6.9152  -6.8883  -6.8747  -6.8229
    -6.7147  -6.6414  -6.5960  -6.5731  -6.4926  -6.3885  -6.3178  -6.2846
    -6.2502  -6.2248  -6.1181  -6.0914  -6.0392  -6.0057  -5.9800  -5.9009
    -5.8772  -5.8630  -5.8460  -5.7934  -5.6808  -5.6622  -5.6492  -5.6419
    -5.6311  -5.5525  -5.5373  -5.5287  -5.5146  -5.5014  -5.4856  -5.4660
    -5.4483  -5.4461  -5.4421  -5.4327  -5.4128  -5.3684  -5.2884  -5.2767
    -5.2588  -5.2034  -5.1740  -5.1454  -5.1371  -4.6299  -4.2896  -3.9100
    -3.8345  -3.5419  -3.3421  -3.2230  -2.9277  -2.8987  -2.6669  -2.2237
    -2.1653  -1.5552  -1.2787  -1.2230  -0.9229  -0.8540  -0.5614   0.1795
     0.3999

     occupation numbers 
     1.0000   1.0000   1.0000   1.0000   1.0000   1.0000   1.0000   1.0000
     1.0000   1.0000   1.0000   1.0000   1.0000   1.0000   1.0000   1.0000
     1.0000   1.0000   1.0000   1.0000   1.0000   1.0000   1.0000   1.0000
     1.0000   1.0000   1.0000   1.0000   1.0000   1.0000   1.0000   1.0000
     1.0000   1.0000   1.0000   1.0000   1.0000   1.0000   1.0000   1.0000
     1.0000   1.0000   1.0000   1.0000   1.0000   1.0000   1.0000   1.0000
     1.0000   1.0000   1.0000   1.0000   1.0000   1.0000   1.0000   1.0000
     1.0000   1.0000   1.0000   1.0000   1.0000   1.0000   1.0000   1.0000
     1.0000   1.0000   1.0000   1.0000   1.0000   1.0000   1.0000   1.0000
     1.0000   1.0000   1.0000   1.0000   1.0000   1.0000   1.0000   1.0000
     1.0000   1.0000   1.0000   1.0000   1.0000   1.0000   1.0000   1.0000
     1.0000   1.0000   1.0000   1.0000   1.0000   1.0001   1.0002   1.0011
     1.0019   1.0026   1.0037   1.0097   1.0451   1.0537   1.0598   1.0632
     1.0680   1.0807   1.0747   1.0695   1.0579   1.0435   1.0209   0.9851
     0.9452   0.9397   0.9295   0.9044   0.8451   0.6914   0.3973   0.3584
     0.3024   0.1634   0.1114   0.0738   0.0651   0.0000   0.0000   0.0000
     0.0000   0.0000   0.0000   0.0000   0.0000   0.0000   0.0000   0.0000
     0.0000   0.0000   0.0000   0.0000   0.0000   0.0000   0.0000   0.0000
     0.0000

          k = 0.1875 0.0361 0.0000 ( 44578 PWs)   bands (ev):

   -12.3758 -11.9335 -11.4429 -10.8884 -10.8728 -10.8577 -10.8391 -10.7933
   -10.7840 -10.7455 -10.6801 -10.6253 -10.6169 -10.5952 -10.5214 -10.4874
   -10.4375 -10.4198 -10.3646 -10.3224 -10.2559 -10.1950 -10.1431 -10.1339
   -10.1022 -10.0862 -10.0280  -9.9350  -9.8864  -9.8731  -9.5527  -9.4356
    -9.4135  -9.1461  -8.9380  -8.8701  -8.7771  -8.7253  -8.7055  -8.6763
    -8.5783  -8.5571  -8.4735  -8.4177  -8.4004  -8.3785  -8.3283  -8.3115
    -8.3049  -8.2746  -8.2721  -8.2658  -8.2597  -8.1020  -8.0801  -8.0694
    -8.0135  -7.9811  -7.9657  -7.9557  -7.9090  -7.8459  -7.8011  -7.7328
    -7.7101  -7.6896  -7.6710  -7.6506  -7.6124  -7.4987  -7.3008  -7.1100
    -7.0820  -7.0600  -6.9436  -6.9283  -6.9152  -6.8883  -6.8747  -6.8229
    -6.7147  -6.6414  -6.5960  -6.5731  -6.4926  -6.3885  -6.3178  -6.2846
    -6.2502  -6.2248  -6.1181  -6.0914  -6.0392  -6.0057  -5.9800  -5.9009
    -5.8772  -5.8630  -5.8460  -5.7934  -5.6808  -5.6622  -5.6492  -5.6419
    -5.6311  -5.5525  -5.5373  -5.5287  -5.5146  -5.5014  -5.4856  -5.4660
    -5.4483  -5.4461  -5.4421  -5.4327  -5.4128  -5.3684  -5.2884  -5.2767
    -5.2588  -5.2034  -5.1740  -5.1454  -5.1371  -4.6299  -4.2896  -3.9100
    -3.8345  -3.5419  -3.3421  -3.2230  -2.9277  -2.8987  -2.6669  -2.2237
    -2.1653  -1.5552  -1.2787  -1.2230  -0.9229  -0.8540  -0.5614   0.1795
     0.3999

     occupation numbers 
     1.0000   1.0000   1.0000   1.0000   1.0000   1.0000   1.0000   1.0000
     1.0000   1.0000   1.0000   1.0000   1.0000   1.0000   1.0000   1.0000
     1.0000   1.0000   1.0000   1.0000   1.0000   1.0000   1.0000   1.0000
     1.0000   1.0000   1.0000   1.0000   1.0000   1.0000   1.0000   1.0000
     1.0000   1.0000   1.0000   1.0000   1.0000   1.0000   1.0000   1.0000
     1.0000   1.0000   1.0000   1.0000   1.0000   1.0000   1.0000   1.0000
     1.0000   1.0000   1.0000   1.0000   1.0000   1.0000   1.0000   1.0000
     1.0000   1.0000   1.0000   1.0000   1.0000   1.0000   1.0000   1.0000
     1.0000   1.0000   1.0000   1.0000   1.0000   1.0000   1.0000   1.0000
     1.0000   1.0000   1.0000   1.0000   1.0000   1.0000   1.0000   1.0000
     1.0000   1.0000   1.0000   1.0000   1.0000   1.0000   1.0000   1.0000
     1.0000   1.0000   1.0000   1.0000   1.0000   1.0001   1.0002   1.0011
     1.0019   1.0026   1.0037   1.0097   1.0451   1.0537   1.0598   1.0632
     1.0680   1.0807   1.0747   1.0695   1.0579   1.0435   1.0209   0.9851
     0.9452   0.9397   0.9295   0.9044   0.8451   0.6914   0.3973   0.3584
     0.3024   0.1634   0.1114   0.0738   0.0651   0.0000   0.0000   0.0000
     0.0000   0.0000   0.0000   0.0000   0.0000   0.0000   0.0000   0.0000
     0.0000   0.0000   0.0000   0.0000   0.0000   0.0000   0.0000   0.0000
     0.0000

          k = 0.1875 0.1083 0.0000 ( 44580 PWs)   bands (ev):

   -12.3152 -11.8897 -11.3995 -10.8595 -10.8290 -10.8143 -10.7996 -10.7827
   -10.7445 -10.6700 -10.6631 -10.6000 -10.5711 -10.5686 -10.5081 -10.4139
   -10.4057 -10.3730 -10.3604 -10.2451 -10.2320 -10.1587 -10.1158 -10.1086
   -10.0841 -10.0526  -9.9671  -9.9135  -9.8620  -9.7951  -9.5362  -9.4199
    -9.3967  -9.1501  -8.9451  -8.8903  -8.7854  -8.7597  -8.7087  -8.7020
    -8.6174  -8.5889  -8.4471  -8.4145  -8.3901  -8.3742  -8.3561  -8.3024
    -8.2882  -8.2645  -8.2521  -8.2386  -8.2359  -8.1065  -8.0880  -8.0472
    -8.0055  -7.9972  -7.9768  -7.9577  -7.9257  -7.8172  -7.7905  -7.7540
    -7.7258  -7.7201  -7.6992  -7.6534  -7.6227  -7.5466  -7.3309  -7.1285
    -7.1195  -7.1116  -7.0156  -6.9773  -6.9409  -6.9219  -6.9078  -6.8888
    -6.7762  -6.7007  -6.6237  -6.5963  -6.4514  -6.4114  -6.3841  -6.3298
    -6.2930  -6.2594  -6.2033  -6.1800  -6.0783  -6.0358  -6.0211  -6.0116
    -5.9259  -5.9008  -5.8887  -5.8788  -5.7255  -5.7171  -5.6872  -5.6397
    -5.6298  -5.6218  -5.6135  -5.6032  -5.5904  -5.5847  -5.5567  -5.4807
    -5.4684  -5.4609  -5.4460  -5.4412  -5.4201  -5.3643  -5.2974  -5.2904
    -5.2703  -5.2145  -5.1933  -5.1326  -5.1222  -4.9912  -4.4153  -4.1061
    -3.8520  -3.3306  -3.2646  -3.1536  -2.9291  -2.6795  -2.6523  -2.2798
    -2.2080  -1.7795  -1.6001  -1.2998  -0.7545  -0.6195   0.1074   0.2012
     0.4277

     occupation numbers 
     1.0000   1.0000   1.0000   1.0000   1.0000   1.0000   1.0000   1.0000
     1.0000   1.0000   1.0000   1.0000   1.0000   1.0000   1.0000   1.0000
     1.0000   1.0000   1.0000   1.0000   1.0000   1.0000   1.0000   1.0000
     1.0000   1.0000   1.0000   1.0000   1.0000   1.0000   1.0000   1.0000
     1.0000   1.0000   1.0000   1.0000   1.0000   1.0000   1.0000   1.0000
     1.0000   1.0000   1.0000   1.0000   1.0000   1.0000   1.0000   1.0000
     1.0000   1.0000   1.0000   1.0000   1.0000   1.0000   1.0000   1.0000
     1.0000   1.0000   1.0000   1.0000   1.0000   1.0000   1.0000   1.0000
     1.0000   1.0000   1.0000   1.0000   1.0000   1.0000   1.0000   1.0000
     1.0000   1.0000   1.0000   1.0000   1.0000   1.0000   1.0000   1.0000
     1.0000   1.0000   1.0000   1.0000   1.0000   1.0000   1.0000   1.0000
     1.0000   1.0000   1.0000   1.0000   1.0000   1.0000   1.0001   1.0001
     1.0006   1.0012   1.0015   1.0019   1.0269   1.0299   1.0422   1.0642
     1.0685   1.0718   1.0750   1.0784   1.0815   1.0824   1.0818   1.0127
     0.9899   0.9742   0.9394   0.9272   0.8676   0.6765   0.4286   0.4042
     0.3378   0.1871   0.1440   0.0607   0.0514   0.0041   0.0000   0.0000
     0.0000   0.0000   0.0000   0.0000   0.0000   0.0000   0.0000   0.0000
     0.0000   0.0000   0.0000   0.0000   0.0000   0.0000   0.0000   0.0000
     0.0000

          k = 0.1875 0.1804 0.0000 ( 44582 PWs)   bands (ev):

   -12.1965 -11.8077 -11.3133 -10.7912 -10.7516 -10.7478 -10.7424 -10.7075
   -10.6527 -10.6301 -10.5609 -10.5447 -10.5195 -10.4779 -10.4477 -10.3511
   -10.3185 -10.3041 -10.2733 -10.2011 -10.1274 -10.0831 -10.0612 -10.0541
   -10.0309  -9.9906  -9.8765  -9.8396  -9.8130  -9.6683  -9.5021  -9.3888
    -9.3645  -9.1583  -8.9686  -8.9110  -8.8637  -8.8172  -8.7787  -8.6830
    -8.6543  -8.6254  -8.4741  -8.4134  -8.4072  -8.3773  -8.3308  -8.3121
    -8.2822  -8.2344  -8.2316  -8.1859  -8.1516  -8.1352  -8.1020  -8.0561
    -8.0402  -7.9856  -7.9543  -7.9463  -7.9174  -7.9015  -7.8497  -7.8052
    -7.7618  -7.6998  -7.6544  -7.6270  -7.6043  -7.5816  -7.4236  -7.2618
    -7.2413  -7.1956  -7.1192  -7.0679  -7.0000  -6.9725  -6.9632  -6.9428
    -6.8736  -6.7952  -6.6625  -6.6147  -6.5631  -6.4667  -6.4163  -6.4062
    -6.3892  -6.3629  -6.3410  -6.2981  -6.2551  -6.2302  -6.1642  -6.0590
    -5.9923  -5.9676  -5.9468  -5.8767  -5.8338  -5.8094  -5.7949  -5.7902
    -5.7723  -5.7510  -5.7189  -5.7141  -5.6641  -5.6186  -5.5989  -5.5882
    -5.5158  -5.5018  -5.4921  -5.4838  -5.4790  -5.4445  -5.4357  -5.3114
    -5.3102  -5.2576  -5.1776  -5.1593  -5.1159  -4.8808  -4.5589  -4.2871
    -3.8063  -3.7333  -3.3141  -3.1515  -2.9115  -2.7684  -2.5915  -2.1716
    -2.0085  -1.6643  -1.3965  -1.1011  -0.7348  -0.4169   0.0751   0.4086
     0.6795

     occupation numbers 
     1.0000   1.0000   1.0000   1.0000   1.0000   1.0000   1.0000   1.0000
     1.0000   1.0000   1.0000   1.0000   1.0000   1.0000   1.0000   1.0000
     1.0000   1.0000   1.0000   1.0000   1.0000   1.0000   1.0000   1.0000
     1.0000   1.0000   1.0000   1.0000   1.0000   1.0000   1.0000   1.0000
     1.0000   1.0000   1.0000   1.0000   1.0000   1.0000   1.0000   1.0000
     1.0000   1.0000   1.0000   1.0000   1.0000   1.0000   1.0000   1.0000
     1.0000   1.0000   1.0000   1.0000   1.0000   1.0000   1.0000   1.0000
     1.0000   1.0000   1.0000   1.0000   1.0000   1.0000   1.0000   1.0000
     1.0000   1.0000   1.0000   1.0000   1.0000   1.0000   1.0000   1.0000
     1.0000   1.0000   1.0000   1.0000   1.0000   1.0000   1.0000   1.0000
     1.0000   1.0000   1.0000   1.0000   1.0000   1.0000   1.0000   1.0000
     1.0000   1.0000   1.0000   1.0000   1.0000   1.0000   1.0000   1.0000
     1.0001   1.0002   1.0004   1.0020   1.0047   1.0074   1.0095   1.0103
     1.0137   1.0190   1.0293   1.0311   1.0528   1.0731   1.0795   1.0819
     1.0591   1.0439   1.0308   1.0180   1.0099   0.9358   0.9126   0.4787
     0.4741   0.2989   0.1171   0.0907   0.0465   0.0003   0.0000   0.0000
     0.0000   0.0000   0.0000   0.0000   0.0000   0.0000   0.0000   0.0000
     0.0000   0.0000   0.0000   0.0000   0.0000   0.0000   0.0000   0.0000
     0.0000

          k = 0.1875 0.2526 0.0000 ( 44582 PWs)   bands (ev):

   -12.0266 -11.6980 -11.1851 -10.6813 -10.6704 -10.6544 -10.6483 -10.6027
   -10.5592 -10.5157 -10.4628 -10.4462 -10.4246 -10.3424 -10.3392 -10.2749
   -10.2292 -10.1833 -10.1558 -10.1335 -10.0030  -9.9884  -9.9801  -9.9515
    -9.9398  -9.9003  -9.7660  -9.7439  -9.7144  -9.5110  -9.4440  -9.3436
    -9.3174  -9.1744  -9.0257  -8.9595  -8.9234  -8.8943  -8.8780  -8.7595
    -8.7082  -8.5701  -8.5529  -8.4901  -8.4125  -8.3437  -8.3380  -8.3254
    -8.3049  -8.2232  -8.2128  -8.1730  -8.1368  -8.1148  -8.0993  -8.0687
    -8.0536  -8.0385  -7.9941  -7.9643  -7.9348  -7.9012  -7.8604  -7.8283
    -7.7903  -7.6900  -7.6424  -7.5640  -7.5474  -7.5272  -7.4647  -7.4433
    -7.4320  -7.4088  -7.3354  -7.1299  -7.0919  -7.0377  -7.0061  -6.9822
    -6.9567  -6.8916  -6.7896  -6.7549  -6.6762  -6.6444  -6.5799  -6.5452
    -6.5109  -6.4797  -6.4606  -6.4325  -6.4237  -6.4011  -6.3040  -6.2526
    -6.1097  -6.0866  -6.0622  -6.0502  -6.0420  -6.0042  -5.9692  -5.9239
    -5.8892  -5.8514  -5.8007  -5.7706  -5.7276  -5.7085  -5.6965  -5.5846
    -5.5748  -5.5703  -5.5350  -5.5250  -5.5013  -5.4884  -5.4753  -5.3778
    -5.3431  -5.2946  -5.2378  -5.2219  -4.9870  -4.7271  -4.5323  -4.3230
    -4.2960  -3.9635  -3.6560  -3.4401  -3.0745  -2.6181  -2.3392  -1.9395
    -1.6274  -1.3634  -1.1142  -0.9135  -0.5607  -0.1434   0.1488   0.3919
     0.6639

     occupation numbers 
     1.0000   1.0000   1.0000   1.0000   1.0000   1.0000   1.0000   1.0000
     1.0000   1.0000   1.0000   1.0000   1.0000   1.0000   1.0000   1.0000
     1.0000   1.0000   1.0000   1.0000   1.0000   1.0000   1.0000   1.0000
     1.0000   1.0000   1.0000   1.0000   1.0000   1.0000   1.0000   1.0000
     1.0000   1.0000   1.0000   1.0000   1.0000   1.0000   1.0000   1.0000
     1.0000   1.0000   1.0000   1.0000   1.0000   1.0000   1.0000   1.0000
     1.0000   1.0000   1.0000   1.0000   1.0000   1.0000   1.0000   1.0000
     1.0000   1.0000   1.0000   1.0000   1.0000   1.0000   1.0000   1.0000
     1.0000   1.0000   1.0000   1.0000   1.0000   1.0000   1.0000   1.0000
     1.0000   1.0000   1.0000   1.0000   1.0000   1.0000   1.0000   1.0000
     1.0000   1.0000   1.0000   1.0000   1.0000   1.0000   1.0000   1.0000
     1.0000   1.0000   1.0000   1.0000   1.0000   1.0000   1.0000   1.0000
     1.0000   1.0000   1.0000   1.0000   1.0000   1.0001   1.0002   1.0007
     1.0015   1.0033   1.0086   1.0141   1.0262   1.0332   1.0381   1.0824
     1.0833   1.0833   1.0735   1.0669   1.0432   1.0253   1.0032   0.7260
     0.5966   0.4188   0.2434   0.2039   0.0038   0.0000   0.0000   0.0000
     0.0000   0.0000   0.0000   0.0000   0.0000   0.0000   0.0000   0.0000
     0.0000   0.0000   0.0000   0.0000   0.0000   0.0000   0.0000   0.0000
     0.0000

          k = 0.1875 0.3248 0.0000 ( 44577 PWs)   bands (ev):

   -11.8220 -11.5687 -11.0180 -10.5623 -10.5583 -10.5404 -10.5357 -10.5327
   -10.3898 -10.3578 -10.3544 -10.3447 -10.2714 -10.1957 -10.1908 -10.1624
   -10.1091 -10.0944 -10.0628  -9.9810  -9.9022  -9.8968  -9.8498  -9.8242
    -9.8032  -9.7831  -9.6691  -9.6049  -9.5782  -9.4043  -9.3020  -9.2906
    -9.2518  -9.2035  -9.0946  -9.0625  -9.0066  -8.9722  -8.8958  -8.8754
    -8.7659  -8.6882  -8.5723  -8.4847  -8.4474  -8.4233  -8.3924  -8.3756
    -8.3417  -8.2854  -8.2657  -8.2451  -8.1892  -8.1228  -8.0859  -8.0533
    -8.0460  -8.0365  -7.9867  -7.9765  -7.9663  -7.9348  -7.8279  -7.8037
    -7.7327  -7.7237  -7.7082  -7.6694  -7.6458  -7.6092  -7.5711  -7.4884
    -7.4625  -7.3674  -7.3115  -7.2950  -7.2398  -7.1810  -7.0444  -7.0279
    -7.0182  -6.9973  -6.9730  -6.9024  -6.8579  -6.8278  -6.8022  -6.7839
    -6.7467  -6.7297  -6.5840  -6.5534  -6.5327  -6.4939  -6.4711  -6.3390
    -6.3257  -6.2891  -6.2597  -6.2254  -6.2128  -6.1284  -6.0722  -6.0443
    -6.0084  -5.9326  -5.9201  -5.8161  -5.7633  -5.7398  -5.6915  -5.6902
    -5.6397  -5.5916  -5.5736  -5.5438  -5.5263  -5.5104  -5.5069  -5.3750
    -5.3533  -5.3200  -5.3040  -5.2915  -4.8635  -4.8032  -4.6509  -4.5466
    -4.4331  -4.1802  -4.1539  -3.3822  -3.0199  -2.8441  -1.9772  -1.5884
    -1.3788  -1.2986  -0.9114  -0.5641  -0.2092   0.1454   0.3506   0.4362
     0.5842

     occupation numbers 
     1.0000   1.0000   1.0000   1.0000   1.0000   1.0000   1.0000   1.0000
     1.0000   1.0000   1.0000   1.0000   1.0000   1.0000   1.0000   1.0000
     1.0000   1.0000   1.0000   1.0000   1.0000   1.0000   1.0000   1.0000
     1.0000   1.0000   1.0000   1.0000   1.0000   1.0000   1.0000   1.0000
     1.0000   1.0000   1.0000   1.0000   1.0000   1.0000   1.0000   1.0000
     1.0000   1.0000   1.0000   1.0000   1.0000   1.0000   1.0000   1.0000
     1.0000   1.0000   1.0000   1.0000   1.0000   1.0000   1.0000   1.0000
     1.0000   1.0000   1.0000   1.0000   1.0000   1.0000   1.0000   1.0000
     1.0000   1.0000   1.0000   1.0000   1.0000   1.0000   1.0000   1.0000
     1.0000   1.0000   1.0000   1.0000   1.0000   1.0000   1.0000   1.0000
     1.0000   1.0000   1.0000   1.0000   1.0000   1.0000   1.0000   1.0000
     1.0000   1.0000   1.0000   1.0000   1.0000   1.0000   1.0000   1.0000
     1.0000   1.0000   1.0000   1.0000   1.0000   1.0000   1.0000   1.0000
     1.0001   1.0005   1.0007   1.0065   1.0158   1.0222   1.0403   1.0409
     1.0642   1.0812   1.0833   1.0778   1.0679   1.0537   1.0499   0.7156
     0.6353   0.5103   0.4518   0.4078   0.0002   0.0000   0.0000   0.0000
     0.0000   0.0000   0.0000   0.0000   0.0000   0.0000   0.0000   0.0000
     0.0000   0.0000   0.0000   0.0000   0.0000   0.0000   0.0000   0.0000
     0.0000

          k = 0.1875 0.3969 0.0000 ( 44536 PWs)   bands (ev):

   -11.6302 -11.4009 -10.8234 -10.5314 -10.4316 -10.4180 -10.4027 -10.3773
   -10.2576 -10.2186 -10.2096 -10.1621 -10.1294 -10.1169 -10.0301 -10.0089
    -9.9755  -9.9696  -9.9346  -9.8382  -9.8040  -9.7978  -9.7579  -9.6890
    -9.6669  -9.6321  -9.5679  -9.4768  -9.3990  -9.3423  -9.2564  -9.2471
    -9.2071  -9.1638  -9.1230  -9.1002  -9.0704  -9.0318  -8.9999  -8.9002
    -8.8552  -8.7731  -8.6409  -8.5692  -8.5628  -8.5380  -8.4853  -8.4335
    -8.4007  -8.3745  -8.3469  -8.2822  -8.2368  -8.1857  -8.0875  -8.0802
    -8.0733  -8.0339  -8.0105  -7.9993  -7.9809  -7.9546  -7.9239  -7.9005
    -7.8888  -7.8698  -7.8048  -7.6343  -7.6224  -7.5888  -7.5385  -7.5046
    -7.4241  -7.4141  -7.3907  -7.3812  -7.2464  -7.2403  -7.1891  -7.1570
    -7.1410  -7.1043  -7.1009  -7.0797  -7.0508  -7.0338  -6.9259  -6.9106
    -6.8912  -6.8023  -6.7314  -6.7085  -6.6530  -6.6301  -6.5900  -6.4706
    -6.4436  -6.4159  -6.4032  -6.3755  -6.2554  -6.2470  -6.1964  -6.1271
    -6.0547  -6.0399  -5.9379  -5.9194  -5.8335  -5.8005  -5.7715  -5.6811
    -5.6590  -5.6472  -5.6290  -5.6062  -5.5596  -5.5471  -5.5081  -5.4173
    -5.4006  -5.3409  -5.3288  -5.2354  -5.1621  -5.0562  -4.8135  -4.7049
    -4.5661  -4.3096  -3.9329  -3.5674  -3.1256  -2.5682  -1.9729  -1.5052
    -1.2977  -0.9033  -0.6383  -0.3433  -0.0519   0.2460   0.3716   0.7248
     1.1814

     occupation numbers 
     1.0000   1.0000   1.0000   1.0000   1.0000   1.0000   1.0000   1.0000
     1.0000   1.0000   1.0000   1.0000   1.0000   1.0000   1.0000   1.0000
     1.0000   1.0000   1.0000   1.0000   1.0000   1.0000   1.0000   1.0000
     1.0000   1.0000   1.0000   1.0000   1.0000   1.0000   1.0000   1.0000
     1.0000   1.0000   1.0000   1.0000   1.0000   1.0000   1.0000   1.0000
     1.0000   1.0000   1.0000   1.0000   1.0000   1.0000   1.0000   1.0000
     1.0000   1.0000   1.0000   1.0000   1.0000   1.0000   1.0000   1.0000
     1.0000   1.0000   1.0000   1.0000   1.0000   1.0000   1.0000   1.0000
     1.0000   1.0000   1.0000   1.0000   1.0000   1.0000   1.0000   1.0000
     1.0000   1.0000   1.0000   1.0000   1.0000   1.0000   1.0000   1.0000
     1.0000   1.0000   1.0000   1.0000   1.0000   1.0000   1.0000   1.0000
     1.0000   1.0000   1.0000   1.0000   1.0000   1.0000   1.0000   1.0000
     1.0000   1.0000   1.0000   1.0000   1.0000   1.0000   1.0000   1.0000
     1.0000   1.0000   1.0005   1.0007   1.0047   1.0086   1.0139   1.0449
     1.0552   1.0607   1.0689   1.0774   1.0823   1.0790   1.0513   0.8592
     0.8055   0.5886   0.5429   0.2370   0.0944   0.0160   0.0000   0.0000
     0.0000   0.0000   0.0000   0.0000   0.0000   0.0000   0.0000   0.0000
     0.0000   0.0000   0.0000   0.0000   0.0000   0.0000   0.0000   0.0000
     0.0000

          k = 0.1875-0.6856 0.0000 ( 44502 PWs)   bands (ev):

   -11.5144 -11.1623 -10.6284 -10.5526 -10.3026 -10.2988 -10.2849 -10.2466
   -10.1988 -10.0912 -10.0694 -10.0440 -10.0084  -9.9799  -9.9111  -9.8931
    -9.8725  -9.8076  -9.7428  -9.7365  -9.7189  -9.7139  -9.6822  -9.5499
    -9.5481  -9.5251  -9.4699  -9.3682  -9.3431  -9.2955  -9.2609  -9.2291
    -9.1975  -9.1822  -9.1548  -9.1243  -9.0720  -8.9947  -8.9725  -8.9581
    -8.9146  -8.8030  -8.7672  -8.7341  -8.6903  -8.6026  -8.5726  -8.4612
    -8.4513  -8.4323  -8.3951  -8.3627  -8.3298  -8.2740  -8.2421  -8.1709
    -8.1514  -8.1021  -8.0597  -8.0416  -8.0180  -8.0072  -7.9624  -7.8819
    -7.8693  -7.8446  -7.8194  -7.7589  -7.7331  -7.6914  -7.6007  -7.5770
    -7.5284  -7.5082  -7.4397  -7.4244  -7.3845  -7.3121  -7.2946  -7.2857
    -7.2492  -7.1892  -7.0997  -7.0691  -7.0191  -7.0127  -7.0019  -6.9611
    -6.9348  -6.9149  -6.7724  -6.7515  -6.7276  -6.7027  -6.6330  -6.5583
    -6.5336  -6.4656  -6.4428  -6.4104  -6.3527  -6.2719  -6.2402  -6.2038
    -6.1979  -6.1487  -6.0361  -6.0064  -5.8658  -5.8511  -5.8246  -5.7865
    -5.7179  -5.6364  -5.6160  -5.6022  -5.5814  -5.5650  -5.5503  -5.5122
    -5.4894  -5.4637  -5.4513  -5.3519  -5.3345  -5.2595  -4.9327  -4.6408
    -4.5518  -4.2789  -3.9647  -3.5773  -3.0850  -2.4974  -2.0241  -1.4807
    -0.9573  -0.7375  -0.5799  -0.3673   0.0715   0.3225   0.6809   0.9780
     1.2841

     occupation numbers 
     1.0000   1.0000   1.0000   1.0000   1.0000   1.0000   1.0000   1.0000
     1.0000   1.0000   1.0000   1.0000   1.0000   1.0000   1.0000   1.0000
     1.0000   1.0000   1.0000   1.0000   1.0000   1.0000   1.0000   1.0000
     1.0000   1.0000   1.0000   1.0000   1.0000   1.0000   1.0000   1.0000
     1.0000   1.0000   1.0000   1.0000   1.0000   1.0000   1.0000   1.0000
     1.0000   1.0000   1.0000   1.0000   1.0000   1.0000   1.0000   1.0000
     1.0000   1.0000   1.0000   1.0000   1.0000   1.0000   1.0000   1.0000
     1.0000   1.0000   1.0000   1.0000   1.0000   1.0000   1.0000   1.0000
     1.0000   1.0000   1.0000   1.0000   1.0000   1.0000   1.0000   1.0000
     1.0000   1.0000   1.0000   1.0000   1.0000   1.0000   1.0000   1.0000
     1.0000   1.0000   1.0000   1.0000   1.0000   1.0000   1.0000   1.0000
     1.0000   1.0000   1.0000   1.0000   1.0000   1.0000   1.0000   1.0000
     1.0000   1.0000   1.0000   1.0000   1.0000   1.0000   1.0000   1.0000
     1.0000   1.0000   1.0000   1.0001   1.0025   1.0033   1.0056   1.0109
     1.0296   1.0657   1.0741   1.0786   1.0828   1.0830   1.0801   1.0556
     1.0268   0.9803   0.9524   0.6300   0.5645   0.3045   0.0010   0.0000
     0.0000   0.0000   0.0000   0.0000   0.0000   0.0000   0.0000   0.0000
     0.0000   0.0000   0.0000   0.0000   0.0000   0.0000   0.0000   0.0000
     0.0000

          k = 0.1875-0.6134 0.0000 ( 44484 PWs)   bands (ev):

   -11.4645 -10.9001 -10.6792 -10.4583 -10.3383 -10.1991 -10.1762 -10.1508
   -10.1167 -10.0583 -10.0347  -9.9800  -9.9254  -9.8975  -9.8238  -9.8172
    -9.7796  -9.7230  -9.6958  -9.6634  -9.6335  -9.5863  -9.5618  -9.5001
    -9.4806  -9.4129  -9.4019  -9.3620  -9.3154  -9.3016  -9.2903  -9.2764
    -9.2498  -9.2092  -9.1300  -9.0977  -9.0660  -9.0412  -8.9804  -8.9540
    -8.9071  -8.8898  -8.8391  -8.7772  -8.7124  -8.6841  -8.6308  -8.5608
    -8.5178  -8.4576  -8.4189  -8.3662  -8.2948  -8.2777  -8.2542  -8.2198
    -8.1795  -8.1368  -8.1317  -8.1016  -8.0834  -8.0216  -7.9759  -7.9628
    -7.9335  -7.8848  -7.8318  -7.8138  -7.7858  -7.7678  -7.7293  -7.6829
    -7.6506  -7.6010  -7.5848  -7.5504  -7.3542  -7.3102  -7.2661  -7.2315
    -7.1777  -7.1589  -7.1487  -7.1399  -7.1014  -7.0484  -6.9950  -6.9797
    -6.9028  -6.8403  -6.8210  -6.7455  -6.7223  -6.6622  -6.6366  -6.5678
    -6.5448  -6.5044  -6.4741  -6.4255  -6.3757  -6.3296  -6.2825  -6.2352
    -6.1918  -6.1203  -6.0980  -6.0738  -6.0406  -5.8784  -5.8624  -5.8510
    -5.8112  -5.7781  -5.7201  -5.6322  -5.5806  -5.5714  -5.5625  -5.5474
    -5.5291  -5.5180  -5.5085  -5.4907  -5.3546  -5.3354  -4.8173  -4.5866
    -4.4987  -4.3362  -4.1292  -3.3820  -2.9922  -2.7567  -1.8167  -1.3991
    -1.0931  -0.7205  -0.4074  -0.1932   0.1760   0.3427   0.4499   1.0656
     1.8027

     occupation numbers 
     1.0000   1.0000   1.0000   1.0000   1.0000   1.0000   1.0000   1.0000
     1.0000   1.0000   1.0000   1.0000   1.0000   1.0000   1.0000   1.0000
     1.0000   1.0000   1.0000   1.0000   1.0000   1.0000   1.0000   1.0000
     1.0000   1.0000   1.0000   1.0000   1.0000   1.0000   1.0000   1.0000
     1.0000   1.0000   1.0000   1.0000   1.0000   1.0000   1.0000   1.0000
     1.0000   1.0000   1.0000   1.0000   1.0000   1.0000   1.0000   1.0000
     1.0000   1.0000   1.0000   1.0000   1.0000   1.0000   1.0000   1.0000
     1.0000   1.0000   1.0000   1.0000   1.0000   1.0000   1.0000   1.0000
     1.0000   1.0000   1.0000   1.0000   1.0000   1.0000   1.0000   1.0000
     1.0000   1.0000   1.0000   1.0000   1.0000   1.0000   1.0000   1.0000
     1.0000   1.0000   1.0000   1.0000   1.0000   1.0000   1.0000   1.0000
     1.0000   1.0000   1.0000   1.0000   1.0000   1.0000   1.0000   1.0000
     1.0000   1.0000   1.0000   1.0000   1.0000   1.0000   1.0000   1.0000
     1.0000   1.0000   1.0000   1.0000   1.0000   1.0019   1.0027   1.0033
     1.0071   1.0125   1.0288   1.0675   1.0829   1.0833   1.0827   1.0792
     1.0698   1.0612   1.0517   1.0288   0.6399   0.5677   0.0000   0.0000
     0.0000   0.0000   0.0000   0.0000   0.0000   0.0000   0.0000   0.0000
     0.0000   0.0000   0.0000   0.0000   0.0000   0.0000   0.0000   0.0000
     0.0000

          k = 0.1875-0.5413 0.0000 ( 44484 PWs)   bands (ev):

   -11.4645 -10.9001 -10.6792 -10.4583 -10.3383 -10.1991 -10.1762 -10.1508
   -10.1167 -10.0583 -10.0347  -9.9800  -9.9254  -9.8975  -9.8238  -9.8172
    -9.7796  -9.7230  -9.6958  -9.6634  -9.6335  -9.5863  -9.5618  -9.5001
    -9.4806  -9.4129  -9.4019  -9.3620  -9.3154  -9.3016  -9.2903  -9.2764
    -9.2498  -9.2092  -9.1300  -9.0977  -9.0660  -9.0412  -8.9804  -8.9540
    -8.9071  -8.8898  -8.8391  -8.7772  -8.7124  -8.6841  -8.6308  -8.5608
    -8.5178  -8.4576  -8.4189  -8.3662  -8.2948  -8.2777  -8.2542  -8.2198
    -8.1795  -8.1368  -8.1317  -8.1016  -8.0834  -8.0216  -7.9759  -7.9628
    -7.9335  -7.8848  -7.8318  -7.8138  -7.7858  -7.7678  -7.7293  -7.6829
    -7.6506  -7.6010  -7.5848  -7.5504  -7.3542  -7.3102  -7.2661  -7.2315
    -7.1777  -7.1589  -7.1487  -7.1399  -7.1014  -7.0484  -6.9950  -6.9797
    -6.9028  -6.8403  -6.8210  -6.7455  -6.7223  -6.6622  -6.6366  -6.5678
    -6.5448  -6.5044  -6.4741  -6.4255  -6.3757  -6.3296  -6.2825  -6.2352
    -6.1918  -6.1203  -6.0980  -6.0738  -6.0406  -5.8784  -5.8624  -5.8510
    -5.8112  -5.7781  -5.7201  -5.6322  -5.5806  -5.5714  -5.5625  -5.5474
    -5.5291  -5.5180  -5.5085  -5.4907  -5.3546  -5.3354  -4.8173  -4.5866
    -4.4987  -4.3362  -4.1292  -3.3820  -2.9922  -2.7567  -1.8167  -1.3991
    -1.0931  -0.7205  -0.4074  -0.1932   0.1760   0.3427   0.4499   1.0656
     1.8025

     occupation numbers 
     1.0000   1.0000   1.0000   1.0000   1.0000   1.0000   1.0000   1.0000
     1.0000   1.0000   1.0000   1.0000   1.0000   1.0000   1.0000   1.0000
     1.0000   1.0000   1.0000   1.0000   1.0000   1.0000   1.0000   1.0000
     1.0000   1.0000   1.0000   1.0000   1.0000   1.0000   1.0000   1.0000
     1.0000   1.0000   1.0000   1.0000   1.0000   1.0000   1.0000   1.0000
     1.0000   1.0000   1.0000   1.0000   1.0000   1.0000   1.0000   1.0000
     1.0000   1.0000   1.0000   1.0000   1.0000   1.0000   1.0000   1.0000
     1.0000   1.0000   1.0000   1.0000   1.0000   1.0000   1.0000   1.0000
     1.0000   1.0000   1.0000   1.0000   1.0000   1.0000   1.0000   1.0000
     1.0000   1.0000   1.0000   1.0000   1.0000   1.0000   1.0000   1.0000
     1.0000   1.0000   1.0000   1.0000   1.0000   1.0000   1.0000   1.0000
     1.0000   1.0000   1.0000   1.0000   1.0000   1.0000   1.0000   1.0000
     1.0000   1.0000   1.0000   1.0000   1.0000   1.0000   1.0000   1.0000
     1.0000   1.0000   1.0000   1.0000   1.0000   1.0019   1.0027   1.0033
     1.0071   1.0125   1.0288   1.0675   1.0829   1.0833   1.0827   1.0792
     1.0698   1.0612   1.0517   1.0288   0.6399   0.5677   0.0000   0.0000
     0.0000   0.0000   0.0000   0.0000   0.0000   0.0000   0.0000   0.0000
     0.0000   0.0000   0.0000   0.0000   0.0000   0.0000   0.0000   0.0000
     0.0000

          k = 0.1875-0.4691 0.0000 ( 44502 PWs)   bands (ev):

   -11.5144 -11.1623 -10.6284 -10.5526 -10.3026 -10.2988 -10.2849 -10.2466
   -10.1988 -10.0912 -10.0694 -10.0440 -10.0084  -9.9799  -9.9111  -9.8931
    -9.8725  -9.8076  -9.7428  -9.7365  -9.7189  -9.7139  -9.6822  -9.5499
    -9.5481  -9.5251  -9.4699  -9.3682  -9.3431  -9.2955  -9.2609  -9.2291
    -9.1975  -9.1822  -9.1548  -9.1243  -9.0720  -8.9947  -8.9725  -8.9581
    -8.9146  -8.8030  -8.7672  -8.7341  -8.6903  -8.6026  -8.5726  -8.4612
    -8.4513  -8.4323  -8.3951  -8.3627  -8.3298  -8.2740  -8.2421  -8.1709
    -8.1514  -8.1021  -8.0597  -8.0416  -8.0180  -8.0072  -7.9624  -7.8819
    -7.8693  -7.8446  -7.8194  -7.7589  -7.7331  -7.6914  -7.6007  -7.5770
    -7.5284  -7.5082  -7.4397  -7.4244  -7.3845  -7.3121  -7.2946  -7.2857
    -7.2492  -7.1892  -7.0997  -7.0691  -7.0191  -7.0127  -7.0019  -6.9611
    -6.9348  -6.9149  -6.7724  -6.7515  -6.7276  -6.7027  -6.6330  -6.5583
    -6.5336  -6.4656  -6.4428  -6.4104  -6.3527  -6.2719  -6.2402  -6.2038
    -6.1979  -6.1487  -6.0361  -6.0064  -5.8658  -5.8511  -5.8246  -5.7865
    -5.7179  -5.6364  -5.6160  -5.6022  -5.5814  -5.5650  -5.5503  -5.5122
    -5.4894  -5.4637  -5.4513  -5.3519  -5.3345  -5.2595  -4.9327  -4.6408
    -4.5518  -4.2789  -3.9647  -3.5773  -3.0850  -2.4974  -2.0241  -1.4807
    -0.9573  -0.7375  -0.5799  -0.3673   0.0715   0.3225   0.6809   0.9780
     1.2841

     occupation numbers 
     1.0000   1.0000   1.0000   1.0000   1.0000   1.0000   1.0000   1.0000
     1.0000   1.0000   1.0000   1.0000   1.0000   1.0000   1.0000   1.0000
     1.0000   1.0000   1.0000   1.0000   1.0000   1.0000   1.0000   1.0000
     1.0000   1.0000   1.0000   1.0000   1.0000   1.0000   1.0000   1.0000
     1.0000   1.0000   1.0000   1.0000   1.0000   1.0000   1.0000   1.0000
     1.0000   1.0000   1.0000   1.0000   1.0000   1.0000   1.0000   1.0000
     1.0000   1.0000   1.0000   1.0000   1.0000   1.0000   1.0000   1.0000
     1.0000   1.0000   1.0000   1.0000   1.0000   1.0000   1.0000   1.0000
     1.0000   1.0000   1.0000   1.0000   1.0000   1.0000   1.0000   1.0000
     1.0000   1.0000   1.0000   1.0000   1.0000   1.0000   1.0000   1.0000
     1.0000   1.0000   1.0000   1.0000   1.0000   1.0000   1.0000   1.0000
     1.0000   1.0000   1.0000   1.0000   1.0000   1.0000   1.0000   1.0000
     1.0000   1.0000   1.0000   1.0000   1.0000   1.0000   1.0000   1.0000
     1.0000   1.0000   1.0000   1.0001   1.0025   1.0033   1.0056   1.0109
     1.0296   1.0657   1.0741   1.0786   1.0828   1.0830   1.0801   1.0556
     1.0268   0.9803   0.9524   0.6300   0.5645   0.3045   0.0010   0.0000
     0.0000   0.0000   0.0000   0.0000   0.0000   0.0000   0.0000   0.0000
     0.0000   0.0000   0.0000   0.0000   0.0000   0.0000   0.0000   0.0000
     0.0000

          k = 0.1875-0.3969 0.0000 ( 44536 PWs)   bands (ev):

   -11.6302 -11.4009 -10.8234 -10.5314 -10.4316 -10.4180 -10.4027 -10.3773
   -10.2576 -10.2186 -10.2096 -10.1621 -10.1294 -10.1169 -10.0301 -10.0089
    -9.9755  -9.9696  -9.9346  -9.8382  -9.8040  -9.7978  -9.7579  -9.6890
    -9.6669  -9.6321  -9.5679  -9.4768  -9.3990  -9.3423  -9.2564  -9.2471
    -9.2071  -9.1638  -9.1230  -9.1002  -9.0704  -9.0318  -8.9999  -8.9002
    -8.8552  -8.7731  -8.6409  -8.5692  -8.5628  -8.5380  -8.4853  -8.4335
    -8.4007  -8.3745  -8.3469  -8.2822  -8.2368  -8.1857  -8.0875  -8.0802
    -8.0733  -8.0339  -8.0105  -7.9993  -7.9809  -7.9546  -7.9239  -7.9005
    -7.8888  -7.8698  -7.8048  -7.6343  -7.6224  -7.5888  -7.5385  -7.5046
    -7.4241  -7.4141  -7.3907  -7.3812  -7.2464  -7.2403  -7.1891  -7.1570
    -7.1410  -7.1043  -7.1009  -7.0797  -7.0508  -7.0338  -6.9259  -6.9106
    -6.8912  -6.8023  -6.7314  -6.7085  -6.6530  -6.6301  -6.5900  -6.4706
    -6.4436  -6.4159  -6.4032  -6.3755  -6.2554  -6.2470  -6.1964  -6.1271
    -6.0547  -6.0399  -5.9379  -5.9194  -5.8335  -5.8005  -5.7715  -5.6811
    -5.6590  -5.6472  -5.6290  -5.6062  -5.5596  -5.5471  -5.5081  -5.4173
    -5.4006  -5.3409  -5.3288  -5.2354  -5.1621  -5.0562  -4.8135  -4.7049
    -4.5661  -4.3096  -3.9329  -3.5674  -3.1256  -2.5682  -1.9729  -1.5052
    -1.2977  -0.9033  -0.6383  -0.3433  -0.0519   0.2460   0.3716   0.7248
     1.1814

     occupation numbers 
     1.0000   1.0000   1.0000   1.0000   1.0000   1.0000   1.0000   1.0000
     1.0000   1.0000   1.0000   1.0000   1.0000   1.0000   1.0000   1.0000
     1.0000   1.0000   1.0000   1.0000   1.0000   1.0000   1.0000   1.0000
     1.0000   1.0000   1.0000   1.0000   1.0000   1.0000   1.0000   1.0000
     1.0000   1.0000   1.0000   1.0000   1.0000   1.0000   1.0000   1.0000
     1.0000   1.0000   1.0000   1.0000   1.0000   1.0000   1.0000   1.0000
     1.0000   1.0000   1.0000   1.0000   1.0000   1.0000   1.0000   1.0000
     1.0000   1.0000   1.0000   1.0000   1.0000   1.0000   1.0000   1.0000
     1.0000   1.0000   1.0000   1.0000   1.0000   1.0000   1.0000   1.0000
     1.0000   1.0000   1.0000   1.0000   1.0000   1.0000   1.0000   1.0000
     1.0000   1.0000   1.0000   1.0000   1.0000   1.0000   1.0000   1.0000
     1.0000   1.0000   1.0000   1.0000   1.0000   1.0000   1.0000   1.0000
     1.0000   1.0000   1.0000   1.0000   1.0000   1.0000   1.0000   1.0000
     1.0000   1.0000   1.0005   1.0007   1.0047   1.0086   1.0139   1.0449
     1.0552   1.0607   1.0689   1.0774   1.0823   1.0790   1.0513   0.8592
     0.8055   0.5886   0.5429   0.2370   0.0944   0.0160   0.0000   0.0000
     0.0000   0.0000   0.0000   0.0000   0.0000   0.0000   0.0000   0.0000
     0.0000   0.0000   0.0000   0.0000   0.0000   0.0000   0.0000   0.0000
     0.0000

          k = 0.1875-0.3248 0.0000 ( 44577 PWs)   bands (ev):

   -11.8220 -11.5687 -11.0180 -10.5623 -10.5583 -10.5404 -10.5357 -10.5327
   -10.3898 -10.3578 -10.3544 -10.3447 -10.2714 -10.1957 -10.1908 -10.1624
   -10.1091 -10.0944 -10.0628  -9.9810  -9.9022  -9.8968  -9.8498  -9.8242
    -9.8032  -9.7831  -9.6691  -9.6049  -9.5782  -9.4043  -9.3020  -9.2906
    -9.2518  -9.2035  -9.0946  -9.0625  -9.0066  -8.9722  -8.8958  -8.8754
    -8.7659  -8.6882  -8.5723  -8.4847  -8.4474  -8.4233  -8.3924  -8.3756
    -8.3417  -8.2854  -8.2657  -8.2451  -8.1892  -8.1228  -8.0859  -8.0533
    -8.0460  -8.0365  -7.9867  -7.9765  -7.9663  -7.9348  -7.8279  -7.8037
    -7.7327  -7.7237  -7.7082  -7.6694  -7.6458  -7.6092  -7.5711  -7.4884
    -7.4625  -7.3674  -7.3115  -7.2950  -7.2398  -7.1810  -7.0444  -7.0279
    -7.0182  -6.9973  -6.9730  -6.9024  -6.8579  -6.8278  -6.8022  -6.7839
    -6.7467  -6.7297  -6.5840  -6.5534  -6.5327  -6.4939  -6.4711  -6.3390
    -6.3257  -6.2891  -6.2597  -6.2254  -6.2128  -6.1284  -6.0722  -6.0443
    -6.0084  -5.9326  -5.9201  -5.8161  -5.7633  -5.7398  -5.6915  -5.6902
    -5.6397  -5.5916  -5.5736  -5.5438  -5.5263  -5.5104  -5.5069  -5.3750
    -5.3533  -5.3200  -5.3040  -5.2915  -4.8635  -4.8032  -4.6509  -4.5466
    -4.4331  -4.1802  -4.1539  -3.3822  -3.0199  -2.8441  -1.9772  -1.5884
    -1.3788  -1.2986  -0.9114  -0.5641  -0.2092   0.1454   0.3506   0.4362
     0.5842

     occupation numbers 
     1.0000   1.0000   1.0000   1.0000   1.0000   1.0000   1.0000   1.0000
     1.0000   1.0000   1.0000   1.0000   1.0000   1.0000   1.0000   1.0000
     1.0000   1.0000   1.0000   1.0000   1.0000   1.0000   1.0000   1.0000
     1.0000   1.0000   1.0000   1.0000   1.0000   1.0000   1.0000   1.0000
     1.0000   1.0000   1.0000   1.0000   1.0000   1.0000   1.0000   1.0000
     1.0000   1.0000   1.0000   1.0000   1.0000   1.0000   1.0000   1.0000
     1.0000   1.0000   1.0000   1.0000   1.0000   1.0000   1.0000   1.0000
     1.0000   1.0000   1.0000   1.0000   1.0000   1.0000   1.0000   1.0000
     1.0000   1.0000   1.0000   1.0000   1.0000   1.0000   1.0000   1.0000
     1.0000   1.0000   1.0000   1.0000   1.0000   1.0000   1.0000   1.0000
     1.0000   1.0000   1.0000   1.0000   1.0000   1.0000   1.0000   1.0000
     1.0000   1.0000   1.0000   1.0000   1.0000   1.0000   1.0000   1.0000
     1.0000   1.0000   1.0000   1.0000   1.0000   1.0000   1.0000   1.0000
     1.0001   1.0005   1.0007   1.0065   1.0158   1.0222   1.0403   1.0409
     1.0642   1.0812   1.0833   1.0778   1.0679   1.0537   1.0499   0.7156
     0.6353   0.5103   0.4518   0.4078   0.0002   0.0000   0.0000   0.0000
     0.0000   0.0000   0.0000   0.0000   0.0000   0.0000   0.0000   0.0000
     0.0000   0.0000   0.0000   0.0000   0.0000   0.0000   0.0000   0.0000
     0.0000

          k = 0.1875-0.2526 0.0000 ( 44582 PWs)   bands (ev):

   -12.0266 -11.6980 -11.1851 -10.6813 -10.6704 -10.6544 -10.6483 -10.6027
   -10.5592 -10.5157 -10.4628 -10.4462 -10.4246 -10.3424 -10.3392 -10.2749
   -10.2292 -10.1833 -10.1558 -10.1335 -10.0030  -9.9884  -9.9801  -9.9515
    -9.9398  -9.9003  -9.7660  -9.7439  -9.7144  -9.5110  -9.4440  -9.3436
    -9.3174  -9.1744  -9.0257  -8.9595  -8.9234  -8.8943  -8.8780  -8.7595
    -8.7082  -8.5701  -8.5529  -8.4901  -8.4125  -8.3437  -8.3380  -8.3254
    -8.3049  -8.2232  -8.2128  -8.1730  -8.1368  -8.1148  -8.0993  -8.0687
    -8.0536  -8.0385  -7.9941  -7.9643  -7.9348  -7.9012  -7.8604  -7.8283
    -7.7903  -7.6900  -7.6424  -7.5640  -7.5474  -7.5272  -7.4647  -7.4433
    -7.4320  -7.4088  -7.3354  -7.1299  -7.0919  -7.0377  -7.0061  -6.9822
    -6.9567  -6.8916  -6.7896  -6.7549  -6.6762  -6.6444  -6.5799  -6.5452
    -6.5109  -6.4797  -6.4606  -6.4325  -6.4237  -6.4011  -6.3040  -6.2526
    -6.1097  -6.0866  -6.0622  -6.0502  -6.0420  -6.0042  -5.9692  -5.9239
    -5.8892  -5.8514  -5.8007  -5.7706  -5.7276  -5.7085  -5.6965  -5.5846
    -5.5748  -5.5703  -5.5350  -5.5250  -5.5013  -5.4884  -5.4753  -5.3778
    -5.3431  -5.2946  -5.2378  -5.2219  -4.9870  -4.7271  -4.5323  -4.3230
    -4.2960  -3.9635  -3.6560  -3.4401  -3.0745  -2.6181  -2.3392  -1.9395
    -1.6274  -1.3634  -1.1142  -0.9135  -0.5607  -0.1434   0.1488   0.3919
     0.6639

     occupation numbers 
     1.0000   1.0000   1.0000   1.0000   1.0000   1.0000   1.0000   1.0000
     1.0000   1.0000   1.0000   1.0000   1.0000   1.0000   1.0000   1.0000
     1.0000   1.0000   1.0000   1.0000   1.0000   1.0000   1.0000   1.0000
     1.0000   1.0000   1.0000   1.0000   1.0000   1.0000   1.0000   1.0000
     1.0000   1.0000   1.0000   1.0000   1.0000   1.0000   1.0000   1.0000
     1.0000   1.0000   1.0000   1.0000   1.0000   1.0000   1.0000   1.0000
     1.0000   1.0000   1.0000   1.0000   1.0000   1.0000   1.0000   1.0000
     1.0000   1.0000   1.0000   1.0000   1.0000   1.0000   1.0000   1.0000
     1.0000   1.0000   1.0000   1.0000   1.0000   1.0000   1.0000   1.0000
     1.0000   1.0000   1.0000   1.0000   1.0000   1.0000   1.0000   1.0000
     1.0000   1.0000   1.0000   1.0000   1.0000   1.0000   1.0000   1.0000
     1.0000   1.0000   1.0000   1.0000   1.0000   1.0000   1.0000   1.0000
     1.0000   1.0000   1.0000   1.0000   1.0000   1.0001   1.0002   1.0007
     1.0015   1.0033   1.0086   1.0141   1.0262   1.0332   1.0381   1.0824
     1.0833   1.0833   1.0735   1.0669   1.0432   1.0253   1.0032   0.7260
     0.5966   0.4188   0.2434   0.2039   0.0038   0.0000   0.0000   0.0000
     0.0000   0.0000   0.0000   0.0000   0.0000   0.0000   0.0000   0.0000
     0.0000   0.0000   0.0000   0.0000   0.0000   0.0000   0.0000   0.0000
     0.0000

          k = 0.1875-0.1804 0.0000 ( 44582 PWs)   bands (ev):

   -12.1965 -11.8077 -11.3133 -10.7912 -10.7516 -10.7478 -10.7424 -10.7075
   -10.6527 -10.6301 -10.5609 -10.5447 -10.5195 -10.4779 -10.4477 -10.3511
   -10.3185 -10.3041 -10.2733 -10.2011 -10.1274 -10.0831 -10.0612 -10.0541
   -10.0309  -9.9906  -9.8765  -9.8396  -9.8130  -9.6683  -9.5021  -9.3888
    -9.3645  -9.1583  -8.9686  -8.9110  -8.8637  -8.8172  -8.7787  -8.6830
    -8.6543  -8.6254  -8.4741  -8.4134  -8.4072  -8.3773  -8.3308  -8.3121
    -8.2822  -8.2344  -8.2316  -8.1859  -8.1516  -8.1352  -8.1020  -8.0561
    -8.0402  -7.9856  -7.9543  -7.9463  -7.9174  -7.9015  -7.8497  -7.8052
    -7.7618  -7.6998  -7.6544  -7.6270  -7.6043  -7.5816  -7.4236  -7.2618
    -7.2413  -7.1956  -7.1192  -7.0679  -7.0000  -6.9725  -6.9632  -6.9428
    -6.8736  -6.7952  -6.6625  -6.6147  -6.5631  -6.4667  -6.4163  -6.4062
    -6.3892  -6.3629  -6.3410  -6.2981  -6.2551  -6.2302  -6.1642  -6.0590
    -5.9923  -5.9676  -5.9468  -5.8767  -5.8338  -5.8094  -5.7949  -5.7902
    -5.7723  -5.7510  -5.7189  -5.7141  -5.6641  -5.6186  -5.5989  -5.5882
    -5.5158  -5.5018  -5.4921  -5.4838  -5.4790  -5.4445  -5.4357  -5.3114
    -5.3102  -5.2576  -5.1776  -5.1593  -5.1159  -4.8808  -4.5589  -4.2871
    -3.8063  -3.7333  -3.3141  -3.1515  -2.9115  -2.7684  -2.5915  -2.1716
    -2.0085  -1.6643  -1.3965  -1.1011  -0.7348  -0.4169   0.0751   0.4086
     0.6795

     occupation numbers 
     1.0000   1.0000   1.0000   1.0000   1.0000   1.0000   1.0000   1.0000
     1.0000   1.0000   1.0000   1.0000   1.0000   1.0000   1.0000   1.0000
     1.0000   1.0000   1.0000   1.0000   1.0000   1.0000   1.0000   1.0000
     1.0000   1.0000   1.0000   1.0000   1.0000   1.0000   1.0000   1.0000
     1.0000   1.0000   1.0000   1.0000   1.0000   1.0000   1.0000   1.0000
     1.0000   1.0000   1.0000   1.0000   1.0000   1.0000   1.0000   1.0000
     1.0000   1.0000   1.0000   1.0000   1.0000   1.0000   1.0000   1.0000
     1.0000   1.0000   1.0000   1.0000   1.0000   1.0000   1.0000   1.0000
     1.0000   1.0000   1.0000   1.0000   1.0000   1.0000   1.0000   1.0000
     1.0000   1.0000   1.0000   1.0000   1.0000   1.0000   1.0000   1.0000
     1.0000   1.0000   1.0000   1.0000   1.0000   1.0000   1.0000   1.0000
     1.0000   1.0000   1.0000   1.0000   1.0000   1.0000   1.0000   1.0000
     1.0001   1.0002   1.0004   1.0020   1.0047   1.0074   1.0095   1.0103
     1.0137   1.0190   1.0293   1.0311   1.0528   1.0731   1.0795   1.0819
     1.0591   1.0439   1.0308   1.0180   1.0099   0.9358   0.9126   0.4787
     0.4741   0.2989   0.1171   0.0907   0.0465   0.0003   0.0000   0.0000
     0.0000   0.0000   0.0000   0.0000   0.0000   0.0000   0.0000   0.0000
     0.0000   0.0000   0.0000   0.0000   0.0000   0.0000   0.0000   0.0000
     0.0000

          k = 0.2500-0.1443 0.0000 ( 44592 PWs)   bands (ev):

   -12.1037 -11.7127 -11.2335 -10.7569 -10.7463 -10.6939 -10.6913 -10.6415
   -10.5833 -10.5396 -10.5327 -10.5082 -10.4437 -10.4405 -10.4262 -10.3114
   -10.2646 -10.2576 -10.2055 -10.1028 -10.0892 -10.0400 -10.0262 -10.0145
    -9.9829  -9.9337  -9.8498  -9.8124  -9.7266  -9.6296  -9.4574  -9.3712
    -9.3392  -9.1570  -9.0074  -8.9487  -8.9188  -8.7970  -8.7723  -8.7551
    -8.7059  -8.6633  -8.5153  -8.4614  -8.3957  -8.3553  -8.3355  -8.3006
    -8.2740  -8.2202  -8.2156  -8.1596  -8.1401  -8.1111  -8.0952  -8.0903
    -8.0703  -7.9979  -7.9579  -7.9322  -7.9048  -7.8860  -7.8740  -7.8511
    -7.8017  -7.7226  -7.6320  -7.6141  -7.6002  -7.5622  -7.4787  -7.3660
    -7.3518  -7.2772  -7.1863  -7.1082  -7.0510  -7.0160  -6.9947  -6.9816
    -6.9535  -6.8789  -6.6890  -6.6394  -6.5709  -6.5601  -6.5282  -6.4863
    -6.4488  -6.4178  -6.3818  -6.3674  -6.3451  -6.3188  -6.2802  -6.0506
    -6.0204  -6.0090  -5.9932  -5.9155  -5.9069  -5.8841  -5.8788  -5.8752
    -5.8573  -5.8397  -5.8162  -5.7465  -5.7365  -5.6813  -5.6171  -5.6049
    -5.5915  -5.5251  -5.5109  -5.4985  -5.4631  -5.4583  -5.4422  -5.4058
    -5.2983  -5.2950  -5.2752  -5.1510  -5.1370  -5.0250  -4.7982  -4.6069
    -3.7022  -3.2892  -3.1000  -3.0896  -2.7224  -2.6341  -2.5353  -2.2657
    -2.1866  -1.7286  -1.4450  -1.3971  -0.4658  -0.2479   0.2515   0.6930
     0.7972

     occupation numbers 
     1.0000   1.0000   1.0000   1.0000   1.0000   1.0000   1.0000   1.0000
     1.0000   1.0000   1.0000   1.0000   1.0000   1.0000   1.0000   1.0000
     1.0000   1.0000   1.0000   1.0000   1.0000   1.0000   1.0000   1.0000
     1.0000   1.0000   1.0000   1.0000   1.0000   1.0000   1.0000   1.0000
     1.0000   1.0000   1.0000   1.0000   1.0000   1.0000   1.0000   1.0000
     1.0000   1.0000   1.0000   1.0000   1.0000   1.0000   1.0000   1.0000
     1.0000   1.0000   1.0000   1.0000   1.0000   1.0000   1.0000   1.0000
     1.0000   1.0000   1.0000   1.0000   1.0000   1.0000   1.0000   1.0000
     1.0000   1.0000   1.0000   1.0000   1.0000   1.0000   1.0000   1.0000
     1.0000   1.0000   1.0000   1.0000   1.0000   1.0000   1.0000   1.0000
     1.0000   1.0000   1.0000   1.0000   1.0000   1.0000   1.0000   1.0000
     1.0000   1.0000   1.0000   1.0000   1.0000   1.0000   1.0000   1.0000
     1.0001   1.0001   1.0001   1.0008   1.0010   1.0017   1.0019   1.0020
     1.0029   1.0042   1.0065   1.0202   1.0232   1.0448   1.0736   1.0778
     1.0813   1.0670   1.0543   1.0397   0.9791   0.9686   0.9299   0.8227
     0.4316   0.4199   0.3535   0.0802   0.0649   0.0086   0.0000   0.0000
     0.0000   0.0000   0.0000   0.0000   0.0000   0.0000   0.0000   0.0000
     0.0000   0.0000   0.0000   0.0000   0.0000   0.0000   0.0000   0.0000
     0.0000

          k = 0.2500-0.0722 0.0000 ( 44582 PWs)   bands (ev):

   -12.1905 -11.7719 -11.2942 -10.7912 -10.7517 -10.7477 -10.7419 -10.7043
   -10.6504 -10.6393 -10.5560 -10.5441 -10.5192 -10.4768 -10.4480 -10.3600
   -10.3170 -10.3007 -10.2716 -10.2033 -10.1249 -10.0836 -10.0586 -10.0539
   -10.0156  -9.9777  -9.9215  -9.8536  -9.7616  -9.7393  -9.4806  -9.3892
    -9.3650  -9.1472  -8.9990  -8.9010  -8.8636  -8.8187  -8.7814  -8.7328
    -8.6589  -8.5954  -8.4751  -8.4184  -8.4068  -8.3717  -8.3547  -8.3045
    -8.2899  -8.2381  -8.2242  -8.1860  -8.1514  -8.1176  -8.0922  -8.0673
    -8.0334  -7.9865  -7.9693  -7.9452  -7.9214  -7.8981  -7.8629  -7.8238
    -7.7748  -7.7404  -7.6640  -7.6309  -7.6061  -7.5660  -7.4293  -7.2561
    -7.2439  -7.1915  -7.1327  -7.0617  -7.0032  -6.9711  -6.9598  -6.9438
    -6.9137  -6.7826  -6.6636  -6.6058  -6.5605  -6.4607  -6.4255  -6.3998
    -6.3829  -6.3603  -6.3422  -6.2975  -6.2515  -6.2343  -6.1658  -6.0462
    -5.9783  -5.9585  -5.9446  -5.8909  -5.8342  -5.8142  -5.7990  -5.7918
    -5.7633  -5.7496  -5.7166  -5.7140  -5.6649  -5.6133  -5.5979  -5.5878
    -5.5235  -5.5057  -5.4935  -5.4801  -5.4769  -5.4440  -5.4337  -5.3150
    -5.3057  -5.2599  -5.1765  -5.1589  -5.0932  -4.8704  -4.5453  -4.2745
    -3.8591  -3.6899  -3.3285  -3.1384  -2.9163  -2.7296  -2.5859  -2.1457
    -2.0117  -1.5514  -1.4266  -1.0285  -0.7781  -0.3584   0.0977   0.3293
     0.6800

     occupation numbers 
     1.0000   1.0000   1.0000   1.0000   1.0000   1.0000   1.0000   1.0000
     1.0000   1.0000   1.0000   1.0000   1.0000   1.0000   1.0000   1.0000
     1.0000   1.0000   1.0000   1.0000   1.0000   1.0000   1.0000   1.0000
     1.0000   1.0000   1.0000   1.0000   1.0000   1.0000   1.0000   1.0000
     1.0000   1.0000   1.0000   1.0000   1.0000   1.0000   1.0000   1.0000
     1.0000   1.0000   1.0000   1.0000   1.0000   1.0000   1.0000   1.0000
     1.0000   1.0000   1.0000   1.0000   1.0000   1.0000   1.0000   1.0000
     1.0000   1.0000   1.0000   1.0000   1.0000   1.0000   1.0000   1.0000
     1.0000   1.0000   1.0000   1.0000   1.0000   1.0000   1.0000   1.0000
     1.0000   1.0000   1.0000   1.0000   1.0000   1.0000   1.0000   1.0000
     1.0000   1.0000   1.0000   1.0000   1.0000   1.0000   1.0000   1.0000
     1.0000   1.0000   1.0000   1.0000   1.0000   1.0000   1.0000   1.0000
     1.0002   1.0003   1.0004   1.0014   1.0047   1.0068   1.0088   1.0100
     1.0158   1.0194   1.0301   1.0311   1.0524   1.0751   1.0798   1.0820
     1.0657   1.0485   1.0328   1.0117   1.0062   0.9345   0.9072   0.4919
     0.4580   0.3057   0.1153   0.0901   0.0316   0.0002   0.0000   0.0000
     0.0000   0.0000   0.0000   0.0000   0.0000   0.0000   0.0000   0.0000
     0.0000   0.0000   0.0000   0.0000   0.0000   0.0000   0.0000   0.0000
     0.0000

          k = 0.2500 0.0000 0.0000 ( 44571 PWs)   bands (ev):

   -12.2198 -11.7925 -11.3145 -10.7885 -10.7854 -10.7593 -10.7305 -10.7109
   -10.7062 -10.6725 -10.5636 -10.5519 -10.5490 -10.4886 -10.4271 -10.4210
   -10.3173 -10.2970 -10.2781 -10.2767 -10.1363 -10.0973 -10.0679 -10.0665
   -10.0129  -9.9973  -9.9608  -9.8450  -9.8050  -9.7633  -9.4877  -9.3944
    -9.3744  -9.1428  -8.9986  -8.8787  -8.8464  -8.8210  -8.7955  -8.7321
    -8.6443  -8.5402  -8.4853  -8.4243  -8.3896  -8.3750  -8.3649  -8.3152
    -8.2991  -8.2460  -8.2255  -8.1923  -8.1687  -8.1122  -8.0820  -8.0543
    -8.0043  -7.9931  -7.9718  -7.9671  -7.9388  -7.9112  -7.8646  -7.8110
    -7.7453  -7.7397  -7.6731  -7.6342  -7.6145  -7.5467  -7.4224  -7.2142
    -7.2051  -7.1881  -7.1077  -7.0260  -7.0105  -6.9581  -6.9451  -6.9192
    -6.8964  -6.7011  -6.6743  -6.6206  -6.5692  -6.4499  -6.3847  -6.3547
    -6.3502  -6.3416  -6.3291  -6.2619  -6.2146  -6.1975  -6.1291  -6.0345
    -5.9971  -5.9627  -5.9295  -5.9241  -5.8127  -5.7870  -5.7711  -5.7397
    -5.6873  -5.6808  -5.6781  -5.6548  -5.6379  -5.6160  -5.5972  -5.5832
    -5.5710  -5.5301  -5.4877  -5.4837  -5.4748  -5.4665  -5.3681  -5.3532
    -5.3178  -5.2228  -5.2195  -5.1922  -4.9370  -4.5121  -4.4424  -4.1342
    -3.9314  -3.8019  -3.5643  -3.5454  -2.9294  -2.6897  -2.5522  -2.3559
    -1.7021  -1.2973  -1.1234  -0.9979  -0.7484  -0.5281  -0.4605   0.3165
     0.6637

     occupation numbers 
     1.0000   1.0000   1.0000   1.0000   1.0000   1.0000   1.0000   1.0000
     1.0000   1.0000   1.0000   1.0000   1.0000   1.0000   1.0000   1.0000
     1.0000   1.0000   1.0000   1.0000   1.0000   1.0000   1.0000   1.0000
     1.0000   1.0000   1.0000   1.0000   1.0000   1.0000   1.0000   1.0000
     1.0000   1.0000   1.0000   1.0000   1.0000   1.0000   1.0000   1.0000
     1.0000   1.0000   1.0000   1.0000   1.0000   1.0000   1.0000   1.0000
     1.0000   1.0000   1.0000   1.0000   1.0000   1.0000   1.0000   1.0000
     1.0000   1.0000   1.0000   1.0000   1.0000   1.0000   1.0000   1.0000
     1.0000   1.0000   1.0000   1.0000   1.0000   1.0000   1.0000   1.0000
     1.0000   1.0000   1.0000   1.0000   1.0000   1.0000   1.0000   1.0000
     1.0000   1.0000   1.0000   1.0000   1.0000   1.0000   1.0000   1.0000
     1.0000   1.0000   1.0000   1.0000   1.0000   1.0000   1.0000   1.0000
     1.0001   1.0003   1.0006   1.0007   1.0069   1.0108   1.0140   1.0223
     1.0422   1.0451   1.0463   1.0572   1.0650   1.0741   1.0800   1.0826
     1.0833   1.0705   1.0242   1.0178   1.0023   0.9861   0.6903   0.6349
     0.5023   0.2059   0.1982   0.1419   0.0011   0.0000   0.0000   0.0000
     0.0000   0.0000   0.0000   0.0000   0.0000   0.0000   0.0000   0.0000
     0.0000   0.0000   0.0000   0.0000   0.0000   0.0000   0.0000   0.0000
     0.0000

          k = 0.2500 0.0722 0.0000 ( 44582 PWs)   bands (ev):

   -12.1905 -11.7719 -11.2942 -10.7912 -10.7517 -10.7477 -10.7419 -10.7043
   -10.6504 -10.6393 -10.5560 -10.5441 -10.5192 -10.4768 -10.4480 -10.3600
   -10.3170 -10.3007 -10.2716 -10.2033 -10.1249 -10.0836 -10.0586 -10.0539
   -10.0156  -9.9777  -9.9215  -9.8536  -9.7616  -9.7393  -9.4806  -9.3892
    -9.3650  -9.1472  -8.9990  -8.9010  -8.8636  -8.8187  -8.7814  -8.7328
    -8.6589  -8.5954  -8.4751  -8.4184  -8.4068  -8.3717  -8.3547  -8.3045
    -8.2899  -8.2381  -8.2242  -8.1860  -8.1514  -8.1176  -8.0922  -8.0673
    -8.0334  -7.9865  -7.9693  -7.9452  -7.9214  -7.8981  -7.8629  -7.8238
    -7.7748  -7.7404  -7.6640  -7.6309  -7.6061  -7.5660  -7.4293  -7.2561
    -7.2439  -7.1915  -7.1327  -7.0617  -7.0032  -6.9711  -6.9598  -6.9438
    -6.9137  -6.7826  -6.6636  -6.6058  -6.5605  -6.4607  -6.4255  -6.3998
    -6.3829  -6.3603  -6.3422  -6.2975  -6.2515  -6.2343  -6.1658  -6.0462
    -5.9783  -5.9585  -5.9446  -5.8909  -5.8342  -5.8142  -5.7990  -5.7918
    -5.7633  -5.7496  -5.7166  -5.7140  -5.6649  -5.6133  -5.5979  -5.5878
    -5.5235  -5.5057  -5.4935  -5.4801  -5.4769  -5.4440  -5.4337  -5.3150
    -5.3057  -5.2599  -5.1765  -5.1589  -5.0932  -4.8704  -4.5453  -4.2745
    -3.8591  -3.6899  -3.3285  -3.1384  -2.9163  -2.7296  -2.5859  -2.1457
    -2.0117  -1.5514  -1.4266  -1.0285  -0.7781  -0.3584   0.0977   0.3293
     0.6800

     occupation numbers 
     1.0000   1.0000   1.0000   1.0000   1.0000   1.0000   1.0000   1.0000
     1.0000   1.0000   1.0000   1.0000   1.0000   1.0000   1.0000   1.0000
     1.0000   1.0000   1.0000   1.0000   1.0000   1.0000   1.0000   1.0000
     1.0000   1.0000   1.0000   1.0000   1.0000   1.0000   1.0000   1.0000
     1.0000   1.0000   1.0000   1.0000   1.0000   1.0000   1.0000   1.0000
     1.0000   1.0000   1.0000   1.0000   1.0000   1.0000   1.0000   1.0000
     1.0000   1.0000   1.0000   1.0000   1.0000   1.0000   1.0000   1.0000
     1.0000   1.0000   1.0000   1.0000   1.0000   1.0000   1.0000   1.0000
     1.0000   1.0000   1.0000   1.0000   1.0000   1.0000   1.0000   1.0000
     1.0000   1.0000   1.0000   1.0000   1.0000   1.0000   1.0000   1.0000
     1.0000   1.0000   1.0000   1.0000   1.0000   1.0000   1.0000   1.0000
     1.0000   1.0000   1.0000   1.0000   1.0000   1.0000   1.0000   1.0000
     1.0002   1.0003   1.0004   1.0014   1.0047   1.0068   1.0088   1.0100
     1.0158   1.0194   1.0301   1.0311   1.0524   1.0751   1.0798   1.0820
     1.0657   1.0485   1.0328   1.0117   1.0062   0.9345   0.9072   0.4919
     0.4580   0.3057   0.1153   0.0901   0.0316   0.0002   0.0000   0.0000
     0.0000   0.0000   0.0000   0.0000   0.0000   0.0000   0.0000   0.0000
     0.0000   0.0000   0.0000   0.0000   0.0000   0.0000   0.0000   0.0000
     0.0000

          k = 0.2500 0.1443 0.0000 ( 44592 PWs)   bands (ev):

   -12.1037 -11.7127 -11.2335 -10.7569 -10.7463 -10.6939 -10.6913 -10.6415
   -10.5833 -10.5396 -10.5327 -10.5082 -10.4437 -10.4405 -10.4262 -10.3114
   -10.2646 -10.2576 -10.2055 -10.1028 -10.0892 -10.0400 -10.0262 -10.0145
    -9.9829  -9.9337  -9.8498  -9.8124  -9.7266  -9.6296  -9.4574  -9.3712
    -9.3392  -9.1570  -9.0074  -8.9487  -8.9188  -8.7970  -8.7723  -8.7551
    -8.7059  -8.6633  -8.5153  -8.4614  -8.3957  -8.3553  -8.3355  -8.3006
    -8.2740  -8.2202  -8.2156  -8.1596  -8.1401  -8.1111  -8.0952  -8.0903
    -8.0703  -7.9979  -7.9579  -7.9322  -7.9048  -7.8860  -7.8740  -7.8511
    -7.8017  -7.7226  -7.6320  -7.6141  -7.6002  -7.5622  -7.4787  -7.3660
    -7.3518  -7.2772  -7.1863  -7.1082  -7.0510  -7.0160  -6.9947  -6.9816
    -6.9535  -6.8789  -6.6890  -6.6394  -6.5709  -6.5601  -6.5282  -6.4863
    -6.4488  -6.4178  -6.3818  -6.3674  -6.3451  -6.3188  -6.2802  -6.0506
    -6.0204  -6.0090  -5.9932  -5.9155  -5.9069  -5.8841  -5.8788  -5.8752
    -5.8573  -5.8397  -5.8162  -5.7465  -5.7365  -5.6813  -5.6171  -5.6049
    -5.5915  -5.5251  -5.5109  -5.4985  -5.4631  -5.4583  -5.4422  -5.4058
    -5.2983  -5.2950  -5.2752  -5.1510  -5.1370  -5.0250  -4.7982  -4.6069
    -3.7022  -3.2892  -3.1000  -3.0896  -2.7224  -2.6341  -2.5353  -2.2657
    -2.1866  -1.7286  -1.4450  -1.3971  -0.4658  -0.2479   0.2515   0.6930
     0.7972

     occupation numbers 
     1.0000   1.0000   1.0000   1.0000   1.0000   1.0000   1.0000   1.0000
     1.0000   1.0000   1.0000   1.0000   1.0000   1.0000   1.0000   1.0000
     1.0000   1.0000   1.0000   1.0000   1.0000   1.0000   1.0000   1.0000
     1.0000   1.0000   1.0000   1.0000   1.0000   1.0000   1.0000   1.0000
     1.0000   1.0000   1.0000   1.0000   1.0000   1.0000   1.0000   1.0000
     1.0000   1.0000   1.0000   1.0000   1.0000   1.0000   1.0000   1.0000
     1.0000   1.0000   1.0000   1.0000   1.0000   1.0000   1.0000   1.0000
     1.0000   1.0000   1.0000   1.0000   1.0000   1.0000   1.0000   1.0000
     1.0000   1.0000   1.0000   1.0000   1.0000   1.0000   1.0000   1.0000
     1.0000   1.0000   1.0000   1.0000   1.0000   1.0000   1.0000   1.0000
     1.0000   1.0000   1.0000   1.0000   1.0000   1.0000   1.0000   1.0000
     1.0000   1.0000   1.0000   1.0000   1.0000   1.0000   1.0000   1.0000
     1.0001   1.0001   1.0001   1.0008   1.0010   1.0017   1.0019   1.0020
     1.0029   1.0042   1.0065   1.0202   1.0232   1.0448   1.0736   1.0778
     1.0813   1.0670   1.0543   1.0397   0.9791   0.9686   0.9299   0.8227
     0.4316   0.4199   0.3535   0.0802   0.0649   0.0086   0.0000   0.0000
     0.0000   0.0000   0.0000   0.0000   0.0000   0.0000   0.0000   0.0000
     0.0000   0.0000   0.0000   0.0000   0.0000   0.0000   0.0000   0.0000
     0.0000

          k = 0.2500 0.2165 0.0000 ( 44578 PWs)   bands (ev):

   -11.9637 -11.6225 -11.1324 -10.7095 -10.6788 -10.6176 -10.6120 -10.5385
   -10.5001 -10.4725 -10.4457 -10.4130 -10.3842 -10.3609 -10.3188 -10.2614
   -10.1905 -10.1564 -10.1010 -10.0525  -9.9813  -9.9740  -9.9540  -9.9341
    -9.9102  -9.8673  -9.7690  -9.7154  -9.6724  -9.4832  -9.4131  -9.3359
    -9.2995  -9.1702  -9.0460  -9.0241  -8.9403  -8.8692  -8.8464  -8.7830
    -8.7139  -8.6699  -8.5995  -8.5267  -8.4006  -8.3655  -8.3356  -8.3112
    -8.2840  -8.2257  -8.1995  -8.1765  -8.1364  -8.1084  -8.1029  -8.0840
    -8.0557  -8.0302  -7.9927  -7.9588  -7.9410  -7.9011  -7.8444  -7.7984
    -7.7661  -7.7005  -7.6330  -7.6045  -7.5780  -7.5356  -7.5107  -7.5003
    -7.4555  -7.4132  -7.3694  -7.1794  -7.1324  -7.0917  -7.0349  -6.9990
    -6.9873  -6.9412  -6.7955  -6.7578  -6.7340  -6.6972  -6.6353  -6.5829
    -6.5731  -6.5343  -6.4993  -6.4778  -6.4544  -6.3750  -6.3274  -6.2237
    -6.1469  -6.1139  -6.1112  -6.0975  -6.0337  -6.0022  -5.9810  -5.9740
    -5.9451  -5.9306  -5.9212  -5.8178  -5.7958  -5.7734  -5.7015  -5.6729
    -5.6119  -5.5445  -5.5349  -5.4930  -5.4854  -5.4774  -5.4396  -5.4254
    -5.3217  -5.3110  -5.3043  -5.1804  -5.1648  -5.1478  -4.9083  -4.4892
    -3.6938  -3.6364  -3.3089  -3.2039  -2.8784  -2.4325  -2.2892  -2.0141
    -1.9123  -1.7539  -1.5019  -0.9027  -0.5567  -0.0059   0.1920   0.7471
     0.9663

     occupation numbers 
     1.0000   1.0000   1.0000   1.0000   1.0000   1.0000   1.0000   1.0000
     1.0000   1.0000   1.0000   1.0000   1.0000   1.0000   1.0000   1.0000
     1.0000   1.0000   1.0000   1.0000   1.0000   1.0000   1.0000   1.0000
     1.0000   1.0000   1.0000   1.0000   1.0000   1.0000   1.0000   1.0000
     1.0000   1.0000   1.0000   1.0000   1.0000   1.0000   1.0000   1.0000
     1.0000   1.0000   1.0000   1.0000   1.0000   1.0000   1.0000   1.0000
     1.0000   1.0000   1.0000   1.0000   1.0000   1.0000   1.0000   1.0000
     1.0000   1.0000   1.0000   1.0000   1.0000   1.0000   1.0000   1.0000
     1.0000   1.0000   1.0000   1.0000   1.0000   1.0000   1.0000   1.0000
     1.0000   1.0000   1.0000   1.0000   1.0000   1.0000   1.0000   1.0000
     1.0000   1.0000   1.0000   1.0000   1.0000   1.0000   1.0000   1.0000
     1.0000   1.0000   1.0000   1.0000   1.0000   1.0000   1.0000   1.0000
     1.0000   1.0000   1.0000   1.0000   1.0000   1.0001   1.0002   1.0002
     1.0004   1.0006   1.0007   1.0063   1.0093   1.0135   1.0361   1.0487
     1.0756   1.0781   1.0734   1.0321   1.0205   1.0070   0.9229   0.8835
     0.5167   0.4771   0.4529   0.1215   0.0981   0.0766   0.0005   0.0000
     0.0000   0.0000   0.0000   0.0000   0.0000   0.0000   0.0000   0.0000
     0.0000   0.0000   0.0000   0.0000   0.0000   0.0000   0.0000   0.0000
     0.0000

          k = 0.2500 0.2887 0.0000 ( 44558 PWs)   bands (ev):

   -11.7803 -11.5106 -10.9920 -10.6379 -10.5587 -10.5266 -10.5048 -10.4638
   -10.3880 -10.3620 -10.3280 -10.3062 -10.2694 -10.2579 -10.1717 -10.1557
   -10.1041 -10.0494 -10.0090  -9.9652  -9.9013  -9.8805  -9.8447  -9.8173
    -9.7920  -9.7796  -9.6538  -9.6219  -9.5780  -9.3761  -9.2955  -9.2869
    -9.2383  -9.1972  -9.1264  -9.0783  -8.9916  -8.9612  -8.9028  -8.8791
    -8.7558  -8.7085  -8.6085  -8.5819  -8.4547  -8.4343  -8.4042  -8.3412
    -8.3002  -8.2958  -8.2594  -8.2505  -8.1809  -8.1237  -8.0923  -8.0593
    -8.0467  -8.0303  -8.0032  -7.9792  -7.9171  -7.9072  -7.8212  -7.8098
    -7.7947  -7.7298  -7.6826  -7.6670  -7.6464  -7.6143  -7.5754  -7.5110
    -7.4653  -7.3740  -7.3473  -7.3056  -7.2870  -7.1543  -7.0730  -7.0544
    -7.0286  -6.9882  -6.9716  -6.9286  -6.9042  -6.8547  -6.8353  -6.7982
    -6.7667  -6.6640  -6.5997  -6.5674  -6.5460  -6.5227  -6.4156  -6.3819
    -6.3309  -6.3105  -6.2763  -6.2430  -6.2085  -6.1173  -6.0991  -6.0524
    -6.0037  -5.9793  -5.9582  -5.9441  -5.8443  -5.7940  -5.7400  -5.6934
    -5.6039  -5.5782  -5.5575  -5.5475  -5.5374  -5.4899  -5.4010  -5.3694
    -5.3610  -5.3478  -5.3031  -5.2418  -5.2335  -5.1229  -4.8932  -4.2740
    -4.1981  -3.9438  -3.6806  -3.4996  -2.9640  -2.5115  -1.9844  -1.7454
    -1.6338  -1.2963  -1.0521  -0.7775  -0.2707   0.0234   0.3996   0.7147
     0.8886

     occupation numbers 
     1.0000   1.0000   1.0000   1.0000   1.0000   1.0000   1.0000   1.0000
     1.0000   1.0000   1.0000   1.0000   1.0000   1.0000   1.0000   1.0000
     1.0000   1.0000   1.0000   1.0000   1.0000   1.0000   1.0000   1.0000
     1.0000   1.0000   1.0000   1.0000   1.0000   1.0000   1.0000   1.0000
     1.0000   1.0000   1.0000   1.0000   1.0000   1.0000   1.0000   1.0000
     1.0000   1.0000   1.0000   1.0000   1.0000   1.0000   1.0000   1.0000
     1.0000   1.0000   1.0000   1.0000   1.0000   1.0000   1.0000   1.0000
     1.0000   1.0000   1.0000   1.0000   1.0000   1.0000   1.0000   1.0000
     1.0000   1.0000   1.0000   1.0000   1.0000   1.0000   1.0000   1.0000
     1.0000   1.0000   1.0000   1.0000   1.0000   1.0000   1.0000   1.0000
     1.0000   1.0000   1.0000   1.0000   1.0000   1.0000   1.0000   1.0000
     1.0000   1.0000   1.0000   1.0000   1.0000   1.0000   1.0000   1.0000
     1.0000   1.0000   1.0000   1.0000   1.0000   1.0000   1.0000   1.0000
     1.0001   1.0002   1.0003   1.0004   1.0038   1.0096   1.0222   1.0395
     1.0781   1.0831   1.0819   1.0792   1.0748   1.0276   0.8069   0.6953
     0.6640   0.6146   0.4488   0.2540   0.2323   0.0521   0.0004   0.0000
     0.0000   0.0000   0.0000   0.0000   0.0000   0.0000   0.0000   0.0000
     0.0000   0.0000   0.0000   0.0000   0.0000   0.0000   0.0000   0.0000
     0.0000

          k = 0.2500 0.3608 0.0000 ( 44536 PWs)   bands (ev):

   -11.5828 -11.3726 -10.8178 -10.5376 -10.4275 -10.4177 -10.4039 -10.3771
   -10.2576 -10.2185 -10.2040 -10.1630 -10.1335 -10.1168 -10.0405 -10.0225
    -9.9756  -9.9527  -9.9375  -9.8363  -9.8118  -9.7977  -9.7563  -9.6949
    -9.6779  -9.6333  -9.5595  -9.4785  -9.4578  -9.3190  -9.2651  -9.2409
    -9.2047  -9.1690  -9.1190  -9.1069  -9.0738  -9.0375  -8.9989  -8.8932
    -8.8547  -8.7805  -8.6751  -8.5764  -8.5568  -8.5430  -8.4957  -8.4428
    -8.3936  -8.3806  -8.3452  -8.2949  -8.2496  -8.1732  -8.0951  -8.0814
    -8.0710  -8.0295  -8.0174  -7.9990  -7.9732  -7.9510  -7.9344  -7.9022
    -7.8874  -7.8755  -7.7912  -7.6365  -7.6205  -7.5806  -7.5713  -7.4943
    -7.4407  -7.4071  -7.3934  -7.3591  -7.3006  -7.2030  -7.1886  -7.1626
    -7.1386  -7.1105  -7.0918  -7.0787  -7.0578  -7.0369  -6.9307  -6.9089
    -6.8851  -6.8004  -6.7286  -6.7073  -6.6546  -6.6347  -6.5834  -6.4723
    -6.4396  -6.4171  -6.3976  -6.3765  -6.2681  -6.2462  -6.1817  -6.1261
    -6.0550  -6.0392  -5.9348  -5.9218  -5.8309  -5.8019  -5.7671  -5.6860
    -5.6565  -5.6470  -5.6151  -5.5979  -5.5846  -5.5439  -5.5025  -5.4128
    -5.3951  -5.3522  -5.3329  -5.2667  -5.1543  -5.0545  -4.8336  -4.6995
    -4.5159  -4.2087  -3.9542  -3.5859  -3.1026  -2.5483  -1.9529  -1.5672
    -1.2754  -0.8990  -0.6104  -0.3071  -0.0570   0.1686   0.3771   0.7287
     1.1794

     occupation numbers 
     1.0000   1.0000   1.0000   1.0000   1.0000   1.0000   1.0000   1.0000
     1.0000   1.0000   1.0000   1.0000   1.0000   1.0000   1.0000   1.0000
     1.0000   1.0000   1.0000   1.0000   1.0000   1.0000   1.0000   1.0000
     1.0000   1.0000   1.0000   1.0000   1.0000   1.0000   1.0000   1.0000
     1.0000   1.0000   1.0000   1.0000   1.0000   1.0000   1.0000   1.0000
     1.0000   1.0000   1.0000   1.0000   1.0000   1.0000   1.0000   1.0000
     1.0000   1.0000   1.0000   1.0000   1.0000   1.0000   1.0000   1.0000
     1.0000   1.0000   1.0000   1.0000   1.0000   1.0000   1.0000   1.0000
     1.0000   1.0000   1.0000   1.0000   1.0000   1.0000   1.0000   1.0000
     1.0000   1.0000   1.0000   1.0000   1.0000   1.0000   1.0000   1.0000
     1.0000   1.0000   1.0000   1.0000   1.0000   1.0000   1.0000   1.0000
     1.0000   1.0000   1.0000   1.0000   1.0000   1.0000   1.0000   1.0000
     1.0000   1.0000   1.0000   1.0000   1.0000   1.0000   1.0000   1.0000
     1.0000   1.0000   1.0005   1.0007   1.0050   1.0084   1.0149   1.0427
     1.0564   1.0608   1.0744   1.0798   1.0824   1.0778   1.0448   0.8452
     0.7869   0.6311   0.5584   0.3264   0.0843   0.0155   0.0001   0.0000
     0.0000   0.0000   0.0000   0.0000   0.0000   0.0000   0.0000   0.0000
     0.0000   0.0000   0.0000   0.0000   0.0000   0.0000   0.0000   0.0000
     0.0000

          k = 0.2500-0.7217 0.0000 ( 44491 PWs)   bands (ev):

   -11.4388 -11.1676 -10.6265 -10.4198 -10.4131 -10.2946 -10.2550 -10.2538
   -10.1193 -10.1180 -10.0317 -10.0172 -10.0077  -9.9859  -9.9774  -9.8704
    -9.8590  -9.8447  -9.7599  -9.7484  -9.7420  -9.7227  -9.7026  -9.5781
    -9.5677  -9.5114  -9.4796  -9.3850  -9.3044  -9.2800  -9.2570  -9.2454
    -9.2322  -9.2170  -9.1643  -9.1213  -9.0848  -8.9941  -8.9752  -8.9692
    -8.8967  -8.8295  -8.7555  -8.7454  -8.6898  -8.5921  -8.5528  -8.5325
    -8.4838  -8.4345  -8.4046  -8.3906  -8.3608  -8.2879  -8.2514  -8.2031
    -8.1319  -8.1090  -8.0816  -8.0253  -8.0195  -7.9906  -7.9693  -7.8940
    -7.8883  -7.8760  -7.8427  -7.7800  -7.7482  -7.6782  -7.5939  -7.5717
    -7.5374  -7.4975  -7.4608  -7.4276  -7.3499  -7.3232  -7.2907  -7.2708
    -7.2457  -7.1883  -7.0961  -7.0474  -7.0221  -7.0070  -6.9873  -6.9658
    -6.9486  -6.9419  -6.7623  -6.7380  -6.7167  -6.6925  -6.6129  -6.5301
    -6.4938  -6.4646  -6.4470  -6.3941  -6.3178  -6.2673  -6.2125  -6.1923
    -6.1340  -6.1190  -5.9101  -5.8875  -5.8435  -5.8066  -5.7892  -5.7723
    -5.6976  -5.6741  -5.6660  -5.6491  -5.6375  -5.6227  -5.5795  -5.4493
    -5.4422  -5.4355  -5.4202  -5.2012  -5.1392  -5.0876  -5.0195  -4.9403
    -4.7518  -4.6684  -3.8526  -3.4774  -3.4534  -2.3674  -1.8858  -1.8532
    -0.9036  -0.3955  -0.2000  -0.0842   0.0201   0.2526   0.5870   1.0678
     1.3778

     occupation numbers 
     1.0000   1.0000   1.0000   1.0000   1.0000   1.0000   1.0000   1.0000
     1.0000   1.0000   1.0000   1.0000   1.0000   1.0000   1.0000   1.0000
     1.0000   1.0000   1.0000   1.0000   1.0000   1.0000   1.0000   1.0000
     1.0000   1.0000   1.0000   1.0000   1.0000   1.0000   1.0000   1.0000
     1.0000   1.0000   1.0000   1.0000   1.0000   1.0000   1.0000   1.0000
     1.0000   1.0000   1.0000   1.0000   1.0000   1.0000   1.0000   1.0000
     1.0000   1.0000   1.0000   1.0000   1.0000   1.0000   1.0000   1.0000
     1.0000   1.0000   1.0000   1.0000   1.0000   1.0000   1.0000   1.0000
     1.0000   1.0000   1.0000   1.0000   1.0000   1.0000   1.0000   1.0000
     1.0000   1.0000   1.0000   1.0000   1.0000   1.0000   1.0000   1.0000
     1.0000   1.0000   1.0000   1.0000   1.0000   1.0000   1.0000   1.0000
     1.0000   1.0000   1.0000   1.0000   1.0000   1.0000   1.0000   1.0000
     1.0000   1.0000   1.0000   1.0000   1.0000   1.0000   1.0000   1.0000
     1.0000   1.0000   1.0009   1.0015   1.0039   1.0077   1.0104   1.0137
     1.0377   1.0481   1.0519   1.0599   1.0652   1.0715   1.0830   0.9476
     0.9297   0.9119   0.8680   0.1590   0.0672   0.0286   0.0076   0.0012
     0.0000   0.0000   0.0000   0.0000   0.0000   0.0000   0.0000   0.0000
     0.0000   0.0000   0.0000   0.0000   0.0000   0.0000   0.0000   0.0000
     0.0000

          k = 0.2500-0.6495 0.0000 ( 44485 PWs)   bands (ev):

   -11.3670 -10.9071 -10.4796 -10.4426 -10.3036 -10.2307 -10.1798 -10.1592
   -10.0290  -9.9654  -9.9637  -9.9251  -9.9182  -9.9025  -9.8488  -9.7814
    -9.7428  -9.7267  -9.7001  -9.6696  -9.6605  -9.6094  -9.5680  -9.5030
    -9.4729  -9.4618  -9.4424  -9.3759  -9.3372  -9.2872  -9.2707  -9.2470
    -9.2370  -9.2209  -9.1667  -9.1611  -9.1102  -9.0153  -8.9647  -8.9575
    -8.9151  -8.8918  -8.8452  -8.8085  -8.7451  -8.6933  -8.6520  -8.5606
    -8.5302  -8.4697  -8.4347  -8.4063  -8.3795  -8.3469  -8.3032  -8.2431
    -8.2024  -8.1885  -8.1747  -8.1365  -8.1078  -8.0712  -8.0199  -7.9974
    -7.9718  -7.9097  -7.8755  -7.8406  -7.7966  -7.7860  -7.7661  -7.7100
    -7.6285  -7.6102  -7.5689  -7.5365  -7.3799  -7.3143  -7.2838  -7.2358
    -7.1788  -7.1498  -7.1348  -7.1104  -7.1009  -7.0581  -7.0515  -6.9653
    -6.8409  -6.8135  -6.8050  -6.7502  -6.7375  -6.6474  -6.5523  -6.5331
    -6.5014  -6.4566  -6.4361  -6.3640  -6.3220  -6.2891  -6.2696  -6.2208
    -6.1038  -6.0640  -5.9813  -5.9597  -5.8828  -5.8411  -5.8138  -5.7818
    -5.7526  -5.7106  -5.6941  -5.6657  -5.6478  -5.6251  -5.5909  -5.5398
    -5.5318  -5.4966  -5.4613  -5.4549  -5.4395  -5.2435  -5.0862  -5.0382
    -4.8048  -4.5815  -4.0221  -3.5900  -3.2249  -2.5011  -1.9862  -1.6446
    -0.8208  -0.2978  -0.1423   0.0276   0.3488   0.6269   0.8704   1.0700
     1.4027

     occupation numbers 
     1.0000   1.0000   1.0000   1.0000   1.0000   1.0000   1.0000   1.0000
     1.0000   1.0000   1.0000   1.0000   1.0000   1.0000   1.0000   1.0000
     1.0000   1.0000   1.0000   1.0000   1.0000   1.0000   1.0000   1.0000
     1.0000   1.0000   1.0000   1.0000   1.0000   1.0000   1.0000   1.0000
     1.0000   1.0000   1.0000   1.0000   1.0000   1.0000   1.0000   1.0000
     1.0000   1.0000   1.0000   1.0000   1.0000   1.0000   1.0000   1.0000
     1.0000   1.0000   1.0000   1.0000   1.0000   1.0000   1.0000   1.0000
     1.0000   1.0000   1.0000   1.0000   1.0000   1.0000   1.0000   1.0000
     1.0000   1.0000   1.0000   1.0000   1.0000   1.0000   1.0000   1.0000
     1.0000   1.0000   1.0000   1.0000   1.0000   1.0000   1.0000   1.0000
     1.0000   1.0000   1.0000   1.0000   1.0000   1.0000   1.0000   1.0000
     1.0000   1.0000   1.0000   1.0000   1.0000   1.0000   1.0000   1.0000
     1.0000   1.0000   1.0000   1.0000   1.0000   1.0000   1.0000   1.0000
     1.0000   1.0000   1.0002   1.0003   1.0017   1.0041   1.0068   1.0118
     1.0185   1.0324   1.0392   1.0520   1.0605   1.0705   1.0814   1.0760
     1.0716   1.0372   0.9753   0.9608   0.9229   0.2588   0.0279   0.0112
     0.0000   0.0000   0.0000   0.0000   0.0000   0.0000   0.0000   0.0000
     0.0000   0.0000   0.0000   0.0000   0.0000   0.0000   0.0000   0.0000
     0.0000

          k = 0.2500-0.5774 0.0000 ( 44432 PWs)   bands (ev):

   -11.3448 -10.6619 -10.6458 -10.3281 -10.2958 -10.2378 -10.1770 -10.0312
   -10.0146  -9.9521  -9.9329  -9.9274  -9.8877  -9.8485  -9.7722  -9.7480
    -9.7011  -9.6855  -9.6187  -9.6051  -9.5870  -9.5500  -9.5360  -9.5014
    -9.4446  -9.4402  -9.4211  -9.3961  -9.3462  -9.3249  -9.2877  -9.2812
    -9.2439  -9.2086  -9.1971  -9.1591  -9.1474  -9.1030  -8.9648  -8.9553
    -8.9406  -8.8965  -8.8760  -8.8191  -8.7619  -8.6991  -8.6321  -8.5605
    -8.4792  -8.4597  -8.4426  -8.4119  -8.3970  -8.3400  -8.2863  -8.2516
    -8.2394  -8.2341  -8.2225  -8.1781  -8.1573  -8.1143  -8.1044  -8.0760
    -8.0619  -8.0480  -7.9584  -7.8584  -7.8026  -7.7639  -7.7518  -7.6585
    -7.6454  -7.6431  -7.6053  -7.5841  -7.4198  -7.3729  -7.3307  -7.2402
    -7.1940  -7.1263  -7.1225  -7.0958  -7.0803  -7.0451  -6.9863  -6.9548
    -6.9318  -6.8400  -6.7399  -6.7031  -6.6327  -6.6201  -6.6049  -6.5781
    -6.5134  -6.4537  -6.4287  -6.3788  -6.3197  -6.2736  -6.2162  -6.2049
    -6.0503  -6.0180  -5.9890  -5.8912  -5.8688  -5.8507  -5.8373  -5.8068
    -5.8049  -5.7813  -5.7427  -5.7127  -5.6675  -5.6430  -5.6248  -5.5988
    -5.5908  -5.5772  -5.5352  -5.4641  -5.4550  -5.4438  -5.0713  -5.0585
    -4.7893  -4.4111  -4.2324  -3.5962  -3.0296  -2.6983  -2.0031  -1.4352
    -1.0052  -0.2600   0.0270   0.1363   0.4057   0.4969   0.9746   1.3637
     1.4731

     occupation numbers 
     1.0000   1.0000   1.0000   1.0000   1.0000   1.0000   1.0000   1.0000
     1.0000   1.0000   1.0000   1.0000   1.0000   1.0000   1.0000   1.0000
     1.0000   1.0000   1.0000   1.0000   1.0000   1.0000   1.0000   1.0000
     1.0000   1.0000   1.0000   1.0000   1.0000   1.0000   1.0000   1.0000
     1.0000   1.0000   1.0000   1.0000   1.0000   1.0000   1.0000   1.0000
     1.0000   1.0000   1.0000   1.0000   1.0000   1.0000   1.0000   1.0000
     1.0000   1.0000   1.0000   1.0000   1.0000   1.0000   1.0000   1.0000
     1.0000   1.0000   1.0000   1.0000   1.0000   1.0000   1.0000   1.0000
     1.0000   1.0000   1.0000   1.0000   1.0000   1.0000   1.0000   1.0000
     1.0000   1.0000   1.0000   1.0000   1.0000   1.0000   1.0000   1.0000
     1.0000   1.0000   1.0000   1.0000   1.0000   1.0000   1.0000   1.0000
     1.0000   1.0000   1.0000   1.0000   1.0000   1.0000   1.0000   1.0000
     1.0000   1.0000   1.0000   1.0000   1.0000   1.0000   1.0000   1.0000
     1.0000   1.0001   1.0001   1.0014   1.0023   1.0034   1.0044   1.0077
     1.0080   1.0119   1.0213   1.0316   1.0512   1.0627   1.0706   1.0796
     1.0814   1.0832   1.0736   0.9812   0.9612   0.9338   0.0213   0.0167
     0.0000   0.0000   0.0000   0.0000   0.0000   0.0000   0.0000   0.0000
     0.0000   0.0000   0.0000   0.0000   0.0000   0.0000   0.0000   0.0000
     0.0000

          k = 0.2500-0.5052 0.0000 ( 44485 PWs)   bands (ev):

   -11.3670 -10.9071 -10.4796 -10.4426 -10.3036 -10.2307 -10.1798 -10.1592
   -10.0290  -9.9654  -9.9637  -9.9251  -9.9182  -9.9025  -9.8488  -9.7814
    -9.7428  -9.7267  -9.7001  -9.6696  -9.6605  -9.6094  -9.5680  -9.5030
    -9.4729  -9.4618  -9.4424  -9.3759  -9.3372  -9.2872  -9.2707  -9.2470
    -9.2370  -9.2209  -9.1667  -9.1611  -9.1102  -9.0153  -8.9647  -8.9575
    -8.9151  -8.8918  -8.8452  -8.8085  -8.7451  -8.6933  -8.6520  -8.5606
    -8.5302  -8.4697  -8.4347  -8.4063  -8.3795  -8.3469  -8.3032  -8.2431
    -8.2024  -8.1885  -8.1747  -8.1365  -8.1078  -8.0712  -8.0199  -7.9974
    -7.9718  -7.9097  -7.8755  -7.8406  -7.7966  -7.7860  -7.7661  -7.7100
    -7.6285  -7.6102  -7.5689  -7.5365  -7.3799  -7.3143  -7.2838  -7.2358
    -7.1788  -7.1498  -7.1348  -7.1104  -7.1009  -7.0581  -7.0515  -6.9653
    -6.8409  -6.8135  -6.8050  -6.7502  -6.7375  -6.6474  -6.5523  -6.5331
    -6.5014  -6.4566  -6.4361  -6.3640  -6.3220  -6.2891  -6.2696  -6.2208
    -6.1038  -6.0640  -5.9813  -5.9597  -5.8828  -5.8411  -5.8138  -5.7818
    -5.7526  -5.7106  -5.6941  -5.6657  -5.6478  -5.6251  -5.5909  -5.5398
    -5.5318  -5.4966  -5.4613  -5.4549  -5.4395  -5.2435  -5.0862  -5.0382
    -4.8048  -4.5815  -4.0221  -3.5900  -3.2249  -2.5011  -1.9862  -1.6446
    -0.8208  -0.2978  -0.1423   0.0276   0.3488   0.6269   0.8704   1.0700
     1.4027

     occupation numbers 
     1.0000   1.0000   1.0000   1.0000   1.0000   1.0000   1.0000   1.0000
     1.0000   1.0000   1.0000   1.0000   1.0000   1.0000   1.0000   1.0000
     1.0000   1.0000   1.0000   1.0000   1.0000   1.0000   1.0000   1.0000
     1.0000   1.0000   1.0000   1.0000   1.0000   1.0000   1.0000   1.0000
     1.0000   1.0000   1.0000   1.0000   1.0000   1.0000   1.0000   1.0000
     1.0000   1.0000   1.0000   1.0000   1.0000   1.0000   1.0000   1.0000
     1.0000   1.0000   1.0000   1.0000   1.0000   1.0000   1.0000   1.0000
     1.0000   1.0000   1.0000   1.0000   1.0000   1.0000   1.0000   1.0000
     1.0000   1.0000   1.0000   1.0000   1.0000   1.0000   1.0000   1.0000
     1.0000   1.0000   1.0000   1.0000   1.0000   1.0000   1.0000   1.0000
     1.0000   1.0000   1.0000   1.0000   1.0000   1.0000   1.0000   1.0000
     1.0000   1.0000   1.0000   1.0000   1.0000   1.0000   1.0000   1.0000
     1.0000   1.0000   1.0000   1.0000   1.0000   1.0000   1.0000   1.0000
     1.0000   1.0000   1.0002   1.0003   1.0017   1.0041   1.0068   1.0118
     1.0185   1.0324   1.0392   1.0520   1.0605   1.0705   1.0814   1.0760
     1.0716   1.0372   0.9753   0.9608   0.9229   0.2588   0.0279   0.0112
     0.0000   0.0000   0.0000   0.0000   0.0000   0.0000   0.0000   0.0000
     0.0000   0.0000   0.0000   0.0000   0.0000   0.0000   0.0000   0.0000
     0.0000

          k = 0.2500-0.4330 0.0000 ( 44491 PWs)   bands (ev):

   -11.4388 -11.1676 -10.6265 -10.4198 -10.4131 -10.2946 -10.2550 -10.2538
   -10.1193 -10.1180 -10.0317 -10.0172 -10.0077  -9.9859  -9.9774  -9.8704
    -9.8590  -9.8447  -9.7599  -9.7484  -9.7420  -9.7227  -9.7026  -9.5781
    -9.5677  -9.5114  -9.4796  -9.3850  -9.3044  -9.2800  -9.2570  -9.2454
    -9.2322  -9.2170  -9.1643  -9.1213  -9.0848  -8.9941  -8.9752  -8.9692
    -8.8967  -8.8295  -8.7555  -8.7454  -8.6898  -8.5921  -8.5528  -8.5325
    -8.4838  -8.4345  -8.4046  -8.3906  -8.3608  -8.2879  -8.2514  -8.2031
    -8.1319  -8.1090  -8.0816  -8.0253  -8.0195  -7.9906  -7.9693  -7.8940
    -7.8883  -7.8760  -7.8427  -7.7800  -7.7482  -7.6782  -7.5939  -7.5717
    -7.5374  -7.4975  -7.4608  -7.4276  -7.3499  -7.3232  -7.2907  -7.2708
    -7.2457  -7.1883  -7.0961  -7.0474  -7.0221  -7.0070  -6.9873  -6.9658
    -6.9486  -6.9419  -6.7623  -6.7380  -6.7167  -6.6925  -6.6129  -6.5301
    -6.4938  -6.4646  -6.4470  -6.3941  -6.3178  -6.2673  -6.2125  -6.1923
    -6.1340  -6.1190  -5.9101  -5.8875  -5.8435  -5.8066  -5.7892  -5.7723
    -5.6976  -5.6741  -5.6660  -5.6491  -5.6375  -5.6227  -5.5795  -5.4493
    -5.4422  -5.4355  -5.4202  -5.2012  -5.1392  -5.0876  -5.0195  -4.9403
    -4.7518  -4.6684  -3.8526  -3.4774  -3.4534  -2.3674  -1.8858  -1.8532
    -0.9036  -0.3955  -0.2000  -0.0842   0.0201   0.2526   0.5870   1.0678
     1.3779

     occupation numbers 
     1.0000   1.0000   1.0000   1.0000   1.0000   1.0000   1.0000   1.0000
     1.0000   1.0000   1.0000   1.0000   1.0000   1.0000   1.0000   1.0000
     1.0000   1.0000   1.0000   1.0000   1.0000   1.0000   1.0000   1.0000
     1.0000   1.0000   1.0000   1.0000   1.0000   1.0000   1.0000   1.0000
     1.0000   1.0000   1.0000   1.0000   1.0000   1.0000   1.0000   1.0000
     1.0000   1.0000   1.0000   1.0000   1.0000   1.0000   1.0000   1.0000
     1.0000   1.0000   1.0000   1.0000   1.0000   1.0000   1.0000   1.0000
     1.0000   1.0000   1.0000   1.0000   1.0000   1.0000   1.0000   1.0000
     1.0000   1.0000   1.0000   1.0000   1.0000   1.0000   1.0000   1.0000
     1.0000   1.0000   1.0000   1.0000   1.0000   1.0000   1.0000   1.0000
     1.0000   1.0000   1.0000   1.0000   1.0000   1.0000   1.0000   1.0000
     1.0000   1.0000   1.0000   1.0000   1.0000   1.0000   1.0000   1.0000
     1.0000   1.0000   1.0000   1.0000   1.0000   1.0000   1.0000   1.0000
     1.0000   1.0000   1.0009   1.0015   1.0039   1.0077   1.0104   1.0137
     1.0377   1.0481   1.0519   1.0599   1.0652   1.0715   1.0830   0.9476
     0.9297   0.9119   0.8680   0.1590   0.0672   0.0286   0.0076   0.0012
     0.0000   0.0000   0.0000   0.0000   0.0000   0.0000   0.0000   0.0000
     0.0000   0.0000   0.0000   0.0000   0.0000   0.0000   0.0000   0.0000
     0.0000

          k = 0.2500-0.3608 0.0000 ( 44536 PWs)   bands (ev):

   -11.5828 -11.3726 -10.8178 -10.5376 -10.4275 -10.4177 -10.4039 -10.3771
   -10.2576 -10.2185 -10.2040 -10.1630 -10.1335 -10.1168 -10.0405 -10.0225
    -9.9756  -9.9527  -9.9375  -9.8363  -9.8118  -9.7977  -9.7563  -9.6949
    -9.6779  -9.6333  -9.5595  -9.4785  -9.4578  -9.3190  -9.2651  -9.2409
    -9.2047  -9.1690  -9.1190  -9.1069  -9.0738  -9.0375  -8.9989  -8.8932
    -8.8547  -8.7805  -8.6751  -8.5764  -8.5568  -8.5430  -8.4957  -8.4428
    -8.3936  -8.3806  -8.3452  -8.2949  -8.2496  -8.1732  -8.0951  -8.0814
    -8.0710  -8.0295  -8.0174  -7.9990  -7.9732  -7.9510  -7.9344  -7.9022
    -7.8874  -7.8755  -7.7912  -7.6365  -7.6205  -7.5806  -7.5713  -7.4943
    -7.4407  -7.4071  -7.3934  -7.3591  -7.3006  -7.2030  -7.1886  -7.1626
    -7.1386  -7.1105  -7.0918  -7.0787  -7.0578  -7.0369  -6.9307  -6.9089
    -6.8851  -6.8004  -6.7286  -6.7073  -6.6546  -6.6347  -6.5834  -6.4723
    -6.4396  -6.4171  -6.3976  -6.3765  -6.2681  -6.2462  -6.1817  -6.1261
    -6.0550  -6.0392  -5.9348  -5.9218  -5.8309  -5.8019  -5.7671  -5.6860
    -5.6565  -5.6470  -5.6151  -5.5979  -5.5846  -5.5439  -5.5025  -5.4128
    -5.3951  -5.3522  -5.3329  -5.2667  -5.1543  -5.0545  -4.8336  -4.6995
    -4.5159  -4.2087  -3.9542  -3.5859  -3.1026  -2.5483  -1.9529  -1.5672
    -1.2754  -0.8990  -0.6104  -0.3071  -0.0570   0.1686   0.3771   0.7287
     1.1794

     occupation numbers 
     1.0000   1.0000   1.0000   1.0000   1.0000   1.0000   1.0000   1.0000
     1.0000   1.0000   1.0000   1.0000   1.0000   1.0000   1.0000   1.0000
     1.0000   1.0000   1.0000   1.0000   1.0000   1.0000   1.0000   1.0000
     1.0000   1.0000   1.0000   1.0000   1.0000   1.0000   1.0000   1.0000
     1.0000   1.0000   1.0000   1.0000   1.0000   1.0000   1.0000   1.0000
     1.0000   1.0000   1.0000   1.0000   1.0000   1.0000   1.0000   1.0000
     1.0000   1.0000   1.0000   1.0000   1.0000   1.0000   1.0000   1.0000
     1.0000   1.0000   1.0000   1.0000   1.0000   1.0000   1.0000   1.0000
     1.0000   1.0000   1.0000   1.0000   1.0000   1.0000   1.0000   1.0000
     1.0000   1.0000   1.0000   1.0000   1.0000   1.0000   1.0000   1.0000
     1.0000   1.0000   1.0000   1.0000   1.0000   1.0000   1.0000   1.0000
     1.0000   1.0000   1.0000   1.0000   1.0000   1.0000   1.0000   1.0000
     1.0000   1.0000   1.0000   1.0000   1.0000   1.0000   1.0000   1.0000
     1.0000   1.0000   1.0005   1.0007   1.0050   1.0084   1.0149   1.0427
     1.0564   1.0608   1.0744   1.0798   1.0824   1.0778   1.0448   0.8452
     0.7869   0.6311   0.5584   0.3264   0.0843   0.0155   0.0001   0.0000
     0.0000   0.0000   0.0000   0.0000   0.0000   0.0000   0.0000   0.0000
     0.0000   0.0000   0.0000   0.0000   0.0000   0.0000   0.0000   0.0000
     0.0000

          k = 0.2500-0.2887 0.0000 ( 44558 PWs)   bands (ev):

   -11.7803 -11.5106 -10.9920 -10.6379 -10.5587 -10.5266 -10.5048 -10.4638
   -10.3880 -10.3620 -10.3280 -10.3062 -10.2694 -10.2579 -10.1717 -10.1557
   -10.1041 -10.0494 -10.0090  -9.9652  -9.9013  -9.8805  -9.8447  -9.8173
    -9.7920  -9.7796  -9.6538  -9.6219  -9.5780  -9.3761  -9.2955  -9.2869
    -9.2383  -9.1972  -9.1264  -9.0783  -8.9916  -8.9612  -8.9028  -8.8791
    -8.7558  -8.7085  -8.6085  -8.5819  -8.4547  -8.4343  -8.4042  -8.3412
    -8.3002  -8.2958  -8.2594  -8.2505  -8.1809  -8.1237  -8.0923  -8.0593
    -8.0467  -8.0303  -8.0032  -7.9792  -7.9171  -7.9072  -7.8212  -7.8098
    -7.7947  -7.7298  -7.6826  -7.6670  -7.6464  -7.6143  -7.5754  -7.5110
    -7.4653  -7.3740  -7.3473  -7.3056  -7.2870  -7.1543  -7.0730  -7.0544
    -7.0286  -6.9882  -6.9716  -6.9286  -6.9042  -6.8547  -6.8353  -6.7982
    -6.7667  -6.6640  -6.5997  -6.5674  -6.5460  -6.5227  -6.4156  -6.3819
    -6.3309  -6.3105  -6.2763  -6.2430  -6.2085  -6.1173  -6.0991  -6.0524
    -6.0037  -5.9793  -5.9582  -5.9441  -5.8443  -5.7940  -5.7400  -5.6934
    -5.6039  -5.5782  -5.5575  -5.5475  -5.5374  -5.4899  -5.4010  -5.3694
    -5.3610  -5.3478  -5.3031  -5.2418  -5.2335  -5.1229  -4.8932  -4.2740
    -4.1981  -3.9438  -3.6806  -3.4996  -2.9640  -2.5115  -1.9844  -1.7454
    -1.6338  -1.2963  -1.0521  -0.7775  -0.2707   0.0234   0.3996   0.7147
     0.8886

     occupation numbers 
     1.0000   1.0000   1.0000   1.0000   1.0000   1.0000   1.0000   1.0000
     1.0000   1.0000   1.0000   1.0000   1.0000   1.0000   1.0000   1.0000
     1.0000   1.0000   1.0000   1.0000   1.0000   1.0000   1.0000   1.0000
     1.0000   1.0000   1.0000   1.0000   1.0000   1.0000   1.0000   1.0000
     1.0000   1.0000   1.0000   1.0000   1.0000   1.0000   1.0000   1.0000
     1.0000   1.0000   1.0000   1.0000   1.0000   1.0000   1.0000   1.0000
     1.0000   1.0000   1.0000   1.0000   1.0000   1.0000   1.0000   1.0000
     1.0000   1.0000   1.0000   1.0000   1.0000   1.0000   1.0000   1.0000
     1.0000   1.0000   1.0000   1.0000   1.0000   1.0000   1.0000   1.0000
     1.0000   1.0000   1.0000   1.0000   1.0000   1.0000   1.0000   1.0000
     1.0000   1.0000   1.0000   1.0000   1.0000   1.0000   1.0000   1.0000
     1.0000   1.0000   1.0000   1.0000   1.0000   1.0000   1.0000   1.0000
     1.0000   1.0000   1.0000   1.0000   1.0000   1.0000   1.0000   1.0000
     1.0001   1.0002   1.0003   1.0004   1.0038   1.0096   1.0222   1.0395
     1.0781   1.0831   1.0819   1.0792   1.0748   1.0276   0.8069   0.6953
     0.6640   0.6146   0.4488   0.2540   0.2323   0.0521   0.0004   0.0000
     0.0000   0.0000   0.0000   0.0000   0.0000   0.0000   0.0000   0.0000
     0.0000   0.0000   0.0000   0.0000   0.0000   0.0000   0.0000   0.0000
     0.0000

          k = 0.2500-0.2165 0.0000 ( 44578 PWs)   bands (ev):

   -11.9637 -11.6225 -11.1324 -10.7095 -10.6788 -10.6176 -10.6120 -10.5385
   -10.5001 -10.4725 -10.4457 -10.4130 -10.3842 -10.3609 -10.3188 -10.2614
   -10.1905 -10.1564 -10.1010 -10.0525  -9.9813  -9.9740  -9.9540  -9.9341
    -9.9102  -9.8673  -9.7690  -9.7154  -9.6724  -9.4832  -9.4131  -9.3359
    -9.2995  -9.1702  -9.0460  -9.0241  -8.9403  -8.8692  -8.8464  -8.7830
    -8.7139  -8.6699  -8.5995  -8.5267  -8.4006  -8.3655  -8.3356  -8.3112
    -8.2840  -8.2257  -8.1995  -8.1765  -8.1364  -8.1084  -8.1029  -8.0840
    -8.0557  -8.0302  -7.9927  -7.9588  -7.9410  -7.9011  -7.8444  -7.7984
    -7.7661  -7.7005  -7.6330  -7.6045  -7.5780  -7.5356  -7.5107  -7.5003
    -7.4555  -7.4132  -7.3694  -7.1794  -7.1324  -7.0917  -7.0349  -6.9990
    -6.9873  -6.9412  -6.7955  -6.7578  -6.7340  -6.6972  -6.6353  -6.5829
    -6.5731  -6.5343  -6.4993  -6.4778  -6.4544  -6.3750  -6.3274  -6.2237
    -6.1469  -6.1139  -6.1112  -6.0975  -6.0337  -6.0022  -5.9810  -5.9740
    -5.9451  -5.9306  -5.9212  -5.8178  -5.7958  -5.7734  -5.7015  -5.6729
    -5.6119  -5.5445  -5.5349  -5.4930  -5.4854  -5.4774  -5.4396  -5.4254
    -5.3217  -5.3110  -5.3043  -5.1804  -5.1648  -5.1478  -4.9083  -4.4892
    -3.6938  -3.6364  -3.3089  -3.2039  -2.8784  -2.4325  -2.2892  -2.0141
    -1.9123  -1.7539  -1.5019  -0.9027  -0.5567  -0.0059   0.1920   0.7471
     0.9663

     occupation numbers 
     1.0000   1.0000   1.0000   1.0000   1.0000   1.0000   1.0000   1.0000
     1.0000   1.0000   1.0000   1.0000   1.0000   1.0000   1.0000   1.0000
     1.0000   1.0000   1.0000   1.0000   1.0000   1.0000   1.0000   1.0000
     1.0000   1.0000   1.0000   1.0000   1.0000   1.0000   1.0000   1.0000
     1.0000   1.0000   1.0000   1.0000   1.0000   1.0000   1.0000   1.0000
     1.0000   1.0000   1.0000   1.0000   1.0000   1.0000   1.0000   1.0000
     1.0000   1.0000   1.0000   1.0000   1.0000   1.0000   1.0000   1.0000
     1.0000   1.0000   1.0000   1.0000   1.0000   1.0000   1.0000   1.0000
     1.0000   1.0000   1.0000   1.0000   1.0000   1.0000   1.0000   1.0000
     1.0000   1.0000   1.0000   1.0000   1.0000   1.0000   1.0000   1.0000
     1.0000   1.0000   1.0000   1.0000   1.0000   1.0000   1.0000   1.0000
     1.0000   1.0000   1.0000   1.0000   1.0000   1.0000   1.0000   1.0000
     1.0000   1.0000   1.0000   1.0000   1.0000   1.0001   1.0002   1.0002
     1.0004   1.0006   1.0007   1.0063   1.0093   1.0135   1.0361   1.0487
     1.0756   1.0781   1.0734   1.0321   1.0205   1.0070   0.9229   0.8835
     0.5167   0.4771   0.4529   0.1215   0.0981   0.0766   0.0005   0.0000
     0.0000   0.0000   0.0000   0.0000   0.0000   0.0000   0.0000   0.0000
     0.0000   0.0000   0.0000   0.0000   0.0000   0.0000   0.0000   0.0000
     0.0000

          k = 0.3125-0.1804 0.0000 ( 44550 PWs)   bands (ev):

   -11.8480 -11.5104 -11.0435 -10.7165 -10.6391 -10.5579 -10.5561 -10.4724
   -10.4185 -10.3970 -10.3909 -10.3772 -10.3353 -10.2796 -10.2753 -10.2464
   -10.1047 -10.0974 -10.0286  -9.9561  -9.9410  -9.9345  -9.8907  -9.8835
    -9.8546  -9.7929  -9.7326  -9.6835  -9.6080  -9.4352  -9.3534  -9.3047
    -9.2684  -9.1701  -9.1103  -9.0596  -8.9684  -8.8671  -8.8422  -8.8118
    -8.7975  -8.7177  -8.6686  -8.5705  -8.4275  -8.4130  -8.3529  -8.2865
    -8.2733  -8.2551  -8.2171  -8.1606  -8.1350  -8.1148  -8.1122  -8.0802
    -8.0757  -8.0343  -7.9781  -7.9503  -7.9135  -7.9015  -7.8061  -7.7398
    -7.7049  -7.6875  -7.6801  -7.6744  -7.6644  -7.6144  -7.5713  -7.5037
    -7.4731  -7.4567  -7.3921  -7.2948  -7.2496  -7.1068  -7.0908  -7.0139
    -7.0012  -6.9821  -6.8937  -6.8837  -6.8136  -6.7656  -6.7436  -6.7002
    -6.6522  -6.5937  -6.5621  -6.5346  -6.5108  -6.3727  -6.3254  -6.2660
    -6.2204  -6.2062  -6.2025  -6.1788  -6.1721  -6.0873  -6.0645  -6.0451
    -6.0161  -6.0090  -5.9481  -5.9382  -5.9217  -5.8571  -5.7566  -5.7013
    -5.6338  -5.6093  -5.5619  -5.5453  -5.5185  -5.4778  -5.4459  -5.4427
    -5.3962  -5.3120  -5.2953  -5.2900  -5.2237  -5.1449  -5.1379  -4.3822
    -3.8212  -3.1357  -2.9660  -2.9475  -2.6462  -2.6089  -2.3197  -2.1142
    -1.9925  -1.9024  -1.3714  -1.2160  -0.3139   0.0075   0.0539   1.1078
     1.3442

     occupation numbers 
     1.0000   1.0000   1.0000   1.0000   1.0000   1.0000   1.0000   1.0000
     1.0000   1.0000   1.0000   1.0000   1.0000   1.0000   1.0000   1.0000
     1.0000   1.0000   1.0000   1.0000   1.0000   1.0000   1.0000   1.0000
     1.0000   1.0000   1.0000   1.0000   1.0000   1.0000   1.0000   1.0000
     1.0000   1.0000   1.0000   1.0000   1.0000   1.0000   1.0000   1.0000
     1.0000   1.0000   1.0000   1.0000   1.0000   1.0000   1.0000   1.0000
     1.0000   1.0000   1.0000   1.0000   1.0000   1.0000   1.0000   1.0000
     1.0000   1.0000   1.0000   1.0000   1.0000   1.0000   1.0000   1.0000
     1.0000   1.0000   1.0000   1.0000   1.0000   1.0000   1.0000   1.0000
     1.0000   1.0000   1.0000   1.0000   1.0000   1.0000   1.0000   1.0000
     1.0000   1.0000   1.0000   1.0000   1.0000   1.0000   1.0000   1.0000
     1.0000   1.0000   1.0000   1.0000   1.0000   1.0000   1.0000   1.0000
     1.0000   1.0000   1.0000   1.0000   1.0000   1.0000   1.0000   1.0000
     1.0001   1.0001   1.0004   1.0005   1.0007   1.0030   1.0175   1.0362
     1.0668   1.0764   1.0826   1.0784   1.0615   1.0077   0.9391   0.9311
     0.7906   0.4808   0.4210   0.4027   0.2081   0.0733   0.0659   0.0000
     0.0000   0.0000   0.0000   0.0000   0.0000   0.0000   0.0000   0.0000
     0.0000   0.0000   0.0000   0.0000   0.0000   0.0000   0.0000   0.0000
     0.0000

          k = 0.3125-0.1083 0.0000 ( 44578 PWs)   bands (ev):

   -11.9551 -11.5771 -11.1154 -10.7096 -10.6789 -10.6183 -10.6121 -10.5340
   -10.5062 -10.4737 -10.4460 -10.4076 -10.3843 -10.3613 -10.3176 -10.2615
   -10.1987 -10.1520 -10.1002 -10.0558  -9.9845  -9.9737  -9.9554  -9.9271
    -9.9050  -9.8387  -9.7858  -9.7546  -9.6331  -9.5682  -9.3847  -9.3322
    -9.3009  -9.1594  -9.0584  -9.0277  -8.9512  -8.8768  -8.8505  -8.7837
    -8.7569  -8.6543  -8.5991  -8.5243  -8.4097  -8.3673  -8.3268  -8.3103
    -8.2848  -8.2214  -8.1972  -8.1884  -8.1285  -8.1123  -8.1046  -8.0771
    -8.0598  -8.0343  -7.9974  -7.9616  -7.9343  -7.9031  -7.8627  -7.8017
    -7.7648  -7.7442  -7.6458  -7.6038  -7.5736  -7.5445  -7.5123  -7.4963
    -7.4601  -7.4122  -7.3728  -7.1876  -7.1444  -7.0934  -7.0414  -7.0034
    -6.9886  -6.9296  -6.8058  -6.7460  -6.7315  -6.7003  -6.6229  -6.5875
    -6.5751  -6.5296  -6.5008  -6.4768  -6.4485  -6.3668  -6.3277  -6.2320
    -6.1342  -6.1220  -6.1107  -6.0961  -6.0118  -5.9921  -5.9852  -5.9690
    -5.9436  -5.9319  -5.9228  -5.8303  -5.7943  -5.7632  -5.7004  -5.6739
    -5.6075  -5.5553  -5.5081  -5.5060  -5.4869  -5.4772  -5.4350  -5.4220
    -5.3179  -5.3127  -5.3046  -5.1774  -5.1641  -5.1342  -4.8777  -4.4883
    -3.7428  -3.6077  -3.3251  -3.1691  -2.8894  -2.3735  -2.2738  -2.0124
    -1.9317  -1.7314  -1.4642  -0.8028  -0.6117   0.0294   0.1862   0.7687
     0.9328

     occupation numbers 
     1.0000   1.0000   1.0000   1.0000   1.0000   1.0000   1.0000   1.0000
     1.0000   1.0000   1.0000   1.0000   1.0000   1.0000   1.0000   1.0000
     1.0000   1.0000   1.0000   1.0000   1.0000   1.0000   1.0000   1.0000
     1.0000   1.0000   1.0000   1.0000   1.0000   1.0000   1.0000   1.0000
     1.0000   1.0000   1.0000   1.0000   1.0000   1.0000   1.0000   1.0000
     1.0000   1.0000   1.0000   1.0000   1.0000   1.0000   1.0000   1.0000
     1.0000   1.0000   1.0000   1.0000   1.0000   1.0000   1.0000   1.0000
     1.0000   1.0000   1.0000   1.0000   1.0000   1.0000   1.0000   1.0000
     1.0000   1.0000   1.0000   1.0000   1.0000   1.0000   1.0000   1.0000
     1.0000   1.0000   1.0000   1.0000   1.0000   1.0000   1.0000   1.0000
     1.0000   1.0000   1.0000   1.0000   1.0000   1.0000   1.0000   1.0000
     1.0000   1.0000   1.0000   1.0000   1.0000   1.0000   1.0000   1.0000
     1.0000   1.0000   1.0000   1.0000   1.0001   1.0001   1.0001   1.0002
     1.0004   1.0006   1.0007   1.0050   1.0096   1.0158   1.0365   1.0482
     1.0770   1.0814   1.0512   1.0489   1.0230   1.0066   0.9105   0.8734
     0.5023   0.4833   0.4541   0.1166   0.0971   0.0622   0.0002   0.0000
     0.0000   0.0000   0.0000   0.0000   0.0000   0.0000   0.0000   0.0000
     0.0000   0.0000   0.0000   0.0000   0.0000   0.0000   0.0000   0.0000
     0.0000

          k = 0.3125-0.0361 0.0000 ( 44582 PWs)   bands (ev):

   -12.0097 -11.6127 -11.1512 -10.6815 -10.6704 -10.6551 -10.6491 -10.6019
   -10.5616 -10.5151 -10.4620 -10.4457 -10.4196 -10.3430 -10.3376 -10.2846
   -10.2287 -10.1803 -10.1579 -10.1347 -10.0084  -9.9856  -9.9788  -9.9458
    -9.9184  -9.8637  -9.8513  -9.7460  -9.6738  -9.6390  -9.3977  -9.3371
    -9.3233  -9.1505  -9.0744  -8.9590  -8.9231  -8.9018  -8.8750  -8.7892
    -8.7555  -8.5737  -8.5335  -8.4935  -8.4368  -8.3529  -8.3352  -8.3334
    -8.2897  -8.2245  -8.2046  -8.1811  -8.1397  -8.1142  -8.0932  -8.0659
    -8.0539  -8.0352  -8.0067  -7.9677  -7.9523  -7.8997  -7.8702  -7.8319
    -7.7964  -7.7790  -7.6611  -7.5560  -7.5534  -7.5267  -7.4952  -7.4370
    -7.4248  -7.4004  -7.3436  -7.1377  -7.0991  -7.0656  -7.0138  -6.9906
    -6.9646  -6.8686  -6.8022  -6.7397  -6.6581  -6.6490  -6.5739  -6.5403
    -6.5168  -6.4934  -6.4505  -6.4316  -6.4177  -6.3982  -6.3066  -6.2282
    -6.0985  -6.0816  -6.0581  -6.0504  -6.0407  -5.9961  -5.9631  -5.9255
    -5.8855  -5.8494  -5.7994  -5.7740  -5.7292  -5.7040  -5.6912  -5.5905
    -5.5750  -5.5459  -5.5373  -5.5154  -5.5004  -5.4931  -5.4771  -5.3779
    -5.3407  -5.2977  -5.2376  -5.2220  -4.9551  -4.6842  -4.5313  -4.3311
    -4.2672  -3.9833  -3.6892  -3.3354  -3.0751  -2.6214  -2.3078  -1.9101
    -1.5209  -1.3768  -1.0530  -0.9082  -0.4774  -0.0631   0.1666   0.2484
     0.6727

     occupation numbers 
     1.0000   1.0000   1.0000   1.0000   1.0000   1.0000   1.0000   1.0000
     1.0000   1.0000   1.0000   1.0000   1.0000   1.0000   1.0000   1.0000
     1.0000   1.0000   1.0000   1.0000   1.0000   1.0000   1.0000   1.0000
     1.0000   1.0000   1.0000   1.0000   1.0000   1.0000   1.0000   1.0000
     1.0000   1.0000   1.0000   1.0000   1.0000   1.0000   1.0000   1.0000
     1.0000   1.0000   1.0000   1.0000   1.0000   1.0000   1.0000   1.0000
     1.0000   1.0000   1.0000   1.0000   1.0000   1.0000   1.0000   1.0000
     1.0000   1.0000   1.0000   1.0000   1.0000   1.0000   1.0000   1.0000
     1.0000   1.0000   1.0000   1.0000   1.0000   1.0000   1.0000   1.0000
     1.0000   1.0000   1.0000   1.0000   1.0000   1.0000   1.0000   1.0000
     1.0000   1.0000   1.0000   1.0000   1.0000   1.0000   1.0000   1.0000
     1.0000   1.0000   1.0000   1.0000   1.0000   1.0000   1.0000   1.0000
     1.0000   1.0000   1.0000   1.0000   1.0000   1.0001   1.0003   1.0006
     1.0016   1.0035   1.0088   1.0134   1.0256   1.0350   1.0404   1.0815
     1.0833   1.0786   1.0747   1.0588   1.0422   1.0323   1.0064   0.7262
     0.5879   0.4296   0.2430   0.2041   0.0018   0.0000   0.0000   0.0000
     0.0000   0.0000   0.0000   0.0000   0.0000   0.0000   0.0000   0.0000
     0.0000   0.0000   0.0000   0.0000   0.0000   0.0000   0.0000   0.0000
     0.0000

          k = 0.3125 0.0361 0.0000 ( 44582 PWs)   bands (ev):

   -12.0097 -11.6127 -11.1512 -10.6815 -10.6704 -10.6551 -10.6491 -10.6019
   -10.5616 -10.5151 -10.4620 -10.4457 -10.4196 -10.3430 -10.3376 -10.2846
   -10.2287 -10.1803 -10.1579 -10.1347 -10.0084  -9.9856  -9.9788  -9.9458
    -9.9184  -9.8637  -9.8513  -9.7460  -9.6738  -9.6390  -9.3977  -9.3371
    -9.3233  -9.1505  -9.0744  -8.9590  -8.9231  -8.9018  -8.8750  -8.7892
    -8.7555  -8.5737  -8.5335  -8.4935  -8.4368  -8.3529  -8.3352  -8.3334
    -8.2897  -8.2245  -8.2046  -8.1811  -8.1397  -8.1142  -8.0932  -8.0659
    -8.0539  -8.0352  -8.0067  -7.9677  -7.9523  -7.8997  -7.8702  -7.8319
    -7.7964  -7.7790  -7.6611  -7.5560  -7.5534  -7.5267  -7.4952  -7.4370
    -7.4248  -7.4004  -7.3436  -7.1377  -7.0991  -7.0656  -7.0138  -6.9906
    -6.9646  -6.8686  -6.8022  -6.7397  -6.6581  -6.6490  -6.5739  -6.5403
    -6.5168  -6.4934  -6.4505  -6.4316  -6.4177  -6.3982  -6.3066  -6.2282
    -6.0985  -6.0816  -6.0581  -6.0504  -6.0407  -5.9961  -5.9631  -5.9255
    -5.8855  -5.8494  -5.7994  -5.7740  -5.7292  -5.7040  -5.6912  -5.5905
    -5.5750  -5.5459  -5.5373  -5.5154  -5.5004  -5.4931  -5.4771  -5.3779
    -5.3407  -5.2977  -5.2376  -5.2220  -4.9551  -4.6842  -4.5313  -4.3311
    -4.2672  -3.9833  -3.6892  -3.3354  -3.0751  -2.6214  -2.3078  -1.9101
    -1.5209  -1.3768  -1.0530  -0.9082  -0.4774  -0.0631   0.1666   0.2484
     0.6727

     occupation numbers 
     1.0000   1.0000   1.0000   1.0000   1.0000   1.0000   1.0000   1.0000
     1.0000   1.0000   1.0000   1.0000   1.0000   1.0000   1.0000   1.0000
     1.0000   1.0000   1.0000   1.0000   1.0000   1.0000   1.0000   1.0000
     1.0000   1.0000   1.0000   1.0000   1.0000   1.0000   1.0000   1.0000
     1.0000   1.0000   1.0000   1.0000   1.0000   1.0000   1.0000   1.0000
     1.0000   1.0000   1.0000   1.0000   1.0000   1.0000   1.0000   1.0000
     1.0000   1.0000   1.0000   1.0000   1.0000   1.0000   1.0000   1.0000
     1.0000   1.0000   1.0000   1.0000   1.0000   1.0000   1.0000   1.0000
     1.0000   1.0000   1.0000   1.0000   1.0000   1.0000   1.0000   1.0000
     1.0000   1.0000   1.0000   1.0000   1.0000   1.0000   1.0000   1.0000
     1.0000   1.0000   1.0000   1.0000   1.0000   1.0000   1.0000   1.0000
     1.0000   1.0000   1.0000   1.0000   1.0000   1.0000   1.0000   1.0000
     1.0000   1.0000   1.0000   1.0000   1.0000   1.0001   1.0003   1.0006
     1.0016   1.0035   1.0088   1.0134   1.0256   1.0350   1.0404   1.0815
     1.0833   1.0786   1.0747   1.0588   1.0422   1.0323   1.0064   0.7262
     0.5879   0.4296   0.2430   0.2041   0.0018   0.0000   0.0000   0.0000
     0.0000   0.0000   0.0000   0.0000   0.0000   0.0000   0.0000   0.0000
     0.0000   0.0000   0.0000   0.0000   0.0000   0.0000   0.0000   0.0000
     0.0000

          k = 0.3125 0.1083 0.0000 ( 44578 PWs)   bands (ev):

   -11.9551 -11.5771 -11.1154 -10.7096 -10.6789 -10.6183 -10.6121 -10.5340
   -10.5062 -10.4737 -10.4460 -10.4076 -10.3843 -10.3613 -10.3176 -10.2615
   -10.1987 -10.1520 -10.1002 -10.0558  -9.9845  -9.9737  -9.9554  -9.9271
    -9.9050  -9.8387  -9.7858  -9.7546  -9.6331  -9.5682  -9.3847  -9.3322
    -9.3009  -9.1594  -9.0584  -9.0277  -8.9512  -8.8768  -8.8505  -8.7837
    -8.7569  -8.6543  -8.5991  -8.5243  -8.4097  -8.3673  -8.3268  -8.3103
    -8.2848  -8.2214  -8.1972  -8.1884  -8.1285  -8.1123  -8.1046  -8.0771
    -8.0598  -8.0343  -7.9974  -7.9616  -7.9343  -7.9031  -7.8627  -7.8017
    -7.7648  -7.7442  -7.6458  -7.6038  -7.5736  -7.5445  -7.5123  -7.4963
    -7.4601  -7.4122  -7.3728  -7.1876  -7.1444  -7.0934  -7.0414  -7.0034
    -6.9886  -6.9296  -6.8058  -6.7460  -6.7315  -6.7003  -6.6229  -6.5875
    -6.5751  -6.5296  -6.5008  -6.4768  -6.4485  -6.3668  -6.3277  -6.2320
    -6.1342  -6.1220  -6.1107  -6.0961  -6.0118  -5.9921  -5.9852  -5.9690
    -5.9436  -5.9319  -5.9228  -5.8303  -5.7943  -5.7632  -5.7004  -5.6739
    -5.6075  -5.5553  -5.5081  -5.5060  -5.4869  -5.4772  -5.4350  -5.4220
    -5.3179  -5.3127  -5.3046  -5.1774  -5.1641  -5.1342  -4.8777  -4.4883
    -3.7428  -3.6077  -3.3251  -3.1691  -2.8894  -2.3735  -2.2738  -2.0124
    -1.9317  -1.7314  -1.4642  -0.8028  -0.6117   0.0294   0.1862   0.7687
     0.9328

     occupation numbers 
     1.0000   1.0000   1.0000   1.0000   1.0000   1.0000   1.0000   1.0000
     1.0000   1.0000   1.0000   1.0000   1.0000   1.0000   1.0000   1.0000
     1.0000   1.0000   1.0000   1.0000   1.0000   1.0000   1.0000   1.0000
     1.0000   1.0000   1.0000   1.0000   1.0000   1.0000   1.0000   1.0000
     1.0000   1.0000   1.0000   1.0000   1.0000   1.0000   1.0000   1.0000
     1.0000   1.0000   1.0000   1.0000   1.0000   1.0000   1.0000   1.0000
     1.0000   1.0000   1.0000   1.0000   1.0000   1.0000   1.0000   1.0000
     1.0000   1.0000   1.0000   1.0000   1.0000   1.0000   1.0000   1.0000
     1.0000   1.0000   1.0000   1.0000   1.0000   1.0000   1.0000   1.0000
     1.0000   1.0000   1.0000   1.0000   1.0000   1.0000   1.0000   1.0000
     1.0000   1.0000   1.0000   1.0000   1.0000   1.0000   1.0000   1.0000
     1.0000   1.0000   1.0000   1.0000   1.0000   1.0000   1.0000   1.0000
     1.0000   1.0000   1.0000   1.0000   1.0001   1.0001   1.0001   1.0002
     1.0004   1.0006   1.0007   1.0050   1.0096   1.0158   1.0365   1.0482
     1.0770   1.0814   1.0512   1.0489   1.0230   1.0066   0.9105   0.8734
     0.5023   0.4833   0.4541   0.1166   0.0971   0.0622   0.0002   0.0000
     0.0000   0.0000   0.0000   0.0000   0.0000   0.0000   0.0000   0.0000
     0.0000   0.0000   0.0000   0.0000   0.0000   0.0000   0.0000   0.0000
     0.0000

          k = 0.3125 0.1804 0.0000 ( 44550 PWs)   bands (ev):

   -11.8480 -11.5104 -11.0435 -10.7165 -10.6391 -10.5579 -10.5561 -10.4724
   -10.4185 -10.3970 -10.3909 -10.3772 -10.3353 -10.2796 -10.2753 -10.2464
   -10.1047 -10.0974 -10.0286  -9.9561  -9.9410  -9.9345  -9.8907  -9.8835
    -9.8546  -9.7929  -9.7326  -9.6835  -9.6080  -9.4352  -9.3534  -9.3047
    -9.2684  -9.1701  -9.1103  -9.0596  -8.9684  -8.8671  -8.8422  -8.8118
    -8.7975  -8.7177  -8.6686  -8.5705  -8.4275  -8.4130  -8.3529  -8.2865
    -8.2733  -8.2551  -8.2171  -8.1606  -8.1350  -8.1148  -8.1122  -8.0802
    -8.0757  -8.0343  -7.9781  -7.9503  -7.9135  -7.9015  -7.8061  -7.7398
    -7.7049  -7.6875  -7.6801  -7.6744  -7.6644  -7.6144  -7.5713  -7.5037
    -7.4731  -7.4567  -7.3921  -7.2948  -7.2496  -7.1068  -7.0908  -7.0139
    -7.0012  -6.9821  -6.8937  -6.8837  -6.8136  -6.7656  -6.7436  -6.7002
    -6.6522  -6.5937  -6.5621  -6.5346  -6.5108  -6.3727  -6.3254  -6.2660
    -6.2204  -6.2062  -6.2025  -6.1788  -6.1721  -6.0873  -6.0645  -6.0451
    -6.0161  -6.0090  -5.9481  -5.9382  -5.9217  -5.8571  -5.7566  -5.7013
    -5.6338  -5.6093  -5.5619  -5.5453  -5.5185  -5.4778  -5.4459  -5.4427
    -5.3962  -5.3120  -5.2953  -5.2900  -5.2237  -5.1449  -5.1379  -4.3822
    -3.8212  -3.1357  -2.9660  -2.9475  -2.6462  -2.6089  -2.3197  -2.1142
    -1.9925  -1.9024  -1.3714  -1.2160  -0.3139   0.0075   0.0539   1.1078
     1.3445

     occupation numbers 
     1.0000   1.0000   1.0000   1.0000   1.0000   1.0000   1.0000   1.0000
     1.0000   1.0000   1.0000   1.0000   1.0000   1.0000   1.0000   1.0000
     1.0000   1.0000   1.0000   1.0000   1.0000   1.0000   1.0000   1.0000
     1.0000   1.0000   1.0000   1.0000   1.0000   1.0000   1.0000   1.0000
     1.0000   1.0000   1.0000   1.0000   1.0000   1.0000   1.0000   1.0000
     1.0000   1.0000   1.0000   1.0000   1.0000   1.0000   1.0000   1.0000
     1.0000   1.0000   1.0000   1.0000   1.0000   1.0000   1.0000   1.0000
     1.0000   1.0000   1.0000   1.0000   1.0000   1.0000   1.0000   1.0000
     1.0000   1.0000   1.0000   1.0000   1.0000   1.0000   1.0000   1.0000
     1.0000   1.0000   1.0000   1.0000   1.0000   1.0000   1.0000   1.0000
     1.0000   1.0000   1.0000   1.0000   1.0000   1.0000   1.0000   1.0000
     1.0000   1.0000   1.0000   1.0000   1.0000   1.0000   1.0000   1.0000
     1.0000   1.0000   1.0000   1.0000   1.0000   1.0000   1.0000   1.0000
     1.0001   1.0001   1.0004   1.0005   1.0007   1.0030   1.0175   1.0362
     1.0668   1.0764   1.0826   1.0784   1.0615   1.0077   0.9391   0.9311
     0.7906   0.4808   0.4210   0.4027   0.2081   0.0733   0.0659   0.0000
     0.0000   0.0000   0.0000   0.0000   0.0000   0.0000   0.0000   0.0000
     0.0000   0.0000   0.0000   0.0000   0.0000   0.0000   0.0000   0.0000
     0.0000

          k = 0.3125 0.2526 0.0000 ( 44528 PWs)   bands (ev):

   -11.6946 -11.4202 -10.9349 -10.6917 -10.5576 -10.4856 -10.4692 -10.3798
   -10.3675 -10.3531 -10.2789 -10.2721 -10.2609 -10.2174 -10.1828 -10.1383
   -10.0223 -10.0070  -9.9359  -9.9025  -9.8853  -9.8331  -9.8238  -9.7883
    -9.7650  -9.7237  -9.6521  -9.6024  -9.5534  -9.3188  -9.2764  -9.2490
    -9.2292  -9.2126  -9.1577  -9.0889  -8.9757  -8.9434  -8.9254  -8.8877
    -8.7706  -8.7297  -8.7069  -8.6371  -8.5018  -8.4753  -8.4141  -8.3397
    -8.3200  -8.2699  -8.2522  -8.1991  -8.1583  -8.1266  -8.1059  -8.0828
    -8.0407  -8.0299  -7.9762  -7.9458  -7.8995  -7.8663  -7.8419  -7.8078
    -7.7843  -7.7723  -7.7108  -7.6614  -7.6386  -7.5930  -7.5749  -7.5649
    -7.4931  -7.4560  -7.3814  -7.3649  -7.2779  -7.1571  -7.1354  -7.1209
    -7.0337  -7.0193  -6.9904  -6.9813  -6.9645  -6.9327  -6.9263  -6.8111
    -6.7578  -6.6492  -6.6266  -6.6028  -6.5860  -6.5759  -6.4356  -6.3799
    -6.3507  -6.3298  -6.3160  -6.2974  -6.2380  -6.2035  -6.1466  -6.1246
    -6.1139  -6.0782  -6.0469  -5.9839  -5.9745  -5.8970  -5.8748  -5.7827
    -5.6640  -5.6095  -5.5766  -5.5512  -5.5295  -5.4711  -5.4490  -5.4332
    -5.3839  -5.3446  -5.3157  -5.3002  -5.2516  -5.1734  -5.1646  -4.2231
    -3.8920  -3.5635  -3.2955  -2.9794  -2.7309  -2.2817  -2.2086  -1.9425
    -1.8375  -1.6230  -1.3956  -0.7301  -0.4102  -0.2656   0.4782   1.0845
     1.3568

     occupation numbers 
     1.0000   1.0000   1.0000   1.0000   1.0000   1.0000   1.0000   1.0000
     1.0000   1.0000   1.0000   1.0000   1.0000   1.0000   1.0000   1.0000
     1.0000   1.0000   1.0000   1.0000   1.0000   1.0000   1.0000   1.0000
     1.0000   1.0000   1.0000   1.0000   1.0000   1.0000   1.0000   1.0000
     1.0000   1.0000   1.0000   1.0000   1.0000   1.0000   1.0000   1.0000
     1.0000   1.0000   1.0000   1.0000   1.0000   1.0000   1.0000   1.0000
     1.0000   1.0000   1.0000   1.0000   1.0000   1.0000   1.0000   1.0000
     1.0000   1.0000   1.0000   1.0000   1.0000   1.0000   1.0000   1.0000
     1.0000   1.0000   1.0000   1.0000   1.0000   1.0000   1.0000   1.0000
     1.0000   1.0000   1.0000   1.0000   1.0000   1.0000   1.0000   1.0000
     1.0000   1.0000   1.0000   1.0000   1.0000   1.0000   1.0000   1.0000
     1.0000   1.0000   1.0000   1.0000   1.0000   1.0000   1.0000   1.0000
     1.0000   1.0000   1.0000   1.0000   1.0000   1.0000   1.0000   1.0000
     1.0000   1.0000   1.0000   1.0001   1.0002   1.0013   1.0020   1.0116
     1.0528   1.0764   1.0832   1.0804   1.0701   0.9953   0.9469   0.9058
     0.7478   0.6026   0.4942   0.4383   0.2813   0.1105   0.0977   0.0000
     0.0000   0.0000   0.0000   0.0000   0.0000   0.0000   0.0000   0.0000
     0.0000   0.0000   0.0000   0.0000   0.0000   0.0000   0.0000   0.0000
     0.0000

          k = 0.3125 0.3248 0.0000 ( 44545 PWs)   bands (ev):

   -11.5121 -11.3089 -10.7916 -10.6380 -10.4363 -10.3956 -10.3610 -10.3228
   -10.3007 -10.2429 -10.1884 -10.1436 -10.1345 -10.1286 -10.0732  -9.9972
    -9.9317  -9.8900  -9.8705  -9.8254  -9.8044  -9.7649  -9.7522  -9.6827
    -9.6454  -9.6244  -9.5616  -9.5049  -9.4575  -9.2960  -9.2613  -9.2276
    -9.2073  -9.1676  -9.1273  -9.0963  -9.0420  -9.0231  -9.0077  -8.9072
    -8.8632  -8.7434  -8.7209  -8.6455  -8.5824  -8.5692  -8.5485  -8.4297
    -8.3968  -8.3395  -8.3007  -8.2483  -8.1926  -8.1635  -8.1377  -8.1228
    -8.0802  -8.0294  -8.0188  -7.9897  -7.9642  -7.9407  -7.9297  -7.8895
    -7.8581  -7.8154  -7.7530  -7.6555  -7.6136  -7.6097  -7.5696  -7.5193
    -7.4796  -7.4451  -7.3918  -7.3725  -7.3175  -7.2181  -7.2061  -7.1881
    -7.1726  -7.1392  -7.1324  -7.0690  -7.0523  -7.0201  -6.9453  -6.9130
    -6.8756  -6.8144  -6.7302  -6.7006  -6.6921  -6.6777  -6.5851  -6.5117
    -6.4557  -6.4396  -6.4236  -6.3528  -6.3020  -6.2910  -6.2542  -6.1691
    -6.1510  -6.1067  -6.0948  -6.0250  -5.9198  -5.8699  -5.8472  -5.7406
    -5.7214  -5.6050  -5.5770  -5.5608  -5.5366  -5.5280  -5.5028  -5.4839
    -5.4021  -5.3817  -5.3762  -5.3280  -5.2469  -5.2366  -5.0812  -4.1456
    -4.1016  -3.9041  -3.8101  -3.4915  -2.7356  -2.3285  -2.2212  -1.5334
    -1.3787  -1.1218  -0.9646  -0.6462  -0.4394   0.0943   0.6726   1.0172
     1.1579

     occupation numbers 
     1.0000   1.0000   1.0000   1.0000   1.0000   1.0000   1.0000   1.0000
     1.0000   1.0000   1.0000   1.0000   1.0000   1.0000   1.0000   1.0000
     1.0000   1.0000   1.0000   1.0000   1.0000   1.0000   1.0000   1.0000
     1.0000   1.0000   1.0000   1.0000   1.0000   1.0000   1.0000   1.0000
     1.0000   1.0000   1.0000   1.0000   1.0000   1.0000   1.0000   1.0000
     1.0000   1.0000   1.0000   1.0000   1.0000   1.0000   1.0000   1.0000
     1.0000   1.0000   1.0000   1.0000   1.0000   1.0000   1.0000   1.0000
     1.0000   1.0000   1.0000   1.0000   1.0000   1.0000   1.0000   1.0000
     1.0000   1.0000   1.0000   1.0000   1.0000   1.0000   1.0000   1.0000
     1.0000   1.0000   1.0000   1.0000   1.0000   1.0000   1.0000   1.0000
     1.0000   1.0000   1.0000   1.0000   1.0000   1.0000   1.0000   1.0000
     1.0000   1.0000   1.0000   1.0000   1.0000   1.0000   1.0000   1.0000
     1.0000   1.0000   1.0000   1.0000   1.0000   1.0000   1.0000   1.0000
     1.0000   1.0000   1.0000   1.0000   1.0007   1.0023   1.0036   1.0220
     1.0283   1.0778   1.0832   1.0825   1.0744   1.0691   1.0451   1.0181
     0.8104   0.7399   0.7202   0.5402   0.2680   0.2403   0.0255   0.0000
     0.0000   0.0000   0.0000   0.0000   0.0000   0.0000   0.0000   0.0000
     0.0000   0.0000   0.0000   0.0000   0.0000   0.0000   0.0000   0.0000
     0.0000

          k = 0.3125-0.7578 0.0000 ( 44502 PWs)   bands (ev):

   -11.3545 -11.1448 -10.6225 -10.5624 -10.3028 -10.2950 -10.2858 -10.2473
   -10.2020 -10.0879 -10.0835 -10.0432 -10.0089  -9.9918  -9.9243  -9.8938
    -9.8762  -9.8025  -9.7411  -9.7389  -9.7217  -9.7167  -9.6944  -9.5702
    -9.5464  -9.5270  -9.4912  -9.3728  -9.3483  -9.3340  -9.2779  -9.2150
    -9.1960  -9.1843  -9.1579  -9.1465  -9.1104  -8.9847  -8.9736  -8.9431
    -8.8999  -8.8090  -8.7930  -8.7524  -8.7268  -8.6041  -8.5813  -8.4652
    -8.4505  -8.4369  -8.4268  -8.3649  -8.3340  -8.3172  -8.2050  -8.1826
    -8.1462  -8.1128  -8.0644  -8.0385  -8.0201  -7.9913  -7.9606  -7.8805
    -7.8709  -7.8408  -7.8042  -7.7971  -7.7291  -7.6747  -7.6409  -7.5689
    -7.5563  -7.4865  -7.4255  -7.4225  -7.3811  -7.3175  -7.3039  -7.2819
    -7.2451  -7.1896  -7.1102  -7.0551  -7.0306  -7.0163  -6.9990  -6.9599
    -6.9322  -6.9127  -6.7693  -6.7564  -6.7292  -6.7007  -6.6269  -6.5548
    -6.5279  -6.4932  -6.4411  -6.4123  -6.3220  -6.2760  -6.2416  -6.2159
    -6.1898  -6.1440  -6.0354  -6.0198  -5.8594  -5.8350  -5.8164  -5.7849
    -5.7211  -5.6243  -5.6175  -5.6049  -5.5940  -5.5731  -5.5453  -5.5069
    -5.4978  -5.4651  -5.4495  -5.3571  -5.3394  -5.2748  -4.8773  -4.6262
    -4.4942  -4.1925  -3.9782  -3.5803  -3.0609  -2.4293  -2.0659  -1.5118
    -0.8715  -0.7361  -0.5666  -0.3802   0.0177   0.2948   0.7174   0.9910
     1.2591

     occupation numbers 
     1.0000   1.0000   1.0000   1.0000   1.0000   1.0000   1.0000   1.0000
     1.0000   1.0000   1.0000   1.0000   1.0000   1.0000   1.0000   1.0000
     1.0000   1.0000   1.0000   1.0000   1.0000   1.0000   1.0000   1.0000
     1.0000   1.0000   1.0000   1.0000   1.0000   1.0000   1.0000   1.0000
     1.0000   1.0000   1.0000   1.0000   1.0000   1.0000   1.0000   1.0000
     1.0000   1.0000   1.0000   1.0000   1.0000   1.0000   1.0000   1.0000
     1.0000   1.0000   1.0000   1.0000   1.0000   1.0000   1.0000   1.0000
     1.0000   1.0000   1.0000   1.0000   1.0000   1.0000   1.0000   1.0000
     1.0000   1.0000   1.0000   1.0000   1.0000   1.0000   1.0000   1.0000
     1.0000   1.0000   1.0000   1.0000   1.0000   1.0000   1.0000   1.0000
     1.0000   1.0000   1.0000   1.0000   1.0000   1.0000   1.0000   1.0000
     1.0000   1.0000   1.0000   1.0000   1.0000   1.0000   1.0000   1.0000
     1.0000   1.0000   1.0000   1.0000   1.0000   1.0000   1.0000   1.0000
     1.0000   1.0000   1.0000   1.0001   1.0028   1.0046   1.0065   1.0112
     1.0285   1.0708   1.0735   1.0778   1.0807   1.0833   1.0784   1.0500
     1.0388   0.9832   0.9480   0.6494   0.5830   0.3522   0.0002   0.0000
     0.0000   0.0000   0.0000   0.0000   0.0000   0.0000   0.0000   0.0000
     0.0000   0.0000   0.0000   0.0000   0.0000   0.0000   0.0000   0.0000
     0.0000

          k = 0.3125-0.6856 0.0000 ( 44485 PWs)   bands (ev):

   -11.2673 -10.9062 -10.4805 -10.4481 -10.3001 -10.2358 -10.1808 -10.1595
   -10.0349  -9.9759  -9.9612  -9.9260  -9.9246  -9.8899  -9.8589  -9.7819
    -9.7430  -9.7390  -9.6977  -9.6737  -9.6462  -9.6254  -9.5689  -9.5001
    -9.4738  -9.4705  -9.4538  -9.3879  -9.3441  -9.2901  -9.2585  -9.2465
    -9.2388  -9.2240  -9.1733  -9.1561  -9.1460  -9.0162  -8.9621  -8.9502
    -8.9264  -8.8924  -8.8334  -8.8099  -8.7892  -8.7058  -8.6445  -8.5631
    -8.5449  -8.4723  -8.4327  -8.4091  -8.3962  -8.3345  -8.3015  -8.2448
    -8.2087  -8.1869  -8.1706  -8.1533  -8.1033  -8.0589  -8.0174  -8.0031
    -7.9707  -7.9138  -7.8838  -7.8452  -7.7978  -7.7795  -7.7481  -7.7090
    -7.6475  -7.5893  -7.5704  -7.5363  -7.3871  -7.3216  -7.2689  -7.2448
    -7.1786  -7.1571  -7.1304  -7.1128  -7.0926  -7.0694  -7.0425  -6.9653
    -6.8408  -6.8174  -6.8022  -6.7542  -6.7364  -6.6480  -6.5674  -6.5387
    -6.4926  -6.4552  -6.4277  -6.3573  -6.3244  -6.2927  -6.2654  -6.2253
    -6.0991  -6.0631  -6.0090  -5.9548  -5.8550  -5.8375  -5.8084  -5.7700
    -5.7564  -5.7401  -5.6768  -5.6696  -5.6465  -5.6297  -5.5847  -5.5449
    -5.5331  -5.5005  -5.4741  -5.4555  -5.4432  -5.2472  -5.0810  -5.0053
    -4.7326  -4.5867  -4.0230  -3.5869  -3.2092  -2.4592  -2.0545  -1.6068
    -0.7502  -0.3953  -0.1354   0.0305   0.3735   0.6661   0.8775   1.0357
     1.3623

     occupation numbers 
     1.0000   1.0000   1.0000   1.0000   1.0000   1.0000   1.0000   1.0000
     1.0000   1.0000   1.0000   1.0000   1.0000   1.0000   1.0000   1.0000
     1.0000   1.0000   1.0000   1.0000   1.0000   1.0000   1.0000   1.0000
     1.0000   1.0000   1.0000   1.0000   1.0000   1.0000   1.0000   1.0000
     1.0000   1.0000   1.0000   1.0000   1.0000   1.0000   1.0000   1.0000
     1.0000   1.0000   1.0000   1.0000   1.0000   1.0000   1.0000   1.0000
     1.0000   1.0000   1.0000   1.0000   1.0000   1.0000   1.0000   1.0000
     1.0000   1.0000   1.0000   1.0000   1.0000   1.0000   1.0000   1.0000
     1.0000   1.0000   1.0000   1.0000   1.0000   1.0000   1.0000   1.0000
     1.0000   1.0000   1.0000   1.0000   1.0000   1.0000   1.0000   1.0000
     1.0000   1.0000   1.0000   1.0000   1.0000   1.0000   1.0000   1.0000
     1.0000   1.0000   1.0000   1.0000   1.0000   1.0000   1.0000   1.0000
     1.0000   1.0000   1.0000   1.0000   1.0000   1.0000   1.0000   1.0000
     1.0000   1.0000   1.0001   1.0003   1.0031   1.0044   1.0075   1.0142
     1.0175   1.0221   1.0469   1.0502   1.0610   1.0686   1.0824   1.0782
     1.0724   1.0422   1.0009   0.9622   0.9323   0.2690   0.0254   0.0056
     0.0000   0.0000   0.0000   0.0000   0.0000   0.0000   0.0000   0.0000
     0.0000   0.0000   0.0000   0.0000   0.0000   0.0000   0.0000   0.0000
     0.0000

          k = 0.3125-0.6134 0.0000 ( 44465 PWs)   bands (ev):

   -11.2290 -10.6441 -10.4175 -10.4153 -10.3052 -10.2232 -10.2138 -10.0211
    -9.9415  -9.9271  -9.8900  -9.8808  -9.8750  -9.7777  -9.7740  -9.7002
    -9.6536  -9.6325  -9.6124  -9.6043  -9.5789  -9.5601  -9.5164  -9.4915
    -9.4850  -9.4649  -9.4555  -9.4217  -9.3889  -9.3334  -9.3240  -9.3095
    -9.2574  -9.2057  -9.1778  -9.1733  -9.1534  -9.0894  -9.0592  -9.0551
    -8.9475  -8.8677  -8.8004  -8.7626  -8.6935  -8.6752  -8.6463  -8.6181
    -8.5388  -8.5002  -8.4896  -8.4697  -8.3799  -8.3675  -8.3249  -8.2777
    -8.2748  -8.2349  -8.2230  -8.2093  -8.2036  -8.1712  -8.1530  -8.1262
    -8.1195  -8.1045  -7.9928  -7.8497  -7.8018  -7.7265  -7.7040  -7.6915
    -7.6863  -7.6240  -7.6137  -7.5755  -7.4490  -7.4034  -7.3939  -7.2626
    -7.1815  -7.1484  -7.1086  -7.0967  -7.0739  -7.0226  -6.9559  -6.9269
    -6.8821  -6.8197  -6.8158  -6.7139  -6.6435  -6.6285  -6.5610  -6.4902
    -6.4517  -6.4321  -6.3924  -6.3675  -6.3503  -6.3344  -6.2067  -6.0330
    -6.0046  -5.9547  -5.9086  -5.8720  -5.8528  -5.8402  -5.8225  -5.8081
    -5.7925  -5.7885  -5.7815  -5.7165  -5.6285  -5.6123  -5.5864  -5.5705
    -5.5392  -5.5275  -5.5159  -5.4785  -5.4703  -5.4619  -5.4462  -5.2449
    -5.1090  -4.3969  -4.0399  -3.8877  -2.9704  -2.4923  -2.3279  -1.3500
    -0.7825  -0.6013   0.1857   0.6878   0.7994   0.8621   0.8960   1.1185
     1.3546

     occupation numbers 
     1.0000   1.0000   1.0000   1.0000   1.0000   1.0000   1.0000   1.0000
     1.0000   1.0000   1.0000   1.0000   1.0000   1.0000   1.0000   1.0000
     1.0000   1.0000   1.0000   1.0000   1.0000   1.0000   1.0000   1.0000
     1.0000   1.0000   1.0000   1.0000   1.0000   1.0000   1.0000   1.0000
     1.0000   1.0000   1.0000   1.0000   1.0000   1.0000   1.0000   1.0000
     1.0000   1.0000   1.0000   1.0000   1.0000   1.0000   1.0000   1.0000
     1.0000   1.0000   1.0000   1.0000   1.0000   1.0000   1.0000   1.0000
     1.0000   1.0000   1.0000   1.0000   1.0000   1.0000   1.0000   1.0000
     1.0000   1.0000   1.0000   1.0000   1.0000   1.0000   1.0000   1.0000
     1.0000   1.0000   1.0000   1.0000   1.0000   1.0000   1.0000   1.0000
     1.0000   1.0000   1.0000   1.0000   1.0000   1.0000   1.0000   1.0000
     1.0000   1.0000   1.0000   1.0000   1.0000   1.0000   1.0000   1.0000
     1.0000   1.0000   1.0000   1.0000   1.0000   1.0000   1.0000   1.0000
     1.0001   1.0003   1.0010   1.0022   1.0032   1.0041   1.0058   1.0075
     1.0099   1.0106   1.0119   1.0302   1.0691   1.0754   1.0822   1.0833
     1.0757   1.0688   1.0593   1.0089   0.9938   0.9764   0.9401   0.2625
     0.0414   0.0000   0.0000   0.0000   0.0000   0.0000   0.0000   0.0000
     0.0000   0.0000   0.0000   0.0000   0.0000   0.0000   0.0000   0.0000
     0.0000

          k = 0.3125-0.5413 0.0000 ( 44465 PWs)   bands (ev):

   -11.2290 -10.6441 -10.4175 -10.4153 -10.3052 -10.2232 -10.2138 -10.0211
    -9.9415  -9.9271  -9.8900  -9.8808  -9.8750  -9.7777  -9.7740  -9.7002
    -9.6536  -9.6325  -9.6124  -9.6043  -9.5789  -9.5601  -9.5164  -9.4915
    -9.4850  -9.4649  -9.4555  -9.4217  -9.3889  -9.3334  -9.3240  -9.3095
    -9.2574  -9.2057  -9.1778  -9.1733  -9.1534  -9.0894  -9.0592  -9.0551
    -8.9475  -8.8677  -8.8004  -8.7626  -8.6935  -8.6752  -8.6463  -8.6181
    -8.5388  -8.5002  -8.4896  -8.4697  -8.3799  -8.3675  -8.3249  -8.2777
    -8.2748  -8.2349  -8.2230  -8.2093  -8.2036  -8.1712  -8.1530  -8.1262
    -8.1195  -8.1045  -7.9928  -7.8497  -7.8018  -7.7265  -7.7040  -7.6915
    -7.6863  -7.6240  -7.6137  -7.5755  -7.4490  -7.4034  -7.3939  -7.2626
    -7.1815  -7.1484  -7.1086  -7.0967  -7.0739  -7.0226  -6.9559  -6.9269
    -6.8821  -6.8197  -6.8158  -6.7139  -6.6435  -6.6285  -6.5610  -6.4902
    -6.4517  -6.4321  -6.3924  -6.3675  -6.3503  -6.3344  -6.2067  -6.0330
    -6.0046  -5.9547  -5.9086  -5.8720  -5.8528  -5.8402  -5.8225  -5.8081
    -5.7925  -5.7885  -5.7815  -5.7165  -5.6285  -5.6123  -5.5864  -5.5705
    -5.5392  -5.5275  -5.5159  -5.4785  -5.4703  -5.4619  -5.4462  -5.2449
    -5.1090  -4.3969  -4.0399  -3.8877  -2.9704  -2.4923  -2.3279  -1.3500
    -0.7825  -0.6013   0.1857   0.6878   0.7994   0.8621   0.8960   1.1185
     1.3546

     occupation numbers 
     1.0000   1.0000   1.0000   1.0000   1.0000   1.0000   1.0000   1.0000
     1.0000   1.0000   1.0000   1.0000   1.0000   1.0000   1.0000   1.0000
     1.0000   1.0000   1.0000   1.0000   1.0000   1.0000   1.0000   1.0000
     1.0000   1.0000   1.0000   1.0000   1.0000   1.0000   1.0000   1.0000
     1.0000   1.0000   1.0000   1.0000   1.0000   1.0000   1.0000   1.0000
     1.0000   1.0000   1.0000   1.0000   1.0000   1.0000   1.0000   1.0000
     1.0000   1.0000   1.0000   1.0000   1.0000   1.0000   1.0000   1.0000
     1.0000   1.0000   1.0000   1.0000   1.0000   1.0000   1.0000   1.0000
     1.0000   1.0000   1.0000   1.0000   1.0000   1.0000   1.0000   1.0000
     1.0000   1.0000   1.0000   1.0000   1.0000   1.0000   1.0000   1.0000
     1.0000   1.0000   1.0000   1.0000   1.0000   1.0000   1.0000   1.0000
     1.0000   1.0000   1.0000   1.0000   1.0000   1.0000   1.0000   1.0000
     1.0000   1.0000   1.0000   1.0000   1.0000   1.0000   1.0000   1.0000
     1.0001   1.0003   1.0010   1.0022   1.0032   1.0041   1.0058   1.0075
     1.0099   1.0106   1.0119   1.0302   1.0691   1.0754   1.0822   1.0833
     1.0757   1.0688   1.0593   1.0089   0.9938   0.9764   0.9401   0.2625
     0.0414   0.0000   0.0000   0.0000   0.0000   0.0000   0.0000   0.0000
     0.0000   0.0000   0.0000   0.0000   0.0000   0.0000   0.0000   0.0000
     0.0000

          k = 0.3125-0.4691 0.0000 ( 44485 PWs)   bands (ev):

   -11.2673 -10.9062 -10.4805 -10.4481 -10.3001 -10.2358 -10.1808 -10.1595
   -10.0349  -9.9759  -9.9612  -9.9260  -9.9246  -9.8899  -9.8589  -9.7819
    -9.7430  -9.7390  -9.6977  -9.6737  -9.6462  -9.6254  -9.5689  -9.5001
    -9.4738  -9.4705  -9.4538  -9.3879  -9.3441  -9.2901  -9.2585  -9.2465
    -9.2388  -9.2240  -9.1733  -9.1561  -9.1460  -9.0162  -8.9621  -8.9502
    -8.9264  -8.8924  -8.8334  -8.8099  -8.7892  -8.7058  -8.6445  -8.5631
    -8.5449  -8.4723  -8.4327  -8.4091  -8.3962  -8.3345  -8.3015  -8.2448
    -8.2087  -8.1869  -8.1706  -8.1533  -8.1033  -8.0589  -8.0174  -8.0031
    -7.9707  -7.9138  -7.8838  -7.8452  -7.7978  -7.7795  -7.7481  -7.7090
    -7.6475  -7.5893  -7.5704  -7.5363  -7.3871  -7.3216  -7.2689  -7.2448
    -7.1786  -7.1571  -7.1304  -7.1128  -7.0926  -7.0694  -7.0425  -6.9653
    -6.8408  -6.8174  -6.8022  -6.7542  -6.7364  -6.6480  -6.5674  -6.5387
    -6.4926  -6.4552  -6.4277  -6.3573  -6.3244  -6.2927  -6.2654  -6.2253
    -6.0991  -6.0631  -6.0090  -5.9548  -5.8550  -5.8375  -5.8084  -5.7700
    -5.7564  -5.7401  -5.6768  -5.6696  -5.6465  -5.6297  -5.5847  -5.5449
    -5.5331  -5.5005  -5.4741  -5.4555  -5.4432  -5.2472  -5.0810  -5.0053
    -4.7326  -4.5867  -4.0230  -3.5869  -3.2092  -2.4592  -2.0545  -1.6068
    -0.7502  -0.3953  -0.1354   0.0305   0.3735   0.6661   0.8775   1.0357
     1.3623

     occupation numbers 
     1.0000   1.0000   1.0000   1.0000   1.0000   1.0000   1.0000   1.0000
     1.0000   1.0000   1.0000   1.0000   1.0000   1.0000   1.0000   1.0000
     1.0000   1.0000   1.0000   1.0000   1.0000   1.0000   1.0000   1.0000
     1.0000   1.0000   1.0000   1.0000   1.0000   1.0000   1.0000   1.0000
     1.0000   1.0000   1.0000   1.0000   1.0000   1.0000   1.0000   1.0000
     1.0000   1.0000   1.0000   1.0000   1.0000   1.0000   1.0000   1.0000
     1.0000   1.0000   1.0000   1.0000   1.0000   1.0000   1.0000   1.0000
     1.0000   1.0000   1.0000   1.0000   1.0000   1.0000   1.0000   1.0000
     1.0000   1.0000   1.0000   1.0000   1.0000   1.0000   1.0000   1.0000
     1.0000   1.0000   1.0000   1.0000   1.0000   1.0000   1.0000   1.0000
     1.0000   1.0000   1.0000   1.0000   1.0000   1.0000   1.0000   1.0000
     1.0000   1.0000   1.0000   1.0000   1.0000   1.0000   1.0000   1.0000
     1.0000   1.0000   1.0000   1.0000   1.0000   1.0000   1.0000   1.0000
     1.0000   1.0000   1.0001   1.0003   1.0031   1.0044   1.0075   1.0142
     1.0175   1.0221   1.0469   1.0502   1.0610   1.0686   1.0824   1.0782
     1.0724   1.0422   1.0009   0.9622   0.9323   0.2690   0.0254   0.0056
     0.0000   0.0000   0.0000   0.0000   0.0000   0.0000   0.0000   0.0000
     0.0000   0.0000   0.0000   0.0000   0.0000   0.0000   0.0000   0.0000
     0.0000

          k = 0.3125-0.3969 0.0000 ( 44502 PWs)   bands (ev):

   -11.3545 -11.1448 -10.6225 -10.5624 -10.3028 -10.2950 -10.2858 -10.2473
   -10.2020 -10.0879 -10.0835 -10.0432 -10.0089  -9.9918  -9.9243  -9.8938
    -9.8762  -9.8025  -9.7411  -9.7389  -9.7217  -9.7167  -9.6944  -9.5702
    -9.5464  -9.5270  -9.4912  -9.3728  -9.3483  -9.3340  -9.2779  -9.2150
    -9.1960  -9.1843  -9.1579  -9.1465  -9.1104  -8.9847  -8.9736  -8.9431
    -8.8999  -8.8090  -8.7930  -8.7524  -8.7268  -8.6041  -8.5813  -8.4652
    -8.4505  -8.4369  -8.4268  -8.3649  -8.3340  -8.3172  -8.2050  -8.1826
    -8.1462  -8.1128  -8.0644  -8.0385  -8.0201  -7.9913  -7.9606  -7.8805
    -7.8709  -7.8408  -7.8042  -7.7971  -7.7291  -7.6747  -7.6409  -7.5689
    -7.5563  -7.4865  -7.4255  -7.4225  -7.3811  -7.3175  -7.3039  -7.2819
    -7.2451  -7.1896  -7.1102  -7.0551  -7.0306  -7.0163  -6.9990  -6.9599
    -6.9322  -6.9127  -6.7693  -6.7564  -6.7292  -6.7007  -6.6269  -6.5548
    -6.5279  -6.4932  -6.4411  -6.4123  -6.3220  -6.2760  -6.2416  -6.2159
    -6.1898  -6.1440  -6.0354  -6.0198  -5.8594  -5.8350  -5.8164  -5.7849
    -5.7211  -5.6243  -5.6175  -5.6049  -5.5940  -5.5731  -5.5453  -5.5069
    -5.4978  -5.4651  -5.4495  -5.3571  -5.3394  -5.2748  -4.8773  -4.6262
    -4.4942  -4.1925  -3.9782  -3.5803  -3.0609  -2.4293  -2.0659  -1.5118
    -0.8715  -0.7361  -0.5666  -0.3802   0.0177   0.2948   0.7174   0.9910
     1.2591

     occupation numbers 
     1.0000   1.0000   1.0000   1.0000   1.0000   1.0000   1.0000   1.0000
     1.0000   1.0000   1.0000   1.0000   1.0000   1.0000   1.0000   1.0000
     1.0000   1.0000   1.0000   1.0000   1.0000   1.0000   1.0000   1.0000
     1.0000   1.0000   1.0000   1.0000   1.0000   1.0000   1.0000   1.0000
     1.0000   1.0000   1.0000   1.0000   1.0000   1.0000   1.0000   1.0000
     1.0000   1.0000   1.0000   1.0000   1.0000   1.0000   1.0000   1.0000
     1.0000   1.0000   1.0000   1.0000   1.0000   1.0000   1.0000   1.0000
     1.0000   1.0000   1.0000   1.0000   1.0000   1.0000   1.0000   1.0000
     1.0000   1.0000   1.0000   1.0000   1.0000   1.0000   1.0000   1.0000
     1.0000   1.0000   1.0000   1.0000   1.0000   1.0000   1.0000   1.0000
     1.0000   1.0000   1.0000   1.0000   1.0000   1.0000   1.0000   1.0000
     1.0000   1.0000   1.0000   1.0000   1.0000   1.0000   1.0000   1.0000
     1.0000   1.0000   1.0000   1.0000   1.0000   1.0000   1.0000   1.0000
     1.0000   1.0000   1.0000   1.0001   1.0028   1.0046   1.0065   1.0112
     1.0285   1.0708   1.0735   1.0778   1.0807   1.0833   1.0784   1.0500
     1.0388   0.9832   0.9480   0.6494   0.5830   0.3522   0.0002   0.0000
     0.0000   0.0000   0.0000   0.0000   0.0000   0.0000   0.0000   0.0000
     0.0000   0.0000   0.0000   0.0000   0.0000   0.0000   0.0000   0.0000
     0.0000

          k = 0.3125-0.3248 0.0000 ( 44545 PWs)   bands (ev):

   -11.5121 -11.3089 -10.7916 -10.6380 -10.4363 -10.3956 -10.3610 -10.3228
   -10.3007 -10.2429 -10.1884 -10.1436 -10.1345 -10.1286 -10.0732  -9.9972
    -9.9317  -9.8900  -9.8705  -9.8254  -9.8044  -9.7649  -9.7522  -9.6827
    -9.6454  -9.6244  -9.5616  -9.5049  -9.4575  -9.2960  -9.2613  -9.2276
    -9.2073  -9.1676  -9.1273  -9.0963  -9.0420  -9.0231  -9.0077  -8.9072
    -8.8632  -8.7434  -8.7209  -8.6455  -8.5824  -8.5692  -8.5485  -8.4297
    -8.3968  -8.3395  -8.3007  -8.2483  -8.1926  -8.1635  -8.1377  -8.1228
    -8.0802  -8.0294  -8.0188  -7.9897  -7.9642  -7.9407  -7.9297  -7.8895
    -7.8581  -7.8154  -7.7530  -7.6555  -7.6136  -7.6097  -7.5696  -7.5193
    -7.4796  -7.4451  -7.3918  -7.3725  -7.3175  -7.2181  -7.2061  -7.1881
    -7.1726  -7.1392  -7.1324  -7.0690  -7.0523  -7.0201  -6.9453  -6.9130
    -6.8756  -6.8144  -6.7302  -6.7006  -6.6921  -6.6777  -6.5851  -6.5117
    -6.4557  -6.4396  -6.4236  -6.3528  -6.3020  -6.2910  -6.2542  -6.1691
    -6.1510  -6.1067  -6.0948  -6.0250  -5.9198  -5.8699  -5.8472  -5.7406
    -5.7214  -5.6050  -5.5770  -5.5608  -5.5366  -5.5280  -5.5028  -5.4839
    -5.4021  -5.3817  -5.3762  -5.3280  -5.2469  -5.2366  -5.0812  -4.1456
    -4.1016  -3.9041  -3.8101  -3.4915  -2.7356  -2.3285  -2.2212  -1.5334
    -1.3787  -1.1218  -0.9646  -0.6462  -0.4394   0.0943   0.6726   1.0172
     1.1579

     occupation numbers 
     1.0000   1.0000   1.0000   1.0000   1.0000   1.0000   1.0000   1.0000
     1.0000   1.0000   1.0000   1.0000   1.0000   1.0000   1.0000   1.0000
     1.0000   1.0000   1.0000   1.0000   1.0000   1.0000   1.0000   1.0000
     1.0000   1.0000   1.0000   1.0000   1.0000   1.0000   1.0000   1.0000
     1.0000   1.0000   1.0000   1.0000   1.0000   1.0000   1.0000   1.0000
     1.0000   1.0000   1.0000   1.0000   1.0000   1.0000   1.0000   1.0000
     1.0000   1.0000   1.0000   1.0000   1.0000   1.0000   1.0000   1.0000
     1.0000   1.0000   1.0000   1.0000   1.0000   1.0000   1.0000   1.0000
     1.0000   1.0000   1.0000   1.0000   1.0000   1.0000   1.0000   1.0000
     1.0000   1.0000   1.0000   1.0000   1.0000   1.0000   1.0000   1.0000
     1.0000   1.0000   1.0000   1.0000   1.0000   1.0000   1.0000   1.0000
     1.0000   1.0000   1.0000   1.0000   1.0000   1.0000   1.0000   1.0000
     1.0000   1.0000   1.0000   1.0000   1.0000   1.0000   1.0000   1.0000
     1.0000   1.0000   1.0000   1.0000   1.0007   1.0023   1.0036   1.0220
     1.0283   1.0778   1.0832   1.0825   1.0744   1.0691   1.0451   1.0181
     0.8104   0.7399   0.7202   0.5402   0.2680   0.2403   0.0255   0.0000
     0.0000   0.0000   0.0000   0.0000   0.0000   0.0000   0.0000   0.0000
     0.0000   0.0000   0.0000   0.0000   0.0000   0.0000   0.0000   0.0000
     0.0000

          k = 0.3125-0.2526 0.0000 ( 44528 PWs)   bands (ev):

   -11.6946 -11.4202 -10.9349 -10.6917 -10.5576 -10.4856 -10.4692 -10.3798
   -10.3675 -10.3531 -10.2789 -10.2721 -10.2609 -10.2174 -10.1828 -10.1383
   -10.0223 -10.0070  -9.9359  -9.9025  -9.8853  -9.8331  -9.8238  -9.7883
    -9.7650  -9.7237  -9.6521  -9.6024  -9.5534  -9.3188  -9.2764  -9.2490
    -9.2292  -9.2126  -9.1577  -9.0889  -8.9757  -8.9434  -8.9254  -8.8877
    -8.7706  -8.7297  -8.7069  -8.6371  -8.5018  -8.4753  -8.4141  -8.3397
    -8.3200  -8.2699  -8.2522  -8.1991  -8.1583  -8.1266  -8.1059  -8.0828
    -8.0407  -8.0299  -7.9762  -7.9458  -7.8995  -7.8663  -7.8419  -7.8078
    -7.7843  -7.7723  -7.7108  -7.6614  -7.6386  -7.5930  -7.5749  -7.5649
    -7.4931  -7.4560  -7.3814  -7.3649  -7.2779  -7.1571  -7.1354  -7.1209
    -7.0337  -7.0193  -6.9904  -6.9813  -6.9645  -6.9327  -6.9263  -6.8111
    -6.7578  -6.6492  -6.6266  -6.6028  -6.5860  -6.5759  -6.4356  -6.3799
    -6.3507  -6.3298  -6.3160  -6.2974  -6.2380  -6.2035  -6.1466  -6.1246
    -6.1139  -6.0782  -6.0469  -5.9839  -5.9745  -5.8970  -5.8748  -5.7827
    -5.6640  -5.6095  -5.5766  -5.5512  -5.5295  -5.4711  -5.4490  -5.4332
    -5.3839  -5.3446  -5.3157  -5.3002  -5.2516  -5.1734  -5.1646  -4.2231
    -3.8920  -3.5635  -3.2955  -2.9794  -2.7309  -2.2817  -2.2086  -1.9425
    -1.8375  -1.6230  -1.3956  -0.7301  -0.4102  -0.2656   0.4782   1.0845
     1.3567

     occupation numbers 
     1.0000   1.0000   1.0000   1.0000   1.0000   1.0000   1.0000   1.0000
     1.0000   1.0000   1.0000   1.0000   1.0000   1.0000   1.0000   1.0000
     1.0000   1.0000   1.0000   1.0000   1.0000   1.0000   1.0000   1.0000
     1.0000   1.0000   1.0000   1.0000   1.0000   1.0000   1.0000   1.0000
     1.0000   1.0000   1.0000   1.0000   1.0000   1.0000   1.0000   1.0000
     1.0000   1.0000   1.0000   1.0000   1.0000   1.0000   1.0000   1.0000
     1.0000   1.0000   1.0000   1.0000   1.0000   1.0000   1.0000   1.0000
     1.0000   1.0000   1.0000   1.0000   1.0000   1.0000   1.0000   1.0000
     1.0000   1.0000   1.0000   1.0000   1.0000   1.0000   1.0000   1.0000
     1.0000   1.0000   1.0000   1.0000   1.0000   1.0000   1.0000   1.0000
     1.0000   1.0000   1.0000   1.0000   1.0000   1.0000   1.0000   1.0000
     1.0000   1.0000   1.0000   1.0000   1.0000   1.0000   1.0000   1.0000
     1.0000   1.0000   1.0000   1.0000   1.0000   1.0000   1.0000   1.0000
     1.0000   1.0000   1.0000   1.0001   1.0002   1.0013   1.0020   1.0116
     1.0528   1.0764   1.0832   1.0804   1.0701   0.9953   0.9469   0.9058
     0.7478   0.6026   0.4942   0.4383   0.2813   0.1105   0.0977   0.0000
     0.0000   0.0000   0.0000   0.0000   0.0000   0.0000   0.0000   0.0000
     0.0000   0.0000   0.0000   0.0000   0.0000   0.0000   0.0000   0.0000
     0.0000

          k = 0.3750-0.2165 0.0000 ( 44520 PWs)   bands (ev):

   -11.5648 -11.3073 -10.8524 -10.7208 -10.5226 -10.4213 -10.4189 -10.3788
   -10.3367 -10.2501 -10.2487 -10.2396 -10.2046 -10.1412 -10.1077 -10.1058
    -9.9453  -9.9368  -9.8793  -9.8594  -9.8175  -9.8066  -9.7403  -9.7319
    -9.7154  -9.6610  -9.5956  -9.5529  -9.5286  -9.3071  -9.2562  -9.2239
    -9.2079  -9.1845  -9.1350  -9.0844  -9.0192  -9.0017  -8.9156  -8.8688
    -8.8503  -8.8226  -8.6908  -8.6674  -8.5646  -8.5261  -8.4682  -8.3948
    -8.3785  -8.2686  -8.2254  -8.1582  -8.1376  -8.1277  -8.1219  -8.0994
    -8.0756  -8.0136  -7.9551  -7.9493  -7.9240  -7.8917  -7.8737  -7.8481
    -7.8009  -7.7104  -7.6875  -7.6537  -7.6415  -7.6179  -7.5780  -7.5595
    -7.5230  -7.5071  -7.4748  -7.3285  -7.2658  -7.2342  -7.2119  -7.1612
    -7.1143  -7.1068  -7.0880  -7.0604  -6.9869  -6.9704  -6.9553  -6.8856
    -6.7677  -6.7078  -6.6967  -6.6681  -6.6516  -6.6327  -6.4636  -6.4524
    -6.4386  -6.4067  -6.3954  -6.3549  -6.3497  -6.3077  -6.2481  -6.2043
    -6.1856  -6.1455  -6.1287  -6.0674  -6.0206  -5.9879  -5.9712  -5.9453
    -5.8563  -5.6227  -5.6069  -5.5840  -5.5260  -5.5090  -5.4190  -5.4153
    -5.3837  -5.3321  -5.2993  -5.2890  -5.2359  -5.1463  -5.1396  -4.2261
    -3.9329  -2.9551  -2.8875  -2.8238  -2.5799  -2.5220  -2.3508  -2.1090
    -2.0399  -1.4609  -1.1954  -1.0804  -0.5865   0.0410   0.2609   0.9902
     1.4946

     occupation numbers 
     1.0000   1.0000   1.0000   1.0000   1.0000   1.0000   1.0000   1.0000
     1.0000   1.0000   1.0000   1.0000   1.0000   1.0000   1.0000   1.0000
     1.0000   1.0000   1.0000   1.0000   1.0000   1.0000   1.0000   1.0000
     1.0000   1.0000   1.0000   1.0000   1.0000   1.0000   1.0000   1.0000
     1.0000   1.0000   1.0000   1.0000   1.0000   1.0000   1.0000   1.0000
     1.0000   1.0000   1.0000   1.0000   1.0000   1.0000   1.0000   1.0000
     1.0000   1.0000   1.0000   1.0000   1.0000   1.0000   1.0000   1.0000
     1.0000   1.0000   1.0000   1.0000   1.0000   1.0000   1.0000   1.0000
     1.0000   1.0000   1.0000   1.0000   1.0000   1.0000   1.0000   1.0000
     1.0000   1.0000   1.0000   1.0000   1.0000   1.0000   1.0000   1.0000
     1.0000   1.0000   1.0000   1.0000   1.0000   1.0000   1.0000   1.0000
     1.0000   1.0000   1.0000   1.0000   1.0000   1.0000   1.0000   1.0000
     1.0000   1.0000   1.0000   1.0000   1.0000   1.0000   1.0000   1.0000
     1.0000   1.0000   1.0000   1.0000   1.0001   1.0001   1.0002   1.0004
     1.0030   1.0715   1.0772   1.0825   1.0677   1.0522   0.8642   0.8530
     0.7469   0.5555   0.4351   0.3995   0.2385   0.0748   0.0676   0.0000
     0.0000   0.0000   0.0000   0.0000   0.0000   0.0000   0.0000   0.0000
     0.0000   0.0000   0.0000   0.0000   0.0000   0.0000   0.0000   0.0000
     0.0000

          k = 0.3750-0.1443 0.0000 ( 44528 PWs)   bands (ev):

   -11.6824 -11.3709 -10.9254 -10.6917 -10.5577 -10.4867 -10.4692 -10.3781
   -10.3660 -10.3600 -10.2795 -10.2737 -10.2556 -10.2162 -10.1828 -10.1396
   -10.0297 -10.0027  -9.9327  -9.9086  -9.8907  -9.8316  -9.8230  -9.7796
    -9.7681  -9.7067  -9.6443  -9.6322  -9.5527  -9.3755  -9.2760  -9.2461
    -9.2217  -9.2122  -9.1412  -9.0810  -9.0146  -8.9469  -8.9321  -8.9087
    -8.7703  -8.7366  -8.7102  -8.6336  -8.4930  -8.4672  -8.4082  -8.3462
    -8.3271  -8.2696  -8.2624  -8.1986  -8.1591  -8.1332  -8.0938  -8.0805
    -8.0493  -8.0326  -7.9805  -7.9323  -7.9146  -7.8649  -7.8467  -7.8033
    -7.7900  -7.7740  -7.7426  -7.6585  -7.6462  -7.6018  -7.5714  -7.5598
    -7.5036  -7.4406  -7.4033  -7.3743  -7.2833  -7.1693  -7.1259  -7.0871
    -7.0601  -7.0371  -6.9866  -6.9792  -6.9552  -6.9366  -6.9208  -6.8279
    -6.7532  -6.6397  -6.6127  -6.6061  -6.5880  -6.5795  -6.4369  -6.3610
    -6.3509  -6.3358  -6.3210  -6.2923  -6.2331  -6.2058  -6.1483  -6.1292
    -6.0888  -6.0784  -6.0278  -5.9905  -5.9711  -5.9013  -5.8693  -5.7871
    -5.6512  -5.6028  -5.5746  -5.5546  -5.5195  -5.4702  -5.4526  -5.4279
    -5.3808  -5.3354  -5.3144  -5.2983  -5.2474  -5.1731  -5.1646  -4.2157
    -3.8937  -3.5692  -3.3208  -2.9812  -2.6769  -2.2618  -2.2202  -1.9030
    -1.8641  -1.6044  -1.3708  -0.6796  -0.4474  -0.2551   0.5153   1.0568
     1.3688

     occupation numbers 
     1.0000   1.0000   1.0000   1.0000   1.0000   1.0000   1.0000   1.0000
     1.0000   1.0000   1.0000   1.0000   1.0000   1.0000   1.0000   1.0000
     1.0000   1.0000   1.0000   1.0000   1.0000   1.0000   1.0000   1.0000
     1.0000   1.0000   1.0000   1.0000   1.0000   1.0000   1.0000   1.0000
     1.0000   1.0000   1.0000   1.0000   1.0000   1.0000   1.0000   1.0000
     1.0000   1.0000   1.0000   1.0000   1.0000   1.0000   1.0000   1.0000
     1.0000   1.0000   1.0000   1.0000   1.0000   1.0000   1.0000   1.0000
     1.0000   1.0000   1.0000   1.0000   1.0000   1.0000   1.0000   1.0000
     1.0000   1.0000   1.0000   1.0000   1.0000   1.0000   1.0000   1.0000
     1.0000   1.0000   1.0000   1.0000   1.0000   1.0000   1.0000   1.0000
     1.0000   1.0000   1.0000   1.0000   1.0000   1.0000   1.0000   1.0000
     1.0000   1.0000   1.0000   1.0000   1.0000   1.0000   1.0000   1.0000
     1.0000   1.0000   1.0000   1.0000   1.0000   1.0000   1.0000   1.0000
     1.0000   1.0000   1.0000   1.0001   1.0002   1.0011   1.0023   1.0108
     1.0589   1.0785   1.0833   1.0813   1.0625   0.9935   0.9555   0.8906
     0.7365   0.5676   0.4897   0.4316   0.2694   0.1101   0.0978   0.0000
     0.0000   0.0000   0.0000   0.0000   0.0000   0.0000   0.0000   0.0000
     0.0000   0.0000   0.0000   0.0000   0.0000   0.0000   0.0000   0.0000
     0.0000

          k = 0.3750-0.0722 0.0000 ( 44558 PWs)   bands (ev):

   -11.7553 -11.4123 -10.9684 -10.6379 -10.5590 -10.5281 -10.5051 -10.4672
   -10.3884 -10.3621 -10.3266 -10.3053 -10.2654 -10.2592 -10.1709 -10.1558
   -10.1132 -10.0475 -10.0132  -9.9674  -9.9010  -9.8830  -9.8412  -9.8091
    -9.7941  -9.7393  -9.6979  -9.6383  -9.5559  -9.4898  -9.3014  -9.2629
    -9.2491  -9.1626  -9.1378  -9.0997  -8.9905  -8.9717  -8.9295  -8.8885
    -8.8048  -8.7223  -8.6024  -8.5794  -8.4503  -8.4304  -8.3901  -8.3366
    -8.3028  -8.2976  -8.2839  -8.2576  -8.1940  -8.1272  -8.0843  -8.0587
    -8.0483  -8.0402  -8.0102  -7.9605  -7.9299  -7.9032  -7.8388  -7.8153
    -7.7991  -7.7748  -7.6917  -7.6688  -7.6663  -7.6168  -7.5731  -7.5074
    -7.4735  -7.3847  -7.3589  -7.3172  -7.3033  -7.1590  -7.0880  -7.0490
    -7.0137  -6.9883  -6.9680  -6.9404  -6.9073  -6.8476  -6.8253  -6.8104
    -6.7653  -6.6603  -6.5809  -6.5631  -6.5538  -6.5209  -6.4067  -6.3881
    -6.3327  -6.2905  -6.2659  -6.2462  -6.2087  -6.1143  -6.0633  -6.0560
    -5.9971  -5.9734  -5.9632  -5.9413  -5.8417  -5.7971  -5.7177  -5.6971
    -5.6045  -5.5846  -5.5504  -5.5465  -5.5266  -5.4867  -5.3928  -5.3730
    -5.3580  -5.3398  -5.2970  -5.2421  -5.2345  -5.1042  -4.8466  -4.2904
    -4.1833  -3.9517  -3.6920  -3.4856  -2.8922  -2.5311  -1.9314  -1.7373
    -1.6301  -1.2232  -1.0374  -0.7447  -0.1840  -0.0249   0.4838   0.6718
     0.8885

     occupation numbers 
     1.0000   1.0000   1.0000   1.0000   1.0000   1.0000   1.0000   1.0000
     1.0000   1.0000   1.0000   1.0000   1.0000   1.0000   1.0000   1.0000
     1.0000   1.0000   1.0000   1.0000   1.0000   1.0000   1.0000   1.0000
     1.0000   1.0000   1.0000   1.0000   1.0000   1.0000   1.0000   1.0000
     1.0000   1.0000   1.0000   1.0000   1.0000   1.0000   1.0000   1.0000
     1.0000   1.0000   1.0000   1.0000   1.0000   1.0000   1.0000   1.0000
     1.0000   1.0000   1.0000   1.0000   1.0000   1.0000   1.0000   1.0000
     1.0000   1.0000   1.0000   1.0000   1.0000   1.0000   1.0000   1.0000
     1.0000   1.0000   1.0000   1.0000   1.0000   1.0000   1.0000   1.0000
     1.0000   1.0000   1.0000   1.0000   1.0000   1.0000   1.0000   1.0000
     1.0000   1.0000   1.0000   1.0000   1.0000   1.0000   1.0000   1.0000
     1.0000   1.0000   1.0000   1.0000   1.0000   1.0000   1.0000   1.0000
     1.0000   1.0000   1.0000   1.0000   1.0000   1.0000   1.0000   1.0000
     1.0001   1.0002   1.0003   1.0004   1.0040   1.0091   1.0297   1.0379
     1.0780   1.0824   1.0801   1.0789   1.0681   1.0226   0.7790   0.7083
     0.6526   0.5842   0.4271   0.2549   0.2348   0.0382   0.0001   0.0000
     0.0000   0.0000   0.0000   0.0000   0.0000   0.0000   0.0000   0.0000
     0.0000   0.0000   0.0000   0.0000   0.0000   0.0000   0.0000   0.0000
     0.0000

          k = 0.3750 0.0000 0.0000 ( 44577 PWs)   bands (ev):

   -11.7800 -11.4267 -10.9826 -10.5626 -10.5614 -10.5423 -10.5366 -10.5351
   -10.3876 -10.3574 -10.3550 -10.3409 -10.2678 -10.1976 -10.1959 -10.1604
   -10.1115 -10.1058 -10.0617  -9.9813  -9.9031  -9.8978  -9.8460  -9.8086
    -9.8022  -9.7677  -9.7175  -9.6010  -9.5664  -9.5532  -9.2974  -9.2844
    -9.2507  -9.1741  -9.1384  -9.0638  -9.0086  -8.9751  -8.9010  -8.8771
    -8.8607  -8.7061  -8.5810  -8.4810  -8.4774  -8.4110  -8.3811  -8.3769
    -8.3329  -8.2979  -8.2694  -8.2604  -8.2130  -8.1262  -8.0870  -8.0521
    -8.0482  -8.0382  -8.0023  -7.9722  -7.9660  -7.9264  -7.8501  -7.8251
    -7.7782  -7.7335  -7.7140  -7.6759  -7.6589  -7.6285  -7.5695  -7.4769
    -7.4665  -7.3849  -7.3345  -7.3120  -7.2471  -7.1985  -7.0622  -7.0235
    -7.0087  -6.9973  -6.9635  -6.9043  -6.8831  -6.8013  -6.7999  -6.7839
    -6.7552  -6.7202  -6.5686  -6.5503  -6.5388  -6.4879  -6.4597  -6.3528
    -6.3145  -6.2784  -6.2581  -6.2277  -6.1889  -6.0842  -6.0622  -6.0452
    -6.0182  -5.9291  -5.9090  -5.8200  -5.7633  -5.7167  -5.7050  -5.6845
    -5.6401  -5.5771  -5.5657  -5.5452  -5.5222  -5.5115  -5.5023  -5.3821
    -5.3365  -5.3244  -5.3042  -5.2865  -4.8390  -4.8006  -4.6077  -4.5443
    -4.3927  -4.1734  -4.1428  -3.3284  -3.0051  -2.8224  -1.8955  -1.5894
    -1.3621  -1.2938  -0.8446  -0.4407  -0.0809   0.0607   0.3050   0.4582
     0.5952

     occupation numbers 
     1.0000   1.0000   1.0000   1.0000   1.0000   1.0000   1.0000   1.0000
     1.0000   1.0000   1.0000   1.0000   1.0000   1.0000   1.0000   1.0000
     1.0000   1.0000   1.0000   1.0000   1.0000   1.0000   1.0000   1.0000
     1.0000   1.0000   1.0000   1.0000   1.0000   1.0000   1.0000   1.0000
     1.0000   1.0000   1.0000   1.0000   1.0000   1.0000   1.0000   1.0000
     1.0000   1.0000   1.0000   1.0000   1.0000   1.0000   1.0000   1.0000
     1.0000   1.0000   1.0000   1.0000   1.0000   1.0000   1.0000   1.0000
     1.0000   1.0000   1.0000   1.0000   1.0000   1.0000   1.0000   1.0000
     1.0000   1.0000   1.0000   1.0000   1.0000   1.0000   1.0000   1.0000
     1.0000   1.0000   1.0000   1.0000   1.0000   1.0000   1.0000   1.0000
     1.0000   1.0000   1.0000   1.0000   1.0000   1.0000   1.0000   1.0000
     1.0000   1.0000   1.0000   1.0000   1.0000   1.0000   1.0000   1.0000
     1.0000   1.0000   1.0000   1.0000   1.0000   1.0000   1.0000   1.0000
     1.0001   1.0006   1.0010   1.0061   1.0158   1.0301   1.0346   1.0434
     1.0640   1.0832   1.0831   1.0784   1.0647   1.0549   1.0445   0.7413
     0.5720   0.5267   0.4527   0.3909   0.0001   0.0000   0.0000   0.0000
     0.0000   0.0000   0.0000   0.0000   0.0000   0.0000   0.0000   0.0000
     0.0000   0.0000   0.0000   0.0000   0.0000   0.0000   0.0000   0.0000
     0.0000

          k = 0.3750 0.0722 0.0000 ( 44558 PWs)   bands (ev):

   -11.7553 -11.4123 -10.9684 -10.6379 -10.5590 -10.5281 -10.5051 -10.4672
   -10.3884 -10.3621 -10.3266 -10.3053 -10.2654 -10.2592 -10.1709 -10.1558
   -10.1132 -10.0475 -10.0132  -9.9674  -9.9010  -9.8830  -9.8412  -9.8091
    -9.7941  -9.7393  -9.6979  -9.6383  -9.5559  -9.4898  -9.3014  -9.2629
    -9.2491  -9.1626  -9.1378  -9.0997  -8.9905  -8.9717  -8.9295  -8.8885
    -8.8048  -8.7223  -8.6024  -8.5794  -8.4503  -8.4304  -8.3901  -8.3366
    -8.3028  -8.2976  -8.2839  -8.2576  -8.1940  -8.1272  -8.0843  -8.0587
    -8.0483  -8.0402  -8.0102  -7.9605  -7.9299  -7.9032  -7.8388  -7.8153
    -7.7991  -7.7748  -7.6917  -7.6688  -7.6663  -7.6168  -7.5731  -7.5074
    -7.4735  -7.3847  -7.3589  -7.3172  -7.3033  -7.1590  -7.0880  -7.0490
    -7.0137  -6.9883  -6.9680  -6.9404  -6.9073  -6.8476  -6.8253  -6.8104
    -6.7653  -6.6603  -6.5809  -6.5631  -6.5538  -6.5209  -6.4067  -6.3881
    -6.3327  -6.2905  -6.2659  -6.2462  -6.2087  -6.1143  -6.0633  -6.0560
    -5.9971  -5.9734  -5.9632  -5.9413  -5.8417  -5.7971  -5.7177  -5.6971
    -5.6045  -5.5846  -5.5504  -5.5465  -5.5266  -5.4867  -5.3928  -5.3730
    -5.3580  -5.3398  -5.2970  -5.2421  -5.2345  -5.1042  -4.8466  -4.2904
    -4.1833  -3.9517  -3.6920  -3.4856  -2.8922  -2.5311  -1.9314  -1.7373
    -1.6301  -1.2232  -1.0374  -0.7447  -0.1840  -0.0249   0.4838   0.6718
     0.8885

     occupation numbers 
     1.0000   1.0000   1.0000   1.0000   1.0000   1.0000   1.0000   1.0000
     1.0000   1.0000   1.0000   1.0000   1.0000   1.0000   1.0000   1.0000
     1.0000   1.0000   1.0000   1.0000   1.0000   1.0000   1.0000   1.0000
     1.0000   1.0000   1.0000   1.0000   1.0000   1.0000   1.0000   1.0000
     1.0000   1.0000   1.0000   1.0000   1.0000   1.0000   1.0000   1.0000
     1.0000   1.0000   1.0000   1.0000   1.0000   1.0000   1.0000   1.0000
     1.0000   1.0000   1.0000   1.0000   1.0000   1.0000   1.0000   1.0000
     1.0000   1.0000   1.0000   1.0000   1.0000   1.0000   1.0000   1.0000
     1.0000   1.0000   1.0000   1.0000   1.0000   1.0000   1.0000   1.0000
     1.0000   1.0000   1.0000   1.0000   1.0000   1.0000   1.0000   1.0000
     1.0000   1.0000   1.0000   1.0000   1.0000   1.0000   1.0000   1.0000
     1.0000   1.0000   1.0000   1.0000   1.0000   1.0000   1.0000   1.0000
     1.0000   1.0000   1.0000   1.0000   1.0000   1.0000   1.0000   1.0000
     1.0001   1.0002   1.0003   1.0004   1.0040   1.0091   1.0297   1.0379
     1.0780   1.0824   1.0801   1.0789   1.0681   1.0226   0.7790   0.7083
     0.6526   0.5842   0.4271   0.2549   0.2348   0.0382   0.0001   0.0000
     0.0000   0.0000   0.0000   0.0000   0.0000   0.0000   0.0000   0.0000
     0.0000   0.0000   0.0000   0.0000   0.0000   0.0000   0.0000   0.0000
     0.0000

          k = 0.3750 0.1443 0.0000 ( 44528 PWs)   bands (ev):

   -11.6824 -11.3709 -10.9254 -10.6917 -10.5577 -10.4867 -10.4692 -10.3781
   -10.3660 -10.3600 -10.2795 -10.2737 -10.2556 -10.2162 -10.1828 -10.1396
   -10.0297 -10.0027  -9.9327  -9.9086  -9.8907  -9.8316  -9.8230  -9.7796
    -9.7681  -9.7067  -9.6443  -9.6322  -9.5527  -9.3755  -9.2760  -9.2461
    -9.2217  -9.2122  -9.1412  -9.0810  -9.0146  -8.9469  -8.9321  -8.9087
    -8.7703  -8.7366  -8.7102  -8.6336  -8.4930  -8.4672  -8.4082  -8.3462
    -8.3271  -8.2696  -8.2624  -8.1986  -8.1591  -8.1332  -8.0938  -8.0805
    -8.0493  -8.0326  -7.9805  -7.9323  -7.9146  -7.8649  -7.8467  -7.8033
    -7.7900  -7.7740  -7.7426  -7.6585  -7.6462  -7.6018  -7.5714  -7.5598
    -7.5036  -7.4406  -7.4033  -7.3743  -7.2833  -7.1693  -7.1259  -7.0871
    -7.0601  -7.0371  -6.9866  -6.9792  -6.9552  -6.9366  -6.9208  -6.8279
    -6.7532  -6.6397  -6.6127  -6.6061  -6.5880  -6.5795  -6.4369  -6.3610
    -6.3509  -6.3358  -6.3210  -6.2923  -6.2331  -6.2058  -6.1483  -6.1292
    -6.0888  -6.0784  -6.0278  -5.9905  -5.9711  -5.9013  -5.8693  -5.7871
    -5.6512  -5.6028  -5.5746  -5.5546  -5.5195  -5.4702  -5.4526  -5.4279
    -5.3808  -5.3354  -5.3144  -5.2983  -5.2474  -5.1731  -5.1646  -4.2157
    -3.8937  -3.5692  -3.3208  -2.9812  -2.6769  -2.2618  -2.2202  -1.9030
    -1.8641  -1.6044  -1.3708  -0.6796  -0.4474  -0.2551   0.5153   1.0568
     1.3686

     occupation numbers 
     1.0000   1.0000   1.0000   1.0000   1.0000   1.0000   1.0000   1.0000
     1.0000   1.0000   1.0000   1.0000   1.0000   1.0000   1.0000   1.0000
     1.0000   1.0000   1.0000   1.0000   1.0000   1.0000   1.0000   1.0000
     1.0000   1.0000   1.0000   1.0000   1.0000   1.0000   1.0000   1.0000
     1.0000   1.0000   1.0000   1.0000   1.0000   1.0000   1.0000   1.0000
     1.0000   1.0000   1.0000   1.0000   1.0000   1.0000   1.0000   1.0000
     1.0000   1.0000   1.0000   1.0000   1.0000   1.0000   1.0000   1.0000
     1.0000   1.0000   1.0000   1.0000   1.0000   1.0000   1.0000   1.0000
     1.0000   1.0000   1.0000   1.0000   1.0000   1.0000   1.0000   1.0000
     1.0000   1.0000   1.0000   1.0000   1.0000   1.0000   1.0000   1.0000
     1.0000   1.0000   1.0000   1.0000   1.0000   1.0000   1.0000   1.0000
     1.0000   1.0000   1.0000   1.0000   1.0000   1.0000   1.0000   1.0000
     1.0000   1.0000   1.0000   1.0000   1.0000   1.0000   1.0000   1.0000
     1.0000   1.0000   1.0000   1.0001   1.0002   1.0011   1.0023   1.0108
     1.0589   1.0785   1.0833   1.0813   1.0625   0.9935   0.9555   0.8906
     0.7365   0.5676   0.4897   0.4316   0.2694   0.1101   0.0978   0.0000
     0.0000   0.0000   0.0000   0.0000   0.0000   0.0000   0.0000   0.0000
     0.0000   0.0000   0.0000   0.0000   0.0000   0.0000   0.0000   0.0000
     0.0000

          k = 0.3750 0.2165 0.0000 ( 44520 PWs)   bands (ev):

   -11.5648 -11.3073 -10.8524 -10.7208 -10.5226 -10.4213 -10.4189 -10.3788
   -10.3367 -10.2501 -10.2487 -10.2396 -10.2046 -10.1412 -10.1077 -10.1058
    -9.9453  -9.9368  -9.8793  -9.8594  -9.8175  -9.8066  -9.7403  -9.7319
    -9.7154  -9.6610  -9.5956  -9.5529  -9.5286  -9.3071  -9.2562  -9.2239
    -9.2079  -9.1845  -9.1350  -9.0844  -9.0192  -9.0017  -8.9156  -8.8688
    -8.8503  -8.8226  -8.6908  -8.6674  -8.5646  -8.5261  -8.4682  -8.3948
    -8.3785  -8.2686  -8.2254  -8.1582  -8.1376  -8.1277  -8.1219  -8.0994
    -8.0756  -8.0136  -7.9551  -7.9493  -7.9240  -7.8917  -7.8737  -7.8481
    -7.8009  -7.7104  -7.6875  -7.6537  -7.6415  -7.6179  -7.5780  -7.5595
    -7.5230  -7.5071  -7.4748  -7.3285  -7.2658  -7.2342  -7.2119  -7.1612
    -7.1143  -7.1068  -7.0880  -7.0604  -6.9869  -6.9704  -6.9553  -6.8856
    -6.7677  -6.7078  -6.6967  -6.6681  -6.6516  -6.6327  -6.4636  -6.4524
    -6.4386  -6.4067  -6.3954  -6.3549  -6.3497  -6.3077  -6.2481  -6.2043
    -6.1856  -6.1455  -6.1287  -6.0674  -6.0206  -5.9879  -5.9712  -5.9453
    -5.8563  -5.6227  -5.6069  -5.5840  -5.5260  -5.5090  -5.4190  -5.4153
    -5.3837  -5.3321  -5.2993  -5.2890  -5.2359  -5.1463  -5.1396  -4.2261
    -3.9329  -2.9551  -2.8875  -2.8238  -2.5799  -2.5220  -2.3508  -2.1090
    -2.0399  -1.4609  -1.1954  -1.0804  -0.5865   0.0410   0.2609   0.9902
     1.4946

     occupation numbers 
     1.0000   1.0000   1.0000   1.0000   1.0000   1.0000   1.0000   1.0000
     1.0000   1.0000   1.0000   1.0000   1.0000   1.0000   1.0000   1.0000
     1.0000   1.0000   1.0000   1.0000   1.0000   1.0000   1.0000   1.0000
     1.0000   1.0000   1.0000   1.0000   1.0000   1.0000   1.0000   1.0000
     1.0000   1.0000   1.0000   1.0000   1.0000   1.0000   1.0000   1.0000
     1.0000   1.0000   1.0000   1.0000   1.0000   1.0000   1.0000   1.0000
     1.0000   1.0000   1.0000   1.0000   1.0000   1.0000   1.0000   1.0000
     1.0000   1.0000   1.0000   1.0000   1.0000   1.0000   1.0000   1.0000
     1.0000   1.0000   1.0000   1.0000   1.0000   1.0000   1.0000   1.0000
     1.0000   1.0000   1.0000   1.0000   1.0000   1.0000   1.0000   1.0000
     1.0000   1.0000   1.0000   1.0000   1.0000   1.0000   1.0000   1.0000
     1.0000   1.0000   1.0000   1.0000   1.0000   1.0000   1.0000   1.0000
     1.0000   1.0000   1.0000   1.0000   1.0000   1.0000   1.0000   1.0000
     1.0000   1.0000   1.0000   1.0000   1.0001   1.0001   1.0002   1.0004
     1.0030   1.0715   1.0772   1.0825   1.0677   1.0522   0.8642   0.8530
     0.7469   0.5555   0.4351   0.3995   0.2385   0.0748   0.0676   0.0000
     0.0000   0.0000   0.0000   0.0000   0.0000   0.0000   0.0000   0.0000
     0.0000   0.0000   0.0000   0.0000   0.0000   0.0000   0.0000   0.0000
     0.0000

          k = 0.3750 0.2887 0.0000 ( 44509 PWs)   bands (ev):

   -11.4135 -11.2244 -10.7510 -10.7229 -10.4573 -10.3589 -10.3513 -10.3345
   -10.2716 -10.2310 -10.1789 -10.1472 -10.1182 -10.0602 -10.0535 -10.0061
    -9.8636  -9.8384  -9.8167  -9.8013  -9.7725  -9.7460  -9.7037  -9.6430
    -9.6270  -9.5867  -9.5149  -9.4931  -9.4388  -9.3873  -9.2201  -9.1842
    -9.1665  -9.1479  -9.1235  -9.1042  -9.0844  -8.9964  -8.9565  -8.9266
    -8.8915  -8.7676  -8.7261  -8.6776  -8.6248  -8.6106  -8.5722  -8.4631
    -8.4290  -8.2904  -8.2656  -8.2113  -8.1959  -8.1519  -8.1348  -8.1222
    -8.0906  -8.0395  -8.0114  -7.9870  -7.9761  -7.9702  -7.8915  -7.8176
    -7.8012  -7.7545  -7.7133  -7.6756  -7.6355  -7.5843  -7.5740  -7.5541
    -7.5190  -7.4811  -7.4529  -7.3654  -7.3222  -7.2958  -7.2696  -7.2415
    -7.2036  -7.1723  -7.1236  -7.0785  -7.0560  -6.9984  -6.9719  -6.9411
    -6.8654  -6.8050  -6.7941  -6.7490  -6.7375  -6.6473  -6.6138  -6.5701
    -6.5238  -6.5075  -6.4883  -6.4274  -6.4034  -6.3619  -6.3282  -6.2683
    -6.2481  -6.2121  -6.1814  -6.1161  -6.0546  -5.9700  -5.9582  -5.9293
    -5.8635  -5.6855  -5.6424  -5.5866  -5.5395  -5.5164  -5.4407  -5.4127
    -5.4092  -5.3630  -5.3256  -5.3126  -5.1818  -5.1668  -5.0763  -4.2985
    -3.7826  -3.4991  -3.2738  -2.9031  -2.6163  -2.3033  -2.1795  -1.8871
    -1.7794  -1.3718  -1.0510  -0.8006  -0.4603  -0.2940   0.6446   0.8686
     1.2631

     occupation numbers 
     1.0000   1.0000   1.0000   1.0000   1.0000   1.0000   1.0000   1.0000
     1.0000   1.0000   1.0000   1.0000   1.0000   1.0000   1.0000   1.0000
     1.0000   1.0000   1.0000   1.0000   1.0000   1.0000   1.0000   1.0000
     1.0000   1.0000   1.0000   1.0000   1.0000   1.0000   1.0000   1.0000
     1.0000   1.0000   1.0000   1.0000   1.0000   1.0000   1.0000   1.0000
     1.0000   1.0000   1.0000   1.0000   1.0000   1.0000   1.0000   1.0000
     1.0000   1.0000   1.0000   1.0000   1.0000   1.0000   1.0000   1.0000
     1.0000   1.0000   1.0000   1.0000   1.0000   1.0000   1.0000   1.0000
     1.0000   1.0000   1.0000   1.0000   1.0000   1.0000   1.0000   1.0000
     1.0000   1.0000   1.0000   1.0000   1.0000   1.0000   1.0000   1.0000
     1.0000   1.0000   1.0000   1.0000   1.0000   1.0000   1.0000   1.0000
     1.0000   1.0000   1.0000   1.0000   1.0000   1.0000   1.0000   1.0000
     1.0000   1.0000   1.0000   1.0000   1.0000   1.0000   1.0000   1.0000
     1.0000   1.0000   1.0000   1.0000   1.0000   1.0002   1.0003   1.0006
     1.0026   1.0430   1.0629   1.0821   1.0758   1.0597   0.9260   0.8449
     0.8338   0.6714   0.5310   0.4832   0.1239   0.1008   0.0234   0.0000
     0.0000   0.0000   0.0000   0.0000   0.0000   0.0000   0.0000   0.0000
     0.0000   0.0000   0.0000   0.0000   0.0000   0.0000   0.0000   0.0000
     0.0000

          k = 0.3750-0.7939 0.0000 ( 44477 PWs)   bands (ev):

   -11.2676 -11.1000 -10.7135 -10.6124 -10.3955 -10.2746 -10.2615 -10.2434
   -10.2121 -10.1766 -10.0943 -10.0724 -10.0194  -9.9918  -9.9390  -9.9169
    -9.8180  -9.7574  -9.7302  -9.7249  -9.7165  -9.6902  -9.6480  -9.5483
    -9.5441  -9.5056  -9.4513  -9.4359  -9.3738  -9.3426  -9.2517  -9.2411
    -9.2038  -9.1929  -9.1370  -9.1209  -9.0250  -8.9946  -8.9733  -8.9570
    -8.9383  -8.7980  -8.7890  -8.7073  -8.6795  -8.6577  -8.6150  -8.5152
    -8.4558  -8.4228  -8.3999  -8.3262  -8.2809  -8.2509  -8.1748  -8.1310
    -8.1178  -8.0940  -8.0727  -8.0385  -8.0153  -7.9721  -7.9098  -7.8435
    -7.8315  -7.8056  -7.7528  -7.7424  -7.6998  -7.6938  -7.6342  -7.6118
    -7.5725  -7.4702  -7.4514  -7.3996  -7.3901  -7.3449  -7.3229  -7.2771
    -7.2601  -7.1987  -7.1362  -7.0667  -7.0613  -7.0233  -6.9980  -6.9485
    -6.9291  -6.8461  -6.8092  -6.7901  -6.7510  -6.7197  -6.6549  -6.6235
    -6.5930  -6.5444  -6.5069  -6.4746  -6.4336  -6.3577  -6.3061  -6.2461
    -6.2300  -6.1997  -6.1843  -6.1290  -6.0813  -5.9119  -5.9001  -5.8758
    -5.8469  -5.7213  -5.6956  -5.5898  -5.5610  -5.5251  -5.5002  -5.4707
    -5.4603  -5.4311  -5.4028  -5.3908  -5.2519  -5.2370  -4.8812  -4.3378
    -4.0662  -3.9024  -3.6150  -3.3999  -2.7783  -2.4466  -1.9723  -1.4707
    -1.2422  -1.0203  -0.8494  -0.6295  -0.4818   0.2654   0.5664   0.7795
     1.4385

     occupation numbers 
     1.0000   1.0000   1.0000   1.0000   1.0000   1.0000   1.0000   1.0000
     1.0000   1.0000   1.0000   1.0000   1.0000   1.0000   1.0000   1.0000
     1.0000   1.0000   1.0000   1.0000   1.0000   1.0000   1.0000   1.0000
     1.0000   1.0000   1.0000   1.0000   1.0000   1.0000   1.0000   1.0000
     1.0000   1.0000   1.0000   1.0000   1.0000   1.0000   1.0000   1.0000
     1.0000   1.0000   1.0000   1.0000   1.0000   1.0000   1.0000   1.0000
     1.0000   1.0000   1.0000   1.0000   1.0000   1.0000   1.0000   1.0000
     1.0000   1.0000   1.0000   1.0000   1.0000   1.0000   1.0000   1.0000
     1.0000   1.0000   1.0000   1.0000   1.0000   1.0000   1.0000   1.0000
     1.0000   1.0000   1.0000   1.0000   1.0000   1.0000   1.0000   1.0000
     1.0000   1.0000   1.0000   1.0000   1.0000   1.0000   1.0000   1.0000
     1.0000   1.0000   1.0000   1.0000   1.0000   1.0000   1.0000   1.0000
     1.0000   1.0000   1.0000   1.0000   1.0000   1.0000   1.0000   1.0000
     1.0000   1.0000   1.0000   1.0000   1.0000   1.0009   1.0012   1.0020
     1.0036   1.0284   1.0385   1.0816   1.0825   1.0670   1.0419   0.9946
     0.9729   0.8998   0.8129   0.7720   0.2822   0.2414   0.0003   0.0000
     0.0000   0.0000   0.0000   0.0000   0.0000   0.0000   0.0000   0.0000
     0.0000   0.0000   0.0000   0.0000   0.0000   0.0000   0.0000   0.0000
     0.0000

          k = 0.3750-0.7217 0.0000 ( 44484 PWs)   bands (ev):

   -11.1813 -10.8984 -10.6867 -10.4624 -10.3556 -10.1980 -10.1770 -10.1520
   -10.1216 -10.0585 -10.0356  -9.9983  -9.9324  -9.9208  -9.8208  -9.8180
    -9.7930  -9.7216  -9.7026  -9.6625  -9.6336  -9.6158  -9.5646  -9.5039
    -9.4957  -9.4378  -9.4007  -9.3849  -9.3168  -9.3008  -9.2940  -9.2839
    -9.2767  -9.2245  -9.1277  -9.1111  -9.0933  -9.0407  -8.9968  -8.9816
    -8.9403  -8.9047  -8.8678  -8.7617  -8.7153  -8.6744  -8.6479  -8.5665
    -8.5575  -8.4682  -8.4586  -8.3756  -8.3119  -8.2809  -8.2556  -8.2228
    -8.1985  -8.1412  -8.1200  -8.1040  -8.0692  -8.0107  -7.9763  -7.9586
    -7.9461  -7.8999  -7.8448  -7.8114  -7.7833  -7.7536  -7.7161  -7.6762
    -7.6626  -7.5941  -7.5679  -7.5491  -7.3750  -7.3082  -7.2750  -7.2380
    -7.1688  -7.1616  -7.1510  -7.1393  -7.0950  -7.0530  -6.9938  -6.9723
    -6.9008  -6.8430  -6.8267  -6.7463  -6.7233  -6.6688  -6.6420  -6.5716
    -6.5636  -6.5001  -6.4785  -6.4155  -6.3599  -6.3411  -6.2774  -6.2437
    -6.1831  -6.1123  -6.0899  -6.0730  -6.0569  -5.8821  -5.8556  -5.8453
    -5.8028  -5.7523  -5.7140  -5.6108  -5.5908  -5.5713  -5.5599  -5.5473
    -5.5251  -5.5204  -5.5086  -5.4986  -5.3538  -5.3387  -4.6768  -4.5863
    -4.4802  -4.3306  -4.0849  -3.3322  -2.9786  -2.7445  -1.8119  -1.3833
    -1.0530  -0.7201  -0.4007  -0.2023   0.1452   0.3597   0.4420   1.0658
     1.7245

     occupation numbers 
     1.0000   1.0000   1.0000   1.0000   1.0000   1.0000   1.0000   1.0000
     1.0000   1.0000   1.0000   1.0000   1.0000   1.0000   1.0000   1.0000
     1.0000   1.0000   1.0000   1.0000   1.0000   1.0000   1.0000   1.0000
     1.0000   1.0000   1.0000   1.0000   1.0000   1.0000   1.0000   1.0000
     1.0000   1.0000   1.0000   1.0000   1.0000   1.0000   1.0000   1.0000
     1.0000   1.0000   1.0000   1.0000   1.0000   1.0000   1.0000   1.0000
     1.0000   1.0000   1.0000   1.0000   1.0000   1.0000   1.0000   1.0000
     1.0000   1.0000   1.0000   1.0000   1.0000   1.0000   1.0000   1.0000
     1.0000   1.0000   1.0000   1.0000   1.0000   1.0000   1.0000   1.0000
     1.0000   1.0000   1.0000   1.0000   1.0000   1.0000   1.0000   1.0000
     1.0000   1.0000   1.0000   1.0000   1.0000   1.0000   1.0000   1.0000
     1.0000   1.0000   1.0000   1.0000   1.0000   1.0000   1.0000   1.0000
     1.0000   1.0000   1.0000   1.0000   1.0000   1.0000   1.0000   1.0000
     1.0000   1.0000   1.0000   1.0000   1.0000   1.0017   1.0030   1.0038
     1.0083   1.0186   1.0311   1.0759   1.0814   1.0833   1.0824   1.0791
     1.0670   1.0632   1.0518   1.0398   0.6371   0.5801   0.0000   0.0000
     0.0000   0.0000   0.0000   0.0000   0.0000   0.0000   0.0000   0.0000
     0.0000   0.0000   0.0000   0.0000   0.0000   0.0000   0.0000   0.0000
     0.0000

          k = 0.3750-0.6495 0.0000 ( 44432 PWs)   bands (ev):

   -11.1384 -10.6623 -10.6553 -10.3356 -10.3147 -10.2378 -10.1776 -10.0323
   -10.0158  -9.9625  -9.9412  -9.9218  -9.8864  -9.8792  -9.7712  -9.7483
    -9.7037  -9.6791  -9.6213  -9.6136  -9.5850  -9.5598  -9.5370  -9.5284
    -9.4446  -9.4373  -9.4266  -9.4157  -9.3494  -9.3257  -9.3176  -9.2903
    -9.2376  -9.2035  -9.2012  -9.1593  -9.1512  -9.1093  -8.9651  -8.9609
    -8.9393  -8.9206  -8.9070  -8.8741  -8.7312  -8.6808  -8.6553  -8.6465
    -8.4815  -8.4570  -8.4471  -8.4136  -8.4022  -8.3433  -8.2807  -8.2703
    -8.2493  -8.2347  -8.2197  -8.1728  -8.1390  -8.1221  -8.1030  -8.0755
    -8.0565  -8.0494  -7.9829  -7.8193  -7.7979  -7.7575  -7.7199  -7.6810
    -7.6472  -7.6430  -7.6008  -7.5826  -7.4248  -7.3715  -7.3371  -7.2602
    -7.2015  -7.1325  -7.1078  -7.0917  -7.0689  -7.0456  -6.9853  -6.9468
    -6.9430  -6.8414  -6.7492  -6.7097  -6.6891  -6.6180  -6.5915  -6.5488
    -6.5110  -6.4830  -6.4026  -6.3759  -6.3172  -6.2793  -6.2312  -6.1991
    -6.0555  -6.0240  -5.9854  -5.8827  -5.8647  -5.8438  -5.8207  -5.8084
    -5.7962  -5.7869  -5.7267  -5.7220  -5.6683  -5.6617  -5.6097  -5.5992
    -5.5859  -5.5610  -5.5396  -5.4667  -5.4553  -5.4448  -5.0595  -5.0067
    -4.7115  -4.4067  -4.2483  -3.5790  -2.9557  -2.7279  -2.0423  -1.3157
    -1.0400  -0.3378   0.0520   0.2210   0.3755   0.4998   1.0065   1.3044
     1.5517

     occupation numbers 
     1.0000   1.0000   1.0000   1.0000   1.0000   1.0000   1.0000   1.0000
     1.0000   1.0000   1.0000   1.0000   1.0000   1.0000   1.0000   1.0000
     1.0000   1.0000   1.0000   1.0000   1.0000   1.0000   1.0000   1.0000
     1.0000   1.0000   1.0000   1.0000   1.0000   1.0000   1.0000   1.0000
     1.0000   1.0000   1.0000   1.0000   1.0000   1.0000   1.0000   1.0000
     1.0000   1.0000   1.0000   1.0000   1.0000   1.0000   1.0000   1.0000
     1.0000   1.0000   1.0000   1.0000   1.0000   1.0000   1.0000   1.0000
     1.0000   1.0000   1.0000   1.0000   1.0000   1.0000   1.0000   1.0000
     1.0000   1.0000   1.0000   1.0000   1.0000   1.0000   1.0000   1.0000
     1.0000   1.0000   1.0000   1.0000   1.0000   1.0000   1.0000   1.0000
     1.0000   1.0000   1.0000   1.0000   1.0000   1.0000   1.0000   1.0000
     1.0000   1.0000   1.0000   1.0000   1.0000   1.0000   1.0000   1.0000
     1.0000   1.0000   1.0000   1.0000   1.0000   1.0000   1.0000   1.0000
     1.0000   1.0000   1.0001   1.0017   1.0025   1.0039   1.0060   1.0075
     1.0093   1.0109   1.0265   1.0281   1.0508   1.0540   1.0763   1.0795
     1.0823   1.0825   1.0759   0.9866   0.9619   0.9364   0.0170   0.0058
     0.0000   0.0000   0.0000   0.0000   0.0000   0.0000   0.0000   0.0000
     0.0000   0.0000   0.0000   0.0000   0.0000   0.0000   0.0000   0.0000
     0.0000

          k = 0.3750-0.5774 0.0000 ( 44465 PWs)   bands (ev):

   -11.1247 -10.6506 -10.4195 -10.4142 -10.3238 -10.2220 -10.2142 -10.0220
    -9.9346  -9.9340  -9.9007  -9.8852  -9.8763  -9.7786  -9.7765  -9.7010
    -9.6543  -9.6348  -9.6100  -9.6000  -9.5762  -9.5705  -9.5193  -9.4968
    -9.4874  -9.4701  -9.4540  -9.4317  -9.3927  -9.3370  -9.3293  -9.3085
    -9.2560  -9.2074  -9.1839  -9.1710  -9.1587  -9.0888  -9.0672  -9.0554
    -8.9474  -8.8685  -8.8061  -8.7827  -8.7084  -8.6703  -8.6584  -8.6420
    -8.5610  -8.4994  -8.4927  -8.4656  -8.3811  -8.3736  -8.3232  -8.2870
    -8.2676  -8.2301  -8.2235  -8.2086  -8.1941  -8.1682  -8.1540  -8.1305
    -8.1189  -8.1095  -8.0039  -7.8036  -7.7867  -7.7316  -7.7081  -7.6931
    -7.6863  -7.6454  -7.6030  -7.5687  -7.4520  -7.4013  -7.3956  -7.2790
    -7.1904  -7.1402  -7.1050  -7.0995  -7.0653  -7.0242  -6.9570  -6.9277
    -6.8785  -6.8237  -6.8148  -6.7237  -6.6722  -6.6322  -6.5569  -6.5074
    -6.4270  -6.4172  -6.3890  -6.3633  -6.3455  -6.3354  -6.2384  -6.0533
    -5.9640  -5.9583  -5.9149  -5.8654  -5.8519  -5.8343  -5.8185  -5.8119
    -5.7953  -5.7915  -5.7781  -5.7180  -5.6286  -5.5999  -5.5814  -5.5715
    -5.5369  -5.5220  -5.5146  -5.4787  -5.4714  -5.4605  -5.4464  -5.1946
    -5.1131  -4.3848  -4.0550  -3.8746  -2.9167  -2.5600  -2.3029  -1.2714
    -0.8780  -0.5719   0.2457   0.6168   0.8006   0.8617   0.9220   1.1793
     1.4830

     occupation numbers 
     1.0000   1.0000   1.0000   1.0000   1.0000   1.0000   1.0000   1.0000
     1.0000   1.0000   1.0000   1.0000   1.0000   1.0000   1.0000   1.0000
     1.0000   1.0000   1.0000   1.0000   1.0000   1.0000   1.0000   1.0000
     1.0000   1.0000   1.0000   1.0000   1.0000   1.0000   1.0000   1.0000
     1.0000   1.0000   1.0000   1.0000   1.0000   1.0000   1.0000   1.0000
     1.0000   1.0000   1.0000   1.0000   1.0000   1.0000   1.0000   1.0000
     1.0000   1.0000   1.0000   1.0000   1.0000   1.0000   1.0000   1.0000
     1.0000   1.0000   1.0000   1.0000   1.0000   1.0000   1.0000   1.0000
     1.0000   1.0000   1.0000   1.0000   1.0000   1.0000   1.0000   1.0000
     1.0000   1.0000   1.0000   1.0000   1.0000   1.0000   1.0000   1.0000
     1.0000   1.0000   1.0000   1.0000   1.0000   1.0000   1.0000   1.0000
     1.0000   1.0000   1.0000   1.0000   1.0000   1.0000   1.0000   1.0000
     1.0000   1.0000   1.0000   1.0000   1.0000   1.0000   1.0000   1.0000
     1.0002   1.0003   1.0008   1.0025   1.0033   1.0046   1.0063   1.0070
     1.0094   1.0101   1.0125   1.0296   1.0691   1.0793   1.0828   1.0833
     1.0746   1.0645   1.0579   1.0093   0.9958   0.9735   0.9404   0.1463
     0.0444   0.0000   0.0000   0.0000   0.0000   0.0000   0.0000   0.0000
     0.0000   0.0000   0.0000   0.0000   0.0000   0.0000   0.0000   0.0000
     0.0000

          k = 0.3750-0.5052 0.0000 ( 44432 PWs)   bands (ev):

   -11.1384 -10.6623 -10.6553 -10.3356 -10.3147 -10.2378 -10.1776 -10.0323
   -10.0158  -9.9625  -9.9412  -9.9218  -9.8864  -9.8792  -9.7712  -9.7483
    -9.7037  -9.6791  -9.6213  -9.6136  -9.5850  -9.5598  -9.5370  -9.5284
    -9.4446  -9.4373  -9.4266  -9.4157  -9.3494  -9.3257  -9.3176  -9.2903
    -9.2376  -9.2035  -9.2012  -9.1593  -9.1512  -9.1093  -8.9651  -8.9609
    -8.9393  -8.9206  -8.9070  -8.8741  -8.7312  -8.6808  -8.6553  -8.6465
    -8.4815  -8.4570  -8.4471  -8.4136  -8.4022  -8.3433  -8.2807  -8.2703
    -8.2493  -8.2347  -8.2197  -8.1728  -8.1390  -8.1221  -8.1030  -8.0755
    -8.0565  -8.0494  -7.9829  -7.8193  -7.7979  -7.7575  -7.7199  -7.6810
    -7.6472  -7.6430  -7.6008  -7.5826  -7.4248  -7.3715  -7.3371  -7.2602
    -7.2015  -7.1325  -7.1078  -7.0917  -7.0689  -7.0456  -6.9853  -6.9468
    -6.9430  -6.8414  -6.7492  -6.7097  -6.6891  -6.6180  -6.5915  -6.5488
    -6.5110  -6.4830  -6.4026  -6.3759  -6.3172  -6.2793  -6.2312  -6.1991
    -6.0555  -6.0240  -5.9854  -5.8827  -5.8647  -5.8438  -5.8207  -5.8084
    -5.7962  -5.7869  -5.7267  -5.7220  -5.6683  -5.6617  -5.6097  -5.5992
    -5.5859  -5.5610  -5.5396  -5.4667  -5.4553  -5.4448  -5.0595  -5.0067
    -4.7115  -4.4067  -4.2483  -3.5790  -2.9557  -2.7279  -2.0423  -1.3157
    -1.0400  -0.3378   0.0520   0.2210   0.3755   0.4998   1.0065   1.3044
     1.5518

     occupation numbers 
     1.0000   1.0000   1.0000   1.0000   1.0000   1.0000   1.0000   1.0000
     1.0000   1.0000   1.0000   1.0000   1.0000   1.0000   1.0000   1.0000
     1.0000   1.0000   1.0000   1.0000   1.0000   1.0000   1.0000   1.0000
     1.0000   1.0000   1.0000   1.0000   1.0000   1.0000   1.0000   1.0000
     1.0000   1.0000   1.0000   1.0000   1.0000   1.0000   1.0000   1.0000
     1.0000   1.0000   1.0000   1.0000   1.0000   1.0000   1.0000   1.0000
     1.0000   1.0000   1.0000   1.0000   1.0000   1.0000   1.0000   1.0000
     1.0000   1.0000   1.0000   1.0000   1.0000   1.0000   1.0000   1.0000
     1.0000   1.0000   1.0000   1.0000   1.0000   1.0000   1.0000   1.0000
     1.0000   1.0000   1.0000   1.0000   1.0000   1.0000   1.0000   1.0000
     1.0000   1.0000   1.0000   1.0000   1.0000   1.0000   1.0000   1.0000
     1.0000   1.0000   1.0000   1.0000   1.0000   1.0000   1.0000   1.0000
     1.0000   1.0000   1.0000   1.0000   1.0000   1.0000   1.0000   1.0000
     1.0000   1.0000   1.0001   1.0017   1.0025   1.0039   1.0060   1.0075
     1.0093   1.0109   1.0265   1.0281   1.0508   1.0540   1.0763   1.0795
     1.0823   1.0825   1.0759   0.9866   0.9619   0.9364   0.0170   0.0058
     0.0000   0.0000   0.0000   0.0000   0.0000   0.0000   0.0000   0.0000
     0.0000   0.0000   0.0000   0.0000   0.0000   0.0000   0.0000   0.0000
     0.0000

          k = 0.3750-0.4330 0.0000 ( 44484 PWs)   bands (ev):

   -11.1813 -10.8984 -10.6867 -10.4624 -10.3556 -10.1980 -10.1770 -10.1520
   -10.1216 -10.0585 -10.0356  -9.9983  -9.9324  -9.9208  -9.8208  -9.8180
    -9.7930  -9.7216  -9.7026  -9.6625  -9.6336  -9.6158  -9.5646  -9.5039
    -9.4957  -9.4378  -9.4007  -9.3849  -9.3168  -9.3008  -9.2940  -9.2839
    -9.2767  -9.2245  -9.1277  -9.1111  -9.0933  -9.0407  -8.9968  -8.9816
    -8.9403  -8.9047  -8.8678  -8.7617  -8.7153  -8.6744  -8.6479  -8.5665
    -8.5575  -8.4682  -8.4586  -8.3756  -8.3119  -8.2809  -8.2556  -8.2228
    -8.1985  -8.1412  -8.1200  -8.1040  -8.0692  -8.0107  -7.9763  -7.9586
    -7.9461  -7.8999  -7.8448  -7.8114  -7.7833  -7.7536  -7.7161  -7.6762
    -7.6626  -7.5941  -7.5679  -7.5491  -7.3750  -7.3082  -7.2750  -7.2380
    -7.1688  -7.1616  -7.1510  -7.1393  -7.0950  -7.0530  -6.9938  -6.9723
    -6.9008  -6.8430  -6.8267  -6.7463  -6.7233  -6.6688  -6.6420  -6.5716
    -6.5636  -6.5001  -6.4785  -6.4155  -6.3599  -6.3411  -6.2774  -6.2437
    -6.1831  -6.1123  -6.0899  -6.0730  -6.0569  -5.8821  -5.8556  -5.8453
    -5.8028  -5.7523  -5.7140  -5.6108  -5.5908  -5.5713  -5.5599  -5.5473
    -5.5251  -5.5204  -5.5086  -5.4986  -5.3538  -5.3387  -4.6768  -4.5863
    -4.4802  -4.3306  -4.0849  -3.3322  -2.9786  -2.7445  -1.8119  -1.3833
    -1.0530  -0.7201  -0.4007  -0.2023   0.1452   0.3597   0.4420   1.0658
     1.7245

     occupation numbers 
     1.0000   1.0000   1.0000   1.0000   1.0000   1.0000   1.0000   1.0000
     1.0000   1.0000   1.0000   1.0000   1.0000   1.0000   1.0000   1.0000
     1.0000   1.0000   1.0000   1.0000   1.0000   1.0000   1.0000   1.0000
     1.0000   1.0000   1.0000   1.0000   1.0000   1.0000   1.0000   1.0000
     1.0000   1.0000   1.0000   1.0000   1.0000   1.0000   1.0000   1.0000
     1.0000   1.0000   1.0000   1.0000   1.0000   1.0000   1.0000   1.0000
     1.0000   1.0000   1.0000   1.0000   1.0000   1.0000   1.0000   1.0000
     1.0000   1.0000   1.0000   1.0000   1.0000   1.0000   1.0000   1.0000
     1.0000   1.0000   1.0000   1.0000   1.0000   1.0000   1.0000   1.0000
     1.0000   1.0000   1.0000   1.0000   1.0000   1.0000   1.0000   1.0000
     1.0000   1.0000   1.0000   1.0000   1.0000   1.0000   1.0000   1.0000
     1.0000   1.0000   1.0000   1.0000   1.0000   1.0000   1.0000   1.0000
     1.0000   1.0000   1.0000   1.0000   1.0000   1.0000   1.0000   1.0000
     1.0000   1.0000   1.0000   1.0000   1.0000   1.0017   1.0030   1.0038
     1.0083   1.0186   1.0311   1.0759   1.0814   1.0833   1.0824   1.0791
     1.0670   1.0632   1.0518   1.0398   0.6371   0.5801   0.0000   0.0000
     0.0000   0.0000   0.0000   0.0000   0.0000   0.0000   0.0000   0.0000
     0.0000   0.0000   0.0000   0.0000   0.0000   0.0000   0.0000   0.0000
     0.0000

          k = 0.3750-0.3608 0.0000 ( 44477 PWs)   bands (ev):

   -11.2676 -11.1000 -10.7135 -10.6124 -10.3955 -10.2746 -10.2615 -10.2434
   -10.2121 -10.1766 -10.0943 -10.0724 -10.0194  -9.9918  -9.9390  -9.9169
    -9.8180  -9.7574  -9.7302  -9.7249  -9.7165  -9.6902  -9.6480  -9.5483
    -9.5441  -9.5056  -9.4513  -9.4359  -9.3738  -9.3426  -9.2517  -9.2411
    -9.2038  -9.1929  -9.1370  -9.1209  -9.0250  -8.9946  -8.9733  -8.9570
    -8.9383  -8.7980  -8.7890  -8.7073  -8.6795  -8.6577  -8.6150  -8.5152
    -8.4558  -8.4228  -8.3999  -8.3262  -8.2809  -8.2509  -8.1748  -8.1310
    -8.1178  -8.0940  -8.0727  -8.0385  -8.0153  -7.9721  -7.9098  -7.8435
    -7.8315  -7.8056  -7.7528  -7.7424  -7.6998  -7.6938  -7.6342  -7.6118
    -7.5725  -7.4702  -7.4514  -7.3996  -7.3901  -7.3449  -7.3229  -7.2771
    -7.2601  -7.1987  -7.1362  -7.0667  -7.0613  -7.0233  -6.9980  -6.9485
    -6.9291  -6.8461  -6.8092  -6.7901  -6.7510  -6.7197  -6.6549  -6.6235
    -6.5930  -6.5444  -6.5069  -6.4746  -6.4336  -6.3577  -6.3061  -6.2461
    -6.2300  -6.1997  -6.1843  -6.1290  -6.0813  -5.9119  -5.9001  -5.8758
    -5.8469  -5.7213  -5.6956  -5.5898  -5.5610  -5.5251  -5.5002  -5.4707
    -5.4603  -5.4311  -5.4028  -5.3908  -5.2519  -5.2370  -4.8812  -4.3378
    -4.0662  -3.9024  -3.6150  -3.3999  -2.7783  -2.4466  -1.9723  -1.4707
    -1.2422  -1.0203  -0.8494  -0.6295  -0.4818   0.2654   0.5664   0.7795
     1.4385

     occupation numbers 
     1.0000   1.0000   1.0000   1.0000   1.0000   1.0000   1.0000   1.0000
     1.0000   1.0000   1.0000   1.0000   1.0000   1.0000   1.0000   1.0000
     1.0000   1.0000   1.0000   1.0000   1.0000   1.0000   1.0000   1.0000
     1.0000   1.0000   1.0000   1.0000   1.0000   1.0000   1.0000   1.0000
     1.0000   1.0000   1.0000   1.0000   1.0000   1.0000   1.0000   1.0000
     1.0000   1.0000   1.0000   1.0000   1.0000   1.0000   1.0000   1.0000
     1.0000   1.0000   1.0000   1.0000   1.0000   1.0000   1.0000   1.0000
     1.0000   1.0000   1.0000   1.0000   1.0000   1.0000   1.0000   1.0000
     1.0000   1.0000   1.0000   1.0000   1.0000   1.0000   1.0000   1.0000
     1.0000   1.0000   1.0000   1.0000   1.0000   1.0000   1.0000   1.0000
     1.0000   1.0000   1.0000   1.0000   1.0000   1.0000   1.0000   1.0000
     1.0000   1.0000   1.0000   1.0000   1.0000   1.0000   1.0000   1.0000
     1.0000   1.0000   1.0000   1.0000   1.0000   1.0000   1.0000   1.0000
     1.0000   1.0000   1.0000   1.0000   1.0000   1.0009   1.0012   1.0020
     1.0036   1.0284   1.0385   1.0816   1.0825   1.0670   1.0419   0.9946
     0.9729   0.8998   0.8129   0.7720   0.2822   0.2414   0.0003   0.0000
     0.0000   0.0000   0.0000   0.0000   0.0000   0.0000   0.0000   0.0000
     0.0000   0.0000   0.0000   0.0000   0.0000   0.0000   0.0000   0.0000
     0.0000

          k = 0.3750-0.2887 0.0000 ( 44509 PWs)   bands (ev):

   -11.4135 -11.2244 -10.7510 -10.7229 -10.4573 -10.3589 -10.3513 -10.3345
   -10.2716 -10.2310 -10.1789 -10.1472 -10.1182 -10.0602 -10.0535 -10.0061
    -9.8636  -9.8384  -9.8167  -9.8013  -9.7725  -9.7460  -9.7037  -9.6430
    -9.6270  -9.5867  -9.5149  -9.4931  -9.4388  -9.3873  -9.2201  -9.1842
    -9.1665  -9.1479  -9.1235  -9.1042  -9.0844  -8.9964  -8.9565  -8.9266
    -8.8915  -8.7676  -8.7261  -8.6776  -8.6248  -8.6106  -8.5722  -8.4631
    -8.4290  -8.2904  -8.2656  -8.2113  -8.1959  -8.1519  -8.1348  -8.1222
    -8.0906  -8.0395  -8.0114  -7.9870  -7.9761  -7.9702  -7.8915  -7.8176
    -7.8012  -7.7545  -7.7133  -7.6756  -7.6355  -7.5843  -7.5740  -7.5541
    -7.5190  -7.4811  -7.4529  -7.3654  -7.3222  -7.2958  -7.2696  -7.2415
    -7.2036  -7.1723  -7.1236  -7.0785  -7.0560  -6.9984  -6.9719  -6.9411
    -6.8654  -6.8050  -6.7941  -6.7490  -6.7375  -6.6473  -6.6138  -6.5701
    -6.5238  -6.5075  -6.4883  -6.4274  -6.4034  -6.3619  -6.3282  -6.2683
    -6.2481  -6.2121  -6.1814  -6.1161  -6.0546  -5.9700  -5.9582  -5.9293
    -5.8635  -5.6855  -5.6424  -5.5866  -5.5395  -5.5164  -5.4407  -5.4127
    -5.4092  -5.3630  -5.3256  -5.3126  -5.1818  -5.1668  -5.0763  -4.2985
    -3.7826  -3.4991  -3.2738  -2.9031  -2.6163  -2.3033  -2.1795  -1.8871
    -1.7794  -1.3718  -1.0510  -0.8006  -0.4603  -0.2940   0.6446   0.8686
     1.2631

     occupation numbers 
     1.0000   1.0000   1.0000   1.0000   1.0000   1.0000   1.0000   1.0000
     1.0000   1.0000   1.0000   1.0000   1.0000   1.0000   1.0000   1.0000
     1.0000   1.0000   1.0000   1.0000   1.0000   1.0000   1.0000   1.0000
     1.0000   1.0000   1.0000   1.0000   1.0000   1.0000   1.0000   1.0000
     1.0000   1.0000   1.0000   1.0000   1.0000   1.0000   1.0000   1.0000
     1.0000   1.0000   1.0000   1.0000   1.0000   1.0000   1.0000   1.0000
     1.0000   1.0000   1.0000   1.0000   1.0000   1.0000   1.0000   1.0000
     1.0000   1.0000   1.0000   1.0000   1.0000   1.0000   1.0000   1.0000
     1.0000   1.0000   1.0000   1.0000   1.0000   1.0000   1.0000   1.0000
     1.0000   1.0000   1.0000   1.0000   1.0000   1.0000   1.0000   1.0000
     1.0000   1.0000   1.0000   1.0000   1.0000   1.0000   1.0000   1.0000
     1.0000   1.0000   1.0000   1.0000   1.0000   1.0000   1.0000   1.0000
     1.0000   1.0000   1.0000   1.0000   1.0000   1.0000   1.0000   1.0000
     1.0000   1.0000   1.0000   1.0000   1.0000   1.0002   1.0003   1.0006
     1.0026   1.0430   1.0629   1.0821   1.0758   1.0597   0.9260   0.8449
     0.8338   0.6714   0.5310   0.4832   0.1239   0.1008   0.0234   0.0000
     0.0000   0.0000   0.0000   0.0000   0.0000   0.0000   0.0000   0.0000
     0.0000   0.0000   0.0000   0.0000   0.0000   0.0000   0.0000   0.0000
     0.0000

          k = 0.4375-0.2526 0.0000 ( 44502 PWs)   bands (ev):

   -11.2877 -11.1360 -10.8005 -10.6843 -10.4756 -10.3636 -10.2917 -10.2897
   -10.2762 -10.1664 -10.1655 -10.1497 -10.0907 -10.0024  -9.9977  -9.9918
    -9.8116  -9.8092  -9.7977  -9.7459  -9.7048  -9.6999  -9.6351  -9.6257
    -9.5901  -9.5557  -9.4874  -9.4487  -9.4066  -9.3926  -9.2178  -9.2109
    -9.1824  -9.1147  -9.1005  -9.0813  -9.0716  -9.0292  -8.9468  -8.9180
    -8.8735  -8.8568  -8.7125  -8.7025  -8.6707  -8.6262  -8.5870  -8.4931
    -8.4861  -8.2994  -8.2737  -8.2674  -8.2481  -8.1879  -8.1460  -8.0650
    -8.0518  -8.0410  -8.0307  -8.0115  -7.9860  -7.9788  -7.8163  -7.7815
    -7.7588  -7.7446  -7.7375  -7.6966  -7.6058  -7.5932  -7.5727  -7.5351
    -7.5236  -7.5083  -7.4878  -7.4258  -7.3714  -7.3103  -7.3001  -7.2905
    -7.2231  -7.1678  -7.1515  -7.1125  -7.0585  -7.0069  -7.0044  -6.9982
    -6.8987  -6.8297  -6.8061  -6.7934  -6.7678  -6.6912  -6.6875  -6.6009
    -6.5874  -6.5701  -6.5521  -6.5437  -6.5336  -6.5083  -6.3825  -6.3343
    -6.3164  -6.3011  -6.2565  -6.1357  -6.1011  -6.0230  -5.9997  -5.9830
    -5.9551  -5.7874  -5.6116  -5.5978  -5.5346  -5.5180  -5.3874  -5.3825
    -5.3707  -5.3451  -5.3047  -5.2981  -5.1551  -5.1405  -5.0040  -4.4592
    -3.6480  -2.9549  -2.8457  -2.8346  -2.5910  -2.5541  -2.2544  -1.9901
    -1.9345  -1.3202  -0.9988  -0.9585  -0.7379   0.1024   0.3770   0.4790
     1.6434

     occupation numbers 
     1.0000   1.0000   1.0000   1.0000   1.0000   1.0000   1.0000   1.0000
     1.0000   1.0000   1.0000   1.0000   1.0000   1.0000   1.0000   1.0000
     1.0000   1.0000   1.0000   1.0000   1.0000   1.0000   1.0000   1.0000
     1.0000   1.0000   1.0000   1.0000   1.0000   1.0000   1.0000   1.0000
     1.0000   1.0000   1.0000   1.0000   1.0000   1.0000   1.0000   1.0000
     1.0000   1.0000   1.0000   1.0000   1.0000   1.0000   1.0000   1.0000
     1.0000   1.0000   1.0000   1.0000   1.0000   1.0000   1.0000   1.0000
     1.0000   1.0000   1.0000   1.0000   1.0000   1.0000   1.0000   1.0000
     1.0000   1.0000   1.0000   1.0000   1.0000   1.0000   1.0000   1.0000
     1.0000   1.0000   1.0000   1.0000   1.0000   1.0000   1.0000   1.0000
     1.0000   1.0000   1.0000   1.0000   1.0000   1.0000   1.0000   1.0000
     1.0000   1.0000   1.0000   1.0000   1.0000   1.0000   1.0000   1.0000
     1.0000   1.0000   1.0000   1.0000   1.0000   1.0000   1.0000   1.0000
     1.0000   1.0000   1.0000   1.0000   1.0000   1.0000   1.0001   1.0001
     1.0003   1.0108   1.0756   1.0798   1.0733   1.0612   0.7600   0.7429
     0.7000   0.6043   0.4544   0.4308   0.0853   0.0686   0.0055   0.0000
     0.0000   0.0000   0.0000   0.0000   0.0000   0.0000   0.0000   0.0000
     0.0000   0.0000   0.0000   0.0000   0.0000   0.0000   0.0000   0.0000
     0.0000

          k = 0.4375-0.1804 0.0000 ( 44509 PWs)   bands (ev):

   -11.3948 -11.1876 -10.7528 -10.7220 -10.4576 -10.3594 -10.3514 -10.3350
   -10.2721 -10.2333 -10.1793 -10.1471 -10.1163 -10.0590 -10.0549 -10.0062
    -9.8723  -9.8362  -9.8176  -9.7927  -9.7855  -9.7441  -9.7000  -9.6431
    -9.6256  -9.5944  -9.5134  -9.4975  -9.4376  -9.3840  -9.2393  -9.1825
    -9.1670  -9.1431  -9.1274  -9.1044  -9.0663  -9.0456  -8.9635  -8.9466
    -8.8895  -8.7633  -8.7251  -8.6796  -8.6328  -8.6067  -8.5566  -8.4810
    -8.4282  -8.2875  -8.2672  -8.2143  -8.1768  -8.1545  -8.1333  -8.1266
    -8.0872  -8.0429  -8.0228  -8.0094  -7.9759  -7.9580  -7.8995  -7.8272
    -7.7945  -7.7576  -7.7126  -7.6665  -7.6437  -7.5870  -7.5810  -7.5580
    -7.5209  -7.4997  -7.3930  -7.3680  -7.3441  -7.3025  -7.2679  -7.2303
    -7.2101  -7.1678  -7.1338  -7.1034  -7.0594  -6.9907  -6.9749  -6.9496
    -6.8819  -6.8101  -6.7880  -6.7553  -6.7311  -6.6377  -6.6046  -6.5581
    -6.5292  -6.5109  -6.4847  -6.4260  -6.4061  -6.3562  -6.3187  -6.2774
    -6.2380  -6.2001  -6.1774  -6.0951  -6.0527  -5.9741  -5.9587  -5.9273
    -5.8624  -5.6879  -5.6342  -5.5727  -5.5445  -5.5126  -5.4392  -5.4143
    -5.4094  -5.3612  -5.3278  -5.3101  -5.1822  -5.1657  -5.0783  -4.2961
    -3.7786  -3.5002  -3.2855  -2.9187  -2.5980  -2.2524  -2.1858  -1.8783
    -1.7970  -1.3327  -1.0603  -0.8122  -0.4267  -0.3041   0.6436   0.8733
     1.2794

     occupation numbers 
     1.0000   1.0000   1.0000   1.0000   1.0000   1.0000   1.0000   1.0000
     1.0000   1.0000   1.0000   1.0000   1.0000   1.0000   1.0000   1.0000
     1.0000   1.0000   1.0000   1.0000   1.0000   1.0000   1.0000   1.0000
     1.0000   1.0000   1.0000   1.0000   1.0000   1.0000   1.0000   1.0000
     1.0000   1.0000   1.0000   1.0000   1.0000   1.0000   1.0000   1.0000
     1.0000   1.0000   1.0000   1.0000   1.0000   1.0000   1.0000   1.0000
     1.0000   1.0000   1.0000   1.0000   1.0000   1.0000   1.0000   1.0000
     1.0000   1.0000   1.0000   1.0000   1.0000   1.0000   1.0000   1.0000
     1.0000   1.0000   1.0000   1.0000   1.0000   1.0000   1.0000   1.0000
     1.0000   1.0000   1.0000   1.0000   1.0000   1.0000   1.0000   1.0000
     1.0000   1.0000   1.0000   1.0000   1.0000   1.0000   1.0000   1.0000
     1.0000   1.0000   1.0000   1.0000   1.0000   1.0000   1.0000   1.0000
     1.0000   1.0000   1.0000   1.0000   1.0000   1.0000   1.0000   1.0000
     1.0000   1.0000   1.0000   1.0000   1.0000   1.0002   1.0003   1.0006
     1.0026   1.0419   1.0666   1.0833   1.0781   1.0560   0.9221   0.8500
     0.8342   0.6649   0.5393   0.4740   0.1245   0.0992   0.0242   0.0000
     0.0000   0.0000   0.0000   0.0000   0.0000   0.0000   0.0000   0.0000
     0.0000   0.0000   0.0000   0.0000   0.0000   0.0000   0.0000   0.0000
     0.0000

          k = 0.4375-0.1083 0.0000 ( 44545 PWs)   bands (ev):

   -11.4729 -11.2223 -10.7867 -10.6378 -10.4367 -10.3969 -10.3612 -10.3264
   -10.3016 -10.2449 -10.1890 -10.1444 -10.1339 -10.1248 -10.0732  -9.9991
    -9.9417  -9.8873  -9.8746  -9.8281  -9.8076  -9.7624  -9.7479  -9.6822
    -9.6374  -9.6216  -9.5856  -9.5083  -9.4635  -9.3097  -9.2867  -9.2359
    -9.2061  -9.1863  -9.1379  -9.0809  -9.0431  -9.0236  -9.0108  -8.9903
    -8.8618  -8.7613  -8.7144  -8.6477  -8.5788  -8.5732  -8.5198  -8.4450
    -8.4006  -8.3352  -8.3098  -8.2653  -8.1917  -8.1754  -8.1407  -8.1093
    -8.0617  -8.0337  -8.0202  -8.0127  -7.9872  -7.9509  -7.9209  -7.8875
    -7.8627  -7.8174  -7.7799  -7.6379  -7.6201  -7.6106  -7.5788  -7.5292
    -7.4800  -7.4709  -7.3937  -7.3390  -7.2861  -7.2371  -7.2204  -7.1964
    -7.1616  -7.1477  -7.1292  -7.0995  -7.0533  -7.0084  -6.9624  -6.9265
    -6.8913  -6.8122  -6.7271  -6.6988  -6.6893  -6.6748  -6.5768  -6.4918
    -6.4711  -6.4432  -6.4165  -6.3299  -6.3078  -6.2747  -6.2494  -6.1703
    -6.1357  -6.1004  -6.0812  -6.0150  -5.9208  -5.8605  -5.8470  -5.7398
    -5.7092  -5.6003  -5.5794  -5.5443  -5.5322  -5.5274  -5.5059  -5.4806
    -5.4038  -5.3822  -5.3768  -5.2904  -5.2448  -5.2329  -5.0852  -4.1642
    -4.0866  -3.8998  -3.7980  -3.5025  -2.6927  -2.3175  -2.2231  -1.5092
    -1.2965  -1.1321  -0.9823  -0.6180  -0.4502   0.1723   0.6597   1.0241
     1.1534

     occupation numbers 
     1.0000   1.0000   1.0000   1.0000   1.0000   1.0000   1.0000   1.0000
     1.0000   1.0000   1.0000   1.0000   1.0000   1.0000   1.0000   1.0000
     1.0000   1.0000   1.0000   1.0000   1.0000   1.0000   1.0000   1.0000
     1.0000   1.0000   1.0000   1.0000   1.0000   1.0000   1.0000   1.0000
     1.0000   1.0000   1.0000   1.0000   1.0000   1.0000   1.0000   1.0000
     1.0000   1.0000   1.0000   1.0000   1.0000   1.0000   1.0000   1.0000
     1.0000   1.0000   1.0000   1.0000   1.0000   1.0000   1.0000   1.0000
     1.0000   1.0000   1.0000   1.0000   1.0000   1.0000   1.0000   1.0000
     1.0000   1.0000   1.0000   1.0000   1.0000   1.0000   1.0000   1.0000
     1.0000   1.0000   1.0000   1.0000   1.0000   1.0000   1.0000   1.0000
     1.0000   1.0000   1.0000   1.0000   1.0000   1.0000   1.0000   1.0000
     1.0000   1.0000   1.0000   1.0000   1.0000   1.0000   1.0000   1.0000
     1.0000   1.0000   1.0000   1.0000   1.0000   1.0000   1.0000   1.0000
     1.0000   1.0000   1.0000   1.0001   1.0007   1.0028   1.0036   1.0222
     1.0330   1.0792   1.0830   1.0780   1.0719   1.0687   1.0488   1.0126
     0.8161   0.7415   0.7222   0.4043   0.2624   0.2307   0.0274   0.0000
     0.0000   0.0000   0.0000   0.0000   0.0000   0.0000   0.0000   0.0000
     0.0000   0.0000   0.0000   0.0000   0.0000   0.0000   0.0000   0.0000
     0.0000

          k = 0.4375-0.0361 0.0000 ( 44536 PWs)   bands (ev):

   -11.5132 -11.2405 -10.8042 -10.5377 -10.4316 -10.4205 -10.4047 -10.3782
   -10.2578 -10.2181 -10.2057 -10.1596 -10.1360 -10.1158 -10.0409 -10.0281
    -9.9780  -9.9676  -9.9356  -9.8380  -9.8129  -9.7968  -9.7492  -9.6969
    -9.6585  -9.6471  -9.5983  -9.4765  -9.4657  -9.3911  -9.2627  -9.2559
    -9.2329  -9.1902  -9.1197  -9.0978  -9.0805  -9.0292  -9.0050  -8.9417
    -8.8598  -8.8487  -8.6725  -8.5721  -8.5621  -8.5192  -8.4986  -8.4347
    -8.4012  -8.3918  -8.3618  -8.3037  -8.2639  -8.2134  -8.0937  -8.0829
    -8.0396  -8.0312  -8.0205  -8.0097  -7.9922  -7.9600  -7.9294  -7.9083
    -7.8921  -7.8734  -7.8343  -7.6423  -7.6318  -7.5866  -7.5595  -7.4990
    -7.4518  -7.4246  -7.3961  -7.3690  -7.2440  -7.2175  -7.1914  -7.1662
    -7.1565  -7.1304  -7.0905  -7.0718  -7.0667  -7.0226  -6.9693  -6.9135
    -6.8957  -6.7951  -6.7202  -6.7052  -6.6599  -6.6276  -6.5795  -6.4720
    -6.4385  -6.4081  -6.3924  -6.3763  -6.2552  -6.2071  -6.1563  -6.1306
    -6.0464  -6.0289  -5.9546  -5.9011  -5.8294  -5.7984  -5.7466  -5.6836
    -5.6575  -5.6411  -5.6235  -5.5990  -5.5716  -5.5394  -5.5020  -5.4123
    -5.4006  -5.3476  -5.3319  -5.2371  -5.1249  -5.0502  -4.7864  -4.7009
    -4.5248  -4.2222  -3.9016  -3.5827  -3.0933  -2.4789  -1.9713  -1.5025
    -1.2771  -0.8862  -0.5274  -0.2449  -0.0873   0.2807   0.3371   0.7718
     1.1397

     occupation numbers 
     1.0000   1.0000   1.0000   1.0000   1.0000   1.0000   1.0000   1.0000
     1.0000   1.0000   1.0000   1.0000   1.0000   1.0000   1.0000   1.0000
     1.0000   1.0000   1.0000   1.0000   1.0000   1.0000   1.0000   1.0000
     1.0000   1.0000   1.0000   1.0000   1.0000   1.0000   1.0000   1.0000
     1.0000   1.0000   1.0000   1.0000   1.0000   1.0000   1.0000   1.0000
     1.0000   1.0000   1.0000   1.0000   1.0000   1.0000   1.0000   1.0000
     1.0000   1.0000   1.0000   1.0000   1.0000   1.0000   1.0000   1.0000
     1.0000   1.0000   1.0000   1.0000   1.0000   1.0000   1.0000   1.0000
     1.0000   1.0000   1.0000   1.0000   1.0000   1.0000   1.0000   1.0000
     1.0000   1.0000   1.0000   1.0000   1.0000   1.0000   1.0000   1.0000
     1.0000   1.0000   1.0000   1.0000   1.0000   1.0000   1.0000   1.0000
     1.0000   1.0000   1.0000   1.0000   1.0000   1.0000   1.0000   1.0000
     1.0000   1.0000   1.0000   1.0000   1.0000   1.0000   1.0000   1.0000
     1.0000   1.0000   1.0003   1.0011   1.0051   1.0089   1.0202   1.0438
     1.0559   1.0636   1.0711   1.0795   1.0833   1.0758   1.0441   0.8436
     0.8054   0.6138   0.5547   0.2417   0.0537   0.0142   0.0000   0.0000
     0.0000   0.0000   0.0000   0.0000   0.0000   0.0000   0.0000   0.0000
     0.0000   0.0000   0.0000   0.0000   0.0000   0.0000   0.0000   0.0000
     0.0000

          k = 0.4375 0.0361 0.0000 ( 44536 PWs)   bands (ev):

   -11.5132 -11.2405 -10.8042 -10.5377 -10.4316 -10.4205 -10.4047 -10.3782
   -10.2578 -10.2181 -10.2057 -10.1596 -10.1360 -10.1158 -10.0409 -10.0281
    -9.9780  -9.9676  -9.9356  -9.8380  -9.8129  -9.7968  -9.7492  -9.6969
    -9.6585  -9.6471  -9.5983  -9.4765  -9.4657  -9.3911  -9.2627  -9.2559
    -9.2329  -9.1902  -9.1197  -9.0978  -9.0805  -9.0292  -9.0050  -8.9417
    -8.8598  -8.8487  -8.6725  -8.5721  -8.5621  -8.5192  -8.4986  -8.4347
    -8.4012  -8.3918  -8.3618  -8.3037  -8.2639  -8.2134  -8.0937  -8.0829
    -8.0396  -8.0312  -8.0205  -8.0097  -7.9922  -7.9600  -7.9294  -7.9083
    -7.8921  -7.8734  -7.8343  -7.6423  -7.6318  -7.5866  -7.5595  -7.4990
    -7.4518  -7.4246  -7.3961  -7.3690  -7.2440  -7.2175  -7.1914  -7.1662
    -7.1565  -7.1304  -7.0905  -7.0718  -7.0667  -7.0226  -6.9693  -6.9135
    -6.8957  -6.7951  -6.7202  -6.7052  -6.6599  -6.6276  -6.5795  -6.4720
    -6.4385  -6.4081  -6.3924  -6.3763  -6.2552  -6.2071  -6.1563  -6.1306
    -6.0464  -6.0289  -5.9546  -5.9011  -5.8294  -5.7984  -5.7466  -5.6836
    -5.6575  -5.6411  -5.6235  -5.5990  -5.5716  -5.5394  -5.5020  -5.4123
    -5.4006  -5.3476  -5.3319  -5.2371  -5.1249  -5.0502  -4.7864  -4.7009
    -4.5248  -4.2222  -3.9016  -3.5827  -3.0933  -2.4789  -1.9713  -1.5025
    -1.2771  -0.8862  -0.5274  -0.2449  -0.0873   0.2807   0.3371   0.7718
     1.1396

     occupation numbers 
     1.0000   1.0000   1.0000   1.0000   1.0000   1.0000   1.0000   1.0000
     1.0000   1.0000   1.0000   1.0000   1.0000   1.0000   1.0000   1.0000
     1.0000   1.0000   1.0000   1.0000   1.0000   1.0000   1.0000   1.0000
     1.0000   1.0000   1.0000   1.0000   1.0000   1.0000   1.0000   1.0000
     1.0000   1.0000   1.0000   1.0000   1.0000   1.0000   1.0000   1.0000
     1.0000   1.0000   1.0000   1.0000   1.0000   1.0000   1.0000   1.0000
     1.0000   1.0000   1.0000   1.0000   1.0000   1.0000   1.0000   1.0000
     1.0000   1.0000   1.0000   1.0000   1.0000   1.0000   1.0000   1.0000
     1.0000   1.0000   1.0000   1.0000   1.0000   1.0000   1.0000   1.0000
     1.0000   1.0000   1.0000   1.0000   1.0000   1.0000   1.0000   1.0000
     1.0000   1.0000   1.0000   1.0000   1.0000   1.0000   1.0000   1.0000
     1.0000   1.0000   1.0000   1.0000   1.0000   1.0000   1.0000   1.0000
     1.0000   1.0000   1.0000   1.0000   1.0000   1.0000   1.0000   1.0000
     1.0000   1.0000   1.0003   1.0011   1.0051   1.0089   1.0202   1.0438
     1.0559   1.0636   1.0711   1.0795   1.0833   1.0758   1.0441   0.8436
     0.8054   0.6138   0.5547   0.2417   0.0537   0.0142   0.0000   0.0000
     0.0000   0.0000   0.0000   0.0000   0.0000   0.0000   0.0000   0.0000
     0.0000   0.0000   0.0000   0.0000   0.0000   0.0000   0.0000   0.0000
     0.0000

          k = 0.4375 0.1083 0.0000 ( 44545 PWs)   bands (ev):

   -11.4729 -11.2223 -10.7867 -10.6378 -10.4367 -10.3969 -10.3612 -10.3264
   -10.3016 -10.2449 -10.1890 -10.1444 -10.1339 -10.1248 -10.0732  -9.9991
    -9.9417  -9.8873  -9.8746  -9.8281  -9.8076  -9.7624  -9.7479  -9.6822
    -9.6374  -9.6216  -9.5856  -9.5083  -9.4635  -9.3097  -9.2867  -9.2359
    -9.2061  -9.1863  -9.1379  -9.0809  -9.0431  -9.0236  -9.0108  -8.9903
    -8.8618  -8.7613  -8.7144  -8.6477  -8.5788  -8.5732  -8.5198  -8.4450
    -8.4006  -8.3352  -8.3098  -8.2653  -8.1917  -8.1754  -8.1407  -8.1093
    -8.0617  -8.0337  -8.0202  -8.0127  -7.9872  -7.9509  -7.9209  -7.8875
    -7.8627  -7.8174  -7.7799  -7.6379  -7.6201  -7.6106  -7.5788  -7.5292
    -7.4800  -7.4709  -7.3937  -7.3390  -7.2861  -7.2371  -7.2204  -7.1964
    -7.1616  -7.1477  -7.1292  -7.0995  -7.0533  -7.0084  -6.9624  -6.9265
    -6.8913  -6.8122  -6.7271  -6.6988  -6.6893  -6.6748  -6.5768  -6.4918
    -6.4711  -6.4432  -6.4165  -6.3299  -6.3078  -6.2747  -6.2494  -6.1703
    -6.1357  -6.1004  -6.0812  -6.0150  -5.9208  -5.8605  -5.8470  -5.7398
    -5.7092  -5.6003  -5.5794  -5.5443  -5.5322  -5.5274  -5.5059  -5.4806
    -5.4038  -5.3822  -5.3768  -5.2904  -5.2448  -5.2329  -5.0852  -4.1642
    -4.0866  -3.8998  -3.7980  -3.5025  -2.6927  -2.3175  -2.2231  -1.5092
    -1.2965  -1.1321  -0.9823  -0.6180  -0.4502   0.1723   0.6597   1.0241
     1.1534

     occupation numbers 
     1.0000   1.0000   1.0000   1.0000   1.0000   1.0000   1.0000   1.0000
     1.0000   1.0000   1.0000   1.0000   1.0000   1.0000   1.0000   1.0000
     1.0000   1.0000   1.0000   1.0000   1.0000   1.0000   1.0000   1.0000
     1.0000   1.0000   1.0000   1.0000   1.0000   1.0000   1.0000   1.0000
     1.0000   1.0000   1.0000   1.0000   1.0000   1.0000   1.0000   1.0000
     1.0000   1.0000   1.0000   1.0000   1.0000   1.0000   1.0000   1.0000
     1.0000   1.0000   1.0000   1.0000   1.0000   1.0000   1.0000   1.0000
     1.0000   1.0000   1.0000   1.0000   1.0000   1.0000   1.0000   1.0000
     1.0000   1.0000   1.0000   1.0000   1.0000   1.0000   1.0000   1.0000
     1.0000   1.0000   1.0000   1.0000   1.0000   1.0000   1.0000   1.0000
     1.0000   1.0000   1.0000   1.0000   1.0000   1.0000   1.0000   1.0000
     1.0000   1.0000   1.0000   1.0000   1.0000   1.0000   1.0000   1.0000
     1.0000   1.0000   1.0000   1.0000   1.0000   1.0000   1.0000   1.0000
     1.0000   1.0000   1.0000   1.0001   1.0007   1.0028   1.0036   1.0222
     1.0330   1.0792   1.0830   1.0780   1.0719   1.0687   1.0488   1.0126
     0.8161   0.7415   0.7222   0.4043   0.2624   0.2307   0.0274   0.0000
     0.0000   0.0000   0.0000   0.0000   0.0000   0.0000   0.0000   0.0000
     0.0000   0.0000   0.0000   0.0000   0.0000   0.0000   0.0000   0.0000
     0.0000

          k = 0.4375 0.1804 0.0000 ( 44509 PWs)   bands (ev):

   -11.3948 -11.1876 -10.7528 -10.7220 -10.4576 -10.3594 -10.3514 -10.3350
   -10.2721 -10.2333 -10.1793 -10.1471 -10.1163 -10.0590 -10.0549 -10.0062
    -9.8723  -9.8362  -9.8176  -9.7927  -9.7855  -9.7441  -9.7000  -9.6431
    -9.6256  -9.5944  -9.5134  -9.4975  -9.4376  -9.3840  -9.2393  -9.1825
    -9.1670  -9.1431  -9.1274  -9.1044  -9.0663  -9.0456  -8.9635  -8.9466
    -8.8895  -8.7633  -8.7251  -8.6796  -8.6328  -8.6067  -8.5566  -8.4810
    -8.4282  -8.2875  -8.2672  -8.2143  -8.1768  -8.1545  -8.1333  -8.1266
    -8.0872  -8.0429  -8.0228  -8.0094  -7.9759  -7.9580  -7.8995  -7.8272
    -7.7945  -7.7576  -7.7126  -7.6665  -7.6437  -7.5870  -7.5810  -7.5580
    -7.5209  -7.4997  -7.3930  -7.3680  -7.3441  -7.3025  -7.2679  -7.2303
    -7.2101  -7.1678  -7.1338  -7.1034  -7.0594  -6.9907  -6.9749  -6.9496
    -6.8819  -6.8101  -6.7880  -6.7553  -6.7311  -6.6377  -6.6046  -6.5581
    -6.5292  -6.5109  -6.4847  -6.4260  -6.4061  -6.3562  -6.3187  -6.2774
    -6.2380  -6.2001  -6.1774  -6.0951  -6.0527  -5.9741  -5.9587  -5.9273
    -5.8624  -5.6879  -5.6342  -5.5727  -5.5445  -5.5126  -5.4392  -5.4143
    -5.4094  -5.3612  -5.3278  -5.3101  -5.1822  -5.1657  -5.0783  -4.2961
    -3.7786  -3.5002  -3.2855  -2.9187  -2.5980  -2.2524  -2.1858  -1.8783
    -1.7970  -1.3327  -1.0603  -0.8122  -0.4267  -0.3041   0.6436   0.8733
     1.2794

     occupation numbers 
     1.0000   1.0000   1.0000   1.0000   1.0000   1.0000   1.0000   1.0000
     1.0000   1.0000   1.0000   1.0000   1.0000   1.0000   1.0000   1.0000
     1.0000   1.0000   1.0000   1.0000   1.0000   1.0000   1.0000   1.0000
     1.0000   1.0000   1.0000   1.0000   1.0000   1.0000   1.0000   1.0000
     1.0000   1.0000   1.0000   1.0000   1.0000   1.0000   1.0000   1.0000
     1.0000   1.0000   1.0000   1.0000   1.0000   1.0000   1.0000   1.0000
     1.0000   1.0000   1.0000   1.0000   1.0000   1.0000   1.0000   1.0000
     1.0000   1.0000   1.0000   1.0000   1.0000   1.0000   1.0000   1.0000
     1.0000   1.0000   1.0000   1.0000   1.0000   1.0000   1.0000   1.0000
     1.0000   1.0000   1.0000   1.0000   1.0000   1.0000   1.0000   1.0000
     1.0000   1.0000   1.0000   1.0000   1.0000   1.0000   1.0000   1.0000
     1.0000   1.0000   1.0000   1.0000   1.0000   1.0000   1.0000   1.0000
     1.0000   1.0000   1.0000   1.0000   1.0000   1.0000   1.0000   1.0000
     1.0000   1.0000   1.0000   1.0000   1.0000   1.0002   1.0003   1.0006
     1.0026   1.0419   1.0666   1.0833   1.0781   1.0560   0.9221   0.8500
     0.8342   0.6649   0.5393   0.4740   0.1245   0.0992   0.0242   0.0000
     0.0000   0.0000   0.0000   0.0000   0.0000   0.0000   0.0000   0.0000
     0.0000   0.0000   0.0000   0.0000   0.0000   0.0000   0.0000   0.0000
     0.0000

          k = 0.4375 0.2526 0.0000 ( 44502 PWs)   bands (ev):

   -11.2877 -11.1360 -10.8005 -10.6843 -10.4756 -10.3636 -10.2917 -10.2897
   -10.2762 -10.1664 -10.1655 -10.1497 -10.0907 -10.0024  -9.9977  -9.9918
    -9.8116  -9.8092  -9.7977  -9.7459  -9.7048  -9.6999  -9.6351  -9.6257
    -9.5901  -9.5557  -9.4874  -9.4487  -9.4066  -9.3926  -9.2178  -9.2109
    -9.1824  -9.1147  -9.1005  -9.0813  -9.0716  -9.0292  -8.9468  -8.9180
    -8.8735  -8.8568  -8.7125  -8.7025  -8.6707  -8.6262  -8.5870  -8.4931
    -8.4861  -8.2994  -8.2737  -8.2674  -8.2481  -8.1879  -8.1460  -8.0650
    -8.0518  -8.0410  -8.0307  -8.0115  -7.9860  -7.9788  -7.8163  -7.7815
    -7.7588  -7.7446  -7.7375  -7.6966  -7.6058  -7.5932  -7.5727  -7.5351
    -7.5236  -7.5083  -7.4878  -7.4258  -7.3714  -7.3103  -7.3001  -7.2905
    -7.2231  -7.1678  -7.1515  -7.1125  -7.0585  -7.0069  -7.0044  -6.9982
    -6.8987  -6.8297  -6.8061  -6.7934  -6.7678  -6.6912  -6.6875  -6.6009
    -6.5874  -6.5701  -6.5521  -6.5437  -6.5336  -6.5083  -6.3825  -6.3343
    -6.3164  -6.3011  -6.2565  -6.1357  -6.1011  -6.0230  -5.9997  -5.9830
    -5.9551  -5.7874  -5.6116  -5.5978  -5.5346  -5.5180  -5.3874  -5.3825
    -5.3707  -5.3451  -5.3047  -5.2981  -5.1551  -5.1405  -5.0040  -4.4592
    -3.6480  -2.9549  -2.8457  -2.8346  -2.5910  -2.5541  -2.2544  -1.9901
    -1.9345  -1.3202  -0.9988  -0.9585  -0.7379   0.1024   0.3770   0.4790
     1.6434

     occupation numbers 
     1.0000   1.0000   1.0000   1.0000   1.0000   1.0000   1.0000   1.0000
     1.0000   1.0000   1.0000   1.0000   1.0000   1.0000   1.0000   1.0000
     1.0000   1.0000   1.0000   1.0000   1.0000   1.0000   1.0000   1.0000
     1.0000   1.0000   1.0000   1.0000   1.0000   1.0000   1.0000   1.0000
     1.0000   1.0000   1.0000   1.0000   1.0000   1.0000   1.0000   1.0000
     1.0000   1.0000   1.0000   1.0000   1.0000   1.0000   1.0000   1.0000
     1.0000   1.0000   1.0000   1.0000   1.0000   1.0000   1.0000   1.0000
     1.0000   1.0000   1.0000   1.0000   1.0000   1.0000   1.0000   1.0000
     1.0000   1.0000   1.0000   1.0000   1.0000   1.0000   1.0000   1.0000
     1.0000   1.0000   1.0000   1.0000   1.0000   1.0000   1.0000   1.0000
     1.0000   1.0000   1.0000   1.0000   1.0000   1.0000   1.0000   1.0000
     1.0000   1.0000   1.0000   1.0000   1.0000   1.0000   1.0000   1.0000
     1.0000   1.0000   1.0000   1.0000   1.0000   1.0000   1.0000   1.0000
     1.0000   1.0000   1.0000   1.0000   1.0000   1.0000   1.0001   1.0001
     1.0003   1.0108   1.0756   1.0798   1.0733   1.0612   0.7600   0.7429
     0.7000   0.6043   0.4544   0.4308   0.0853   0.0686   0.0055   0.0000
     0.0000   0.0000   0.0000   0.0000   0.0000   0.0000   0.0000   0.0000
     0.0000   0.0000   0.0000   0.0000   0.0000   0.0000   0.0000   0.0000
     0.0000

          k = 0.4375-0.8299 0.0000 ( 44516 PWs)   bands (ev):

   -11.1865 -11.0439 -10.8531 -10.5964 -10.4880 -10.3055 -10.2524 -10.2263
   -10.2243 -10.1777 -10.1366 -10.1005 -10.0526  -9.9767  -9.9501  -9.9053
    -9.7997  -9.7959  -9.7408  -9.6887  -9.6655  -9.6177  -9.5895  -9.5638
    -9.5585  -9.5244  -9.4850  -9.4001  -9.3774  -9.3628  -9.2572  -9.2290
    -9.2141  -9.1520  -9.0843  -9.0702  -9.0466  -9.0006  -8.9941  -8.9295
    -8.9143  -8.8153  -8.7694  -8.7044  -8.6855  -8.6396  -8.6055  -8.5508
    -8.5090  -8.3933  -8.3792  -8.3047  -8.2761  -8.2224  -8.1608  -8.1131
    -8.0730  -8.0626  -8.0485  -8.0120  -7.9858  -7.9430  -7.8172  -7.8124
    -7.7703  -7.7500  -7.7258  -7.7037  -7.6897  -7.6490  -7.6148  -7.5985
    -7.5474  -7.5394  -7.4963  -7.4266  -7.3737  -7.3380  -7.3157  -7.3069
    -7.2381  -7.1743  -7.1588  -7.1243  -7.0696  -7.0497  -7.0044  -6.9932
    -6.8971  -6.8613  -6.8204  -6.8009  -6.7629  -6.7396  -6.7062  -6.6821
    -6.6576  -6.6209  -6.6017  -6.5601  -6.5387  -6.4742  -6.4398  -6.3478
    -6.3205  -6.3022  -6.2486  -6.1352  -6.1080  -6.0649  -6.0042  -5.9543
    -5.9236  -5.8255  -5.6292  -5.6072  -5.5460  -5.5221  -5.4127  -5.3964
    -5.3803  -5.3755  -5.3419  -5.3270  -5.1794  -5.1656  -4.8573  -4.5482
    -3.5145  -3.4610  -3.2423  -3.0088  -2.7484  -2.1850  -2.0722  -1.7913
    -1.6527  -1.3384  -1.1907  -0.5797  -0.3087  -0.2371   0.1753   0.9124
     1.3199

     occupation numbers 
     1.0000   1.0000   1.0000   1.0000   1.0000   1.0000   1.0000   1.0000
     1.0000   1.0000   1.0000   1.0000   1.0000   1.0000   1.0000   1.0000
     1.0000   1.0000   1.0000   1.0000   1.0000   1.0000   1.0000   1.0000
     1.0000   1.0000   1.0000   1.0000   1.0000   1.0000   1.0000   1.0000
     1.0000   1.0000   1.0000   1.0000   1.0000   1.0000   1.0000   1.0000
     1.0000   1.0000   1.0000   1.0000   1.0000   1.0000   1.0000   1.0000
     1.0000   1.0000   1.0000   1.0000   1.0000   1.0000   1.0000   1.0000
     1.0000   1.0000   1.0000   1.0000   1.0000   1.0000   1.0000   1.0000
     1.0000   1.0000   1.0000   1.0000   1.0000   1.0000   1.0000   1.0000
     1.0000   1.0000   1.0000   1.0000   1.0000   1.0000   1.0000   1.0000
     1.0000   1.0000   1.0000   1.0000   1.0000   1.0000   1.0000   1.0000
     1.0000   1.0000   1.0000   1.0000   1.0000   1.0000   1.0000   1.0000
     1.0000   1.0000   1.0000   1.0000   1.0000   1.0000   1.0000   1.0000
     1.0000   1.0000   1.0000   1.0000   1.0000   1.0000   1.0001   1.0003
     1.0007   1.0055   1.0688   1.0771   1.0786   1.0647   0.8450   0.7913
     0.7349   0.7174   0.5921   0.5363   0.1200   0.0992   0.0001   0.0000
     0.0000   0.0000   0.0000   0.0000   0.0000   0.0000   0.0000   0.0000
     0.0000   0.0000   0.0000   0.0000   0.0000   0.0000   0.0000   0.0000
     0.0000

          k = 0.4375-0.7578 0.0000 ( 44554 PWs)   bands (ev):

   -11.1319 -10.8942 -10.8764 -10.4997 -10.4689 -10.2037 -10.1961 -10.1841
   -10.1784 -10.1460 -10.1327 -10.0350 -10.0031  -9.9432  -9.8884  -9.8108
    -9.8012  -9.7802  -9.7278  -9.6759  -9.6106  -9.5831  -9.5655  -9.5604
    -9.4521  -9.4447  -9.4383  -9.4303  -9.4145  -9.3070  -9.2879  -9.2451
    -9.2064  -9.1933  -9.1161  -9.0797  -9.0738  -9.0614  -8.9618  -8.9544
    -8.9431  -8.9255  -8.7727  -8.7143  -8.7032  -8.6313  -8.5922  -8.5671
    -8.5341  -8.5209  -8.5096  -8.2956  -8.2672  -8.2347  -8.2284  -8.2079
    -8.1004  -8.0924  -8.0842  -8.0181  -8.0084  -7.9524  -7.9401  -7.8786
    -7.8166  -7.8044  -7.7617  -7.7571  -7.7422  -7.7310  -7.6793  -7.6522
    -7.6336  -7.5714  -7.5554  -7.5450  -7.3623  -7.3366  -7.3004  -7.1994
    -7.1944  -7.1782  -7.1613  -7.1354  -7.1166  -7.0513  -6.9906  -6.9804
    -6.8776  -6.8385  -6.8187  -6.8019  -6.7482  -6.7297  -6.7257  -6.6590
    -6.6327  -6.5726  -6.5259  -6.5161  -6.4471  -6.4240  -6.3417  -6.3011
    -6.2891  -6.2233  -6.1398  -6.0980  -6.0911  -6.0677  -6.0577  -5.9035
    -5.8484  -5.7905  -5.6605  -5.6238  -5.5731  -5.5401  -5.4771  -5.4566
    -5.4535  -5.4276  -5.4239  -5.4118  -5.2518  -5.2359  -4.7089  -4.5289
    -4.0487  -3.9017  -3.5419  -3.2052  -3.0084  -2.4555  -1.6951  -1.4463
    -1.3388  -1.0834  -0.9210  -0.4964  -0.1206   0.0224   0.4231   0.7778
     1.5980

     occupation numbers 
     1.0000   1.0000   1.0000   1.0000   1.0000   1.0000   1.0000   1.0000
     1.0000   1.0000   1.0000   1.0000   1.0000   1.0000   1.0000   1.0000
     1.0000   1.0000   1.0000   1.0000   1.0000   1.0000   1.0000   1.0000
     1.0000   1.0000   1.0000   1.0000   1.0000   1.0000   1.0000   1.0000
     1.0000   1.0000   1.0000   1.0000   1.0000   1.0000   1.0000   1.0000
     1.0000   1.0000   1.0000   1.0000   1.0000   1.0000   1.0000   1.0000
     1.0000   1.0000   1.0000   1.0000   1.0000   1.0000   1.0000   1.0000
     1.0000   1.0000   1.0000   1.0000   1.0000   1.0000   1.0000   1.0000
     1.0000   1.0000   1.0000   1.0000   1.0000   1.0000   1.0000   1.0000
     1.0000   1.0000   1.0000   1.0000   1.0000   1.0000   1.0000   1.0000
     1.0000   1.0000   1.0000   1.0000   1.0000   1.0000   1.0000   1.0000
     1.0000   1.0000   1.0000   1.0000   1.0000   1.0000   1.0000   1.0000
     1.0000   1.0000   1.0000   1.0000   1.0000   1.0000   1.0000   1.0000
     1.0000   1.0000   1.0000   1.0000   1.0000   1.0000   1.0000   1.0011
     1.0035   1.0102   1.0545   1.0711   1.0833   1.0761   1.0064   0.9646
     0.9576   0.8899   0.8791   0.8420   0.2819   0.2386   0.0000   0.0000
     0.0000   0.0000   0.0000   0.0000   0.0000   0.0000   0.0000   0.0000
     0.0000   0.0000   0.0000   0.0000   0.0000   0.0000   0.0000   0.0000
     0.0000

          k = 0.4375-0.6856 0.0000 ( 44484 PWs)   bands (ev):

   -11.1058 -10.9072 -10.6840 -10.4798 -10.3498 -10.1996 -10.1771 -10.1522
   -10.1198 -10.0635 -10.0358  -9.9931  -9.9401  -9.9217  -9.8262  -9.8182
    -9.7929  -9.7257  -9.7055  -9.6672  -9.6330  -9.6121  -9.5664  -9.5012
    -9.4953  -9.4400  -9.4061  -9.3908  -9.3178  -9.2971  -9.2922  -9.2831
    -9.2765  -9.2263  -9.1309  -9.1202  -9.0974  -9.0563  -8.9894  -8.9843
    -8.9462  -8.9040  -8.8610  -8.7861  -8.7211  -8.6791  -8.6717  -8.5683
    -8.5416  -8.4712  -8.4595  -8.3704  -8.3133  -8.2877  -8.2536  -8.2284
    -8.2044  -8.1456  -8.1246  -8.1035  -8.0722  -8.0200  -7.9812  -7.9536
    -7.9368  -7.8992  -7.8245  -7.8171  -7.7825  -7.7627  -7.7099  -7.6713
    -7.6485  -7.5864  -7.5735  -7.5483  -7.3614  -7.3426  -7.2782  -7.2382
    -7.1724  -7.1654  -7.1524  -7.1350  -7.0881  -7.0423  -6.9946  -6.9762
    -6.9026  -6.8567  -6.8207  -6.7470  -6.7259  -6.6916  -6.6599  -6.5740
    -6.5576  -6.4981  -6.4822  -6.4271  -6.3610  -6.3201  -6.2610  -6.2193
    -6.1856  -6.1209  -6.0889  -6.0699  -6.0405  -5.8732  -5.8606  -5.8415
    -5.7957  -5.7563  -5.7061  -5.6099  -5.6008  -5.5685  -5.5637  -5.5314
    -5.5288  -5.5121  -5.5092  -5.4945  -5.3537  -5.3382  -4.6787  -4.5858
    -4.4749  -4.3351  -4.0859  -3.2939  -3.0048  -2.7510  -1.7469  -1.4148
    -1.0740  -0.7157  -0.3494  -0.1978   0.1198   0.3540   0.4591   1.1048
     1.6988

     occupation numbers 
     1.0000   1.0000   1.0000   1.0000   1.0000   1.0000   1.0000   1.0000
     1.0000   1.0000   1.0000   1.0000   1.0000   1.0000   1.0000   1.0000
     1.0000   1.0000   1.0000   1.0000   1.0000   1.0000   1.0000   1.0000
     1.0000   1.0000   1.0000   1.0000   1.0000   1.0000   1.0000   1.0000
     1.0000   1.0000   1.0000   1.0000   1.0000   1.0000   1.0000   1.0000
     1.0000   1.0000   1.0000   1.0000   1.0000   1.0000   1.0000   1.0000
     1.0000   1.0000   1.0000   1.0000   1.0000   1.0000   1.0000   1.0000
     1.0000   1.0000   1.0000   1.0000   1.0000   1.0000   1.0000   1.0000
     1.0000   1.0000   1.0000   1.0000   1.0000   1.0000   1.0000   1.0000
     1.0000   1.0000   1.0000   1.0000   1.0000   1.0000   1.0000   1.0000
     1.0000   1.0000   1.0000   1.0000   1.0000   1.0000   1.0000   1.0000
     1.0000   1.0000   1.0000   1.0000   1.0000   1.0000   1.0000   1.0000
     1.0000   1.0000   1.0000   1.0000   1.0000   1.0000   1.0000   1.0000
     1.0000   1.0000   1.0000   1.0000   1.0000   1.0021   1.0028   1.0040
     1.0094   1.0175   1.0342   1.0762   1.0790   1.0832   1.0829   1.0713
     1.0697   1.0555   1.0525   1.0343   0.6369   0.5783   0.0000   0.0000
     0.0000   0.0000   0.0000   0.0000   0.0000   0.0000   0.0000   0.0000
     0.0000   0.0000   0.0000   0.0000   0.0000   0.0000   0.0000   0.0000
     0.0000

          k = 0.4375-0.6134 0.0000 ( 44485 PWs)   bands (ev):

   -11.0948 -10.9147 -10.4825 -10.4674 -10.3036 -10.2364 -10.1820 -10.1608
   -10.0339  -9.9762  -9.9669  -9.9369  -9.9222  -9.9017  -9.8626  -9.7817
    -9.7498  -9.7376  -9.6978  -9.6722  -9.6602  -9.6314  -9.5680  -9.5010
    -9.4800  -9.4741  -9.4525  -9.3972  -9.3443  -9.2879  -9.2764  -9.2559
    -9.2408  -9.2314  -9.1689  -9.1640  -9.1562  -9.0186  -8.9744  -8.9568
    -8.9487  -8.8937  -8.8443  -8.8185  -8.7847  -8.7130  -8.6906  -8.5646
    -8.5338  -8.5021  -8.4381  -8.4084  -8.3982  -8.3442  -8.3267  -8.2396
    -8.2070  -8.1909  -8.1765  -8.1488  -8.1086  -8.0699  -8.0237  -7.9842
    -7.9692  -7.9160  -7.8741  -7.8316  -7.8049  -7.7836  -7.7458  -7.6790
    -7.6295  -7.5917  -7.5540  -7.5351  -7.4108  -7.3248  -7.2838  -7.2541
    -7.1782  -7.1710  -7.1288  -7.1139  -7.0721  -7.0537  -7.0514  -6.9673
    -6.8604  -6.8171  -6.8052  -6.7533  -6.7378  -6.6618  -6.6424  -6.5472
    -6.4749  -6.4535  -6.3980  -6.3509  -6.3277  -6.2826  -6.2535  -6.2119
    -6.1045  -6.0644  -5.9838  -5.9583  -5.8531  -5.8159  -5.8089  -5.7698
    -5.7574  -5.7165  -5.6869  -5.6652  -5.6492  -5.6290  -5.5808  -5.5390
    -5.5328  -5.4998  -5.4580  -5.4570  -5.4433  -5.1910  -5.0825  -5.0097
    -4.7382  -4.5804  -4.0172  -3.5652  -3.1884  -2.4956  -1.9956  -1.5840
    -0.8051  -0.3013  -0.1588   0.0316   0.3979   0.7313   0.8336   1.1428
     1.2993

     occupation numbers 
     1.0000   1.0000   1.0000   1.0000   1.0000   1.0000   1.0000   1.0000
     1.0000   1.0000   1.0000   1.0000   1.0000   1.0000   1.0000   1.0000
     1.0000   1.0000   1.0000   1.0000   1.0000   1.0000   1.0000   1.0000
     1.0000   1.0000   1.0000   1.0000   1.0000   1.0000   1.0000   1.0000
     1.0000   1.0000   1.0000   1.0000   1.0000   1.0000   1.0000   1.0000
     1.0000   1.0000   1.0000   1.0000   1.0000   1.0000   1.0000   1.0000
     1.0000   1.0000   1.0000   1.0000   1.0000   1.0000   1.0000   1.0000
     1.0000   1.0000   1.0000   1.0000   1.0000   1.0000   1.0000   1.0000
     1.0000   1.0000   1.0000   1.0000   1.0000   1.0000   1.0000   1.0000
     1.0000   1.0000   1.0000   1.0000   1.0000   1.0000   1.0000   1.0000
     1.0000   1.0000   1.0000   1.0000   1.0000   1.0000   1.0000   1.0000
     1.0000   1.0000   1.0000   1.0000   1.0000   1.0000   1.0000   1.0000
     1.0000   1.0000   1.0000   1.0000   1.0000   1.0000   1.0000   1.0000
     1.0000   1.0000   1.0001   1.0003   1.0032   1.0066   1.0074   1.0143
     1.0173   1.0302   1.0423   1.0523   1.0598   1.0689   1.0829   1.0756
     1.0722   1.0414   0.9680   0.9656   0.9326   0.1397   0.0261   0.0062
     0.0000   0.0000   0.0000   0.0000   0.0000   0.0000   0.0000   0.0000
     0.0000   0.0000   0.0000   0.0000   0.0000   0.0000   0.0000   0.0000
     0.0000

          k = 0.4375-0.5413 0.0000 ( 44485 PWs)   bands (ev):

   -11.0948 -10.9147 -10.4825 -10.4674 -10.3036 -10.2364 -10.1820 -10.1608
   -10.0339  -9.9762  -9.9669  -9.9369  -9.9222  -9.9017  -9.8626  -9.7817
    -9.7498  -9.7376  -9.6978  -9.6722  -9.6602  -9.6314  -9.5680  -9.5010
    -9.4800  -9.4741  -9.4525  -9.3972  -9.3443  -9.2879  -9.2764  -9.2559
    -9.2408  -9.2314  -9.1689  -9.1640  -9.1562  -9.0186  -8.9744  -8.9568
    -8.9487  -8.8937  -8.8443  -8.8185  -8.7847  -8.7130  -8.6906  -8.5646
    -8.5338  -8.5021  -8.4381  -8.4084  -8.3982  -8.3442  -8.3267  -8.2396
    -8.2070  -8.1909  -8.1765  -8.1488  -8.1086  -8.0699  -8.0237  -7.9842
    -7.9692  -7.9160  -7.8741  -7.8316  -7.8049  -7.7836  -7.7458  -7.6790
    -7.6295  -7.5917  -7.5540  -7.5351  -7.4108  -7.3248  -7.2838  -7.2541
    -7.1782  -7.1710  -7.1288  -7.1139  -7.0721  -7.0537  -7.0514  -6.9673
    -6.8604  -6.8171  -6.8052  -6.7533  -6.7378  -6.6618  -6.6424  -6.5472
    -6.4749  -6.4535  -6.3980  -6.3509  -6.3277  -6.2826  -6.2535  -6.2119
    -6.1045  -6.0644  -5.9838  -5.9583  -5.8531  -5.8159  -5.8089  -5.7698
    -5.7574  -5.7165  -5.6869  -5.6652  -5.6492  -5.6290  -5.5808  -5.5390
    -5.5328  -5.4998  -5.4580  -5.4570  -5.4433  -5.1910  -5.0825  -5.0097
    -4.7382  -4.5804  -4.0172  -3.5652  -3.1884  -2.4956  -1.9956  -1.5840
    -0.8051  -0.3013  -0.1588   0.0316   0.3979   0.7313   0.8336   1.1428
     1.2993

     occupation numbers 
     1.0000   1.0000   1.0000   1.0000   1.0000   1.0000   1.0000   1.0000
     1.0000   1.0000   1.0000   1.0000   1.0000   1.0000   1.0000   1.0000
     1.0000   1.0000   1.0000   1.0000   1.0000   1.0000   1.0000   1.0000
     1.0000   1.0000   1.0000   1.0000   1.0000   1.0000   1.0000   1.0000
     1.0000   1.0000   1.0000   1.0000   1.0000   1.0000   1.0000   1.0000
     1.0000   1.0000   1.0000   1.0000   1.0000   1.0000   1.0000   1.0000
     1.0000   1.0000   1.0000   1.0000   1.0000   1.0000   1.0000   1.0000
     1.0000   1.0000   1.0000   1.0000   1.0000   1.0000   1.0000   1.0000
     1.0000   1.0000   1.0000   1.0000   1.0000   1.0000   1.0000   1.0000
     1.0000   1.0000   1.0000   1.0000   1.0000   1.0000   1.0000   1.0000
     1.0000   1.0000   1.0000   1.0000   1.0000   1.0000   1.0000   1.0000
     1.0000   1.0000   1.0000   1.0000   1.0000   1.0000   1.0000   1.0000
     1.0000   1.0000   1.0000   1.0000   1.0000   1.0000   1.0000   1.0000
     1.0000   1.0000   1.0001   1.0003   1.0032   1.0066   1.0074   1.0143
     1.0173   1.0302   1.0423   1.0523   1.0598   1.0689   1.0829   1.0756
     1.0722   1.0414   0.9680   0.9656   0.9326   0.1397   0.0261   0.0062
     0.0000   0.0000   0.0000   0.0000   0.0000   0.0000   0.0000   0.0000
     0.0000   0.0000   0.0000   0.0000   0.0000   0.0000   0.0000   0.0000
     0.0000

          k = 0.4375-0.4691 0.0000 ( 44484 PWs)   bands (ev):

   -11.1058 -10.9072 -10.6840 -10.4798 -10.3498 -10.1996 -10.1771 -10.1522
   -10.1198 -10.0635 -10.0358  -9.9931  -9.9401  -9.9217  -9.8262  -9.8182
    -9.7929  -9.7257  -9.7055  -9.6672  -9.6330  -9.6121  -9.5664  -9.5012
    -9.4953  -9.4400  -9.4061  -9.3908  -9.3178  -9.2971  -9.2922  -9.2831
    -9.2765  -9.2263  -9.1309  -9.1202  -9.0974  -9.0563  -8.9894  -8.9843
    -8.9462  -8.9040  -8.8610  -8.7861  -8.7211  -8.6791  -8.6717  -8.5683
    -8.5416  -8.4712  -8.4595  -8.3704  -8.3133  -8.2877  -8.2536  -8.2284
    -8.2044  -8.1456  -8.1246  -8.1035  -8.0722  -8.0200  -7.9812  -7.9536
    -7.9368  -7.8992  -7.8245  -7.8171  -7.7825  -7.7627  -7.7099  -7.6713
    -7.6485  -7.5864  -7.5735  -7.5483  -7.3614  -7.3426  -7.2782  -7.2382
    -7.1724  -7.1654  -7.1524  -7.1350  -7.0881  -7.0423  -6.9946  -6.9762
    -6.9026  -6.8567  -6.8207  -6.7470  -6.7259  -6.6916  -6.6599  -6.5740
    -6.5576  -6.4981  -6.4822  -6.4271  -6.3610  -6.3201  -6.2610  -6.2193
    -6.1856  -6.1209  -6.0889  -6.0699  -6.0405  -5.8732  -5.8606  -5.8415
    -5.7957  -5.7563  -5.7061  -5.6099  -5.6008  -5.5685  -5.5637  -5.5314
    -5.5288  -5.5121  -5.5092  -5.4945  -5.3537  -5.3382  -4.6787  -4.5858
    -4.4749  -4.3351  -4.0859  -3.2939  -3.0048  -2.7510  -1.7469  -1.4148
    -1.0740  -0.7157  -0.3494  -0.1978   0.1198   0.3540   0.4591   1.1048
     1.6988

     occupation numbers 
     1.0000   1.0000   1.0000   1.0000   1.0000   1.0000   1.0000   1.0000
     1.0000   1.0000   1.0000   1.0000   1.0000   1.0000   1.0000   1.0000
     1.0000   1.0000   1.0000   1.0000   1.0000   1.0000   1.0000   1.0000
     1.0000   1.0000   1.0000   1.0000   1.0000   1.0000   1.0000   1.0000
     1.0000   1.0000   1.0000   1.0000   1.0000   1.0000   1.0000   1.0000
     1.0000   1.0000   1.0000   1.0000   1.0000   1.0000   1.0000   1.0000
     1.0000   1.0000   1.0000   1.0000   1.0000   1.0000   1.0000   1.0000
     1.0000   1.0000   1.0000   1.0000   1.0000   1.0000   1.0000   1.0000
     1.0000   1.0000   1.0000   1.0000   1.0000   1.0000   1.0000   1.0000
     1.0000   1.0000   1.0000   1.0000   1.0000   1.0000   1.0000   1.0000
     1.0000   1.0000   1.0000   1.0000   1.0000   1.0000   1.0000   1.0000
     1.0000   1.0000   1.0000   1.0000   1.0000   1.0000   1.0000   1.0000
     1.0000   1.0000   1.0000   1.0000   1.0000   1.0000   1.0000   1.0000
     1.0000   1.0000   1.0000   1.0000   1.0000   1.0021   1.0028   1.0040
     1.0094   1.0175   1.0342   1.0762   1.0790   1.0832   1.0829   1.0713
     1.0697   1.0555   1.0525   1.0343   0.6369   0.5783   0.0000   0.0000
     0.0000   0.0000   0.0000   0.0000   0.0000   0.0000   0.0000   0.0000
     0.0000   0.0000   0.0000   0.0000   0.0000   0.0000   0.0000   0.0000
     0.0000

          k = 0.4375-0.3969 0.0000 ( 44554 PWs)   bands (ev):

   -11.1319 -10.8942 -10.8764 -10.4997 -10.4689 -10.2037 -10.1961 -10.1841
   -10.1784 -10.1460 -10.1327 -10.0350 -10.0031  -9.9432  -9.8884  -9.8108
    -9.8012  -9.7802  -9.7278  -9.6759  -9.6106  -9.5831  -9.5655  -9.5604
    -9.4521  -9.4447  -9.4383  -9.4303  -9.4145  -9.3070  -9.2879  -9.2451
    -9.2064  -9.1933  -9.1161  -9.0797  -9.0738  -9.0614  -8.9618  -8.9544
    -8.9431  -8.9255  -8.7727  -8.7143  -8.7032  -8.6313  -8.5922  -8.5671
    -8.5341  -8.5209  -8.5096  -8.2956  -8.2672  -8.2347  -8.2284  -8.2079
    -8.1004  -8.0924  -8.0842  -8.0181  -8.0084  -7.9524  -7.9401  -7.8786
    -7.8166  -7.8044  -7.7617  -7.7571  -7.7422  -7.7310  -7.6793  -7.6522
    -7.6336  -7.5714  -7.5554  -7.5450  -7.3623  -7.3366  -7.3004  -7.1994
    -7.1944  -7.1782  -7.1613  -7.1354  -7.1166  -7.0513  -6.9906  -6.9804
    -6.8776  -6.8385  -6.8187  -6.8019  -6.7482  -6.7297  -6.7257  -6.6590
    -6.6327  -6.5726  -6.5259  -6.5161  -6.4471  -6.4240  -6.3417  -6.3011
    -6.2891  -6.2233  -6.1398  -6.0980  -6.0911  -6.0677  -6.0577  -5.9035
    -5.8484  -5.7905  -5.6605  -5.6238  -5.5731  -5.5401  -5.4771  -5.4566
    -5.4535  -5.4276  -5.4239  -5.4118  -5.2518  -5.2359  -4.7089  -4.5289
    -4.0487  -3.9017  -3.5419  -3.2052  -3.0084  -2.4555  -1.6951  -1.4463
    -1.3388  -1.0834  -0.9210  -0.4964  -0.1206   0.0224   0.4231   0.7778
     1.5980

     occupation numbers 
     1.0000   1.0000   1.0000   1.0000   1.0000   1.0000   1.0000   1.0000
     1.0000   1.0000   1.0000   1.0000   1.0000   1.0000   1.0000   1.0000
     1.0000   1.0000   1.0000   1.0000   1.0000   1.0000   1.0000   1.0000
     1.0000   1.0000   1.0000   1.0000   1.0000   1.0000   1.0000   1.0000
     1.0000   1.0000   1.0000   1.0000   1.0000   1.0000   1.0000   1.0000
     1.0000   1.0000   1.0000   1.0000   1.0000   1.0000   1.0000   1.0000
     1.0000   1.0000   1.0000   1.0000   1.0000   1.0000   1.0000   1.0000
     1.0000   1.0000   1.0000   1.0000   1.0000   1.0000   1.0000   1.0000
     1.0000   1.0000   1.0000   1.0000   1.0000   1.0000   1.0000   1.0000
     1.0000   1.0000   1.0000   1.0000   1.0000   1.0000   1.0000   1.0000
     1.0000   1.0000   1.0000   1.0000   1.0000   1.0000   1.0000   1.0000
     1.0000   1.0000   1.0000   1.0000   1.0000   1.0000   1.0000   1.0000
     1.0000   1.0000   1.0000   1.0000   1.0000   1.0000   1.0000   1.0000
     1.0000   1.0000   1.0000   1.0000   1.0000   1.0000   1.0000   1.0011
     1.0035   1.0102   1.0545   1.0711   1.0833   1.0761   1.0064   0.9646
     0.9576   0.8899   0.8791   0.8420   0.2819   0.2386   0.0000   0.0000
     0.0000   0.0000   0.0000   0.0000   0.0000   0.0000   0.0000   0.0000
     0.0000   0.0000   0.0000   0.0000   0.0000   0.0000   0.0000   0.0000
     0.0000

          k = 0.4375-0.3248 0.0000 ( 44516 PWs)   bands (ev):

   -11.1865 -11.0439 -10.8531 -10.5964 -10.4880 -10.3055 -10.2524 -10.2263
   -10.2243 -10.1777 -10.1366 -10.1005 -10.0526  -9.9767  -9.9501  -9.9053
    -9.7997  -9.7959  -9.7408  -9.6887  -9.6655  -9.6177  -9.5895  -9.5638
    -9.5585  -9.5244  -9.4850  -9.4001  -9.3774  -9.3628  -9.2572  -9.2290
    -9.2141  -9.1520  -9.0843  -9.0702  -9.0466  -9.0006  -8.9941  -8.9295
    -8.9143  -8.8153  -8.7694  -8.7044  -8.6855  -8.6396  -8.6055  -8.5508
    -8.5090  -8.3933  -8.3792  -8.3047  -8.2761  -8.2224  -8.1608  -8.1131
    -8.0730  -8.0626  -8.0485  -8.0120  -7.9858  -7.9430  -7.8172  -7.8124
    -7.7703  -7.7500  -7.7258  -7.7037  -7.6897  -7.6490  -7.6148  -7.5985
    -7.5474  -7.5394  -7.4963  -7.4266  -7.3737  -7.3380  -7.3157  -7.3069
    -7.2381  -7.1743  -7.1588  -7.1243  -7.0696  -7.0497  -7.0044  -6.9932
    -6.8971  -6.8613  -6.8204  -6.8009  -6.7629  -6.7396  -6.7062  -6.6821
    -6.6576  -6.6209  -6.6017  -6.5601  -6.5387  -6.4742  -6.4398  -6.3478
    -6.3205  -6.3022  -6.2486  -6.1352  -6.1080  -6.0649  -6.0042  -5.9543
    -5.9236  -5.8255  -5.6292  -5.6072  -5.5460  -5.5221  -5.4127  -5.3964
    -5.3803  -5.3755  -5.3419  -5.3270  -5.1794  -5.1656  -4.8573  -4.5482
    -3.5145  -3.4610  -3.2423  -3.0088  -2.7484  -2.1850  -2.0722  -1.7913
    -1.6527  -1.3384  -1.1907  -0.5797  -0.3087  -0.2371   0.1753   0.9124
     1.3199

     occupation numbers 
     1.0000   1.0000   1.0000   1.0000   1.0000   1.0000   1.0000   1.0000
     1.0000   1.0000   1.0000   1.0000   1.0000   1.0000   1.0000   1.0000
     1.0000   1.0000   1.0000   1.0000   1.0000   1.0000   1.0000   1.0000
     1.0000   1.0000   1.0000   1.0000   1.0000   1.0000   1.0000   1.0000
     1.0000   1.0000   1.0000   1.0000   1.0000   1.0000   1.0000   1.0000
     1.0000   1.0000   1.0000   1.0000   1.0000   1.0000   1.0000   1.0000
     1.0000   1.0000   1.0000   1.0000   1.0000   1.0000   1.0000   1.0000
     1.0000   1.0000   1.0000   1.0000   1.0000   1.0000   1.0000   1.0000
     1.0000   1.0000   1.0000   1.0000   1.0000   1.0000   1.0000   1.0000
     1.0000   1.0000   1.0000   1.0000   1.0000   1.0000   1.0000   1.0000
     1.0000   1.0000   1.0000   1.0000   1.0000   1.0000   1.0000   1.0000
     1.0000   1.0000   1.0000   1.0000   1.0000   1.0000   1.0000   1.0000
     1.0000   1.0000   1.0000   1.0000   1.0000   1.0000   1.0000   1.0000
     1.0000   1.0000   1.0000   1.0000   1.0000   1.0000   1.0001   1.0003
     1.0007   1.0055   1.0688   1.0771   1.0786   1.0647   0.8450   0.7913
     0.7349   0.7174   0.5921   0.5363   0.1200   0.0992   0.0001   0.0000
     0.0000   0.0000   0.0000   0.0000   0.0000   0.0000   0.0000   0.0000
     0.0000   0.0000   0.0000   0.0000   0.0000   0.0000   0.0000   0.0000
     0.0000

          k =-0.5000 0.2887 0.0000 ( 44486 PWs)   bands (ev):

   -11.1459 -10.9814 -10.9544 -10.5744 -10.5400 -10.3013 -10.2930 -10.1949
   -10.1911 -10.1870 -10.1846 -10.1030 -10.0678  -9.9735  -9.9667  -9.8585
    -9.8434  -9.7767  -9.7650  -9.6591  -9.6295  -9.6167  -9.6120  -9.5333
    -9.5283  -9.5145  -9.4941  -9.4380  -9.4257  -9.3339  -9.3127  -9.1696
    -9.1629  -9.1329  -9.1138  -9.0389  -9.0266  -9.0195  -9.0119  -8.8667
    -8.8640  -8.8615  -8.8553  -8.6949  -8.6539  -8.6269  -8.6084  -8.5500
    -8.5440  -8.3830  -8.3667  -8.3030  -8.2677  -8.1981  -8.1732  -8.0922
    -8.0864  -8.0538  -8.0495  -7.9994  -7.9974  -7.8475  -7.8336  -7.7890
    -7.7568  -7.7151  -7.7057  -7.7013  -7.6250  -7.6222  -7.5933  -7.5810
    -7.5694  -7.5682  -7.5168  -7.4351  -7.3579  -7.3226  -7.2934  -7.2854
    -7.2370  -7.2328  -7.1421  -7.1361  -7.1003  -7.0851  -6.9949  -6.9555
    -6.9411  -6.9386  -6.8171  -6.8005  -6.7844  -6.7666  -6.7414  -6.6820
    -6.6431  -6.6194  -6.6168  -6.6095  -6.5940  -6.5729  -6.4550  -6.4335
    -6.3727  -6.3620  -6.2389  -6.2290  -6.0795  -6.0122  -5.9947  -5.9907
    -5.9504  -5.9079  -5.6120  -5.5998  -5.5351  -5.5180  -5.3720  -5.3645
    -5.3575  -5.3552  -5.3158  -5.3063  -5.1534  -5.1403  -4.8221  -4.6550
    -3.4300  -3.1129  -2.8365  -2.8322  -2.6139  -2.5448  -2.2117  -1.9720
    -1.6778  -1.4453  -1.1021  -0.9714  -0.2732  -0.1050   0.2454   0.4147
     1.6914

     occupation numbers 
     1.0000   1.0000   1.0000   1.0000   1.0000   1.0000   1.0000   1.0000
     1.0000   1.0000   1.0000   1.0000   1.0000   1.0000   1.0000   1.0000
     1.0000   1.0000   1.0000   1.0000   1.0000   1.0000   1.0000   1.0000
     1.0000   1.0000   1.0000   1.0000   1.0000   1.0000   1.0000   1.0000
     1.0000   1.0000   1.0000   1.0000   1.0000   1.0000   1.0000   1.0000
     1.0000   1.0000   1.0000   1.0000   1.0000   1.0000   1.0000   1.0000
     1.0000   1.0000   1.0000   1.0000   1.0000   1.0000   1.0000   1.0000
     1.0000   1.0000   1.0000   1.0000   1.0000   1.0000   1.0000   1.0000
     1.0000   1.0000   1.0000   1.0000   1.0000   1.0000   1.0000   1.0000
     1.0000   1.0000   1.0000   1.0000   1.0000   1.0000   1.0000   1.0000
     1.0000   1.0000   1.0000   1.0000   1.0000   1.0000   1.0000   1.0000
     1.0000   1.0000   1.0000   1.0000   1.0000   1.0000   1.0000   1.0000
     1.0000   1.0000   1.0000   1.0000   1.0000   1.0000   1.0000   1.0000
     1.0000   1.0000   1.0000   1.0000   1.0000   1.0001   1.0001   1.0001
     1.0003   1.0010   1.0755   1.0793   1.0735   1.0611   0.7046   0.6771
     0.6508   0.6423   0.4946   0.4600   0.0831   0.0683   0.0000   0.0000
     0.0000   0.0000   0.0000   0.0000   0.0000   0.0000   0.0000   0.0000
     0.0000   0.0000   0.0000   0.0000   0.0000   0.0000   0.0000   0.0000
     0.0000

          k =-0.5000 0.3608 0.0000 ( 44516 PWs)   bands (ev):

   -11.1627 -11.0453 -10.8513 -10.6028 -10.4856 -10.3048 -10.2536 -10.2264
   -10.2241 -10.1780 -10.1372 -10.0995 -10.0529  -9.9798  -9.9487  -9.9053
    -9.8002  -9.7935  -9.7478  -9.6875  -9.6686  -9.6179  -9.5852  -9.5661
    -9.5566  -9.5242  -9.4856  -9.4002  -9.3800  -9.3672  -9.2547  -9.2302
    -9.2125  -9.1411  -9.0860  -9.0703  -9.0583  -9.0013  -8.9949  -8.9291
    -8.9246  -8.8177  -8.7806  -8.7035  -8.6984  -8.6164  -8.6045  -8.5638
    -8.5093  -8.3933  -8.3795  -8.3038  -8.2670  -8.2214  -8.1611  -8.1201
    -8.0783  -8.0583  -8.0469  -8.0117  -7.9880  -7.9452  -7.8318  -7.8052
    -7.7732  -7.7521  -7.7392  -7.6998  -7.6695  -7.6460  -7.6029  -7.5982
    -7.5455  -7.5305  -7.5091  -7.4432  -7.3740  -7.3338  -7.3173  -7.2969
    -7.2447  -7.1792  -7.1641  -7.1178  -7.0901  -7.0372  -7.0044  -6.9942
    -6.8921  -6.8671  -6.8264  -6.7943  -6.7719  -6.7545  -6.7079  -6.6762
    -6.6677  -6.6278  -6.5787  -6.5500  -6.5427  -6.4665  -6.4248  -6.3480
    -6.3231  -6.2964  -6.2480  -6.1415  -6.1087  -6.0558  -5.9963  -5.9582
    -5.9228  -5.8295  -5.6263  -5.6048  -5.5486  -5.5201  -5.4121  -5.3954
    -5.3839  -5.3731  -5.3421  -5.3268  -5.1795  -5.1653  -4.8571  -4.5481
    -3.5199  -3.4542  -3.2346  -3.0251  -2.7501  -2.1733  -2.0442  -1.7999
    -1.6583  -1.3480  -1.1826  -0.5606  -0.3188  -0.2396   0.1752   0.9173
     1.3243

     occupation numbers 
     1.0000   1.0000   1.0000   1.0000   1.0000   1.0000   1.0000   1.0000
     1.0000   1.0000   1.0000   1.0000   1.0000   1.0000   1.0000   1.0000
     1.0000   1.0000   1.0000   1.0000   1.0000   1.0000   1.0000   1.0000
     1.0000   1.0000   1.0000   1.0000   1.0000   1.0000   1.0000   1.0000
     1.0000   1.0000   1.0000   1.0000   1.0000   1.0000   1.0000   1.0000
     1.0000   1.0000   1.0000   1.0000   1.0000   1.0000   1.0000   1.0000
     1.0000   1.0000   1.0000   1.0000   1.0000   1.0000   1.0000   1.0000
     1.0000   1.0000   1.0000   1.0000   1.0000   1.0000   1.0000   1.0000
     1.0000   1.0000   1.0000   1.0000   1.0000   1.0000   1.0000   1.0000
     1.0000   1.0000   1.0000   1.0000   1.0000   1.0000   1.0000   1.0000
     1.0000   1.0000   1.0000   1.0000   1.0000   1.0000   1.0000   1.0000
     1.0000   1.0000   1.0000   1.0000   1.0000   1.0000   1.0000   1.0000
     1.0000   1.0000   1.0000   1.0000   1.0000   1.0000   1.0000   1.0000
     1.0000   1.0000   1.0000   1.0000   1.0000   1.0000   1.0001   1.0003
     1.0007   1.0051   1.0700   1.0779   1.0796   1.0630   0.8429   0.7880
     0.7477   0.7088   0.5929   0.5356   0.1201   0.0987   0.0001   0.0000
     0.0000   0.0000   0.0000   0.0000   0.0000   0.0000   0.0000   0.0000
     0.0000   0.0000   0.0000   0.0000   0.0000   0.0000   0.0000   0.0000
     0.0000

          k =-0.5000 0.4330 0.0000 ( 44477 PWs)   bands (ev):

   -11.2028 -11.0787 -10.7130 -10.6228 -10.3951 -10.2740 -10.2620 -10.2439
   -10.2138 -10.1793 -10.0934 -10.0723 -10.0195  -9.9941  -9.9395  -9.9168
    -9.8256  -9.7608  -9.7408  -9.7245  -9.7090  -9.6946  -9.6458  -9.5543
    -9.5432  -9.5084  -9.4530  -9.4317  -9.3780  -9.3378  -9.2664  -9.2364
    -9.2017  -9.1917  -9.1445  -9.1235  -9.0320  -9.0217  -8.9842  -8.9623
    -8.9472  -8.7971  -8.7856  -8.7340  -8.6867  -8.6710  -8.5839  -8.5357
    -8.4547  -8.4197  -8.4031  -8.3220  -8.2833  -8.2327  -8.1843  -8.1341
    -8.1199  -8.1018  -8.0876  -8.0297  -8.0189  -7.9750  -7.9181  -7.8531
    -7.8406  -7.8050  -7.7564  -7.7381  -7.7166  -7.6684  -7.6296  -7.5966
    -7.5298  -7.4817  -7.4529  -7.4334  -7.3951  -7.3391  -7.3114  -7.2932
    -7.2612  -7.2042  -7.1329  -7.0759  -7.0562  -7.0334  -6.9945  -6.9439
    -6.9341  -6.8614  -6.8131  -6.7962  -6.7757  -6.7304  -6.6605  -6.6218
    -6.5968  -6.5163  -6.4955  -6.4771  -6.4243  -6.3583  -6.2781  -6.2371
    -6.2276  -6.1999  -6.1794  -6.1141  -6.0719  -5.9215  -5.8911  -5.8654
    -5.8500  -5.7260  -5.6852  -5.5799  -5.5634  -5.5156  -5.4978  -5.4698
    -5.4628  -5.4304  -5.4048  -5.3887  -5.2521  -5.2364  -4.8807  -4.3366
    -4.0680  -3.9113  -3.5987  -3.3917  -2.8003  -2.4272  -1.9268  -1.4685
    -1.2412  -1.0370  -0.8262  -0.6174  -0.4794   0.2902   0.5504   0.7969
     1.4504

     occupation numbers 
     1.0000   1.0000   1.0000   1.0000   1.0000   1.0000   1.0000   1.0000
     1.0000   1.0000   1.0000   1.0000   1.0000   1.0000   1.0000   1.0000
     1.0000   1.0000   1.0000   1.0000   1.0000   1.0000   1.0000   1.0000
     1.0000   1.0000   1.0000   1.0000   1.0000   1.0000   1.0000   1.0000
     1.0000   1.0000   1.0000   1.0000   1.0000   1.0000   1.0000   1.0000
     1.0000   1.0000   1.0000   1.0000   1.0000   1.0000   1.0000   1.0000
     1.0000   1.0000   1.0000   1.0000   1.0000   1.0000   1.0000   1.0000
     1.0000   1.0000   1.0000   1.0000   1.0000   1.0000   1.0000   1.0000
     1.0000   1.0000   1.0000   1.0000   1.0000   1.0000   1.0000   1.0000
     1.0000   1.0000   1.0000   1.0000   1.0000   1.0000   1.0000   1.0000
     1.0000   1.0000   1.0000   1.0000   1.0000   1.0000   1.0000   1.0000
     1.0000   1.0000   1.0000   1.0000   1.0000   1.0000   1.0000   1.0000
     1.0000   1.0000   1.0000   1.0000   1.0000   1.0000   1.0000   1.0000
     1.0000   1.0000   1.0000   1.0000   1.0000   1.0007   1.0014   1.0025
     1.0034   1.0267   1.0431   1.0830   1.0828   1.0589   1.0387   0.9928
     0.9784   0.8980   0.8194   0.7646   0.2828   0.2397   0.0003   0.0000
     0.0000   0.0000   0.0000   0.0000   0.0000   0.0000   0.0000   0.0000
     0.0000   0.0000   0.0000   0.0000   0.0000   0.0000   0.0000   0.0000
     0.0000

          k =-0.5000 0.5052 0.0000 ( 44502 PWs)   bands (ev):

   -11.2367 -11.0916 -10.6333 -10.5617 -10.3044 -10.2988 -10.2875 -10.2477
   -10.2033 -10.0945 -10.0809 -10.0443 -10.0099  -9.9913  -9.9241  -9.9062
    -9.8789  -9.8084  -9.7438  -9.7421  -9.7204  -9.7131  -9.7041  -9.5731
    -9.5461  -9.5313  -9.5102  -9.3685  -9.3465  -9.3332  -9.2771  -9.2510
    -9.2062  -9.1842  -9.1802  -9.1476  -9.1195  -8.9981  -8.9766  -8.9668
    -8.9408  -8.8156  -8.7877  -8.7587  -8.7266  -8.6306  -8.5706  -8.4600
    -8.4511  -8.4405  -8.4228  -8.3830  -8.3485  -8.3224  -8.2442  -8.1675
    -8.1430  -8.1101  -8.0644  -8.0420  -8.0233  -8.0029  -7.9620  -7.8872
    -7.8803  -7.8537  -7.8221  -7.7663  -7.7391  -7.6826  -7.6100  -7.5718
    -7.5126  -7.4777  -7.4323  -7.4258  -7.3719  -7.3481  -7.3132  -7.2800
    -7.2579  -7.1973  -7.1016  -7.0621  -7.0280  -7.0110  -7.0034  -6.9614
    -6.9355  -6.9170  -6.8261  -6.7592  -6.7319  -6.7190  -6.6331  -6.5544
    -6.5426  -6.4640  -6.4278  -6.3911  -6.2980  -6.2816  -6.2251  -6.2047
    -6.1837  -6.1370  -6.0352  -6.0058  -5.8622  -5.8260  -5.8041  -5.7683
    -5.7264  -5.6199  -5.6140  -5.6027  -5.5906  -5.5719  -5.5400  -5.5063
    -5.4895  -5.4630  -5.4516  -5.3556  -5.3394  -5.2255  -4.8808  -4.6281
    -4.4983  -4.1974  -3.9641  -3.5419  -3.0722  -2.4261  -2.0036  -1.5120
    -0.8279  -0.7426  -0.5942  -0.3529   0.1303   0.2586   0.7699   0.9548
     1.2908

     occupation numbers 
     1.0000   1.0000   1.0000   1.0000   1.0000   1.0000   1.0000   1.0000
     1.0000   1.0000   1.0000   1.0000   1.0000   1.0000   1.0000   1.0000
     1.0000   1.0000   1.0000   1.0000   1.0000   1.0000   1.0000   1.0000
     1.0000   1.0000   1.0000   1.0000   1.0000   1.0000   1.0000   1.0000
     1.0000   1.0000   1.0000   1.0000   1.0000   1.0000   1.0000   1.0000
     1.0000   1.0000   1.0000   1.0000   1.0000   1.0000   1.0000   1.0000
     1.0000   1.0000   1.0000   1.0000   1.0000   1.0000   1.0000   1.0000
     1.0000   1.0000   1.0000   1.0000   1.0000   1.0000   1.0000   1.0000
     1.0000   1.0000   1.0000   1.0000   1.0000   1.0000   1.0000   1.0000
     1.0000   1.0000   1.0000   1.0000   1.0000   1.0000   1.0000   1.0000
     1.0000   1.0000   1.0000   1.0000   1.0000   1.0000   1.0000   1.0000
     1.0000   1.0000   1.0000   1.0000   1.0000   1.0000   1.0000   1.0000
     1.0000   1.0000   1.0000   1.0000   1.0000   1.0000   1.0000   1.0000
     1.0000   1.0000   1.0000   1.0001   1.0027   1.0054   1.0081   1.0146
     1.0266   1.0726   1.0748   1.0785   1.0814   1.0833   1.0761   1.0492
     1.0269   0.9789   0.9532   0.6439   0.5828   0.2123   0.0003   0.0000
     0.0000   0.0000   0.0000   0.0000   0.0000   0.0000   0.0000   0.0000
     0.0000   0.0000   0.0000   0.0000   0.0000   0.0000   0.0000   0.0000
     0.0000

          k =-0.5000 0.5774 0.0000 ( 44491 PWs)   bands (ev):

   -11.2491 -11.0953 -10.6345 -10.4221 -10.4172 -10.2967 -10.2576 -10.2532
   -10.1200 -10.1196 -10.0337 -10.0211 -10.0153  -9.9955  -9.9783  -9.8787
    -9.8652  -9.8509  -9.7596  -9.7508  -9.7448  -9.7204  -9.7107  -9.5880
    -9.5653  -9.5457  -9.4930  -9.3908  -9.3065  -9.2842  -9.2697  -9.2510
    -9.2329  -9.2251  -9.2082  -9.1655  -9.1006  -8.9939  -8.9785  -8.9663
    -8.9142  -8.8972  -8.7548  -8.7497  -8.7093  -8.5815  -8.5422  -8.5374
    -8.5166  -8.4409  -8.4153  -8.3911  -8.3870  -8.3106  -8.2537  -8.2442
    -8.1155  -8.0936  -8.0824  -8.0349  -8.0148  -8.0039  -7.9702  -7.9052
    -7.8953  -7.8883  -7.8481  -7.7666  -7.7440  -7.6984  -7.5715  -7.5609
    -7.5393  -7.4810  -7.4377  -7.3977  -7.3694  -7.3379  -7.3200  -7.2817
    -7.2458  -7.1969  -7.0823  -7.0656  -7.0114  -7.0027  -6.9975  -6.9656
    -6.9569  -6.9392  -6.8271  -6.7473  -6.7153  -6.7098  -6.6177  -6.5275
    -6.5142  -6.4460  -6.4061  -6.4020  -6.2807  -6.2427  -6.2099  -6.1774
    -6.1266  -6.1134  -5.9325  -5.8562  -5.8302  -5.8010  -5.7868  -5.7623
    -5.6804  -5.6745  -5.6664  -5.6532  -5.6350  -5.6266  -5.5742  -5.4481
    -5.4439  -5.4371  -5.4224  -5.1608  -5.1365  -5.0400  -5.0237  -4.9197
    -4.7290  -4.6695  -3.7938  -3.4737  -3.4564  -2.2852  -1.9158  -1.8384
    -0.8341  -0.3936  -0.2014  -0.0607   0.0283   0.3254   0.6981   1.0051
     1.2665

     occupation numbers 
     1.0000   1.0000   1.0000   1.0000   1.0000   1.0000   1.0000   1.0000
     1.0000   1.0000   1.0000   1.0000   1.0000   1.0000   1.0000   1.0000
     1.0000   1.0000   1.0000   1.0000   1.0000   1.0000   1.0000   1.0000
     1.0000   1.0000   1.0000   1.0000   1.0000   1.0000   1.0000   1.0000
     1.0000   1.0000   1.0000   1.0000   1.0000   1.0000   1.0000   1.0000
     1.0000   1.0000   1.0000   1.0000   1.0000   1.0000   1.0000   1.0000
     1.0000   1.0000   1.0000   1.0000   1.0000   1.0000   1.0000   1.0000
     1.0000   1.0000   1.0000   1.0000   1.0000   1.0000   1.0000   1.0000
     1.0000   1.0000   1.0000   1.0000   1.0000   1.0000   1.0000   1.0000
     1.0000   1.0000   1.0000   1.0000   1.0000   1.0000   1.0000   1.0000
     1.0000   1.0000   1.0000   1.0000   1.0000   1.0000   1.0000   1.0000
     1.0000   1.0000   1.0000   1.0000   1.0000   1.0000   1.0000   1.0000
     1.0000   1.0000   1.0000   1.0000   1.0000   1.0000   1.0000   1.0000
     1.0000   1.0000   1.0005   1.0030   1.0050   1.0085   1.0109   1.0160
     1.0453   1.0480   1.0517   1.0579   1.0663   1.0699   1.0833   0.9446
     0.9341   0.9163   0.8747   0.0926   0.0645   0.0116   0.0083   0.0007
     0.0000   0.0000   0.0000   0.0000   0.0000   0.0000   0.0000   0.0000
     0.0000   0.0000   0.0000   0.0000   0.0000   0.0000   0.0000   0.0000
     0.0000

          k =-0.5000 0.6495 0.0000 ( 44502 PWs)   bands (ev):

   -11.2367 -11.0916 -10.6333 -10.5617 -10.3044 -10.2988 -10.2875 -10.2477
   -10.2033 -10.0945 -10.0809 -10.0443 -10.0099  -9.9913  -9.9241  -9.9062
    -9.8789  -9.8084  -9.7438  -9.7421  -9.7204  -9.7131  -9.7041  -9.5731
    -9.5461  -9.5313  -9.5102  -9.3685  -9.3465  -9.3332  -9.2771  -9.2510
    -9.2062  -9.1842  -9.1802  -9.1476  -9.1195  -8.9981  -8.9766  -8.9668
    -8.9408  -8.8156  -8.7877  -8.7587  -8.7266  -8.6306  -8.5706  -8.4600
    -8.4511  -8.4405  -8.4228  -8.3830  -8.3485  -8.3224  -8.2442  -8.1675
    -8.1430  -8.1101  -8.0644  -8.0420  -8.0233  -8.0029  -7.9620  -7.8872
    -7.8803  -7.8537  -7.8221  -7.7663  -7.7391  -7.6826  -7.6100  -7.5718
    -7.5126  -7.4777  -7.4323  -7.4258  -7.3719  -7.3481  -7.3132  -7.2800
    -7.2579  -7.1973  -7.1016  -7.0621  -7.0280  -7.0110  -7.0034  -6.9614
    -6.9355  -6.9170  -6.8261  -6.7592  -6.7319  -6.7190  -6.6331  -6.5544
    -6.5426  -6.4640  -6.4278  -6.3911  -6.2980  -6.2816  -6.2251  -6.2047
    -6.1837  -6.1370  -6.0352  -6.0058  -5.8622  -5.8260  -5.8041  -5.7683
    -5.7264  -5.6199  -5.6140  -5.6027  -5.5906  -5.5719  -5.5400  -5.5063
    -5.4895  -5.4630  -5.4516  -5.3556  -5.3394  -5.2255  -4.8808  -4.6281
    -4.4983  -4.1974  -3.9641  -3.5419  -3.0722  -2.4261  -2.0036  -1.5120
    -0.8279  -0.7426  -0.5942  -0.3529   0.1303   0.2586   0.7699   0.9548
     1.2908

     occupation numbers 
     1.0000   1.0000   1.0000   1.0000   1.0000   1.0000   1.0000   1.0000
     1.0000   1.0000   1.0000   1.0000   1.0000   1.0000   1.0000   1.0000
     1.0000   1.0000   1.0000   1.0000   1.0000   1.0000   1.0000   1.0000
     1.0000   1.0000   1.0000   1.0000   1.0000   1.0000   1.0000   1.0000
     1.0000   1.0000   1.0000   1.0000   1.0000   1.0000   1.0000   1.0000
     1.0000   1.0000   1.0000   1.0000   1.0000   1.0000   1.0000   1.0000
     1.0000   1.0000   1.0000   1.0000   1.0000   1.0000   1.0000   1.0000
     1.0000   1.0000   1.0000   1.0000   1.0000   1.0000   1.0000   1.0000
     1.0000   1.0000   1.0000   1.0000   1.0000   1.0000   1.0000   1.0000
     1.0000   1.0000   1.0000   1.0000   1.0000   1.0000   1.0000   1.0000
     1.0000   1.0000   1.0000   1.0000   1.0000   1.0000   1.0000   1.0000
     1.0000   1.0000   1.0000   1.0000   1.0000   1.0000   1.0000   1.0000
     1.0000   1.0000   1.0000   1.0000   1.0000   1.0000   1.0000   1.0000
     1.0000   1.0000   1.0000   1.0001   1.0027   1.0054   1.0081   1.0146
     1.0266   1.0726   1.0748   1.0785   1.0814   1.0833   1.0761   1.0492
     1.0269   0.9789   0.9532   0.6439   0.5828   0.2123   0.0003   0.0000
     0.0000   0.0000   0.0000   0.0000   0.0000   0.0000   0.0000   0.0000
     0.0000   0.0000   0.0000   0.0000   0.0000   0.0000   0.0000   0.0000
     0.0000

          k =-0.5000 0.7217 0.0000 ( 44477 PWs)   bands (ev):

   -11.2028 -11.0787 -10.7130 -10.6228 -10.3951 -10.2740 -10.2620 -10.2439
   -10.2138 -10.1793 -10.0934 -10.0723 -10.0195  -9.9941  -9.9395  -9.9168
    -9.8256  -9.7608  -9.7408  -9.7245  -9.7090  -9.6946  -9.6458  -9.5543
    -9.5432  -9.5084  -9.4530  -9.4317  -9.3780  -9.3378  -9.2664  -9.2364
    -9.2017  -9.1917  -9.1445  -9.1235  -9.0320  -9.0217  -8.9842  -8.9623
    -8.9472  -8.7971  -8.7856  -8.7340  -8.6867  -8.6710  -8.5839  -8.5357
    -8.4547  -8.4197  -8.4031  -8.3220  -8.2833  -8.2327  -8.1843  -8.1341
    -8.1199  -8.1018  -8.0876  -8.0297  -8.0189  -7.9750  -7.9181  -7.8531
    -7.8406  -7.8050  -7.7564  -7.7381  -7.7166  -7.6684  -7.6296  -7.5966
    -7.5298  -7.4817  -7.4529  -7.4334  -7.3951  -7.3391  -7.3114  -7.2932
    -7.2612  -7.2042  -7.1329  -7.0759  -7.0562  -7.0334  -6.9945  -6.9439
    -6.9341  -6.8614  -6.8131  -6.7962  -6.7757  -6.7304  -6.6605  -6.6218
    -6.5968  -6.5163  -6.4955  -6.4771  -6.4243  -6.3583  -6.2781  -6.2371
    -6.2276  -6.1999  -6.1794  -6.1141  -6.0719  -5.9215  -5.8911  -5.8654
    -5.8500  -5.7260  -5.6852  -5.5799  -5.5634  -5.5156  -5.4978  -5.4698
    -5.4628  -5.4304  -5.4048  -5.3887  -5.2521  -5.2364  -4.8807  -4.3366
    -4.0680  -3.9113  -3.5987  -3.3917  -2.8003  -2.4272  -1.9268  -1.4685
    -1.2412  -1.0370  -0.8262  -0.6174  -0.4794   0.2902   0.5504   0.7969
     1.4504

     occupation numbers 
     1.0000   1.0000   1.0000   1.0000   1.0000   1.0000   1.0000   1.0000
     1.0000   1.0000   1.0000   1.0000   1.0000   1.0000   1.0000   1.0000
     1.0000   1.0000   1.0000   1.0000   1.0000   1.0000   1.0000   1.0000
     1.0000   1.0000   1.0000   1.0000   1.0000   1.0000   1.0000   1.0000
     1.0000   1.0000   1.0000   1.0000   1.0000   1.0000   1.0000   1.0000
     1.0000   1.0000   1.0000   1.0000   1.0000   1.0000   1.0000   1.0000
     1.0000   1.0000   1.0000   1.0000   1.0000   1.0000   1.0000   1.0000
     1.0000   1.0000   1.0000   1.0000   1.0000   1.0000   1.0000   1.0000
     1.0000   1.0000   1.0000   1.0000   1.0000   1.0000   1.0000   1.0000
     1.0000   1.0000   1.0000   1.0000   1.0000   1.0000   1.0000   1.0000
     1.0000   1.0000   1.0000   1.0000   1.0000   1.0000   1.0000   1.0000
     1.0000   1.0000   1.0000   1.0000   1.0000   1.0000   1.0000   1.0000
     1.0000   1.0000   1.0000   1.0000   1.0000   1.0000   1.0000   1.0000
     1.0000   1.0000   1.0000   1.0000   1.0000   1.0007   1.0014   1.0025
     1.0034   1.0267   1.0431   1.0830   1.0828   1.0589   1.0387   0.9928
     0.9784   0.8980   0.8194   0.7646   0.2828   0.2397   0.0003   0.0000
     0.0000   0.0000   0.0000   0.0000   0.0000   0.0000   0.0000   0.0000
     0.0000   0.0000   0.0000   0.0000   0.0000   0.0000   0.0000   0.0000
     0.0000

          k =-0.5000 0.7939 0.0000 ( 44516 PWs)   bands (ev):

   -11.1627 -11.0453 -10.8513 -10.6028 -10.4856 -10.3048 -10.2536 -10.2264
   -10.2241 -10.1780 -10.1372 -10.0995 -10.0529  -9.9798  -9.9487  -9.9053
    -9.8002  -9.7935  -9.7478  -9.6875  -9.6686  -9.6179  -9.5852  -9.5661
    -9.5566  -9.5242  -9.4856  -9.4002  -9.3800  -9.3672  -9.2547  -9.2302
    -9.2125  -9.1411  -9.0860  -9.0703  -9.0583  -9.0013  -8.9949  -8.9291
    -8.9246  -8.8177  -8.7806  -8.7035  -8.6984  -8.6164  -8.6045  -8.5638
    -8.5093  -8.3933  -8.3795  -8.3038  -8.2670  -8.2214  -8.1611  -8.1201
    -8.0783  -8.0583  -8.0469  -8.0117  -7.9880  -7.9452  -7.8318  -7.8052
    -7.7732  -7.7521  -7.7392  -7.6998  -7.6695  -7.6460  -7.6029  -7.5982
    -7.5455  -7.5305  -7.5091  -7.4432  -7.3740  -7.3338  -7.3173  -7.2969
    -7.2447  -7.1792  -7.1641  -7.1178  -7.0901  -7.0372  -7.0044  -6.9942
    -6.8921  -6.8671  -6.8264  -6.7943  -6.7719  -6.7545  -6.7079  -6.6762
    -6.6677  -6.6278  -6.5787  -6.5500  -6.5427  -6.4665  -6.4248  -6.3480
    -6.3231  -6.2964  -6.2480  -6.1415  -6.1087  -6.0558  -5.9963  -5.9582
    -5.9228  -5.8295  -5.6263  -5.6048  -5.5486  -5.5201  -5.4121  -5.3954
    -5.3839  -5.3731  -5.3421  -5.3268  -5.1795  -5.1653  -4.8571  -4.5481
    -3.5199  -3.4542  -3.2346  -3.0251  -2.7501  -2.1733  -2.0442  -1.7999
    -1.6583  -1.3480  -1.1826  -0.5606  -0.3188  -0.2396   0.1752   0.9173
     1.3243

     occupation numbers 
     1.0000   1.0000   1.0000   1.0000   1.0000   1.0000   1.0000   1.0000
     1.0000   1.0000   1.0000   1.0000   1.0000   1.0000   1.0000   1.0000
     1.0000   1.0000   1.0000   1.0000   1.0000   1.0000   1.0000   1.0000
     1.0000   1.0000   1.0000   1.0000   1.0000   1.0000   1.0000   1.0000
     1.0000   1.0000   1.0000   1.0000   1.0000   1.0000   1.0000   1.0000
     1.0000   1.0000   1.0000   1.0000   1.0000   1.0000   1.0000   1.0000
     1.0000   1.0000   1.0000   1.0000   1.0000   1.0000   1.0000   1.0000
     1.0000   1.0000   1.0000   1.0000   1.0000   1.0000   1.0000   1.0000
     1.0000   1.0000   1.0000   1.0000   1.0000   1.0000   1.0000   1.0000
     1.0000   1.0000   1.0000   1.0000   1.0000   1.0000   1.0000   1.0000
     1.0000   1.0000   1.0000   1.0000   1.0000   1.0000   1.0000   1.0000
     1.0000   1.0000   1.0000   1.0000   1.0000   1.0000   1.0000   1.0000
     1.0000   1.0000   1.0000   1.0000   1.0000   1.0000   1.0000   1.0000
     1.0000   1.0000   1.0000   1.0000   1.0000   1.0000   1.0001   1.0003
     1.0007   1.0051   1.0700   1.0779   1.0796   1.0630   0.8429   0.7880
     0.7477   0.7088   0.5929   0.5356   0.1201   0.0987   0.0001   0.0000
     0.0000   0.0000   0.0000   0.0000   0.0000   0.0000   0.0000   0.0000
     0.0000   0.0000   0.0000   0.0000   0.0000   0.0000   0.0000   0.0000
     0.0000

          k =-0.5000-0.2887 0.0000 ( 44486 PWs)   bands (ev):

   -11.1459 -10.9814 -10.9544 -10.5744 -10.5400 -10.3013 -10.2930 -10.1949
   -10.1911 -10.1870 -10.1846 -10.1030 -10.0678  -9.9735  -9.9667  -9.8585
    -9.8434  -9.7767  -9.7650  -9.6591  -9.6295  -9.6167  -9.6120  -9.5333
    -9.5283  -9.5145  -9.4941  -9.4380  -9.4257  -9.3339  -9.3127  -9.1696
    -9.1629  -9.1329  -9.1138  -9.0389  -9.0266  -9.0195  -9.0119  -8.8667
    -8.8640  -8.8615  -8.8553  -8.6949  -8.6539  -8.6269  -8.6084  -8.5500
    -8.5440  -8.3830  -8.3667  -8.3030  -8.2677  -8.1981  -8.1732  -8.0922
    -8.0864  -8.0538  -8.0495  -7.9994  -7.9974  -7.8475  -7.8336  -7.7890
    -7.7568  -7.7151  -7.7057  -7.7013  -7.6250  -7.6222  -7.5933  -7.5810
    -7.5694  -7.5682  -7.5168  -7.4351  -7.3579  -7.3226  -7.2934  -7.2854
    -7.2370  -7.2328  -7.1421  -7.1361  -7.1003  -7.0851  -6.9949  -6.9555
    -6.9411  -6.9386  -6.8171  -6.8005  -6.7844  -6.7666  -6.7414  -6.6820
    -6.6431  -6.6194  -6.6168  -6.6095  -6.5940  -6.5729  -6.4550  -6.4335
    -6.3727  -6.3620  -6.2389  -6.2290  -6.0795  -6.0122  -5.9947  -5.9907
    -5.9504  -5.9079  -5.6120  -5.5998  -5.5351  -5.5180  -5.3720  -5.3645
    -5.3575  -5.3552  -5.3158  -5.3063  -5.1534  -5.1403  -4.8221  -4.6550
    -3.4300  -3.1129  -2.8365  -2.8322  -2.6139  -2.5448  -2.2117  -1.9720
    -1.6778  -1.4453  -1.1021  -0.9714  -0.2732  -0.1050   0.2454   0.4147
     1.6914

     occupation numbers 
     1.0000   1.0000   1.0000   1.0000   1.0000   1.0000   1.0000   1.0000
     1.0000   1.0000   1.0000   1.0000   1.0000   1.0000   1.0000   1.0000
     1.0000   1.0000   1.0000   1.0000   1.0000   1.0000   1.0000   1.0000
     1.0000   1.0000   1.0000   1.0000   1.0000   1.0000   1.0000   1.0000
     1.0000   1.0000   1.0000   1.0000   1.0000   1.0000   1.0000   1.0000
     1.0000   1.0000   1.0000   1.0000   1.0000   1.0000   1.0000   1.0000
     1.0000   1.0000   1.0000   1.0000   1.0000   1.0000   1.0000   1.0000
     1.0000   1.0000   1.0000   1.0000   1.0000   1.0000   1.0000   1.0000
     1.0000   1.0000   1.0000   1.0000   1.0000   1.0000   1.0000   1.0000
     1.0000   1.0000   1.0000   1.0000   1.0000   1.0000   1.0000   1.0000
     1.0000   1.0000   1.0000   1.0000   1.0000   1.0000   1.0000   1.0000
     1.0000   1.0000   1.0000   1.0000   1.0000   1.0000   1.0000   1.0000
     1.0000   1.0000   1.0000   1.0000   1.0000   1.0000   1.0000   1.0000
     1.0000   1.0000   1.0000   1.0000   1.0000   1.0001   1.0001   1.0001
     1.0003   1.0010   1.0755   1.0793   1.0735   1.0611   0.7046   0.6771
     0.6508   0.6423   0.4946   0.4600   0.0831   0.0683   0.0000   0.0000
     0.0000   0.0000   0.0000   0.0000   0.0000   0.0000   0.0000   0.0000
     0.0000   0.0000   0.0000   0.0000   0.0000   0.0000   0.0000   0.0000
     0.0000

 ------ SPIN DOWN ----------


          k = 0.0000 0.0000 0.0000 ( 44627 PWs)   bands (ev):

   -12.5909 -12.1288 -11.6163 -11.0251 -10.9224 -10.9221 -10.9141 -10.8820
   -10.7533 -10.7522 -10.7473 -10.6026 -10.6021 -10.6001 -10.5591 -10.5484
   -10.5409 -10.5380 -10.3759 -10.3433 -10.3419 -10.2825 -10.1604 -10.1356
   -10.1291 -10.1264 -10.0746  -9.9969  -9.9613  -9.9345  -9.5783  -9.4091
    -9.3974  -9.0901  -8.7828  -8.7694  -8.6292  -8.5364  -8.5226  -8.4153
    -8.3964  -8.3865  -8.3751  -8.3682  -8.3039  -8.3034  -8.2098  -8.2093
    -8.2037  -8.2032  -8.1994  -8.1615  -8.1284  -8.1220  -8.0209  -8.0184
    -7.9949  -7.8538  -7.7760  -7.7714  -7.7194  -7.7150  -7.6923  -7.6650
    -7.5264  -7.5022  -7.4986  -7.3349  -7.1856  -7.1840  -7.0764  -7.0449
    -7.0391  -6.8195  -6.6507  -6.5999  -6.5987  -6.5962  -6.5502  -6.5374
    -6.5015  -6.4082  -6.3350  -6.3073  -6.2875  -6.2857  -6.1050  -6.0829
    -6.0798  -5.9570  -5.9095  -5.7472  -5.7262  -5.7037  -5.6417  -5.6225
    -5.5909  -5.5262  -5.5165  -5.3841  -5.3657  -5.3577  -5.3132  -5.2934
    -5.2886  -5.2451  -5.2446  -5.2429  -5.1880  -5.1827  -5.1825  -5.1782
    -5.1717  -5.1182  -5.1075  -5.1051  -5.0491  -5.0454  -5.0171  -5.0040
    -4.9705  -4.9460  -4.9161  -4.8648  -4.8643  -4.8642  -4.2193  -3.8393
    -3.7504  -3.7353  -3.0458  -2.6864  -2.6451  -2.1570  -1.8229  -1.7801
    -1.6529  -1.6392  -1.6362  -1.4724  -1.3563  -1.3379  -1.3028  -1.3014
    -1.3004

     occupation numbers 
     1.0000   1.0000   1.0000   1.0000   1.0000   1.0000   1.0000   1.0000
     1.0000   1.0000   1.0000   1.0000   1.0000   1.0000   1.0000   1.0000
     1.0000   1.0000   1.0000   1.0000   1.0000   1.0000   1.0000   1.0000
     1.0000   1.0000   1.0000   1.0000   1.0000   1.0000   1.0000   1.0000
     1.0000   1.0000   1.0000   1.0000   1.0000   1.0000   1.0000   1.0000
     1.0000   1.0000   1.0000   1.0000   1.0000   1.0000   1.0000   1.0000
     1.0000   1.0000   1.0000   1.0000   1.0000   1.0000   1.0000   1.0000
     1.0000   1.0000   1.0000   1.0000   1.0000   1.0000   1.0000   1.0000
     1.0000   1.0000   1.0000   1.0000   1.0000   1.0000   1.0000   1.0000
     1.0000   1.0000   1.0000   1.0000   1.0000   1.0000   1.0000   1.0000
     1.0000   1.0000   1.0000   1.0000   1.0000   1.0000   1.0000   1.0000
     1.0000   1.0003   1.0009   1.0200   1.0267   1.0352   1.0633   1.0716
     1.0814   1.0678   1.0598   0.7483   0.6816   0.6516   0.4852   0.4145
     0.3979   0.2631   0.2616   0.2571   0.1343   0.1253   0.1250   0.1180
     0.1079   0.0482   0.0404   0.0388   0.0139   0.0130   0.0072   0.0055
     0.0026   0.0014   0.0007   0.0002   0.0002   0.0002   0.0000   0.0000
     0.0000   0.0000   0.0000   0.0000   0.0000   0.0000   0.0000   0.0000
     0.0000   0.0000   0.0000   0.0000   0.0000   0.0000   0.0000   0.0000
     0.0000

          k = 0.0000 0.0722 0.0000 ( 44605 PWs)   bands (ev):

   -12.5593 -12.1048 -11.5931 -10.9977 -10.9038 -10.9005 -10.8940 -10.8559
   -10.7397 -10.7322 -10.7305 -10.5882 -10.5859 -10.5835 -10.5354 -10.5231
   -10.5192 -10.5168 -10.3574 -10.3285 -10.3194 -10.2628 -10.1389 -10.1210
   -10.1168 -10.1057 -10.0509  -9.9817  -9.9391  -9.9090  -9.5693  -9.3983
    -9.3892  -9.0893  -8.7801  -8.7764  -8.6338  -8.5330  -8.5254  -8.4257
    -8.4180  -8.3996  -8.3701  -8.3608  -8.3236  -8.2817  -8.2060  -8.1993
    -8.1971  -8.1934  -8.1909  -8.1733  -8.1437  -8.1001  -8.0139  -8.0008
    -7.9830  -7.8341  -7.7966  -7.7510  -7.7454  -7.7211  -7.7050  -7.6700
    -7.5267  -7.5256  -7.5039  -7.3854  -7.2722  -7.2091  -7.0738  -7.0660
    -6.9889  -6.8336  -6.6809  -6.6435  -6.6429  -6.6292  -6.5656  -6.5273
    -6.5082  -6.4105  -6.3785  -6.3729  -6.2849  -6.2677  -6.1936  -6.1026
    -6.0869  -5.9576  -5.8603  -5.7541  -5.7351  -5.7210  -5.6894  -5.6506
    -5.6264  -5.6129  -5.5271  -5.4527  -5.3875  -5.3819  -5.3723  -5.3484
    -5.3475  -5.2922  -5.2788  -5.2330  -5.2249  -5.2170  -5.2108  -5.2063
    -5.1991  -5.1550  -5.1455  -5.1316  -5.0702  -5.0458  -5.0428  -5.0138
    -4.9746  -4.9745  -4.9189  -4.9144  -4.8943  -4.8696  -4.0573  -3.9394
    -3.7163  -3.6394  -3.0202  -2.9258  -2.6334  -2.2897  -2.2070  -2.0585
    -1.8696  -1.7607  -1.7373  -1.4765  -1.3182  -1.2508  -0.9166  -0.8730
    -0.5223

     occupation numbers 
     1.0000   1.0000   1.0000   1.0000   1.0000   1.0000   1.0000   1.0000
     1.0000   1.0000   1.0000   1.0000   1.0000   1.0000   1.0000   1.0000
     1.0000   1.0000   1.0000   1.0000   1.0000   1.0000   1.0000   1.0000
     1.0000   1.0000   1.0000   1.0000   1.0000   1.0000   1.0000   1.0000
     1.0000   1.0000   1.0000   1.0000   1.0000   1.0000   1.0000   1.0000
     1.0000   1.0000   1.0000   1.0000   1.0000   1.0000   1.0000   1.0000
     1.0000   1.0000   1.0000   1.0000   1.0000   1.0000   1.0000   1.0000
     1.0000   1.0000   1.0000   1.0000   1.0000   1.0000   1.0000   1.0000
     1.0000   1.0000   1.0000   1.0000   1.0000   1.0000   1.0000   1.0000
     1.0000   1.0000   1.0000   1.0000   1.0000   1.0000   1.0000   1.0000
     1.0000   1.0000   1.0000   1.0000   1.0000   1.0000   1.0000   1.0000
     1.0000   1.0003   1.0028   1.0181   1.0237   1.0285   1.0412   1.0591
     1.0700   1.0752   1.0684   0.9557   0.7603   0.7406   0.7059   0.6169
     0.6132   0.4105   0.3650   0.2309   0.2109   0.1925   0.1789   0.1694
     0.1550   0.0851   0.0739   0.0597   0.0208   0.0131   0.0123   0.0068
     0.0028   0.0028   0.0007   0.0006   0.0004   0.0002   0.0000   0.0000
     0.0000   0.0000   0.0000   0.0000   0.0000   0.0000   0.0000   0.0000
     0.0000   0.0000   0.0000   0.0000   0.0000   0.0000   0.0000   0.0000
     0.0000

          k = 0.0000 0.1443 0.0000 ( 44584 PWs)   bands (ev):

   -12.4656 -12.0357 -11.5244 -10.9175 -10.8530 -10.8372 -10.8310 -10.7789
   -10.7158 -10.6698 -10.6683 -10.5476 -10.5348 -10.5326 -10.4830 -10.4582
   -10.4459 -10.4382 -10.3191 -10.2722 -10.2491 -10.2037 -10.0834 -10.0778
   -10.0758 -10.0426  -9.9817  -9.9408  -9.8682  -9.8326  -9.5424  -9.3665
    -9.3654  -9.0888  -8.8007  -8.7713  -8.6534  -8.5604  -8.5228  -8.4941
    -8.4733  -8.3959  -8.3786  -8.3451  -8.3191  -8.2193  -8.2171  -8.2013
    -8.1899  -8.1733  -8.1681  -8.1642  -8.1510  -8.0348  -8.0234  -7.9506
    -7.9419  -7.8450  -7.8052  -7.7950  -7.7681  -7.7048  -7.6919  -7.6871
    -7.5987  -7.5341  -7.5304  -7.4876  -7.4229  -7.2803  -7.1521  -7.0662
    -6.9520  -6.8724  -6.7656  -6.7265  -6.7209  -6.7187  -6.7069  -6.5626
    -6.5254  -6.4989  -6.4952  -6.4026  -6.3501  -6.2818  -6.1961  -6.1571
    -6.1226  -6.0193  -5.9610  -5.8336  -5.8073  -5.7792  -5.7648  -5.7463
    -5.7372  -5.7323  -5.6042  -5.5961  -5.5290  -5.4619  -5.4550  -5.4079
    -5.3822  -5.3765  -5.3189  -5.3009  -5.2955  -5.2899  -5.2892  -5.2828
    -5.2599  -5.2487  -5.2278  -5.2041  -5.1832  -5.1831  -5.1252  -5.1155
    -5.0791  -5.0563  -4.9753  -4.9713  -4.9606  -4.5592  -4.3893  -3.7071
    -3.5260  -3.4376  -3.4293  -3.1083  -2.9125  -2.6114  -2.4592  -2.2208
    -2.0490  -1.8752  -1.7235  -1.2218  -1.0282  -0.9635  -0.3828  -0.3297
     0.1547

     occupation numbers 
     1.0000   1.0000   1.0000   1.0000   1.0000   1.0000   1.0000   1.0000
     1.0000   1.0000   1.0000   1.0000   1.0000   1.0000   1.0000   1.0000
     1.0000   1.0000   1.0000   1.0000   1.0000   1.0000   1.0000   1.0000
     1.0000   1.0000   1.0000   1.0000   1.0000   1.0000   1.0000   1.0000
     1.0000   1.0000   1.0000   1.0000   1.0000   1.0000   1.0000   1.0000
     1.0000   1.0000   1.0000   1.0000   1.0000   1.0000   1.0000   1.0000
     1.0000   1.0000   1.0000   1.0000   1.0000   1.0000   1.0000   1.0000
     1.0000   1.0000   1.0000   1.0000   1.0000   1.0000   1.0000   1.0000
     1.0000   1.0000   1.0000   1.0000   1.0000   1.0000   1.0000   1.0000
     1.0000   1.0000   1.0000   1.0000   1.0000   1.0000   1.0000   1.0000
     1.0000   1.0000   1.0000   1.0000   1.0000   1.0000   1.0000   1.0000
     1.0000   1.0001   1.0003   1.0047   1.0076   1.0123   1.0154   1.0203
     1.0230   1.0246   1.0781   1.0802   1.0698   0.9765   0.9612   0.8293
     0.7418   0.7212   0.5060   0.4410   0.4220   0.4025   0.4002   0.3784
     0.3058   0.2730   0.2179   0.1649   0.1261   0.1260   0.0540   0.0461
     0.0246   0.0160   0.0029   0.0026   0.0020   0.0000   0.0000   0.0000
     0.0000   0.0000   0.0000   0.0000   0.0000   0.0000   0.0000   0.0000
     0.0000   0.0000   0.0000   0.0000   0.0000   0.0000   0.0000   0.0000
     0.0000

          k = 0.0000 0.2165 0.0000 ( 44580 PWs)   bands (ev):

   -12.3145 -11.9304 -11.4114 -10.7954 -10.7689 -10.7379 -10.7309 -10.6798
   -10.6544 -10.5697 -10.5684 -10.4825 -10.4479 -10.4461 -10.4140 -10.3447
   -10.3330 -10.3079 -10.2723 -10.1662 -10.1372 -10.1065 -10.0141 -10.0071
   -10.0002  -9.9337  -9.8772  -9.8731  -9.7487  -9.7067  -9.4981  -9.3280
    -9.3157  -9.0927  -8.8470  -8.7592  -8.6897  -8.6499  -8.5974  -8.5748
    -8.4790  -8.4481  -8.3804  -8.3033  -8.2805  -8.2577  -8.2506  -8.1863
    -8.1545  -8.1381  -8.1352  -8.1108  -8.0850  -8.0265  -7.9541  -7.9280
    -7.9017  -7.8937  -7.8531  -7.8466  -7.7724  -7.7119  -7.6807  -7.6694
    -7.6588  -7.6087  -7.5905  -7.5157  -7.5088  -7.3910  -7.2877  -7.0659
    -7.0232  -7.0206  -6.9103  -6.8703  -6.8509  -6.8031  -6.7934  -6.7473
    -6.6788  -6.5506  -6.5307  -6.5101  -6.4093  -6.3105  -6.2776  -6.2326
    -6.2068  -6.1586  -6.0936  -6.0767  -5.9613  -5.9507  -5.9180  -5.9174
    -5.8082  -5.8023  -5.7841  -5.7690  -5.6058  -5.5964  -5.5463  -5.5284
    -5.5028  -5.4882  -5.4788  -5.4714  -5.4628  -5.4505  -5.4124  -5.3604
    -5.3228  -5.3201  -5.2949  -5.2939  -5.2773  -5.2533  -5.1802  -5.1662
    -5.1403  -5.0701  -5.0659  -4.9804  -4.9731  -4.9561  -4.2600  -4.1396
    -3.8691  -3.3589  -3.2080  -3.0977  -2.8683  -2.6952  -2.5901  -2.2965
    -2.1487  -1.7842  -1.5569  -1.2496  -0.7294  -0.5670   0.1663   0.2560
     0.4367

     occupation numbers 
     1.0000   1.0000   1.0000   1.0000   1.0000   1.0000   1.0000   1.0000
     1.0000   1.0000   1.0000   1.0000   1.0000   1.0000   1.0000   1.0000
     1.0000   1.0000   1.0000   1.0000   1.0000   1.0000   1.0000   1.0000
     1.0000   1.0000   1.0000   1.0000   1.0000   1.0000   1.0000   1.0000
     1.0000   1.0000   1.0000   1.0000   1.0000   1.0000   1.0000   1.0000
     1.0000   1.0000   1.0000   1.0000   1.0000   1.0000   1.0000   1.0000
     1.0000   1.0000   1.0000   1.0000   1.0000   1.0000   1.0000   1.0000
     1.0000   1.0000   1.0000   1.0000   1.0000   1.0000   1.0000   1.0000
     1.0000   1.0000   1.0000   1.0000   1.0000   1.0000   1.0000   1.0000
     1.0000   1.0000   1.0000   1.0000   1.0000   1.0000   1.0000   1.0000
     1.0000   1.0000   1.0000   1.0000   1.0000   1.0000   1.0000   1.0000
     1.0000   1.0000   1.0000   1.0000   1.0003   1.0003   1.0008   1.0008
     1.0075   1.0083   1.0114   1.0145   1.0775   1.0802   1.0788   1.0694
     1.0451   1.0250   1.0095   0.9958   0.9785   0.9505   0.8439   0.6616
     0.5206   0.5107   0.4197   0.4162   0.3601   0.2863   0.1212   0.1000
     0.0683   0.0208   0.0192   0.0032   0.0027   0.0018   0.0000   0.0000
     0.0000   0.0000   0.0000   0.0000   0.0000   0.0000   0.0000   0.0000
     0.0000   0.0000   0.0000   0.0000   0.0000   0.0000   0.0000   0.0000
     0.0000

          k = 0.0000 0.2887 0.0000 ( 44592 PWs)   bands (ev):

   -12.1168 -11.8016 -11.2564 -10.6791 -10.6557 -10.6210 -10.6122 -10.5840
   -10.4940 -10.4385 -10.4378 -10.4003 -10.3322 -10.3238 -10.3192 -10.2159
   -10.1970 -10.1878 -10.1383 -10.0260  -9.9937  -9.9809  -9.9223  -9.9073
    -9.8973  -9.7970  -9.7864  -9.7387  -9.5919  -9.5370  -9.4325  -9.2785
    -9.2493  -9.1039  -8.9083  -8.8262  -8.7590  -8.7006  -8.6637  -8.6425
    -8.5929  -8.5005  -8.3928  -8.3476  -8.3141  -8.2440  -8.2187  -8.1840
    -8.1414  -8.1069  -8.0869  -8.0248  -8.0074  -8.0022  -7.9992  -7.9667
    -7.9499  -7.9228  -7.8560  -7.8075  -7.7847  -7.7770  -7.7668  -7.7244
    -7.6255  -7.5522  -7.5306  -7.5070  -7.5010  -7.4554  -7.4385  -7.2779
    -7.2698  -7.1726  -7.0971  -7.0380  -6.9390  -6.8842  -6.8741  -6.8474
    -6.8439  -6.7855  -6.6089  -6.5584  -6.4766  -6.4695  -6.4308  -6.4128
    -6.3396  -6.3253  -6.2750  -6.2546  -6.2434  -6.2050  -6.1856  -5.9856
    -5.9316  -5.9062  -5.8805  -5.7945  -5.7785  -5.7658  -5.7398  -5.7340
    -5.7212  -5.7013  -5.6906  -5.6314  -5.6258  -5.5632  -5.5210  -5.5144
    -5.4541  -5.4200  -5.4132  -5.3546  -5.3361  -5.3078  -5.3048  -5.2642
    -5.1757  -5.1505  -5.1248  -4.9798  -4.9749  -4.8978  -4.7740  -4.5556
    -3.8467  -3.2251  -3.0485  -3.0235  -2.7645  -2.5729  -2.4718  -2.2568
    -2.1395  -1.6969  -1.4118  -1.3587  -0.4068  -0.1977   0.2410   0.8062
     0.8463

     occupation numbers 
     1.0000   1.0000   1.0000   1.0000   1.0000   1.0000   1.0000   1.0000
     1.0000   1.0000   1.0000   1.0000   1.0000   1.0000   1.0000   1.0000
     1.0000   1.0000   1.0000   1.0000   1.0000   1.0000   1.0000   1.0000
     1.0000   1.0000   1.0000   1.0000   1.0000   1.0000   1.0000   1.0000
     1.0000   1.0000   1.0000   1.0000   1.0000   1.0000   1.0000   1.0000
     1.0000   1.0000   1.0000   1.0000   1.0000   1.0000   1.0000   1.0000
     1.0000   1.0000   1.0000   1.0000   1.0000   1.0000   1.0000   1.0000
     1.0000   1.0000   1.0000   1.0000   1.0000   1.0000   1.0000   1.0000
     1.0000   1.0000   1.0000   1.0000   1.0000   1.0000   1.0000   1.0000
     1.0000   1.0000   1.0000   1.0000   1.0000   1.0000   1.0000   1.0000
     1.0000   1.0000   1.0000   1.0000   1.0000   1.0000   1.0000   1.0000
     1.0000   1.0000   1.0000   1.0000   1.0000   1.0000   1.0000   1.0001
     1.0006   1.0010   1.0018   1.0096   1.0124   1.0152   1.0222   1.0241
     1.0284   1.0362   1.0407   1.0679   1.0702   1.0828   1.0637   1.0578
     0.9591   0.8674   0.8465   0.6402   0.5703   0.4656   0.4547   0.3186
     0.1141   0.0797   0.0536   0.0032   0.0028   0.0004   0.0000   0.0000
     0.0000   0.0000   0.0000   0.0000   0.0000   0.0000   0.0000   0.0000
     0.0000   0.0000   0.0000   0.0000   0.0000   0.0000   0.0000   0.0000
     0.0000

          k = 0.0000 0.3608 0.0000 ( 44550 PWs)   bands (ev):

   -11.8998 -11.6517 -11.0658 -10.6286 -10.5587 -10.4724 -10.4722 -10.4175
   -10.3326 -10.3104 -10.2887 -10.2874 -10.2303 -10.1680 -10.1658 -10.1321
   -10.0322 -10.0259  -9.9589  -9.8727  -9.8521  -9.8396  -9.7913  -9.7753
    -9.7705  -9.6869  -9.6413  -9.6036  -9.4281  -9.3385  -9.3220  -9.2097
    -9.1740  -9.1137  -8.9990  -8.9611  -8.8117  -8.7442  -8.7330  -8.6980
    -8.6806  -8.6005  -8.5253  -8.4179  -8.3190  -8.3069  -8.2037  -8.1782
    -8.1642  -8.1539  -8.0884  -8.0394  -8.0282  -8.0159  -8.0063  -7.9789
    -7.9496  -7.9238  -7.8663  -7.8469  -7.7891  -7.7120  -7.6621  -7.6118
    -7.6088  -7.5975  -7.5837  -7.5700  -7.5636  -7.4787  -7.4655  -7.4412
    -7.3841  -7.3683  -7.2924  -7.1900  -7.0773  -7.0285  -7.0038  -6.9100
    -6.8951  -6.8640  -6.8042  -6.7907  -6.7308  -6.6703  -6.6523  -6.5916
    -6.5658  -6.4940  -6.4777  -6.4264  -6.4191  -6.2761  -6.2372  -6.1683
    -6.1273  -6.0969  -6.0886  -6.0481  -6.0411  -5.9538  -5.9478  -5.9294
    -5.9184  -5.8942  -5.8354  -5.8175  -5.8103  -5.7431  -5.6464  -5.5845
    -5.5260  -5.5030  -5.4615  -5.4348  -5.4273  -5.3612  -5.2920  -5.2918
    -5.2537  -5.1689  -5.1569  -5.1512  -5.1300  -4.9796  -4.9757  -4.4460
    -3.7976  -3.2637  -2.8892  -2.8640  -2.6103  -2.5528  -2.3120  -2.0768
    -1.9314  -1.8349  -1.3379  -1.1820  -0.2762   0.0764   0.1013   1.2703
     1.3857

     occupation numbers 
     1.0000   1.0000   1.0000   1.0000   1.0000   1.0000   1.0000   1.0000
     1.0000   1.0000   1.0000   1.0000   1.0000   1.0000   1.0000   1.0000
     1.0000   1.0000   1.0000   1.0000   1.0000   1.0000   1.0000   1.0000
     1.0000   1.0000   1.0000   1.0000   1.0000   1.0000   1.0000   1.0000
     1.0000   1.0000   1.0000   1.0000   1.0000   1.0000   1.0000   1.0000
     1.0000   1.0000   1.0000   1.0000   1.0000   1.0000   1.0000   1.0000
     1.0000   1.0000   1.0000   1.0000   1.0000   1.0000   1.0000   1.0000
     1.0000   1.0000   1.0000   1.0000   1.0000   1.0000   1.0000   1.0000
     1.0000   1.0000   1.0000   1.0000   1.0000   1.0000   1.0000   1.0000
     1.0000   1.0000   1.0000   1.0000   1.0000   1.0000   1.0000   1.0000
     1.0000   1.0000   1.0000   1.0000   1.0000   1.0000   1.0000   1.0000
     1.0000   1.0000   1.0000   1.0000   1.0000   1.0000   1.0000   1.0000
     1.0000   1.0000   1.0000   1.0000   1.0000   1.0003   1.0004   1.0006
     1.0008   1.0013   1.0045   1.0064   1.0072   1.0212   1.0611   1.0825
     1.0677   1.0454   0.9756   0.9101   0.8889   0.6649   0.4098   0.4091
     0.2873   0.1038   0.0875   0.0805   0.0583   0.0032   0.0029   0.0000
     0.0000   0.0000   0.0000   0.0000   0.0000   0.0000   0.0000   0.0000
     0.0000   0.0000   0.0000   0.0000   0.0000   0.0000   0.0000   0.0000
     0.0000

          k = 0.0000 0.4330 0.0000 ( 44520 PWs)   bands (ev):

   -11.7288 -11.4481 -10.8578 -10.6438 -10.4471 -10.3285 -10.3274 -10.3100
   -10.2687 -10.1506 -10.1457 -10.1452 -10.1000 -10.0239 -10.0135  -9.9984
    -9.8584  -9.8533  -9.8080  -9.7407  -9.7258  -9.7209  -9.6520  -9.6264
    -9.6249  -9.5614  -9.4956  -9.4750  -9.2804  -9.2123  -9.1615  -9.1559
    -9.1042  -9.0956  -9.0679  -8.9855  -8.9156  -8.8632  -8.7941  -8.7549
    -8.7406  -8.6574  -8.5863  -8.5337  -8.4566  -8.4023  -8.3071  -8.2859
    -8.2292  -8.1516  -8.1228  -8.0478  -8.0427  -8.0186  -8.0103  -7.9641
    -7.9635  -7.8685  -7.8563  -7.8454  -7.8299  -7.8202  -7.7859  -7.7378
    -7.6687  -7.5870  -7.5867  -7.5599  -7.5420  -7.4924  -7.4767  -7.4243
    -7.4191  -7.3931  -7.3292  -7.2227  -7.1624  -7.1592  -7.1070  -7.0481
    -7.0302  -7.0236  -6.9976  -6.9461  -6.8819  -6.8595  -6.8589  -6.8081
    -6.6877  -6.6251  -6.6047  -6.5563  -6.5532  -6.5315  -6.3522  -6.3443
    -6.3272  -6.2764  -6.2731  -6.2505  -6.2474  -6.1634  -6.1630  -6.0864
    -6.0793  -6.0321  -6.0241  -5.9746  -5.9225  -5.8781  -5.8702  -5.8344
    -5.7398  -5.5436  -5.5280  -5.4498  -5.4380  -5.3686  -5.2681  -5.2673
    -5.2412  -5.1828  -5.1791  -5.1603  -5.1368  -4.9810  -4.9767  -4.3223
    -3.8589  -3.1369  -2.8028  -2.7674  -2.5281  -2.4416  -2.2613  -2.0729
    -2.0097  -1.4120  -1.1423  -1.0497  -0.5564   0.1759   0.3086   0.9963
     1.7319

     occupation numbers 
     1.0000   1.0000   1.0000   1.0000   1.0000   1.0000   1.0000   1.0000
     1.0000   1.0000   1.0000   1.0000   1.0000   1.0000   1.0000   1.0000
     1.0000   1.0000   1.0000   1.0000   1.0000   1.0000   1.0000   1.0000
     1.0000   1.0000   1.0000   1.0000   1.0000   1.0000   1.0000   1.0000
     1.0000   1.0000   1.0000   1.0000   1.0000   1.0000   1.0000   1.0000
     1.0000   1.0000   1.0000   1.0000   1.0000   1.0000   1.0000   1.0000
     1.0000   1.0000   1.0000   1.0000   1.0000   1.0000   1.0000   1.0000
     1.0000   1.0000   1.0000   1.0000   1.0000   1.0000   1.0000   1.0000
     1.0000   1.0000   1.0000   1.0000   1.0000   1.0000   1.0000   1.0000
     1.0000   1.0000   1.0000   1.0000   1.0000   1.0000   1.0000   1.0000
     1.0000   1.0000   1.0000   1.0000   1.0000   1.0000   1.0000   1.0000
     1.0000   1.0000   1.0000   1.0000   1.0000   1.0000   1.0000   1.0000
     1.0000   1.0000   1.0000   1.0000   1.0000   1.0000   1.0000   1.0000
     1.0000   1.0000   1.0000   1.0002   1.0007   1.0019   1.0023   1.0046
     1.0222   1.0777   1.0691   0.9489   0.9187   0.6924   0.3308   0.3285
     0.2526   0.1255   0.1195   0.0919   0.0648   0.0033   0.0030   0.0000
     0.0000   0.0000   0.0000   0.0000   0.0000   0.0000   0.0000   0.0000
     0.0000   0.0000   0.0000   0.0000   0.0000   0.0000   0.0000   0.0000
     0.0000

          k = 0.0000 0.5052 0.0000 ( 44502 PWs)   bands (ev):

   -11.6405 -11.1883 -10.7457 -10.6559 -10.4178 -10.2737 -10.1986 -10.1922
   -10.1878 -10.0602 -10.0592 -10.0537  -9.9759  -9.9162  -9.9103  -9.8691
    -9.7267  -9.7162  -9.7074  -9.6286  -9.5992  -9.5916  -9.5527  -9.5353
    -9.4864  -9.4318  -9.3844  -9.3347  -9.3167  -9.1749  -9.1200  -9.1055
    -9.0764  -9.0245  -9.0028  -8.9956  -8.9629  -8.9062  -8.8365  -8.8003
    -8.7690  -8.6973  -8.6057  -8.5892  -8.5615  -8.5322  -8.4105  -8.3896
    -8.3232  -8.1947  -8.1628  -8.1536  -8.1300  -8.0961  -8.0415  -7.9539
    -7.9304  -7.9260  -7.9229  -7.9021  -7.8878  -7.8382  -7.7168  -7.6759
    -7.6565  -7.6436  -7.6406  -7.5793  -7.5127  -7.4749  -7.4726  -7.4485
    -7.4199  -7.4148  -7.3672  -7.3264  -7.2870  -7.2096  -7.2023  -7.1763
    -7.1522  -7.0724  -7.0253  -7.0045  -6.9753  -6.9118  -6.8916  -6.8879
    -6.7947  -6.7194  -6.7039  -6.6782  -6.6709  -6.5722  -6.5687  -6.4979
    -6.4738  -6.4709  -6.4270  -6.4194  -6.4012  -6.4011  -6.2595  -6.2575
    -6.2302  -6.1938  -6.1518  -6.0454  -6.0152  -5.9336  -5.8948  -5.8770
    -5.8407  -5.6943  -5.5491  -5.4551  -5.4376  -5.3708  -5.2420  -5.2388
    -5.2292  -5.1929  -5.1611  -5.1555  -4.9944  -4.9825  -4.9756  -4.4345
    -3.7397  -3.0398  -2.7560  -2.7396  -2.5330  -2.5072  -2.2333  -1.9629
    -1.8657  -1.2684  -0.9696  -0.9021  -0.6821   0.2388   0.4257   0.5148
     2.0121

     occupation numbers 
     1.0000   1.0000   1.0000   1.0000   1.0000   1.0000   1.0000   1.0000
     1.0000   1.0000   1.0000   1.0000   1.0000   1.0000   1.0000   1.0000
     1.0000   1.0000   1.0000   1.0000   1.0000   1.0000   1.0000   1.0000
     1.0000   1.0000   1.0000   1.0000   1.0000   1.0000   1.0000   1.0000
     1.0000   1.0000   1.0000   1.0000   1.0000   1.0000   1.0000   1.0000
     1.0000   1.0000   1.0000   1.0000   1.0000   1.0000   1.0000   1.0000
     1.0000   1.0000   1.0000   1.0000   1.0000   1.0000   1.0000   1.0000
     1.0000   1.0000   1.0000   1.0000   1.0000   1.0000   1.0000   1.0000
     1.0000   1.0000   1.0000   1.0000   1.0000   1.0000   1.0000   1.0000
     1.0000   1.0000   1.0000   1.0000   1.0000   1.0000   1.0000   1.0000
     1.0000   1.0000   1.0000   1.0000   1.0000   1.0000   1.0000   1.0000
     1.0000   1.0000   1.0000   1.0000   1.0000   1.0000   1.0000   1.0000
     1.0000   1.0000   1.0000   1.0000   1.0000   1.0000   1.0000   1.0000
     1.0000   1.0000   1.0000   1.0000   1.0001   1.0005   1.0013   1.0019
     1.0041   1.0391   1.0797   0.9613   0.9178   0.7004   0.2547   0.2461
     0.2214   0.1431   0.0931   0.0858   0.0044   0.0034   0.0029   0.0000
     0.0000   0.0000   0.0000   0.0000   0.0000   0.0000   0.0000   0.0000
     0.0000   0.0000   0.0000   0.0000   0.0000   0.0000   0.0000   0.0000
     0.0000

          k = 0.0000-0.5774 0.0000 ( 44486 PWs)   bands (ev):

   -11.6138 -10.9480 -10.9202 -10.5281 -10.4825 -10.2162 -10.2001 -10.0910
   -10.0867 -10.0844 -10.0778 -10.0181  -9.9326  -9.8871  -9.8845  -9.7466
    -9.7242  -9.6837  -9.6674  -9.5601  -9.5497  -9.5198  -9.4746  -9.4356
    -9.4260  -9.4171  -9.3701  -9.3381  -9.2996  -9.2325  -9.1045  -9.0640
    -9.0638  -9.0451  -9.0287  -8.9401  -8.9261  -8.9177  -8.8485  -8.7692
    -8.7616  -8.7508  -8.6803  -8.5779  -8.5567  -8.5167  -8.4555  -8.4448
    -8.4359  -8.2838  -8.2377  -8.1788  -8.1770  -8.0796  -8.0642  -7.9821
    -7.9745  -7.9396  -7.9216  -7.8584  -7.8534  -7.7226  -7.7084  -7.6805
    -7.6621  -7.6298  -7.6182  -7.6043  -7.5439  -7.5297  -7.5294  -7.5094
    -7.4732  -7.4505  -7.4169  -7.3849  -7.2649  -7.2559  -7.1870  -7.1741
    -7.1382  -7.1207  -7.0307  -7.0101  -6.9952  -6.9677  -6.8798  -6.8360
    -6.8230  -6.8017  -6.7111  -6.6738  -6.6713  -6.6563  -6.6362  -6.5594
    -6.5578  -6.5161  -6.4952  -6.4889  -6.4818  -6.4546  -6.3585  -6.3276
    -6.3048  -6.2467  -6.1640  -6.1008  -6.0103  -5.9488  -5.8994  -5.8685
    -5.8477  -5.7915  -5.5504  -5.4562  -5.4371  -5.3706  -5.2308  -5.2233
    -5.2220  -5.1995  -5.1641  -5.1613  -4.9831  -4.9780  -4.8835  -4.5394
    -3.6563  -3.0041  -2.7526  -2.7414  -2.6081  -2.4991  -2.2114  -1.9465
    -1.6409  -1.3520  -1.0301  -0.9430  -0.2469  -0.0295   0.3753   0.4630
     1.9702

     occupation numbers 
     1.0000   1.0000   1.0000   1.0000   1.0000   1.0000   1.0000   1.0000
     1.0000   1.0000   1.0000   1.0000   1.0000   1.0000   1.0000   1.0000
     1.0000   1.0000   1.0000   1.0000   1.0000   1.0000   1.0000   1.0000
     1.0000   1.0000   1.0000   1.0000   1.0000   1.0000   1.0000   1.0000
     1.0000   1.0000   1.0000   1.0000   1.0000   1.0000   1.0000   1.0000
     1.0000   1.0000   1.0000   1.0000   1.0000   1.0000   1.0000   1.0000
     1.0000   1.0000   1.0000   1.0000   1.0000   1.0000   1.0000   1.0000
     1.0000   1.0000   1.0000   1.0000   1.0000   1.0000   1.0000   1.0000
     1.0000   1.0000   1.0000   1.0000   1.0000   1.0000   1.0000   1.0000
     1.0000   1.0000   1.0000   1.0000   1.0000   1.0000   1.0000   1.0000
     1.0000   1.0000   1.0000   1.0000   1.0000   1.0000   1.0000   1.0000
     1.0000   1.0000   1.0000   1.0000   1.0000   1.0000   1.0000   1.0000
     1.0000   1.0000   1.0000   1.0000   1.0000   1.0000   1.0000   1.0000
     1.0000   1.0000   1.0000   1.0000   1.0001   1.0004   1.0012   1.0023
     1.0036   1.0100   1.0801   0.9638   0.9163   0.6996   0.2253   0.2073
     0.2041   0.1556   0.0971   0.0933   0.0034   0.0031   0.0003   0.0000
     0.0000   0.0000   0.0000   0.0000   0.0000   0.0000   0.0000   0.0000
     0.0000   0.0000   0.0000   0.0000   0.0000   0.0000   0.0000   0.0000
     0.0000

          k = 0.0625-0.0361 0.0000 ( 44605 PWs)   bands (ev):

   -12.5585 -12.1000 -11.5893 -10.9966 -10.9052 -10.9006 -10.8927 -10.8558
   -10.7448 -10.7315 -10.7262 -10.5884 -10.5854 -10.5837 -10.5382 -10.5243
   -10.5194 -10.5133 -10.3572 -10.3279 -10.3184 -10.2599 -10.1430 -10.1208
   -10.1141 -10.1091 -10.0564  -9.9744  -9.9419  -9.9143  -9.5653  -9.4009
    -9.3880  -9.0870  -8.7894  -8.7717  -8.6335  -8.5453  -8.5189  -8.4239
    -8.4190  -8.3982  -8.3666  -8.3635  -8.3233  -8.2821  -8.2064  -8.2021
    -8.1950  -8.1929  -8.1913  -8.1742  -8.1392  -8.1051  -8.0039  -7.9987
    -7.9833  -7.8587  -7.7952  -7.7579  -7.7445  -7.7242  -7.6940  -7.6667
    -7.5451  -7.5129  -7.5069  -7.3824  -7.2743  -7.2367  -7.0567  -7.0251
    -7.0073  -6.8521  -6.6817  -6.6480  -6.6408  -6.6342  -6.5777  -6.5242
    -6.5085  -6.4148  -6.3751  -6.3360  -6.2946  -6.2630  -6.2093  -6.0978
    -6.0890  -5.9260  -5.8702  -5.8127  -5.7228  -5.7032  -5.6746  -5.6525
    -5.6307  -5.6126  -5.5186  -5.4520  -5.3887  -5.3783  -5.3702  -5.3502
    -5.3463  -5.2907  -5.2785  -5.2345  -5.2226  -5.2170  -5.2118  -5.2082
    -5.1982  -5.1555  -5.1450  -5.1333  -5.0761  -5.0494  -5.0421  -5.0080
    -4.9930  -4.9594  -4.9262  -4.9171  -4.8950  -4.8654  -4.0926  -3.9059
    -3.6825  -3.6499  -3.1338  -2.7534  -2.6671  -2.3768  -2.1836  -1.9403
    -1.8989  -1.7561  -1.7386  -1.4697  -1.3367  -1.2588  -0.9020  -0.8788
    -0.5374

     occupation numbers 
     1.0000   1.0000   1.0000   1.0000   1.0000   1.0000   1.0000   1.0000
     1.0000   1.0000   1.0000   1.0000   1.0000   1.0000   1.0000   1.0000
     1.0000   1.0000   1.0000   1.0000   1.0000   1.0000   1.0000   1.0000
     1.0000   1.0000   1.0000   1.0000   1.0000   1.0000   1.0000   1.0000
     1.0000   1.0000   1.0000   1.0000   1.0000   1.0000   1.0000   1.0000
     1.0000   1.0000   1.0000   1.0000   1.0000   1.0000   1.0000   1.0000
     1.0000   1.0000   1.0000   1.0000   1.0000   1.0000   1.0000   1.0000
     1.0000   1.0000   1.0000   1.0000   1.0000   1.0000   1.0000   1.0000
     1.0000   1.0000   1.0000   1.0000   1.0000   1.0000   1.0000   1.0000
     1.0000   1.0000   1.0000   1.0000   1.0000   1.0000   1.0000   1.0000
     1.0000   1.0000   1.0000   1.0000   1.0000   1.0000   1.0000   1.0000
     1.0000   1.0006   1.0023   1.0069   1.0278   1.0354   1.0479   1.0583
     1.0682   1.0753   1.0616   0.9540   0.7647   0.7277   0.6980   0.6235
     0.6087   0.4050   0.3641   0.2348   0.2055   0.1925   0.1811   0.1733
     0.1531   0.0858   0.0734   0.0614   0.0233   0.0140   0.0121   0.0060
     0.0043   0.0020   0.0009   0.0007   0.0004   0.0002   0.0000   0.0000
     0.0000   0.0000   0.0000   0.0000   0.0000   0.0000   0.0000   0.0000
     0.0000   0.0000   0.0000   0.0000   0.0000   0.0000   0.0000   0.0000
     0.0000

          k = 0.0625 0.0361 0.0000 ( 44605 PWs)   bands (ev):

   -12.5585 -12.1000 -11.5893 -10.9966 -10.9052 -10.9006 -10.8927 -10.8558
   -10.7448 -10.7315 -10.7262 -10.5884 -10.5854 -10.5837 -10.5382 -10.5243
   -10.5194 -10.5133 -10.3572 -10.3279 -10.3184 -10.2599 -10.1430 -10.1208
   -10.1141 -10.1091 -10.0564  -9.9744  -9.9419  -9.9143  -9.5653  -9.4009
    -9.3880  -9.0870  -8.7894  -8.7717  -8.6335  -8.5453  -8.5189  -8.4239
    -8.4190  -8.3982  -8.3666  -8.3635  -8.3233  -8.2821  -8.2064  -8.2021
    -8.1950  -8.1929  -8.1913  -8.1742  -8.1392  -8.1051  -8.0039  -7.9987
    -7.9833  -7.8587  -7.7952  -7.7579  -7.7445  -7.7242  -7.6940  -7.6667
    -7.5451  -7.5129  -7.5069  -7.3824  -7.2743  -7.2367  -7.0567  -7.0251
    -7.0073  -6.8521  -6.6817  -6.6480  -6.6408  -6.6342  -6.5777  -6.5242
    -6.5085  -6.4148  -6.3751  -6.3360  -6.2946  -6.2630  -6.2093  -6.0978
    -6.0890  -5.9260  -5.8702  -5.8127  -5.7228  -5.7032  -5.6746  -5.6525
    -5.6307  -5.6126  -5.5186  -5.4520  -5.3887  -5.3783  -5.3702  -5.3502
    -5.3463  -5.2907  -5.2785  -5.2345  -5.2226  -5.2170  -5.2118  -5.2082
    -5.1982  -5.1555  -5.1450  -5.1333  -5.0761  -5.0494  -5.0421  -5.0080
    -4.9930  -4.9594  -4.9262  -4.9171  -4.8950  -4.8654  -4.0926  -3.9059
    -3.6825  -3.6499  -3.1338  -2.7534  -2.6671  -2.3768  -2.1836  -1.9403
    -1.8989  -1.7561  -1.7386  -1.4697  -1.3367  -1.2588  -0.9020  -0.8788
    -0.5374

     occupation numbers 
     1.0000   1.0000   1.0000   1.0000   1.0000   1.0000   1.0000   1.0000
     1.0000   1.0000   1.0000   1.0000   1.0000   1.0000   1.0000   1.0000
     1.0000   1.0000   1.0000   1.0000   1.0000   1.0000   1.0000   1.0000
     1.0000   1.0000   1.0000   1.0000   1.0000   1.0000   1.0000   1.0000
     1.0000   1.0000   1.0000   1.0000   1.0000   1.0000   1.0000   1.0000
     1.0000   1.0000   1.0000   1.0000   1.0000   1.0000   1.0000   1.0000
     1.0000   1.0000   1.0000   1.0000   1.0000   1.0000   1.0000   1.0000
     1.0000   1.0000   1.0000   1.0000   1.0000   1.0000   1.0000   1.0000
     1.0000   1.0000   1.0000   1.0000   1.0000   1.0000   1.0000   1.0000
     1.0000   1.0000   1.0000   1.0000   1.0000   1.0000   1.0000   1.0000
     1.0000   1.0000   1.0000   1.0000   1.0000   1.0000   1.0000   1.0000
     1.0000   1.0006   1.0023   1.0069   1.0278   1.0354   1.0479   1.0583
     1.0682   1.0753   1.0616   0.9540   0.7647   0.7277   0.6980   0.6235
     0.6087   0.4050   0.3641   0.2348   0.2055   0.1925   0.1811   0.1733
     0.1531   0.0858   0.0734   0.0614   0.0233   0.0140   0.0121   0.0060
     0.0043   0.0020   0.0009   0.0007   0.0004   0.0002   0.0000   0.0000
     0.0000   0.0000   0.0000   0.0000   0.0000   0.0000   0.0000   0.0000
     0.0000   0.0000   0.0000   0.0000   0.0000   0.0000   0.0000   0.0000
     0.0000

          k = 0.0625 0.1083 0.0000 ( 44583 PWs)   bands (ev):

   -12.4957 -12.0530 -11.5434 -10.9427 -10.8682 -10.8618 -10.8498 -10.8043
   -10.7163 -10.7100 -10.6768 -10.5585 -10.5572 -10.5467 -10.4974 -10.4870
   -10.4671 -10.4630 -10.3236 -10.3014 -10.2701 -10.2189 -10.1045 -10.0922
   -10.0880 -10.0696 -10.0069  -9.9446  -9.9034  -9.8569  -9.5474  -9.3801
    -9.3717  -9.0862  -8.7896  -8.7825  -8.6474  -8.5483  -8.5158  -8.4762
    -8.4683  -8.3928  -8.3618  -8.3507  -8.3348  -8.2394  -8.2130  -8.1993
    -8.1847  -8.1779  -8.1752  -8.1637  -8.1620  -8.0605  -8.0142  -7.9616
    -7.9581  -7.8441  -7.8139  -7.7802  -7.7487  -7.7217  -7.7088  -7.6760
    -7.5615  -7.5472  -7.5131  -7.4717  -7.3557  -7.3007  -7.1132  -7.0301
    -6.9734  -6.8662  -6.7394  -6.7049  -6.6972  -6.6869  -6.6708  -6.5341
    -6.5159  -6.4933  -6.4387  -6.4033  -6.3097  -6.2640  -6.2165  -6.1314
    -6.1157  -6.0170  -5.9201  -5.7977  -5.7678  -5.7448  -5.7277  -5.7128
    -5.7036  -5.6854  -5.5958  -5.5602  -5.4531  -5.4302  -5.4287  -5.4041
    -5.3931  -5.3497  -5.3067  -5.2884  -5.2801  -5.2772  -5.2692  -5.2508
    -5.2470  -5.2171  -5.2002  -5.1977  -5.1353  -5.1202  -5.1078  -5.0888
    -5.0582  -5.0476  -4.9704  -4.9593  -4.9560  -4.6428  -4.0214  -3.9887
    -3.7304  -3.3311  -3.1764  -3.1247  -2.7467  -2.6275  -2.5030  -2.2385
    -2.1558  -1.7345  -1.3456  -1.2608  -1.0997  -1.0710  -1.0455  -0.1458
    -0.0737

     occupation numbers 
     1.0000   1.0000   1.0000   1.0000   1.0000   1.0000   1.0000   1.0000
     1.0000   1.0000   1.0000   1.0000   1.0000   1.0000   1.0000   1.0000
     1.0000   1.0000   1.0000   1.0000   1.0000   1.0000   1.0000   1.0000
     1.0000   1.0000   1.0000   1.0000   1.0000   1.0000   1.0000   1.0000
     1.0000   1.0000   1.0000   1.0000   1.0000   1.0000   1.0000   1.0000
     1.0000   1.0000   1.0000   1.0000   1.0000   1.0000   1.0000   1.0000
     1.0000   1.0000   1.0000   1.0000   1.0000   1.0000   1.0000   1.0000
     1.0000   1.0000   1.0000   1.0000   1.0000   1.0000   1.0000   1.0000
     1.0000   1.0000   1.0000   1.0000   1.0000   1.0000   1.0000   1.0000
     1.0000   1.0000   1.0000   1.0000   1.0000   1.0000   1.0000   1.0000
     1.0000   1.0000   1.0000   1.0000   1.0000   1.0000   1.0000   1.0000
     1.0000   1.0001   1.0007   1.0090   1.0147   1.0207   1.0262   1.0316
     1.0352   1.0430   1.0803   1.0824   0.9566   0.8973   0.8929   0.8172
     0.7799   0.6216   0.4616   0.3972   0.3694   0.3598   0.3343   0.2791
     0.2684   0.1929   0.1571   0.1522   0.0633   0.0498   0.0406   0.0292
     0.0166   0.0135   0.0026   0.0020   0.0018   0.0000   0.0000   0.0000
     0.0000   0.0000   0.0000   0.0000   0.0000   0.0000   0.0000   0.0000
     0.0000   0.0000   0.0000   0.0000   0.0000   0.0000   0.0000   0.0000
     0.0000

          k = 0.0625 0.1804 0.0000 ( 44578 PWs)   bands (ev):

   -12.3729 -11.9650 -11.4528 -10.8397 -10.7988 -10.7845 -10.7665 -10.7042
   -10.6795 -10.6466 -10.5840 -10.5048 -10.4945 -10.4719 -10.4306 -10.4109
   -10.3678 -10.3574 -10.2765 -10.2326 -10.1779 -10.1343 -10.0394 -10.0357
   -10.0318  -9.9893  -9.9130  -9.8915  -9.8162  -9.7479  -9.5119  -9.3411
    -9.3390  -9.0876  -8.8228  -8.7751  -8.6850  -8.5962  -8.5762  -8.5463
    -8.4685  -8.4362  -8.3816  -8.3164  -8.2840  -8.2555  -8.2238  -8.1937
    -8.1688  -8.1509  -8.1484  -8.1462  -8.1072  -8.0277  -7.9744  -7.9408
    -7.8906  -7.8808  -7.8571  -7.8259  -7.7679  -7.7359  -7.6940  -7.6383
    -7.6147  -7.6119  -7.5640  -7.5242  -7.4785  -7.3720  -7.2364  -7.0427
    -6.9847  -6.9508  -6.8442  -6.8244  -6.8128  -6.7761  -6.7585  -6.7103
    -6.5954  -6.5305  -6.4987  -6.4659  -6.4055  -6.2937  -6.2397  -6.1794
    -6.1703  -6.1134  -6.0385  -5.9603  -5.9411  -5.8895  -5.8738  -5.8128
    -5.7953  -5.7582  -5.7249  -5.6732  -5.5655  -5.5410  -5.5335  -5.5201
    -5.5033  -5.4099  -5.4001  -5.3908  -5.3769  -5.3656  -5.3499  -5.3278
    -5.3127  -5.3054  -5.2989  -5.2931  -5.2703  -5.2476  -5.1748  -5.1593
    -5.1355  -5.0965  -5.0313  -4.9980  -4.9889  -4.5109  -4.3109  -3.8562
    -3.7735  -3.4512  -3.3786  -3.1770  -2.9314  -2.8302  -2.6018  -2.3221
    -2.0928  -1.6238  -1.2979  -1.0999  -0.9101  -0.8096  -0.5181   0.2845
     0.4323

     occupation numbers 
     1.0000   1.0000   1.0000   1.0000   1.0000   1.0000   1.0000   1.0000
     1.0000   1.0000   1.0000   1.0000   1.0000   1.0000   1.0000   1.0000
     1.0000   1.0000   1.0000   1.0000   1.0000   1.0000   1.0000   1.0000
     1.0000   1.0000   1.0000   1.0000   1.0000   1.0000   1.0000   1.0000
     1.0000   1.0000   1.0000   1.0000   1.0000   1.0000   1.0000   1.0000
     1.0000   1.0000   1.0000   1.0000   1.0000   1.0000   1.0000   1.0000
     1.0000   1.0000   1.0000   1.0000   1.0000   1.0000   1.0000   1.0000
     1.0000   1.0000   1.0000   1.0000   1.0000   1.0000   1.0000   1.0000
     1.0000   1.0000   1.0000   1.0000   1.0000   1.0000   1.0000   1.0000
     1.0000   1.0000   1.0000   1.0000   1.0000   1.0000   1.0000   1.0000
     1.0000   1.0000   1.0000   1.0000   1.0000   1.0000   1.0000   1.0000
     1.0000   1.0000   1.0000   1.0003   1.0004   1.0015   1.0021   1.0069
     1.0094   1.0171   1.0271   1.0486   1.0830   1.0766   1.0726   1.0630
     1.0458   0.8359   0.8038   0.7719   0.7225   0.6813   0.6223   0.5394
     0.4833   0.4570   0.4338   0.4136   0.3379   0.2700   0.1126   0.0907
     0.0635   0.0335   0.0098   0.0048   0.0039   0.0000   0.0000   0.0000
     0.0000   0.0000   0.0000   0.0000   0.0000   0.0000   0.0000   0.0000
     0.0000   0.0000   0.0000   0.0000   0.0000   0.0000   0.0000   0.0000
     0.0000

          k = 0.0625 0.2526 0.0000 ( 44582 PWs)   bands (ev):

   -12.1972 -11.8472 -11.3190 -10.7162 -10.6878 -10.6698 -10.6593 -10.6300
   -10.5605 -10.5409 -10.4585 -10.4292 -10.3977 -10.3590 -10.3516 -10.2839
   -10.2354 -10.2280 -10.2044 -10.1150 -10.0563 -10.0098  -9.9609  -9.9501
    -9.9419  -9.8698  -9.8170  -9.7844  -9.6820  -9.5949  -9.4574  -9.2967
    -9.2820  -9.0955  -8.8794  -8.7739  -8.7383  -8.7257  -8.6526  -8.6007
    -8.5427  -8.4498  -8.3768  -8.3364  -8.2896  -8.2666  -8.2257  -8.1921
    -8.1531  -8.1196  -8.1068  -8.0353  -8.0303  -8.0238  -7.9875  -7.9572
    -7.9266  -7.8893  -7.8423  -7.8251  -7.8034  -7.7756  -7.7570  -7.6999
    -7.6434  -7.5916  -7.5375  -7.5106  -7.4950  -7.4610  -7.3783  -7.1719
    -7.1641  -7.0860  -7.0369  -6.9835  -6.8922  -6.8502  -6.8375  -6.8301
    -6.7733  -6.6746  -6.5732  -6.5378  -6.4708  -6.3806  -6.3437  -6.2966
    -6.2700  -6.2601  -6.2461  -6.1942  -6.1375  -6.1299  -6.0679  -5.9734
    -5.8849  -5.8602  -5.8405  -5.7549  -5.7254  -5.6963  -5.6762  -5.6593
    -5.6427  -5.6327  -5.5905  -5.5685  -5.5362  -5.5203  -5.4730  -5.4528
    -5.4019  -5.3922  -5.3448  -5.3361  -5.3309  -5.3261  -5.2977  -5.1905
    -5.1645  -5.1081  -5.0050  -5.0004  -4.9949  -4.8333  -4.4411  -4.1855
    -3.9591  -3.6627  -3.2719  -3.0782  -2.8966  -2.7091  -2.5418  -2.1901
    -1.9590  -1.6030  -1.3497  -1.0511  -0.6897  -0.3574   0.1350   0.3880
     0.7788

     occupation numbers 
     1.0000   1.0000   1.0000   1.0000   1.0000   1.0000   1.0000   1.0000
     1.0000   1.0000   1.0000   1.0000   1.0000   1.0000   1.0000   1.0000
     1.0000   1.0000   1.0000   1.0000   1.0000   1.0000   1.0000   1.0000
     1.0000   1.0000   1.0000   1.0000   1.0000   1.0000   1.0000   1.0000
     1.0000   1.0000   1.0000   1.0000   1.0000   1.0000   1.0000   1.0000
     1.0000   1.0000   1.0000   1.0000   1.0000   1.0000   1.0000   1.0000
     1.0000   1.0000   1.0000   1.0000   1.0000   1.0000   1.0000   1.0000
     1.0000   1.0000   1.0000   1.0000   1.0000   1.0000   1.0000   1.0000
     1.0000   1.0000   1.0000   1.0000   1.0000   1.0000   1.0000   1.0000
     1.0000   1.0000   1.0000   1.0000   1.0000   1.0000   1.0000   1.0000
     1.0000   1.0000   1.0000   1.0000   1.0000   1.0000   1.0000   1.0000
     1.0000   1.0000   1.0000   1.0000   1.0000   1.0000   1.0000   1.0002
     1.0016   1.0028   1.0041   1.0179   1.0269   1.0382   1.0472   1.0550
     1.0628   1.0673   1.0815   1.0832   1.0741   1.0631   0.9989   0.9560
     0.8098   0.7769   0.6032   0.5705   0.5510   0.5329   0.4297   0.1389
     0.0977   0.0408   0.0056   0.0051   0.0045   0.0001   0.0000   0.0000
     0.0000   0.0000   0.0000   0.0000   0.0000   0.0000   0.0000   0.0000
     0.0000   0.0000   0.0000   0.0000   0.0000   0.0000   0.0000   0.0000
     0.0000

          k = 0.0625 0.3248 0.0000 ( 44578 PWs)   bands (ev):

   -11.9851 -11.7100 -11.1453 -10.6196 -10.5982 -10.5351 -10.5330 -10.4832
   -10.4073 -10.3866 -10.3445 -10.3094 -10.2692 -10.2631 -10.2042 -10.1592
   -10.1240 -10.0852 -10.0312  -9.9677  -9.9189  -9.8727  -9.8524  -9.8332
    -9.8206  -9.7317  -9.7157  -9.6439  -9.5147  -9.4211  -9.3648  -9.2389
    -9.2117  -9.1087  -8.9440  -8.9100  -8.8071  -8.7543  -8.7171  -8.6751
    -8.6371  -8.5284  -8.4667  -8.3755  -8.3237  -8.2495  -8.2179  -8.1914
    -8.1681  -8.1176  -8.0754  -8.0471  -8.0358  -8.0018  -7.9887  -7.9746
    -7.9515  -7.9332  -7.8749  -7.8460  -7.8278  -7.7694  -7.6898  -7.6772
    -7.6389  -7.5679  -7.5286  -7.5057  -7.4951  -7.4504  -7.4208  -7.4000
    -7.3491  -7.3392  -7.2849  -7.0756  -7.0234  -6.9647  -6.9338  -6.8923
    -6.8858  -6.8361  -6.7170  -6.6694  -6.6458  -6.6043  -6.5205  -6.4969
    -6.4689  -6.4368  -6.4124  -6.3699  -6.3541  -6.2762  -6.2338  -6.1154
    -6.0482  -6.0220  -5.9935  -5.9780  -5.9284  -5.8887  -5.8674  -5.8485
    -5.8269  -5.8021  -5.7792  -5.6950  -5.6745  -5.6609  -5.6137  -5.5568
    -5.4919  -5.4342  -5.4150  -5.3641  -5.3389  -5.3337  -5.3232  -5.2853
    -5.1910  -5.1687  -5.1562  -5.0298  -5.0054  -5.0007  -4.8107  -4.5107
    -3.8016  -3.5382  -3.2846  -3.1426  -2.8508  -2.3940  -2.2394  -1.9813
    -1.8692  -1.6947  -1.4537  -0.8356  -0.5058   0.0096   0.2354   0.8364
     1.0840

     occupation numbers 
     1.0000   1.0000   1.0000   1.0000   1.0000   1.0000   1.0000   1.0000
     1.0000   1.0000   1.0000   1.0000   1.0000   1.0000   1.0000   1.0000
     1.0000   1.0000   1.0000   1.0000   1.0000   1.0000   1.0000   1.0000
     1.0000   1.0000   1.0000   1.0000   1.0000   1.0000   1.0000   1.0000
     1.0000   1.0000   1.0000   1.0000   1.0000   1.0000   1.0000   1.0000
     1.0000   1.0000   1.0000   1.0000   1.0000   1.0000   1.0000   1.0000
     1.0000   1.0000   1.0000   1.0000   1.0000   1.0000   1.0000   1.0000
     1.0000   1.0000   1.0000   1.0000   1.0000   1.0000   1.0000   1.0000
     1.0000   1.0000   1.0000   1.0000   1.0000   1.0000   1.0000   1.0000
     1.0000   1.0000   1.0000   1.0000   1.0000   1.0000   1.0000   1.0000
     1.0000   1.0000   1.0000   1.0000   1.0000   1.0000   1.0000   1.0000
     1.0000   1.0000   1.0000   1.0000   1.0000   1.0000   1.0000   1.0000
     1.0000   1.0000   1.0001   1.0002   1.0006   1.0015   1.0024   1.0035
     1.0053   1.0084   1.0123   1.0388   1.0480   1.0543   1.0749   1.0818
     1.0305   0.9085   0.8521   0.6756   0.5808   0.5613   0.5221   0.3867
     0.1398   0.1035   0.0866   0.0095   0.0056   0.0051   0.0000   0.0000
     0.0000   0.0000   0.0000   0.0000   0.0000   0.0000   0.0000   0.0000
     0.0000   0.0000   0.0000   0.0000   0.0000   0.0000   0.0000   0.0000
     0.0000

          k = 0.0625 0.3969 0.0000 ( 44528 PWs)   bands (ev):

   -11.7824 -11.5391 -10.9431 -10.6079 -10.4788 -10.3949 -10.3832 -10.3174
   -10.2924 -10.2602 -10.2045 -10.1588 -10.1552 -10.1102 -10.0628 -10.0360
    -9.9502  -9.9241  -9.8620  -9.8189  -9.7870  -9.7435  -9.7213  -9.6932
    -9.6672  -9.6123  -9.5815  -9.5143  -9.3473  -9.2727  -9.1939  -9.1627
    -9.1329  -9.1163  -9.0742  -8.9789  -8.8685  -8.8340  -8.8221  -8.7449
    -8.6538  -8.6337  -8.5736  -8.4812  -8.3884  -8.3535  -8.2572  -8.2351
    -8.2119  -8.1719  -8.1329  -8.0855  -8.0619  -8.0289  -7.9885  -7.9601
    -7.9345  -7.8893  -7.8633  -7.8386  -7.7933  -7.7660  -7.7490  -7.6987
    -7.6697  -7.6470  -7.6197  -7.5499  -7.5174  -7.4909  -7.4784  -7.4573
    -7.3968  -7.3410  -7.2727  -7.2266  -7.1761  -7.0713  -7.0545  -7.0057
    -6.9354  -6.9167  -6.9041  -6.8811  -6.8726  -6.8369  -6.8253  -6.7153
    -6.6869  -6.5553  -6.5254  -6.4963  -6.4882  -6.4826  -6.3075  -6.2825
    -6.2542  -6.2326  -6.2083  -6.1799  -6.1283  -6.0838  -6.0258  -6.0059
    -5.9809  -5.9581  -5.9271  -5.9016  -5.8605  -5.7831  -5.7616  -5.6697
    -5.5819  -5.4837  -5.4598  -5.4458  -5.3874  -5.3398  -5.3119  -5.2947
    -5.2722  -5.1996  -5.1841  -5.1632  -5.1431  -5.0077  -5.0018  -4.3282
    -3.8082  -3.4959  -3.3149  -3.0231  -2.6534  -2.2374  -2.1400  -1.8772
    -1.7978  -1.5690  -1.3571  -0.6643  -0.3698  -0.2291   0.5774   1.1945
     1.3798

     occupation numbers 
     1.0000   1.0000   1.0000   1.0000   1.0000   1.0000   1.0000   1.0000
     1.0000   1.0000   1.0000   1.0000   1.0000   1.0000   1.0000   1.0000
     1.0000   1.0000   1.0000   1.0000   1.0000   1.0000   1.0000   1.0000
     1.0000   1.0000   1.0000   1.0000   1.0000   1.0000   1.0000   1.0000
     1.0000   1.0000   1.0000   1.0000   1.0000   1.0000   1.0000   1.0000
     1.0000   1.0000   1.0000   1.0000   1.0000   1.0000   1.0000   1.0000
     1.0000   1.0000   1.0000   1.0000   1.0000   1.0000   1.0000   1.0000
     1.0000   1.0000   1.0000   1.0000   1.0000   1.0000   1.0000   1.0000
     1.0000   1.0000   1.0000   1.0000   1.0000   1.0000   1.0000   1.0000
     1.0000   1.0000   1.0000   1.0000   1.0000   1.0000   1.0000   1.0000
     1.0000   1.0000   1.0000   1.0000   1.0000   1.0000   1.0000   1.0000
     1.0000   1.0000   1.0000   1.0000   1.0000   1.0000   1.0000   1.0000
     1.0000   1.0000   1.0000   1.0000   1.0000   1.0000   1.0000   1.0001
     1.0002   1.0003   1.0006   1.0011   1.0028   1.0116   1.0162   1.0502
     1.0828   1.0178   0.9720   0.9391   0.7600   0.5844   0.4803   0.4189
     0.3439   0.1558   0.1276   0.0959   0.0713   0.0059   0.0052   0.0000
     0.0000   0.0000   0.0000   0.0000   0.0000   0.0000   0.0000   0.0000
     0.0000   0.0000   0.0000   0.0000   0.0000   0.0000   0.0000   0.0000
     0.0000

          k = 0.0625 0.4691 0.0000 ( 44509 PWs)   bands (ev):

   -11.6554 -11.3007 -10.7397 -10.6550 -10.3928 -10.2798 -10.2540 -10.2406
   -10.1976 -10.1312 -10.0782 -10.0402 -10.0152  -9.9664  -9.9346  -9.9125
    -9.7822  -9.7423  -9.7388  -9.7051  -9.6654  -9.6413  -9.6149  -9.5429
    -9.5350  -9.4760  -9.4314  -9.3680  -9.3065  -9.1849  -9.1602  -9.0977
    -9.0657  -9.0557  -9.0271  -9.0006  -8.9720  -8.9106  -8.8573  -8.8216
    -8.7267  -8.6522  -8.6063  -8.5723  -8.5208  -8.5112  -8.3919  -8.3470
    -8.2850  -8.1716  -8.1412  -8.1051  -8.0686  -8.0634  -8.0434  -8.0191
    -7.9910  -7.9182  -7.9107  -7.8929  -7.8745  -7.8353  -7.8053  -7.7204
    -7.6844  -7.6597  -7.5984  -7.5731  -7.5004  -7.4816  -7.4693  -7.4402
    -7.4146  -7.3760  -7.3186  -7.2592  -7.2478  -7.2048  -7.1767  -7.1426
    -7.0993  -7.0831  -7.0157  -6.9930  -6.9575  -6.8921  -6.8691  -6.8558
    -6.7785  -6.7248  -6.6834  -6.6353  -6.6239  -6.5238  -6.4935  -6.4675
    -6.4213  -6.3957  -6.3796  -6.3152  -6.2812  -6.2364  -6.2119  -6.1926
    -6.1239  -6.1040  -6.0782  -6.0000  -5.9459  -5.9015  -5.8404  -5.8172
    -5.7490  -5.5915  -5.5698  -5.4495  -5.4444  -5.3760  -5.2905  -5.2690
    -5.2652  -5.2146  -5.1861  -5.1722  -5.0336  -5.0097  -5.0018  -4.3306
    -3.7959  -3.4102  -3.2645  -2.9535  -2.5713  -2.2208  -2.0969  -1.8368
    -1.7374  -1.3498  -1.0103  -0.7482  -0.3622  -0.2495   0.6986   0.9459
     1.3993

     occupation numbers 
     1.0000   1.0000   1.0000   1.0000   1.0000   1.0000   1.0000   1.0000
     1.0000   1.0000   1.0000   1.0000   1.0000   1.0000   1.0000   1.0000
     1.0000   1.0000   1.0000   1.0000   1.0000   1.0000   1.0000   1.0000
     1.0000   1.0000   1.0000   1.0000   1.0000   1.0000   1.0000   1.0000
     1.0000   1.0000   1.0000   1.0000   1.0000   1.0000   1.0000   1.0000
     1.0000   1.0000   1.0000   1.0000   1.0000   1.0000   1.0000   1.0000
     1.0000   1.0000   1.0000   1.0000   1.0000   1.0000   1.0000   1.0000
     1.0000   1.0000   1.0000   1.0000   1.0000   1.0000   1.0000   1.0000
     1.0000   1.0000   1.0000   1.0000   1.0000   1.0000   1.0000   1.0000
     1.0000   1.0000   1.0000   1.0000   1.0000   1.0000   1.0000   1.0000
     1.0000   1.0000   1.0000   1.0000   1.0000   1.0000   1.0000   1.0000
     1.0000   1.0000   1.0000   1.0000   1.0000   1.0000   1.0000   1.0000
     1.0000   1.0000   1.0000   1.0000   1.0000   1.0000   1.0000   1.0000
     1.0000   1.0000   1.0000   1.0001   1.0004   1.0011   1.0041   1.0064
     1.0195   1.0813   1.0833   0.9480   0.9355   0.7193   0.4047   0.3336
     0.3219   0.1872   0.1311   0.1087   0.0102   0.0062   0.0052   0.0000
     0.0000   0.0000   0.0000   0.0000   0.0000   0.0000   0.0000   0.0000
     0.0000   0.0000   0.0000   0.0000   0.0000   0.0000   0.0000   0.0000
     0.0000

          k = 0.0625-0.6134 0.0000 ( 44516 PWs)   bands (ev):

   -11.6007 -11.0357 -10.8053 -10.5584 -10.4291 -10.2153 -10.1673 -10.1245
   -10.1223 -10.0738 -10.0296 -10.0091  -9.9268  -9.8948  -9.8623  -9.7847
    -9.7145  -9.6858  -9.6516  -9.5931  -9.5454  -9.5214  -9.4913  -9.4694
    -9.4536  -9.4159  -9.3446  -9.3148  -9.2854  -9.1933  -9.1444  -9.1245
    -9.0783  -9.0457  -9.0055  -8.9760  -8.9311  -8.9014  -8.8680  -8.8257
    -8.7491  -8.7040  -8.6746  -8.6006  -8.5620  -8.5395  -8.4691  -8.4316
    -8.3900  -8.2988  -8.2392  -8.1908  -8.1716  -8.1027  -8.0522  -8.0076
    -7.9624  -7.9436  -7.9318  -7.8790  -7.8591  -7.8306  -7.7072  -7.6963
    -7.6797  -7.6582  -7.6473  -7.6100  -7.5871  -7.5543  -7.5201  -7.5047
    -7.4624  -7.4445  -7.4361  -7.3253  -7.2826  -7.2389  -7.2224  -7.1989
    -7.1363  -7.0758  -7.0528  -6.9988  -6.9722  -6.9335  -6.8969  -6.8640
    -6.7770  -6.7543  -6.7027  -6.6672  -6.6572  -6.6347  -6.5990  -6.5703
    -6.5513  -6.5174  -6.4792  -6.4442  -6.4222  -6.3705  -6.3184  -6.2697
    -6.2244  -6.1881  -6.1520  -6.0615  -6.0091  -5.9456  -5.8949  -5.8788
    -5.8146  -5.7187  -5.5715  -5.4634  -5.4476  -5.3773  -5.2678  -5.2544
    -5.2395  -5.2275  -5.1940  -5.1815  -5.0108  -5.0030  -4.8759  -4.4730
    -3.7021  -3.3581  -3.1680  -2.9589  -2.7086  -2.1576  -2.0308  -1.7356
    -1.6075  -1.3111  -1.1282  -0.4902  -0.2458  -0.1980   0.2147   1.0503
     1.4348

     occupation numbers 
     1.0000   1.0000   1.0000   1.0000   1.0000   1.0000   1.0000   1.0000
     1.0000   1.0000   1.0000   1.0000   1.0000   1.0000   1.0000   1.0000
     1.0000   1.0000   1.0000   1.0000   1.0000   1.0000   1.0000   1.0000
     1.0000   1.0000   1.0000   1.0000   1.0000   1.0000   1.0000   1.0000
     1.0000   1.0000   1.0000   1.0000   1.0000   1.0000   1.0000   1.0000
     1.0000   1.0000   1.0000   1.0000   1.0000   1.0000   1.0000   1.0000
     1.0000   1.0000   1.0000   1.0000   1.0000   1.0000   1.0000   1.0000
     1.0000   1.0000   1.0000   1.0000   1.0000   1.0000   1.0000   1.0000
     1.0000   1.0000   1.0000   1.0000   1.0000   1.0000   1.0000   1.0000
     1.0000   1.0000   1.0000   1.0000   1.0000   1.0000   1.0000   1.0000
     1.0000   1.0000   1.0000   1.0000   1.0000   1.0000   1.0000   1.0000
     1.0000   1.0000   1.0000   1.0000   1.0000   1.0000   1.0000   1.0000
     1.0000   1.0000   1.0000   1.0000   1.0000   1.0000   1.0000   1.0000
     1.0000   1.0000   1.0000   1.0000   1.0001   1.0004   1.0013   1.0019
     1.0067   1.0293   1.0833   0.9796   0.9434   0.7239   0.3299   0.2895
     0.2479   0.2174   0.1453   0.1233   0.0063   0.0053   0.0002   0.0000
     0.0000   0.0000   0.0000   0.0000   0.0000   0.0000   0.0000   0.0000
     0.0000   0.0000   0.0000   0.0000   0.0000   0.0000   0.0000   0.0000
     0.0000

          k = 0.0625-0.5413 0.0000 ( 44516 PWs)   bands (ev):

   -11.6007 -11.0357 -10.8053 -10.5584 -10.4291 -10.2153 -10.1673 -10.1245
   -10.1223 -10.0738 -10.0296 -10.0091  -9.9268  -9.8948  -9.8623  -9.7847
    -9.7145  -9.6858  -9.6516  -9.5931  -9.5454  -9.5214  -9.4913  -9.4694
    -9.4536  -9.4159  -9.3446  -9.3148  -9.2854  -9.1933  -9.1444  -9.1245
    -9.0783  -9.0457  -9.0055  -8.9760  -8.9311  -8.9014  -8.8680  -8.8257
    -8.7491  -8.7040  -8.6746  -8.6006  -8.5620  -8.5395  -8.4691  -8.4316
    -8.3900  -8.2988  -8.2392  -8.1908  -8.1716  -8.1027  -8.0522  -8.0076
    -7.9624  -7.9436  -7.9318  -7.8790  -7.8591  -7.8306  -7.7072  -7.6963
    -7.6797  -7.6582  -7.6473  -7.6100  -7.5871  -7.5543  -7.5201  -7.5047
    -7.4624  -7.4445  -7.4361  -7.3253  -7.2826  -7.2389  -7.2224  -7.1989
    -7.1363  -7.0758  -7.0528  -6.9988  -6.9722  -6.9335  -6.8969  -6.8640
    -6.7770  -6.7543  -6.7027  -6.6672  -6.6572  -6.6347  -6.5990  -6.5703
    -6.5513  -6.5174  -6.4792  -6.4442  -6.4222  -6.3705  -6.3184  -6.2697
    -6.2244  -6.1881  -6.1520  -6.0615  -6.0091  -5.9456  -5.8949  -5.8788
    -5.8146  -5.7187  -5.5715  -5.4634  -5.4476  -5.3773  -5.2678  -5.2544
    -5.2395  -5.2275  -5.1940  -5.1815  -5.0108  -5.0030  -4.8759  -4.4730
    -3.7021  -3.3581  -3.1680  -2.9589  -2.7086  -2.1576  -2.0308  -1.7356
    -1.6075  -1.3111  -1.1282  -0.4902  -0.2458  -0.1980   0.2147   1.0503
     1.4348

     occupation numbers 
     1.0000   1.0000   1.0000   1.0000   1.0000   1.0000   1.0000   1.0000
     1.0000   1.0000   1.0000   1.0000   1.0000   1.0000   1.0000   1.0000
     1.0000   1.0000   1.0000   1.0000   1.0000   1.0000   1.0000   1.0000
     1.0000   1.0000   1.0000   1.0000   1.0000   1.0000   1.0000   1.0000
     1.0000   1.0000   1.0000   1.0000   1.0000   1.0000   1.0000   1.0000
     1.0000   1.0000   1.0000   1.0000   1.0000   1.0000   1.0000   1.0000
     1.0000   1.0000   1.0000   1.0000   1.0000   1.0000   1.0000   1.0000
     1.0000   1.0000   1.0000   1.0000   1.0000   1.0000   1.0000   1.0000
     1.0000   1.0000   1.0000   1.0000   1.0000   1.0000   1.0000   1.0000
     1.0000   1.0000   1.0000   1.0000   1.0000   1.0000   1.0000   1.0000
     1.0000   1.0000   1.0000   1.0000   1.0000   1.0000   1.0000   1.0000
     1.0000   1.0000   1.0000   1.0000   1.0000   1.0000   1.0000   1.0000
     1.0000   1.0000   1.0000   1.0000   1.0000   1.0000   1.0000   1.0000
     1.0000   1.0000   1.0000   1.0000   1.0001   1.0004   1.0013   1.0019
     1.0067   1.0293   1.0833   0.9796   0.9434   0.7239   0.3299   0.2895
     0.2479   0.2174   0.1453   0.1233   0.0063   0.0053   0.0002   0.0000
     0.0000   0.0000   0.0000   0.0000   0.0000   0.0000   0.0000   0.0000
     0.0000   0.0000   0.0000   0.0000   0.0000   0.0000   0.0000   0.0000
     0.0000

          k = 0.0625-0.4691 0.0000 ( 44509 PWs)   bands (ev):

   -11.6554 -11.3007 -10.7397 -10.6550 -10.3928 -10.2798 -10.2540 -10.2406
   -10.1976 -10.1312 -10.0782 -10.0402 -10.0152  -9.9664  -9.9346  -9.9125
    -9.7822  -9.7423  -9.7388  -9.7051  -9.6654  -9.6413  -9.6149  -9.5429
    -9.5350  -9.4760  -9.4314  -9.3680  -9.3065  -9.1849  -9.1602  -9.0977
    -9.0657  -9.0557  -9.0271  -9.0006  -8.9720  -8.9106  -8.8573  -8.8216
    -8.7267  -8.6522  -8.6063  -8.5723  -8.5208  -8.5112  -8.3919  -8.3470
    -8.2850  -8.1716  -8.1412  -8.1051  -8.0686  -8.0634  -8.0434  -8.0191
    -7.9910  -7.9182  -7.9107  -7.8929  -7.8745  -7.8353  -7.8053  -7.7204
    -7.6844  -7.6597  -7.5984  -7.5731  -7.5004  -7.4816  -7.4693  -7.4402
    -7.4146  -7.3760  -7.3186  -7.2592  -7.2478  -7.2048  -7.1767  -7.1426
    -7.0993  -7.0831  -7.0157  -6.9930  -6.9575  -6.8921  -6.8691  -6.8558
    -6.7785  -6.7248  -6.6834  -6.6353  -6.6239  -6.5238  -6.4935  -6.4675
    -6.4213  -6.3957  -6.3796  -6.3152  -6.2812  -6.2364  -6.2119  -6.1926
    -6.1239  -6.1040  -6.0782  -6.0000  -5.9459  -5.9015  -5.8404  -5.8172
    -5.7490  -5.5915  -5.5698  -5.4495  -5.4444  -5.3760  -5.2905  -5.2690
    -5.2652  -5.2146  -5.1861  -5.1722  -5.0336  -5.0097  -5.0018  -4.3306
    -3.7959  -3.4102  -3.2645  -2.9535  -2.5713  -2.2208  -2.0969  -1.8368
    -1.7374  -1.3498  -1.0103  -0.7482  -0.3622  -0.2495   0.6986   0.9459
     1.3993

     occupation numbers 
     1.0000   1.0000   1.0000   1.0000   1.0000   1.0000   1.0000   1.0000
     1.0000   1.0000   1.0000   1.0000   1.0000   1.0000   1.0000   1.0000
     1.0000   1.0000   1.0000   1.0000   1.0000   1.0000   1.0000   1.0000
     1.0000   1.0000   1.0000   1.0000   1.0000   1.0000   1.0000   1.0000
     1.0000   1.0000   1.0000   1.0000   1.0000   1.0000   1.0000   1.0000
     1.0000   1.0000   1.0000   1.0000   1.0000   1.0000   1.0000   1.0000
     1.0000   1.0000   1.0000   1.0000   1.0000   1.0000   1.0000   1.0000
     1.0000   1.0000   1.0000   1.0000   1.0000   1.0000   1.0000   1.0000
     1.0000   1.0000   1.0000   1.0000   1.0000   1.0000   1.0000   1.0000
     1.0000   1.0000   1.0000   1.0000   1.0000   1.0000   1.0000   1.0000
     1.0000   1.0000   1.0000   1.0000   1.0000   1.0000   1.0000   1.0000
     1.0000   1.0000   1.0000   1.0000   1.0000   1.0000   1.0000   1.0000
     1.0000   1.0000   1.0000   1.0000   1.0000   1.0000   1.0000   1.0000
     1.0000   1.0000   1.0000   1.0001   1.0004   1.0011   1.0041   1.0064
     1.0195   1.0813   1.0833   0.9480   0.9355   0.7193   0.4047   0.3336
     0.3219   0.1872   0.1311   0.1087   0.0102   0.0062   0.0052   0.0000
     0.0000   0.0000   0.0000   0.0000   0.0000   0.0000   0.0000   0.0000
     0.0000   0.0000   0.0000   0.0000   0.0000   0.0000   0.0000   0.0000
     0.0000

          k = 0.0625-0.3969 0.0000 ( 44528 PWs)   bands (ev):

   -11.7824 -11.5391 -10.9431 -10.6079 -10.4788 -10.3949 -10.3832 -10.3174
   -10.2924 -10.2602 -10.2045 -10.1588 -10.1552 -10.1102 -10.0628 -10.0360
    -9.9502  -9.9241  -9.8620  -9.8189  -9.7870  -9.7435  -9.7213  -9.6932
    -9.6672  -9.6123  -9.5815  -9.5143  -9.3473  -9.2727  -9.1939  -9.1627
    -9.1329  -9.1163  -9.0742  -8.9789  -8.8685  -8.8340  -8.8221  -8.7449
    -8.6538  -8.6337  -8.5736  -8.4812  -8.3884  -8.3535  -8.2572  -8.2351
    -8.2119  -8.1719  -8.1329  -8.0855  -8.0619  -8.0289  -7.9885  -7.9601
    -7.9345  -7.8893  -7.8633  -7.8386  -7.7933  -7.7660  -7.7490  -7.6987
    -7.6697  -7.6470  -7.6197  -7.5499  -7.5174  -7.4909  -7.4784  -7.4573
    -7.3968  -7.3410  -7.2727  -7.2266  -7.1761  -7.0713  -7.0545  -7.0057
    -6.9354  -6.9167  -6.9041  -6.8811  -6.8726  -6.8369  -6.8253  -6.7153
    -6.6869  -6.5553  -6.5254  -6.4963  -6.4882  -6.4826  -6.3075  -6.2825
    -6.2542  -6.2326  -6.2083  -6.1799  -6.1283  -6.0838  -6.0258  -6.0059
    -5.9809  -5.9581  -5.9271  -5.9016  -5.8605  -5.7831  -5.7616  -5.6697
    -5.5819  -5.4837  -5.4598  -5.4458  -5.3874  -5.3398  -5.3119  -5.2947
    -5.2722  -5.1996  -5.1841  -5.1632  -5.1431  -5.0077  -5.0018  -4.3282
    -3.8082  -3.4959  -3.3149  -3.0231  -2.6534  -2.2374  -2.1400  -1.8772
    -1.7978  -1.5690  -1.3571  -0.6643  -0.3698  -0.2291   0.5774   1.1946
     1.3799

     occupation numbers 
     1.0000   1.0000   1.0000   1.0000   1.0000   1.0000   1.0000   1.0000
     1.0000   1.0000   1.0000   1.0000   1.0000   1.0000   1.0000   1.0000
     1.0000   1.0000   1.0000   1.0000   1.0000   1.0000   1.0000   1.0000
     1.0000   1.0000   1.0000   1.0000   1.0000   1.0000   1.0000   1.0000
     1.0000   1.0000   1.0000   1.0000   1.0000   1.0000   1.0000   1.0000
     1.0000   1.0000   1.0000   1.0000   1.0000   1.0000   1.0000   1.0000
     1.0000   1.0000   1.0000   1.0000   1.0000   1.0000   1.0000   1.0000
     1.0000   1.0000   1.0000   1.0000   1.0000   1.0000   1.0000   1.0000
     1.0000   1.0000   1.0000   1.0000   1.0000   1.0000   1.0000   1.0000
     1.0000   1.0000   1.0000   1.0000   1.0000   1.0000   1.0000   1.0000
     1.0000   1.0000   1.0000   1.0000   1.0000   1.0000   1.0000   1.0000
     1.0000   1.0000   1.0000   1.0000   1.0000   1.0000   1.0000   1.0000
     1.0000   1.0000   1.0000   1.0000   1.0000   1.0000   1.0000   1.0001
     1.0002   1.0003   1.0006   1.0011   1.0028   1.0116   1.0162   1.0502
     1.0828   1.0178   0.9720   0.9391   0.7600   0.5844   0.4803   0.4189
     0.3439   0.1558   0.1276   0.0959   0.0713   0.0059   0.0052   0.0000
     0.0000   0.0000   0.0000   0.0000   0.0000   0.0000   0.0000   0.0000
     0.0000   0.0000   0.0000   0.0000   0.0000   0.0000   0.0000   0.0000
     0.0000

          k = 0.0625-0.3248 0.0000 ( 44578 PWs)   bands (ev):

   -11.9851 -11.7100 -11.1453 -10.6196 -10.5982 -10.5351 -10.5330 -10.4832
   -10.4073 -10.3866 -10.3445 -10.3094 -10.2692 -10.2631 -10.2042 -10.1592
   -10.1240 -10.0852 -10.0312  -9.9677  -9.9189  -9.8727  -9.8524  -9.8332
    -9.8206  -9.7317  -9.7157  -9.6439  -9.5147  -9.4211  -9.3648  -9.2389
    -9.2117  -9.1087  -8.9440  -8.9100  -8.8071  -8.7543  -8.7171  -8.6751
    -8.6371  -8.5284  -8.4667  -8.3755  -8.3237  -8.2495  -8.2179  -8.1914
    -8.1681  -8.1176  -8.0754  -8.0471  -8.0358  -8.0018  -7.9887  -7.9746
    -7.9515  -7.9332  -7.8749  -7.8460  -7.8278  -7.7694  -7.6898  -7.6772
    -7.6389  -7.5679  -7.5286  -7.5057  -7.4951  -7.4504  -7.4208  -7.4000
    -7.3491  -7.3392  -7.2849  -7.0756  -7.0234  -6.9647  -6.9338  -6.8923
    -6.8858  -6.8361  -6.7170  -6.6694  -6.6458  -6.6043  -6.5205  -6.4969
    -6.4689  -6.4368  -6.4124  -6.3699  -6.3541  -6.2762  -6.2338  -6.1154
    -6.0482  -6.0220  -5.9935  -5.9780  -5.9284  -5.8887  -5.8674  -5.8485
    -5.8269  -5.8021  -5.7792  -5.6950  -5.6745  -5.6609  -5.6137  -5.5568
    -5.4919  -5.4342  -5.4150  -5.3641  -5.3389  -5.3337  -5.3232  -5.2853
    -5.1910  -5.1687  -5.1562  -5.0298  -5.0054  -5.0007  -4.8107  -4.5107
    -3.8016  -3.5382  -3.2846  -3.1426  -2.8508  -2.3940  -2.2394  -1.9813
    -1.8692  -1.6947  -1.4537  -0.8356  -0.5058   0.0096   0.2354   0.8364
     1.0840

     occupation numbers 
     1.0000   1.0000   1.0000   1.0000   1.0000   1.0000   1.0000   1.0000
     1.0000   1.0000   1.0000   1.0000   1.0000   1.0000   1.0000   1.0000
     1.0000   1.0000   1.0000   1.0000   1.0000   1.0000   1.0000   1.0000
     1.0000   1.0000   1.0000   1.0000   1.0000   1.0000   1.0000   1.0000
     1.0000   1.0000   1.0000   1.0000   1.0000   1.0000   1.0000   1.0000
     1.0000   1.0000   1.0000   1.0000   1.0000   1.0000   1.0000   1.0000
     1.0000   1.0000   1.0000   1.0000   1.0000   1.0000   1.0000   1.0000
     1.0000   1.0000   1.0000   1.0000   1.0000   1.0000   1.0000   1.0000
     1.0000   1.0000   1.0000   1.0000   1.0000   1.0000   1.0000   1.0000
     1.0000   1.0000   1.0000   1.0000   1.0000   1.0000   1.0000   1.0000
     1.0000   1.0000   1.0000   1.0000   1.0000   1.0000   1.0000   1.0000
     1.0000   1.0000   1.0000   1.0000   1.0000   1.0000   1.0000   1.0000
     1.0000   1.0000   1.0001   1.0002   1.0006   1.0015   1.0024   1.0035
     1.0053   1.0084   1.0123   1.0388   1.0480   1.0543   1.0749   1.0818
     1.0305   0.9085   0.8521   0.6756   0.5808   0.5613   0.5221   0.3867
     0.1398   0.1035   0.0866   0.0095   0.0056   0.0051   0.0000   0.0000
     0.0000   0.0000   0.0000   0.0000   0.0000   0.0000   0.0000   0.0000
     0.0000   0.0000   0.0000   0.0000   0.0000   0.0000   0.0000   0.0000
     0.0000

          k = 0.0625-0.2526 0.0000 ( 44582 PWs)   bands (ev):

   -12.1972 -11.8472 -11.3190 -10.7162 -10.6878 -10.6698 -10.6593 -10.6300
   -10.5605 -10.5409 -10.4585 -10.4292 -10.3977 -10.3590 -10.3516 -10.2839
   -10.2354 -10.2280 -10.2044 -10.1150 -10.0563 -10.0098  -9.9609  -9.9501
    -9.9419  -9.8698  -9.8170  -9.7844  -9.6820  -9.5949  -9.4574  -9.2967
    -9.2820  -9.0955  -8.8794  -8.7739  -8.7383  -8.7257  -8.6526  -8.6007
    -8.5427  -8.4498  -8.3768  -8.3364  -8.2896  -8.2666  -8.2257  -8.1921
    -8.1531  -8.1196  -8.1068  -8.0353  -8.0303  -8.0238  -7.9875  -7.9572
    -7.9266  -7.8893  -7.8423  -7.8251  -7.8034  -7.7756  -7.7570  -7.6999
    -7.6434  -7.5916  -7.5375  -7.5106  -7.4950  -7.4610  -7.3783  -7.1719
    -7.1641  -7.0860  -7.0369  -6.9835  -6.8922  -6.8502  -6.8375  -6.8301
    -6.7733  -6.6746  -6.5732  -6.5378  -6.4708  -6.3806  -6.3437  -6.2966
    -6.2700  -6.2601  -6.2461  -6.1942  -6.1375  -6.1299  -6.0679  -5.9734
    -5.8849  -5.8602  -5.8405  -5.7549  -5.7254  -5.6963  -5.6762  -5.6593
    -5.6427  -5.6327  -5.5905  -5.5685  -5.5362  -5.5203  -5.4730  -5.4528
    -5.4019  -5.3922  -5.3448  -5.3361  -5.3309  -5.3261  -5.2977  -5.1905
    -5.1645  -5.1081  -5.0050  -5.0004  -4.9949  -4.8333  -4.4411  -4.1855
    -3.9591  -3.6627  -3.2719  -3.0782  -2.8966  -2.7091  -2.5418  -2.1901
    -1.9590  -1.6030  -1.3497  -1.0511  -0.6897  -0.3574   0.1350   0.3880
     0.7788

     occupation numbers 
     1.0000   1.0000   1.0000   1.0000   1.0000   1.0000   1.0000   1.0000
     1.0000   1.0000   1.0000   1.0000   1.0000   1.0000   1.0000   1.0000
     1.0000   1.0000   1.0000   1.0000   1.0000   1.0000   1.0000   1.0000
     1.0000   1.0000   1.0000   1.0000   1.0000   1.0000   1.0000   1.0000
     1.0000   1.0000   1.0000   1.0000   1.0000   1.0000   1.0000   1.0000
     1.0000   1.0000   1.0000   1.0000   1.0000   1.0000   1.0000   1.0000
     1.0000   1.0000   1.0000   1.0000   1.0000   1.0000   1.0000   1.0000
     1.0000   1.0000   1.0000   1.0000   1.0000   1.0000   1.0000   1.0000
     1.0000   1.0000   1.0000   1.0000   1.0000   1.0000   1.0000   1.0000
     1.0000   1.0000   1.0000   1.0000   1.0000   1.0000   1.0000   1.0000
     1.0000   1.0000   1.0000   1.0000   1.0000   1.0000   1.0000   1.0000
     1.0000   1.0000   1.0000   1.0000   1.0000   1.0000   1.0000   1.0002
     1.0016   1.0028   1.0041   1.0179   1.0269   1.0382   1.0472   1.0550
     1.0628   1.0673   1.0815   1.0832   1.0741   1.0631   0.9989   0.9560
     0.8098   0.7769   0.6032   0.5705   0.5510   0.5329   0.4297   0.1389
     0.0977   0.0408   0.0056   0.0051   0.0045   0.0001   0.0000   0.0000
     0.0000   0.0000   0.0000   0.0000   0.0000   0.0000   0.0000   0.0000
     0.0000   0.0000   0.0000   0.0000   0.0000   0.0000   0.0000   0.0000
     0.0000

          k = 0.0625-0.1804 0.0000 ( 44578 PWs)   bands (ev):

   -12.3729 -11.9650 -11.4528 -10.8397 -10.7988 -10.7845 -10.7665 -10.7042
   -10.6795 -10.6466 -10.5840 -10.5048 -10.4945 -10.4719 -10.4306 -10.4109
   -10.3678 -10.3574 -10.2765 -10.2326 -10.1779 -10.1343 -10.0394 -10.0357
   -10.0318  -9.9893  -9.9130  -9.8915  -9.8162  -9.7479  -9.5119  -9.3411
    -9.3390  -9.0876  -8.8228  -8.7751  -8.6850  -8.5962  -8.5762  -8.5463
    -8.4685  -8.4362  -8.3816  -8.3164  -8.2840  -8.2555  -8.2238  -8.1937
    -8.1688  -8.1509  -8.1484  -8.1462  -8.1072  -8.0277  -7.9744  -7.9408
    -7.8906  -7.8808  -7.8571  -7.8259  -7.7679  -7.7359  -7.6940  -7.6383
    -7.6147  -7.6119  -7.5640  -7.5242  -7.4785  -7.3720  -7.2364  -7.0427
    -6.9847  -6.9508  -6.8442  -6.8244  -6.8128  -6.7761  -6.7585  -6.7103
    -6.5954  -6.5305  -6.4987  -6.4659  -6.4055  -6.2937  -6.2397  -6.1794
    -6.1703  -6.1134  -6.0385  -5.9603  -5.9411  -5.8895  -5.8738  -5.8128
    -5.7953  -5.7582  -5.7249  -5.6732  -5.5655  -5.5410  -5.5335  -5.5201
    -5.5033  -5.4099  -5.4001  -5.3908  -5.3769  -5.3656  -5.3499  -5.3278
    -5.3127  -5.3054  -5.2989  -5.2931  -5.2703  -5.2476  -5.1748  -5.1593
    -5.1355  -5.0965  -5.0313  -4.9980  -4.9889  -4.5109  -4.3109  -3.8562
    -3.7735  -3.4512  -3.3786  -3.1770  -2.9314  -2.8302  -2.6018  -2.3221
    -2.0928  -1.6238  -1.2979  -1.0999  -0.9101  -0.8096  -0.5181   0.2845
     0.4323

     occupation numbers 
     1.0000   1.0000   1.0000   1.0000   1.0000   1.0000   1.0000   1.0000
     1.0000   1.0000   1.0000   1.0000   1.0000   1.0000   1.0000   1.0000
     1.0000   1.0000   1.0000   1.0000   1.0000   1.0000   1.0000   1.0000
     1.0000   1.0000   1.0000   1.0000   1.0000   1.0000   1.0000   1.0000
     1.0000   1.0000   1.0000   1.0000   1.0000   1.0000   1.0000   1.0000
     1.0000   1.0000   1.0000   1.0000   1.0000   1.0000   1.0000   1.0000
     1.0000   1.0000   1.0000   1.0000   1.0000   1.0000   1.0000   1.0000
     1.0000   1.0000   1.0000   1.0000   1.0000   1.0000   1.0000   1.0000
     1.0000   1.0000   1.0000   1.0000   1.0000   1.0000   1.0000   1.0000
     1.0000   1.0000   1.0000   1.0000   1.0000   1.0000   1.0000   1.0000
     1.0000   1.0000   1.0000   1.0000   1.0000   1.0000   1.0000   1.0000
     1.0000   1.0000   1.0000   1.0003   1.0004   1.0015   1.0021   1.0069
     1.0094   1.0171   1.0271   1.0486   1.0830   1.0766   1.0726   1.0630
     1.0458   0.8359   0.8038   0.7719   0.7225   0.6813   0.6223   0.5394
     0.4833   0.4570   0.4338   0.4136   0.3379   0.2700   0.1126   0.0907
     0.0635   0.0335   0.0098   0.0048   0.0039   0.0000   0.0000   0.0000
     0.0000   0.0000   0.0000   0.0000   0.0000   0.0000   0.0000   0.0000
     0.0000   0.0000   0.0000   0.0000   0.0000   0.0000   0.0000   0.0000
     0.0000

          k = 0.0625-0.1083 0.0000 ( 44583 PWs)   bands (ev):

   -12.4957 -12.0530 -11.5434 -10.9427 -10.8682 -10.8618 -10.8498 -10.8043
   -10.7163 -10.7100 -10.6768 -10.5585 -10.5572 -10.5467 -10.4974 -10.4870
   -10.4671 -10.4630 -10.3236 -10.3014 -10.2701 -10.2189 -10.1045 -10.0922
   -10.0880 -10.0696 -10.0069  -9.9446  -9.9034  -9.8569  -9.5474  -9.3801
    -9.3717  -9.0862  -8.7896  -8.7825  -8.6474  -8.5483  -8.5158  -8.4762
    -8.4683  -8.3928  -8.3618  -8.3507  -8.3348  -8.2394  -8.2130  -8.1993
    -8.1847  -8.1779  -8.1752  -8.1637  -8.1620  -8.0605  -8.0142  -7.9616
    -7.9581  -7.8441  -7.8139  -7.7802  -7.7487  -7.7217  -7.7088  -7.6760
    -7.5615  -7.5472  -7.5131  -7.4717  -7.3557  -7.3007  -7.1132  -7.0301
    -6.9734  -6.8662  -6.7394  -6.7049  -6.6972  -6.6869  -6.6708  -6.5341
    -6.5159  -6.4933  -6.4387  -6.4033  -6.3097  -6.2640  -6.2165  -6.1314
    -6.1157  -6.0170  -5.9201  -5.7977  -5.7678  -5.7448  -5.7277  -5.7128
    -5.7036  -5.6854  -5.5958  -5.5602  -5.4531  -5.4302  -5.4287  -5.4041
    -5.3931  -5.3497  -5.3067  -5.2884  -5.2801  -5.2772  -5.2692  -5.2508
    -5.2470  -5.2171  -5.2002  -5.1977  -5.1353  -5.1202  -5.1078  -5.0888
    -5.0582  -5.0476  -4.9704  -4.9593  -4.9560  -4.6428  -4.0214  -3.9887
    -3.7304  -3.3311  -3.1764  -3.1247  -2.7467  -2.6275  -2.5030  -2.2385
    -2.1558  -1.7345  -1.3456  -1.2608  -1.0997  -1.0710  -1.0455  -0.1458
    -0.0737

     occupation numbers 
     1.0000   1.0000   1.0000   1.0000   1.0000   1.0000   1.0000   1.0000
     1.0000   1.0000   1.0000   1.0000   1.0000   1.0000   1.0000   1.0000
     1.0000   1.0000   1.0000   1.0000   1.0000   1.0000   1.0000   1.0000
     1.0000   1.0000   1.0000   1.0000   1.0000   1.0000   1.0000   1.0000
     1.0000   1.0000   1.0000   1.0000   1.0000   1.0000   1.0000   1.0000
     1.0000   1.0000   1.0000   1.0000   1.0000   1.0000   1.0000   1.0000
     1.0000   1.0000   1.0000   1.0000   1.0000   1.0000   1.0000   1.0000
     1.0000   1.0000   1.0000   1.0000   1.0000   1.0000   1.0000   1.0000
     1.0000   1.0000   1.0000   1.0000   1.0000   1.0000   1.0000   1.0000
     1.0000   1.0000   1.0000   1.0000   1.0000   1.0000   1.0000   1.0000
     1.0000   1.0000   1.0000   1.0000   1.0000   1.0000   1.0000   1.0000
     1.0000   1.0001   1.0007   1.0090   1.0147   1.0207   1.0262   1.0316
     1.0352   1.0430   1.0803   1.0824   0.9566   0.8973   0.8929   0.8172
     0.7799   0.6216   0.4616   0.3972   0.3694   0.3598   0.3343   0.2791
     0.2684   0.1929   0.1571   0.1522   0.0633   0.0498   0.0406   0.0292
     0.0166   0.0135   0.0026   0.0020   0.0018   0.0000   0.0000   0.0000
     0.0000   0.0000   0.0000   0.0000   0.0000   0.0000   0.0000   0.0000
     0.0000   0.0000   0.0000   0.0000   0.0000   0.0000   0.0000   0.0000
     0.0000

          k = 0.1250-0.0722 0.0000 ( 44584 PWs)   bands (ev):

   -12.4621 -12.0149 -11.5098 -10.9133 -10.8558 -10.8372 -10.8288 -10.7786
   -10.7222 -10.6692 -10.6635 -10.5479 -10.5344 -10.5324 -10.4920 -10.4540
   -10.4454 -10.4358 -10.3186 -10.2696 -10.2485 -10.1914 -10.0966 -10.0778
   -10.0701 -10.0570  -9.9986  -9.9139  -9.8865  -9.8450  -9.5271  -9.3770
    -9.3606  -9.0800  -8.8129  -8.7806  -8.6487  -8.5716  -8.5206  -8.5068
    -8.4816  -8.3832  -8.3756  -8.3358  -8.3256  -8.2268  -8.2166  -8.2016
    -8.1871  -8.1712  -8.1693  -8.1637  -8.1506  -8.0447  -7.9963  -7.9607
    -7.9387  -7.8736  -7.8290  -7.7976  -7.7837  -7.7077  -7.6840  -7.6695
    -7.6124  -7.5406  -7.5246  -7.4954  -7.4213  -7.3389  -7.1108  -7.0169
    -6.9722  -6.9001  -6.7728  -6.7468  -6.7205  -6.7166  -6.7040  -6.5787
    -6.5224  -6.4976  -6.4886  -6.3913  -6.3201  -6.2896  -6.2212  -6.1452
    -6.1179  -6.0276  -5.9221  -5.8504  -5.8016  -5.7886  -5.7630  -5.7448
    -5.7322  -5.7154  -5.6166  -5.5926  -5.5179  -5.4594  -5.4573  -5.4143
    -5.3783  -5.3745  -5.3209  -5.3048  -5.2996  -5.2942  -5.2859  -5.2828
    -5.2583  -5.2459  -5.2373  -5.2060  -5.1879  -5.1815  -5.1270  -5.0988
    -5.0958  -5.0524  -4.9755  -4.9712  -4.9655  -4.6402  -4.3019  -3.7222
    -3.4910  -3.4384  -3.4291  -3.1457  -2.7808  -2.6295  -2.5024  -2.1100
    -2.0595  -1.8356  -1.7358  -1.2456  -1.0000  -0.9823  -0.3783  -0.3345
     0.1540

     occupation numbers 
     1.0000   1.0000   1.0000   1.0000   1.0000   1.0000   1.0000   1.0000
     1.0000   1.0000   1.0000   1.0000   1.0000   1.0000   1.0000   1.0000
     1.0000   1.0000   1.0000   1.0000   1.0000   1.0000   1.0000   1.0000
     1.0000   1.0000   1.0000   1.0000   1.0000   1.0000   1.0000   1.0000
     1.0000   1.0000   1.0000   1.0000   1.0000   1.0000   1.0000   1.0000
     1.0000   1.0000   1.0000   1.0000   1.0000   1.0000   1.0000   1.0000
     1.0000   1.0000   1.0000   1.0000   1.0000   1.0000   1.0000   1.0000
     1.0000   1.0000   1.0000   1.0000   1.0000   1.0000   1.0000   1.0000
     1.0000   1.0000   1.0000   1.0000   1.0000   1.0000   1.0000   1.0000
     1.0000   1.0000   1.0000   1.0000   1.0000   1.0000   1.0000   1.0000
     1.0000   1.0000   1.0000   1.0000   1.0000   1.0000   1.0000   1.0000
     1.0000   1.0000   1.0007   1.0034   1.0084   1.0105   1.0159   1.0207
     1.0246   1.0306   1.0738   1.0810   1.0610   0.9711   0.9665   0.8499
     0.7275   0.7137   0.5137   0.4549   0.4362   0.4172   0.3888   0.3786
     0.3008   0.2652   0.2421   0.1688   0.1343   0.1234   0.0556   0.0348
     0.0330   0.0148   0.0029   0.0026   0.0023   0.0000   0.0000   0.0000
     0.0000   0.0000   0.0000   0.0000   0.0000   0.0000   0.0000   0.0000
     0.0000   0.0000   0.0000   0.0000   0.0000   0.0000   0.0000   0.0000
     0.0000

          k = 0.1250 0.0000 0.0000 ( 44583 PWs)   bands (ev):

   -12.4933 -12.0383 -11.5324 -10.9396 -10.8680 -10.8645 -10.8476 -10.8040
   -10.7169 -10.7150 -10.6718 -10.5591 -10.5565 -10.5466 -10.5012 -10.4895
   -10.4690 -10.4566 -10.3220 -10.3036 -10.2646 -10.2112 -10.1122 -10.0915
   -10.0808 -10.0775 -10.0274  -9.9281  -9.8962  -9.8840  -9.5359  -9.3866
    -9.3689  -9.0800  -8.8116  -8.7731  -8.6463  -8.5763  -8.5002  -8.4783
    -8.4695  -8.3874  -8.3628  -8.3444  -8.3387  -8.2398  -8.2170  -8.2028
    -8.1871  -8.1755  -8.1740  -8.1632  -8.1597  -8.0643  -7.9864  -7.9657
    -7.9581  -7.8816  -7.8255  -7.7962  -7.7295  -7.7228  -7.7124  -7.6816
    -7.5700  -7.5421  -7.5195  -7.4581  -7.3969  -7.2967  -7.1021  -6.9886
    -6.9793  -6.9031  -6.7452  -6.7166  -6.6978  -6.6903  -6.6713  -6.5375
    -6.4997  -6.4883  -6.4516  -6.3767  -6.3049  -6.2728  -6.2281  -6.1246
    -6.1102  -6.0278  -5.8939  -5.8240  -5.7472  -5.7412  -5.7245  -5.7131
    -5.6993  -5.6865  -5.5775  -5.5629  -5.4755  -5.4345  -5.4236  -5.3976
    -5.3914  -5.3564  -5.2998  -5.2884  -5.2791  -5.2748  -5.2672  -5.2585
    -5.2484  -5.2166  -5.2046  -5.1973  -5.1530  -5.1166  -5.1039  -5.0836
    -5.0670  -5.0409  -4.9736  -4.9599  -4.9570  -4.6421  -4.0385  -3.9775
    -3.7053  -3.2976  -3.2471  -3.0967  -2.7400  -2.6135  -2.3752  -2.3580
    -2.1324  -1.6013  -1.3125  -1.2655  -1.1690  -1.0729  -1.0331  -0.1807
    -0.0710

     occupation numbers 
     1.0000   1.0000   1.0000   1.0000   1.0000   1.0000   1.0000   1.0000
     1.0000   1.0000   1.0000   1.0000   1.0000   1.0000   1.0000   1.0000
     1.0000   1.0000   1.0000   1.0000   1.0000   1.0000   1.0000   1.0000
     1.0000   1.0000   1.0000   1.0000   1.0000   1.0000   1.0000   1.0000
     1.0000   1.0000   1.0000   1.0000   1.0000   1.0000   1.0000   1.0000
     1.0000   1.0000   1.0000   1.0000   1.0000   1.0000   1.0000   1.0000
     1.0000   1.0000   1.0000   1.0000   1.0000   1.0000   1.0000   1.0000
     1.0000   1.0000   1.0000   1.0000   1.0000   1.0000   1.0000   1.0000
     1.0000   1.0000   1.0000   1.0000   1.0000   1.0000   1.0000   1.0000
     1.0000   1.0000   1.0000   1.0000   1.0000   1.0000   1.0000   1.0000
     1.0000   1.0000   1.0000   1.0000   1.0000   1.0000   1.0000   1.0000
     1.0000   1.0000   1.0013   1.0057   1.0200   1.0218   1.0273   1.0314
     1.0370   1.0425   1.0831   1.0828   1.0035   0.9093   0.8780   0.7954
     0.7742   0.6470   0.4371   0.3973   0.3662   0.3520   0.3280   0.3016
     0.2723   0.1916   0.1658   0.1515   0.0827   0.0469   0.0380   0.0266
     0.0196   0.0118   0.0028   0.0020   0.0019   0.0000   0.0000   0.0000
     0.0000   0.0000   0.0000   0.0000   0.0000   0.0000   0.0000   0.0000
     0.0000   0.0000   0.0000   0.0000   0.0000   0.0000   0.0000   0.0000
     0.0000

          k = 0.1250 0.0722 0.0000 ( 44584 PWs)   bands (ev):

   -12.4621 -12.0149 -11.5098 -10.9133 -10.8558 -10.8372 -10.8288 -10.7786
   -10.7222 -10.6692 -10.6635 -10.5479 -10.5344 -10.5324 -10.4920 -10.4540
   -10.4454 -10.4358 -10.3186 -10.2696 -10.2485 -10.1914 -10.0966 -10.0778
   -10.0701 -10.0570  -9.9986  -9.9139  -9.8865  -9.8450  -9.5271  -9.3770
    -9.3606  -9.0800  -8.8129  -8.7806  -8.6487  -8.5716  -8.5206  -8.5068
    -8.4816  -8.3832  -8.3756  -8.3358  -8.3256  -8.2268  -8.2166  -8.2016
    -8.1871  -8.1712  -8.1693  -8.1637  -8.1506  -8.0447  -7.9963  -7.9607
    -7.9387  -7.8736  -7.8290  -7.7976  -7.7837  -7.7077  -7.6840  -7.6695
    -7.6124  -7.5406  -7.5246  -7.4954  -7.4213  -7.3389  -7.1108  -7.0169
    -6.9722  -6.9001  -6.7728  -6.7468  -6.7205  -6.7166  -6.7040  -6.5787
    -6.5224  -6.4976  -6.4886  -6.3913  -6.3201  -6.2896  -6.2212  -6.1452
    -6.1179  -6.0276  -5.9221  -5.8504  -5.8016  -5.7886  -5.7630  -5.7448
    -5.7322  -5.7154  -5.6166  -5.5926  -5.5179  -5.4594  -5.4573  -5.4143
    -5.3783  -5.3745  -5.3209  -5.3048  -5.2996  -5.2942  -5.2859  -5.2828
    -5.2583  -5.2459  -5.2373  -5.2060  -5.1879  -5.1815  -5.1270  -5.0988
    -5.0958  -5.0524  -4.9755  -4.9712  -4.9655  -4.6402  -4.3019  -3.7222
    -3.4910  -3.4384  -3.4291  -3.1457  -2.7808  -2.6295  -2.5024  -2.1100
    -2.0595  -1.8356  -1.7358  -1.2456  -1.0000  -0.9823  -0.3783  -0.3345
     0.1540

     occupation numbers 
     1.0000   1.0000   1.0000   1.0000   1.0000   1.0000   1.0000   1.0000
     1.0000   1.0000   1.0000   1.0000   1.0000   1.0000   1.0000   1.0000
     1.0000   1.0000   1.0000   1.0000   1.0000   1.0000   1.0000   1.0000
     1.0000   1.0000   1.0000   1.0000   1.0000   1.0000   1.0000   1.0000
     1.0000   1.0000   1.0000   1.0000   1.0000   1.0000   1.0000   1.0000
     1.0000   1.0000   1.0000   1.0000   1.0000   1.0000   1.0000   1.0000
     1.0000   1.0000   1.0000   1.0000   1.0000   1.0000   1.0000   1.0000
     1.0000   1.0000   1.0000   1.0000   1.0000   1.0000   1.0000   1.0000
     1.0000   1.0000   1.0000   1.0000   1.0000   1.0000   1.0000   1.0000
     1.0000   1.0000   1.0000   1.0000   1.0000   1.0000   1.0000   1.0000
     1.0000   1.0000   1.0000   1.0000   1.0000   1.0000   1.0000   1.0000
     1.0000   1.0000   1.0007   1.0034   1.0084   1.0105   1.0159   1.0207
     1.0246   1.0306   1.0738   1.0810   1.0610   0.9711   0.9665   0.8499
     0.7275   0.7137   0.5137   0.4549   0.4362   0.4172   0.3888   0.3786
     0.3008   0.2652   0.2421   0.1688   0.1343   0.1234   0.0556   0.0348
     0.0330   0.0148   0.0029   0.0026   0.0023   0.0000   0.0000   0.0000
     0.0000   0.0000   0.0000   0.0000   0.0000   0.0000   0.0000   0.0000
     0.0000   0.0000   0.0000   0.0000   0.0000   0.0000   0.0000   0.0000
     0.0000

          k = 0.1250 0.1443 0.0000 ( 44578 PWs)   bands (ev):

   -12.3699 -11.9479 -11.4426 -10.8366 -10.8017 -10.7824 -10.7658 -10.7038
   -10.6875 -10.6401 -10.5840 -10.5053 -10.4941 -10.4717 -10.4402 -10.4021
   -10.3679 -10.3571 -10.2772 -10.2321 -10.1748 -10.1271 -10.0486 -10.0358
   -10.0298 -10.0048  -9.9196  -9.8655  -9.8427  -9.7498  -9.5006  -9.3490
    -9.3361  -9.0811  -8.8207  -8.7971  -8.6802  -8.5930  -8.5757  -8.5381
    -8.5074  -8.4371  -8.3608  -8.3117  -8.2880  -8.2575  -8.2219  -8.1924
    -8.1756  -8.1501  -8.1481  -8.1465  -8.1071  -8.0257  -7.9793  -7.9484
    -7.8919  -7.8778  -7.8574  -7.8311  -7.7953  -7.7315  -7.6900  -7.6388
    -7.6112  -7.6008  -7.5747  -7.5366  -7.4653  -7.4192  -7.2116  -7.0123
    -6.9958  -6.9555  -6.8561  -6.8311  -6.8086  -6.7732  -6.7599  -6.7269
    -6.6044  -6.5322  -6.4888  -6.4734  -6.3782  -6.2848  -6.2436  -6.1938
    -6.1604  -6.1092  -6.0360  -5.9589  -5.9453  -5.8929  -5.8747  -5.8170
    -5.7728  -5.7605  -5.7152  -5.6819  -5.5764  -5.5367  -5.5300  -5.5189
    -5.5040  -5.4125  -5.3991  -5.3929  -5.3754  -5.3687  -5.3498  -5.3268
    -5.3115  -5.3033  -5.2984  -5.2968  -5.2727  -5.2472  -5.1806  -5.1548
    -5.1383  -5.0957  -5.0325  -4.9941  -4.9913  -4.5868  -4.2184  -3.8688
    -3.7769  -3.4835  -3.2583  -3.2058  -2.9041  -2.8164  -2.6727  -2.2281
    -2.0990  -1.6366  -1.3045  -1.0952  -0.8987  -0.8233  -0.5236   0.2849
     0.4527

     occupation numbers 
     1.0000   1.0000   1.0000   1.0000   1.0000   1.0000   1.0000   1.0000
     1.0000   1.0000   1.0000   1.0000   1.0000   1.0000   1.0000   1.0000
     1.0000   1.0000   1.0000   1.0000   1.0000   1.0000   1.0000   1.0000
     1.0000   1.0000   1.0000   1.0000   1.0000   1.0000   1.0000   1.0000
     1.0000   1.0000   1.0000   1.0000   1.0000   1.0000   1.0000   1.0000
     1.0000   1.0000   1.0000   1.0000   1.0000   1.0000   1.0000   1.0000
     1.0000   1.0000   1.0000   1.0000   1.0000   1.0000   1.0000   1.0000
     1.0000   1.0000   1.0000   1.0000   1.0000   1.0000   1.0000   1.0000
     1.0000   1.0000   1.0000   1.0000   1.0000   1.0000   1.0000   1.0000
     1.0000   1.0000   1.0000   1.0000   1.0000   1.0000   1.0000   1.0000
     1.0000   1.0000   1.0000   1.0000   1.0000   1.0000   1.0000   1.0000
     1.0000   1.0000   1.0000   1.0003   1.0004   1.0014   1.0020   1.0064
     1.0136   1.0165   1.0306   1.0446   1.0832   1.0744   1.0704   1.0620
     1.0465   0.8443   0.8004   0.7792   0.7172   0.6925   0.6219   0.5354
     0.4789   0.4493   0.4320   0.4264   0.3455   0.2690   0.1219   0.0849
     0.0663   0.0330   0.0100   0.0044   0.0041   0.0000   0.0000   0.0000
     0.0000   0.0000   0.0000   0.0000   0.0000   0.0000   0.0000   0.0000
     0.0000   0.0000   0.0000   0.0000   0.0000   0.0000   0.0000   0.0000
     0.0000

          k = 0.1250 0.2165 0.0000 ( 44571 PWs)   bands (ev):

   -12.2211 -11.8458 -11.3319 -10.7214 -10.7095 -10.6915 -10.6692 -10.6143
   -10.6032 -10.5827 -10.4655 -10.4318 -10.4293 -10.3685 -10.3434 -10.3336
   -10.2510 -10.2316 -10.1946 -10.1857 -10.0679 -10.0144  -9.9722  -9.9689
    -9.9573  -9.9187  -9.8063  -9.7945  -9.7457  -9.6096  -9.4554  -9.3041
    -9.2970  -9.0864  -8.8630  -8.7965  -8.7440  -8.6929  -8.6666  -8.5804
    -8.5247  -8.4545  -8.3726  -8.3197  -8.2777  -8.2697  -8.2345  -8.2061
    -8.1674  -8.1265  -8.1124  -8.0461  -8.0410  -8.0332  -7.9907  -7.9402
    -7.9040  -7.8742  -7.8606  -7.8511  -7.8190  -7.7846  -7.7473  -7.6674
    -7.6420  -7.5968  -7.5575  -7.5251  -7.4989  -7.4592  -7.3422  -7.1343
    -7.1153  -7.0924  -7.0011  -6.9474  -6.8935  -6.8489  -6.8398  -6.8049
    -6.7436  -6.6074  -6.5770  -6.5289  -6.4833  -6.3588  -6.3009  -6.2640
    -6.2502  -6.2390  -6.1970  -6.1762  -6.1195  -6.1030  -6.0307  -5.9144
    -5.8913  -5.8697  -5.8431  -5.8194  -5.6916  -5.6726  -5.6483  -5.6046
    -5.5860  -5.5552  -5.5498  -5.5404  -5.5179  -5.5083  -5.4600  -5.4280
    -5.4249  -5.3912  -5.3678  -5.3556  -5.3386  -5.3280  -5.2447  -5.2401
    -5.1713  -5.0657  -5.0604  -5.0308  -4.8730  -4.4327  -4.3724  -4.0736
    -3.8652  -3.7628  -3.5222  -3.5034  -2.9312  -2.6335  -2.5284  -2.3238
    -1.7910  -1.3468  -1.0164  -0.9707  -0.7385  -0.5343  -0.4183   0.4851
     0.6965

     occupation numbers 
     1.0000   1.0000   1.0000   1.0000   1.0000   1.0000   1.0000   1.0000
     1.0000   1.0000   1.0000   1.0000   1.0000   1.0000   1.0000   1.0000
     1.0000   1.0000   1.0000   1.0000   1.0000   1.0000   1.0000   1.0000
     1.0000   1.0000   1.0000   1.0000   1.0000   1.0000   1.0000   1.0000
     1.0000   1.0000   1.0000   1.0000   1.0000   1.0000   1.0000   1.0000
     1.0000   1.0000   1.0000   1.0000   1.0000   1.0000   1.0000   1.0000
     1.0000   1.0000   1.0000   1.0000   1.0000   1.0000   1.0000   1.0000
     1.0000   1.0000   1.0000   1.0000   1.0000   1.0000   1.0000   1.0000
     1.0000   1.0000   1.0000   1.0000   1.0000   1.0000   1.0000   1.0000
     1.0000   1.0000   1.0000   1.0000   1.0000   1.0000   1.0000   1.0000
     1.0000   1.0000   1.0000   1.0000   1.0000   1.0000   1.0000   1.0000
     1.0000   1.0000   1.0000   1.0000   1.0000   1.0000   1.0000   1.0008
     1.0014   1.0023   1.0039   1.0061   1.0403   1.0488   1.0602   1.0779
     1.0822   1.0814   1.0800   1.0763   1.0611   1.0515   0.9723   0.8910
     0.8821   0.7733   0.6892   0.6437   0.5798   0.5400   0.2619   0.2495
     0.1074   0.0192   0.0173   0.0096   0.0002   0.0000   0.0000   0.0000
     0.0000   0.0000   0.0000   0.0000   0.0000   0.0000   0.0000   0.0000
     0.0000   0.0000   0.0000   0.0000   0.0000   0.0000   0.0000   0.0000
     0.0000

          k = 0.1250 0.2887 0.0000 ( 44582 PWs)   bands (ev):

   -12.0262 -11.7203 -11.1793 -10.6050 -10.5800 -10.5780 -10.5656 -10.5154
   -10.5012 -10.4254 -10.3465 -10.3267 -10.3201 -10.2515 -10.2228 -10.2052
   -10.1361 -10.1155 -10.0749 -10.0644  -9.9392  -9.8889  -9.8797  -9.8631
    -9.8447  -9.7986  -9.7141  -9.6622  -9.6019  -9.4458  -9.3790  -9.2481
    -9.2410  -9.0993  -8.9305  -8.8369  -8.8197  -8.7877  -8.7533  -8.6516
    -8.6153  -8.4619  -8.4165  -8.3806  -8.3242  -8.2402  -8.2207  -8.2122
    -8.1854  -8.1146  -8.1008  -8.0664  -8.0362  -7.9965  -7.9687  -7.9603
    -7.9552  -7.9312  -7.8836  -7.8433  -7.8314  -7.7931  -7.7420  -7.7108
    -7.6583  -7.5688  -7.5353  -7.4656  -7.4623  -7.4313  -7.3872  -7.3479
    -7.3404  -7.3054  -7.2551  -7.0259  -6.9936  -6.9240  -6.8983  -6.8790
    -6.8526  -6.7785  -6.7202  -6.6657  -6.5879  -6.5444  -6.4675  -6.4467
    -6.4201  -6.3874  -6.3691  -6.3345  -6.3211  -6.2898  -6.1988  -6.1475
    -6.0307  -5.9851  -5.9516  -5.9230  -5.9116  -5.8857  -5.8600  -5.8070
    -5.7637  -5.7406  -5.6994  -5.6493  -5.6206  -5.5766  -5.5618  -5.4630
    -5.4458  -5.4201  -5.3987  -5.3917  -5.3726  -5.3616  -5.3412  -5.2550
    -5.1957  -5.1402  -5.0710  -5.0589  -4.8513  -4.6454  -4.4727  -4.2567
    -4.1825  -3.9549  -3.6953  -3.3232  -3.0045  -2.6118  -2.2870  -1.8931
    -1.5947  -1.3057  -1.0340  -0.8765  -0.5135  -0.0855   0.2038   0.3821
     0.7838

     occupation numbers 
     1.0000   1.0000   1.0000   1.0000   1.0000   1.0000   1.0000   1.0000
     1.0000   1.0000   1.0000   1.0000   1.0000   1.0000   1.0000   1.0000
     1.0000   1.0000   1.0000   1.0000   1.0000   1.0000   1.0000   1.0000
     1.0000   1.0000   1.0000   1.0000   1.0000   1.0000   1.0000   1.0000
     1.0000   1.0000   1.0000   1.0000   1.0000   1.0000   1.0000   1.0000
     1.0000   1.0000   1.0000   1.0000   1.0000   1.0000   1.0000   1.0000
     1.0000   1.0000   1.0000   1.0000   1.0000   1.0000   1.0000   1.0000
     1.0000   1.0000   1.0000   1.0000   1.0000   1.0000   1.0000   1.0000
     1.0000   1.0000   1.0000   1.0000   1.0000   1.0000   1.0000   1.0000
     1.0000   1.0000   1.0000   1.0000   1.0000   1.0000   1.0000   1.0000
     1.0000   1.0000   1.0000   1.0000   1.0000   1.0000   1.0000   1.0000
     1.0000   1.0000   1.0000   1.0000   1.0000   1.0000   1.0000   1.0000
     1.0000   1.0001   1.0003   1.0007   1.0009   1.0016   1.0028   1.0077
     1.0157   1.0220   1.0370   1.0598   1.0723   1.0832   1.0826   0.9788
     0.9389   0.8676   0.7991   0.7752   0.7069   0.6662   0.5895   0.2911
     0.1485   0.0682   0.0212   0.0168   0.0001   0.0000   0.0000   0.0000
     0.0000   0.0000   0.0000   0.0000   0.0000   0.0000   0.0000   0.0000
     0.0000   0.0000   0.0000   0.0000   0.0000   0.0000   0.0000   0.0000
     0.0000

          k = 0.1250 0.3608 0.0000 ( 44558 PWs)   bands (ev):

   -11.8129 -11.5726 -10.9909 -10.5488 -10.4807 -10.4366 -10.4260 -10.3722
   -10.3353 -10.2628 -10.2418 -10.1920 -10.1678 -10.1624 -10.0632 -10.0493
   -10.0336  -9.9732  -9.9311  -9.8943  -9.8117  -9.7839  -9.7501  -9.7314
    -9.6931  -9.6630  -9.6090  -9.5278  -9.4261  -9.3291  -9.2163  -9.1882
    -9.1649  -9.1095  -9.0162  -8.9684  -8.8930  -8.8496  -8.7905  -8.7637
    -8.6674  -8.5941  -8.4940  -8.4193  -8.3478  -8.3346  -8.2805  -8.2368
    -8.1915  -8.1870  -8.1678  -8.1261  -8.0889  -8.0310  -7.9856  -7.9449
    -7.9336  -7.9057  -7.8767  -7.8460  -7.8343  -7.7933  -7.7137  -7.7021
    -7.6861  -7.6331  -7.5783  -7.5507  -7.5279  -7.5038  -7.4606  -7.4324
    -7.3689  -7.2811  -7.2432  -7.1999  -7.1584  -7.0627  -6.9840  -6.9482
    -6.9244  -6.9025  -6.8703  -6.8468  -6.8118  -6.7484  -6.7380  -6.7063
    -6.6982  -6.5645  -6.4912  -6.4667  -6.4494  -6.4236  -6.3203  -6.2588
    -6.2035  -6.1962  -6.1819  -6.1433  -6.0983  -6.0135  -5.9861  -5.9442
    -5.8917  -5.8739  -5.8344  -5.8122  -5.7172  -5.6764  -5.6451  -5.5686
    -5.4831  -5.4658  -5.4067  -5.3946  -5.3859  -5.3489  -5.2821  -5.2422
    -5.2251  -5.2073  -5.1873  -5.0764  -5.0724  -4.9996  -4.7797  -4.3646
    -4.0945  -3.8899  -3.6562  -3.4324  -2.9231  -2.4781  -1.9664  -1.6738
    -1.5714  -1.2322  -0.9702  -0.7591  -0.2494   0.0524   0.5004   0.8319
     0.9330

     occupation numbers 
     1.0000   1.0000   1.0000   1.0000   1.0000   1.0000   1.0000   1.0000
     1.0000   1.0000   1.0000   1.0000   1.0000   1.0000   1.0000   1.0000
     1.0000   1.0000   1.0000   1.0000   1.0000   1.0000   1.0000   1.0000
     1.0000   1.0000   1.0000   1.0000   1.0000   1.0000   1.0000   1.0000
     1.0000   1.0000   1.0000   1.0000   1.0000   1.0000   1.0000   1.0000
     1.0000   1.0000   1.0000   1.0000   1.0000   1.0000   1.0000   1.0000
     1.0000   1.0000   1.0000   1.0000   1.0000   1.0000   1.0000   1.0000
     1.0000   1.0000   1.0000   1.0000   1.0000   1.0000   1.0000   1.0000
     1.0000   1.0000   1.0000   1.0000   1.0000   1.0000   1.0000   1.0000
     1.0000   1.0000   1.0000   1.0000   1.0000   1.0000   1.0000   1.0000
     1.0000   1.0000   1.0000   1.0000   1.0000   1.0000   1.0000   1.0000
     1.0000   1.0000   1.0000   1.0000   1.0000   1.0000   1.0000   1.0000
     1.0000   1.0000   1.0000   1.0000   1.0000   1.0001   1.0001   1.0004
     1.0014   1.0021   1.0046   1.0070   1.0299   1.0471   1.0617   1.0832
     1.0169   0.9846   0.8257   0.7852   0.7547   0.6187   0.3762   0.2550
     0.2114   0.1714   0.1333   0.0234   0.0217   0.0050   0.0000   0.0000
     0.0000   0.0000   0.0000   0.0000   0.0000   0.0000   0.0000   0.0000
     0.0000   0.0000   0.0000   0.0000   0.0000   0.0000   0.0000   0.0000
     0.0000

          k = 0.1250 0.4330 0.0000 ( 44545 PWs)   bands (ev):

   -11.6473 -11.3676 -10.7841 -10.5599 -10.3636 -10.2999 -10.2736 -10.2311
   -10.2274 -10.1798 -10.0854 -10.0493 -10.0340 -10.0193  -9.9524  -9.9070
    -9.8578  -9.7981  -9.7908  -9.7494  -9.6880  -9.6724  -9.6567  -9.5882
    -9.5456  -9.5288  -9.4863  -9.3977  -9.2658  -9.2261  -9.1736  -9.1339
    -9.1083  -9.0762  -9.0397  -8.9791  -8.9434  -8.9376  -8.9036  -8.8176
    -8.7268  -8.6480  -8.5802  -8.5292  -8.4785  -8.4716  -8.3811  -8.3162
    -8.2875  -8.2272  -8.1997  -8.1264  -8.0913  -8.0754  -8.0363  -8.0049
    -7.9936  -7.9220  -7.9014  -7.8922  -7.8636  -7.8349  -7.8182  -7.7772
    -7.7407  -7.7055  -7.6794  -7.5395  -7.4894  -7.4732  -7.4560  -7.4286
    -7.3695  -7.3379  -7.2851  -7.2587  -7.2282  -7.1280  -7.1144  -7.1022
    -7.0835  -7.0454  -7.0293  -6.9726  -6.9545  -6.9175  -6.8345  -6.8300
    -6.8002  -6.7223  -6.6306  -6.5853  -6.5739  -6.5539  -6.4772  -6.4013
    -6.3509  -6.3358  -6.3218  -6.2596  -6.1978  -6.1874  -6.1321  -6.0658
    -6.0266  -5.9871  -5.9637  -5.9095  -5.8201  -5.7488  -5.7368  -5.6455
    -5.6086  -5.4941  -5.4724  -5.4169  -5.4003  -5.3810  -5.3574  -5.3430
    -5.2625  -5.2513  -5.2365  -5.2096  -5.0831  -5.0745  -5.0063  -4.2773
    -3.9983  -3.8197  -3.7176  -3.4747  -2.7417  -2.2942  -2.1363  -1.4705
    -1.3174  -1.0701  -0.8946  -0.6508  -0.3967   0.1729   0.8220   1.0279
     1.1875

     occupation numbers 
     1.0000   1.0000   1.0000   1.0000   1.0000   1.0000   1.0000   1.0000
     1.0000   1.0000   1.0000   1.0000   1.0000   1.0000   1.0000   1.0000
     1.0000   1.0000   1.0000   1.0000   1.0000   1.0000   1.0000   1.0000
     1.0000   1.0000   1.0000   1.0000   1.0000   1.0000   1.0000   1.0000
     1.0000   1.0000   1.0000   1.0000   1.0000   1.0000   1.0000   1.0000
     1.0000   1.0000   1.0000   1.0000   1.0000   1.0000   1.0000   1.0000
     1.0000   1.0000   1.0000   1.0000   1.0000   1.0000   1.0000   1.0000
     1.0000   1.0000   1.0000   1.0000   1.0000   1.0000   1.0000   1.0000
     1.0000   1.0000   1.0000   1.0000   1.0000   1.0000   1.0000   1.0000
     1.0000   1.0000   1.0000   1.0000   1.0000   1.0000   1.0000   1.0000
     1.0000   1.0000   1.0000   1.0000   1.0000   1.0000   1.0000   1.0000
     1.0000   1.0000   1.0000   1.0000   1.0000   1.0000   1.0000   1.0000
     1.0000   1.0000   1.0000   1.0000   1.0000   1.0000   1.0000   1.0000
     1.0000   1.0001   1.0002   1.0009   1.0061   1.0196   1.0232   1.0615
     1.0767   1.0338   0.9978   0.8579   0.8044   0.7372   0.6508   0.5964
     0.3136   0.2806   0.2400   0.1764   0.0264   0.0226   0.0058   0.0000
     0.0000   0.0000   0.0000   0.0000   0.0000   0.0000   0.0000   0.0000
     0.0000   0.0000   0.0000   0.0000   0.0000   0.0000   0.0000   0.0000
     0.0000

          k = 0.1250-0.6495 0.0000 ( 44477 PWs)   bands (ev):

   -11.5626 -11.1056 -10.6588 -10.5825 -10.3387 -10.1857 -10.1605 -10.1474
   -10.1155 -10.0993  -9.9887  -9.9631  -9.9194  -9.8997  -9.8329  -9.8138
    -9.7438  -9.6656  -9.6401  -9.6325  -9.6257  -9.5619  -9.5405  -9.4595
    -9.4340  -9.3969  -9.3611  -9.3299  -9.2603  -9.1826  -9.1705  -9.1351
    -9.1120  -9.0716  -9.0428  -8.9802  -8.9394  -8.9113  -8.8818  -8.8686
    -8.7649  -8.6958  -8.6714  -8.6189  -8.5858  -8.5415  -8.4843  -8.3938
    -8.3494  -8.3246  -8.2471  -8.2125  -8.1632  -8.1293  -8.1018  -8.0401
    -8.0078  -7.9816  -7.9630  -7.9366  -7.9017  -7.8446  -7.8124  -7.7571
    -7.7295  -7.7008  -7.6433  -7.6309  -7.6195  -7.5875  -7.5419  -7.4982
    -7.4782  -7.4193  -7.3558  -7.3057  -7.2764  -7.2440  -7.2215  -7.1862
    -7.1572  -7.0981  -7.0279  -6.9665  -6.9482  -6.9045  -6.8887  -6.8343
    -6.8115  -6.7206  -6.6947  -6.6783  -6.6512  -6.6149  -6.5631  -6.5200
    -6.4930  -6.4203  -6.3935  -6.3662  -6.3268  -6.2476  -6.2003  -6.1427
    -6.1226  -6.1019  -6.0590  -6.0096  -5.9731  -5.8272  -5.7917  -5.7589
    -5.7368  -5.6332  -5.6051  -5.4747  -5.4403  -5.3987  -5.3475  -5.3272
    -5.3152  -5.2820  -5.2590  -5.2490  -5.0860  -5.0748  -4.8575  -4.3302
    -3.9745  -3.8904  -3.6171  -3.3294  -2.7682  -2.3777  -1.9399  -1.4034
    -1.2164  -0.9585  -0.7873  -0.5828  -0.4426   0.3336   0.6067   0.8948
     1.5151

     occupation numbers 
     1.0000   1.0000   1.0000   1.0000   1.0000   1.0000   1.0000   1.0000
     1.0000   1.0000   1.0000   1.0000   1.0000   1.0000   1.0000   1.0000
     1.0000   1.0000   1.0000   1.0000   1.0000   1.0000   1.0000   1.0000
     1.0000   1.0000   1.0000   1.0000   1.0000   1.0000   1.0000   1.0000
     1.0000   1.0000   1.0000   1.0000   1.0000   1.0000   1.0000   1.0000
     1.0000   1.0000   1.0000   1.0000   1.0000   1.0000   1.0000   1.0000
     1.0000   1.0000   1.0000   1.0000   1.0000   1.0000   1.0000   1.0000
     1.0000   1.0000   1.0000   1.0000   1.0000   1.0000   1.0000   1.0000
     1.0000   1.0000   1.0000   1.0000   1.0000   1.0000   1.0000   1.0000
     1.0000   1.0000   1.0000   1.0000   1.0000   1.0000   1.0000   1.0000
     1.0000   1.0000   1.0000   1.0000   1.0000   1.0000   1.0000   1.0000
     1.0000   1.0000   1.0000   1.0000   1.0000   1.0000   1.0000   1.0000
     1.0000   1.0000   1.0000   1.0000   1.0000   1.0000   1.0000   1.0000
     1.0000   1.0000   1.0000   1.0001   1.0002   1.0053   1.0100   1.0169
     1.0231   1.0671   1.0778   1.0020   0.9249   0.7991   0.6135   0.5371
     0.4927   0.3758   0.3030   0.2738   0.0278   0.0227   0.0001   0.0000
     0.0000   0.0000   0.0000   0.0000   0.0000   0.0000   0.0000   0.0000
     0.0000   0.0000   0.0000   0.0000   0.0000   0.0000   0.0000   0.0000
     0.0000

          k = 0.1250-0.5774 0.0000 ( 44554 PWs)   bands (ev):

   -11.5369 -10.8612 -10.8360 -10.4530 -10.4090 -10.1202 -10.1058 -10.0844
   -10.0780 -10.0391 -10.0275  -9.9475  -9.8724  -9.8621  -9.7985  -9.7040
    -9.6942  -9.6789  -9.6400  -9.5826  -9.5148  -9.4691  -9.4664  -9.4200
    -9.3598  -9.3527  -9.3368  -9.3235  -9.2921  -9.2127  -9.1474  -9.1429
    -9.1105  -9.0738  -9.0514  -8.9850  -8.9590  -8.8913  -8.8577  -8.8436
    -8.8368  -8.7299  -8.7097  -8.6129  -8.5973  -8.5394  -8.4845  -8.4735
    -8.4255  -8.4147  -8.3195  -8.1872  -8.1672  -8.1251  -8.1088  -8.0803
    -7.9926  -7.9782  -7.9748  -7.8931  -7.8882  -7.8458  -7.8396  -7.7814
    -7.7304  -7.7190  -7.6767  -7.6634  -7.6491  -7.6365  -7.6008  -7.5839
    -7.5447  -7.4831  -7.4770  -7.4637  -7.2413  -7.2210  -7.2035  -7.1105
    -7.0730  -7.0581  -7.0431  -7.0272  -7.0041  -6.9419  -6.8991  -6.8534
    -6.7526  -6.7137  -6.6966  -6.6890  -6.6245  -6.6162  -6.6076  -6.5570
    -6.4833  -6.4548  -6.4290  -6.4148  -6.3561  -6.3085  -6.2567  -6.2253
    -6.1908  -6.1004  -6.0706  -6.0091  -5.9693  -5.9609  -5.9349  -5.8093
    -5.7534  -5.6728  -5.6200  -5.4788  -5.4742  -5.4005  -5.3293  -5.3169
    -5.3013  -5.2908  -5.2729  -5.2631  -5.0866  -5.0747  -4.7581  -4.4160
    -3.9677  -3.9001  -3.5823  -3.1784  -2.9012  -2.4087  -1.7667  -1.3667
    -1.2460  -1.0298  -0.8363  -0.4937  -0.0979   0.0966   0.4883   0.8895
     1.6962

     occupation numbers 
     1.0000   1.0000   1.0000   1.0000   1.0000   1.0000   1.0000   1.0000
     1.0000   1.0000   1.0000   1.0000   1.0000   1.0000   1.0000   1.0000
     1.0000   1.0000   1.0000   1.0000   1.0000   1.0000   1.0000   1.0000
     1.0000   1.0000   1.0000   1.0000   1.0000   1.0000   1.0000   1.0000
     1.0000   1.0000   1.0000   1.0000   1.0000   1.0000   1.0000   1.0000
     1.0000   1.0000   1.0000   1.0000   1.0000   1.0000   1.0000   1.0000
     1.0000   1.0000   1.0000   1.0000   1.0000   1.0000   1.0000   1.0000
     1.0000   1.0000   1.0000   1.0000   1.0000   1.0000   1.0000   1.0000
     1.0000   1.0000   1.0000   1.0000   1.0000   1.0000   1.0000   1.0000
     1.0000   1.0000   1.0000   1.0000   1.0000   1.0000   1.0000   1.0000
     1.0000   1.0000   1.0000   1.0000   1.0000   1.0000   1.0000   1.0000
     1.0000   1.0000   1.0000   1.0000   1.0000   1.0000   1.0000   1.0000
     1.0000   1.0000   1.0000   1.0000   1.0000   1.0000   1.0000   1.0000
     1.0000   1.0000   1.0000   1.0001   1.0002   1.0003   1.0005   1.0074
     1.0183   1.0488   1.0726   1.0095   1.0012   0.8051   0.5448   0.4989
     0.4423   0.4055   0.3462   0.3153   0.0281   0.0226   0.0000   0.0000
     0.0000   0.0000   0.0000   0.0000   0.0000   0.0000   0.0000   0.0000
     0.0000   0.0000   0.0000   0.0000   0.0000   0.0000   0.0000   0.0000
     0.0000

          k = 0.1250-0.5052 0.0000 ( 44477 PWs)   bands (ev):

   -11.5626 -11.1056 -10.6588 -10.5825 -10.3387 -10.1857 -10.1605 -10.1474
   -10.1155 -10.0993  -9.9887  -9.9631  -9.9194  -9.8997  -9.8329  -9.8138
    -9.7438  -9.6656  -9.6401  -9.6325  -9.6257  -9.5619  -9.5405  -9.4595
    -9.4340  -9.3969  -9.3611  -9.3299  -9.2603  -9.1826  -9.1705  -9.1351
    -9.1120  -9.0716  -9.0428  -8.9802  -8.9394  -8.9113  -8.8818  -8.8686
    -8.7649  -8.6958  -8.6714  -8.6189  -8.5858  -8.5415  -8.4843  -8.3938
    -8.3494  -8.3246  -8.2471  -8.2125  -8.1632  -8.1293  -8.1018  -8.0401
    -8.0078  -7.9816  -7.9630  -7.9366  -7.9017  -7.8446  -7.8124  -7.7571
    -7.7295  -7.7008  -7.6433  -7.6309  -7.6195  -7.5875  -7.5419  -7.4982
    -7.4782  -7.4193  -7.3558  -7.3057  -7.2764  -7.2440  -7.2215  -7.1862
    -7.1572  -7.0981  -7.0279  -6.9665  -6.9482  -6.9045  -6.8887  -6.8343
    -6.8115  -6.7206  -6.6947  -6.6783  -6.6512  -6.6149  -6.5631  -6.5200
    -6.4930  -6.4203  -6.3935  -6.3662  -6.3268  -6.2476  -6.2003  -6.1427
    -6.1226  -6.1019  -6.0590  -6.0096  -5.9731  -5.8272  -5.7917  -5.7589
    -5.7368  -5.6332  -5.6051  -5.4747  -5.4403  -5.3987  -5.3475  -5.3272
    -5.3152  -5.2820  -5.2590  -5.2490  -5.0860  -5.0748  -4.8575  -4.3302
    -3.9745  -3.8904  -3.6171  -3.3294  -2.7682  -2.3777  -1.9399  -1.4034
    -1.2164  -0.9585  -0.7873  -0.5828  -0.4426   0.3336   0.6067   0.8948
     1.5151

     occupation numbers 
     1.0000   1.0000   1.0000   1.0000   1.0000   1.0000   1.0000   1.0000
     1.0000   1.0000   1.0000   1.0000   1.0000   1.0000   1.0000   1.0000
     1.0000   1.0000   1.0000   1.0000   1.0000   1.0000   1.0000   1.0000
     1.0000   1.0000   1.0000   1.0000   1.0000   1.0000   1.0000   1.0000
     1.0000   1.0000   1.0000   1.0000   1.0000   1.0000   1.0000   1.0000
     1.0000   1.0000   1.0000   1.0000   1.0000   1.0000   1.0000   1.0000
     1.0000   1.0000   1.0000   1.0000   1.0000   1.0000   1.0000   1.0000
     1.0000   1.0000   1.0000   1.0000   1.0000   1.0000   1.0000   1.0000
     1.0000   1.0000   1.0000   1.0000   1.0000   1.0000   1.0000   1.0000
     1.0000   1.0000   1.0000   1.0000   1.0000   1.0000   1.0000   1.0000
     1.0000   1.0000   1.0000   1.0000   1.0000   1.0000   1.0000   1.0000
     1.0000   1.0000   1.0000   1.0000   1.0000   1.0000   1.0000   1.0000
     1.0000   1.0000   1.0000   1.0000   1.0000   1.0000   1.0000   1.0000
     1.0000   1.0000   1.0000   1.0001   1.0002   1.0053   1.0100   1.0169
     1.0231   1.0671   1.0778   1.0020   0.9249   0.7991   0.6135   0.5371
     0.4927   0.3758   0.3030   0.2738   0.0278   0.0227   0.0001   0.0000
     0.0000   0.0000   0.0000   0.0000   0.0000   0.0000   0.0000   0.0000
     0.0000   0.0000   0.0000   0.0000   0.0000   0.0000   0.0000   0.0000
     0.0000

          k = 0.1250-0.4330 0.0000 ( 44545 PWs)   bands (ev):

   -11.6473 -11.3676 -10.7841 -10.5599 -10.3636 -10.2999 -10.2736 -10.2311
   -10.2274 -10.1798 -10.0854 -10.0493 -10.0340 -10.0193  -9.9524  -9.9070
    -9.8578  -9.7981  -9.7908  -9.7494  -9.6880  -9.6724  -9.6567  -9.5882
    -9.5456  -9.5288  -9.4863  -9.3977  -9.2658  -9.2261  -9.1736  -9.1339
    -9.1083  -9.0762  -9.0397  -8.9791  -8.9434  -8.9376  -8.9036  -8.8176
    -8.7268  -8.6480  -8.5802  -8.5292  -8.4785  -8.4716  -8.3811  -8.3162
    -8.2875  -8.2272  -8.1997  -8.1264  -8.0913  -8.0754  -8.0363  -8.0049
    -7.9936  -7.9220  -7.9014  -7.8922  -7.8636  -7.8349  -7.8182  -7.7772
    -7.7407  -7.7055  -7.6794  -7.5395  -7.4894  -7.4732  -7.4560  -7.4286
    -7.3695  -7.3379  -7.2851  -7.2587  -7.2282  -7.1280  -7.1144  -7.1022
    -7.0835  -7.0454  -7.0293  -6.9726  -6.9545  -6.9175  -6.8345  -6.8300
    -6.8002  -6.7223  -6.6306  -6.5853  -6.5739  -6.5539  -6.4772  -6.4013
    -6.3509  -6.3358  -6.3218  -6.2596  -6.1978  -6.1874  -6.1321  -6.0658
    -6.0266  -5.9871  -5.9637  -5.9095  -5.8201  -5.7488  -5.7368  -5.6455
    -5.6086  -5.4941  -5.4724  -5.4169  -5.4003  -5.3810  -5.3574  -5.3430
    -5.2625  -5.2513  -5.2365  -5.2096  -5.0831  -5.0745  -5.0063  -4.2773
    -3.9983  -3.8197  -3.7176  -3.4747  -2.7417  -2.2942  -2.1363  -1.4705
    -1.3174  -1.0701  -0.8946  -0.6508  -0.3967   0.1729   0.8220   1.0279
     1.1875

     occupation numbers 
     1.0000   1.0000   1.0000   1.0000   1.0000   1.0000   1.0000   1.0000
     1.0000   1.0000   1.0000   1.0000   1.0000   1.0000   1.0000   1.0000
     1.0000   1.0000   1.0000   1.0000   1.0000   1.0000   1.0000   1.0000
     1.0000   1.0000   1.0000   1.0000   1.0000   1.0000   1.0000   1.0000
     1.0000   1.0000   1.0000   1.0000   1.0000   1.0000   1.0000   1.0000
     1.0000   1.0000   1.0000   1.0000   1.0000   1.0000   1.0000   1.0000
     1.0000   1.0000   1.0000   1.0000   1.0000   1.0000   1.0000   1.0000
     1.0000   1.0000   1.0000   1.0000   1.0000   1.0000   1.0000   1.0000
     1.0000   1.0000   1.0000   1.0000   1.0000   1.0000   1.0000   1.0000
     1.0000   1.0000   1.0000   1.0000   1.0000   1.0000   1.0000   1.0000
     1.0000   1.0000   1.0000   1.0000   1.0000   1.0000   1.0000   1.0000
     1.0000   1.0000   1.0000   1.0000   1.0000   1.0000   1.0000   1.0000
     1.0000   1.0000   1.0000   1.0000   1.0000   1.0000   1.0000   1.0000
     1.0000   1.0001   1.0002   1.0009   1.0061   1.0196   1.0232   1.0615
     1.0767   1.0338   0.9978   0.8579   0.8044   0.7372   0.6508   0.5964
     0.3136   0.2806   0.2400   0.1764   0.0264   0.0226   0.0058   0.0000
     0.0000   0.0000   0.0000   0.0000   0.0000   0.0000   0.0000   0.0000
     0.0000   0.0000   0.0000   0.0000   0.0000   0.0000   0.0000   0.0000
     0.0000

          k = 0.1250-0.3608 0.0000 ( 44558 PWs)   bands (ev):

   -11.8129 -11.5726 -10.9909 -10.5488 -10.4807 -10.4366 -10.4260 -10.3722
   -10.3353 -10.2628 -10.2418 -10.1920 -10.1678 -10.1624 -10.0632 -10.0493
   -10.0336  -9.9732  -9.9311  -9.8943  -9.8117  -9.7839  -9.7501  -9.7314
    -9.6931  -9.6630  -9.6090  -9.5278  -9.4261  -9.3291  -9.2163  -9.1882
    -9.1649  -9.1095  -9.0162  -8.9684  -8.8930  -8.8496  -8.7905  -8.7637
    -8.6674  -8.5941  -8.4940  -8.4193  -8.3478  -8.3346  -8.2805  -8.2368
    -8.1915  -8.1870  -8.1678  -8.1261  -8.0889  -8.0310  -7.9856  -7.9449
    -7.9336  -7.9057  -7.8767  -7.8460  -7.8343  -7.7933  -7.7137  -7.7021
    -7.6861  -7.6331  -7.5783  -7.5507  -7.5279  -7.5038  -7.4606  -7.4324
    -7.3689  -7.2811  -7.2432  -7.1999  -7.1584  -7.0627  -6.9840  -6.9482
    -6.9244  -6.9025  -6.8703  -6.8468  -6.8118  -6.7484  -6.7380  -6.7063
    -6.6982  -6.5645  -6.4912  -6.4667  -6.4494  -6.4236  -6.3203  -6.2588
    -6.2035  -6.1962  -6.1819  -6.1433  -6.0983  -6.0135  -5.9861  -5.9442
    -5.8917  -5.8739  -5.8344  -5.8122  -5.7172  -5.6764  -5.6451  -5.5686
    -5.4831  -5.4658  -5.4067  -5.3946  -5.3859  -5.3489  -5.2821  -5.2422
    -5.2251  -5.2073  -5.1873  -5.0764  -5.0724  -4.9996  -4.7797  -4.3646
    -4.0945  -3.8899  -3.6562  -3.4324  -2.9231  -2.4781  -1.9664  -1.6738
    -1.5714  -1.2322  -0.9702  -0.7591  -0.2494   0.0524   0.5004   0.8319
     0.9330

     occupation numbers 
     1.0000   1.0000   1.0000   1.0000   1.0000   1.0000   1.0000   1.0000
     1.0000   1.0000   1.0000   1.0000   1.0000   1.0000   1.0000   1.0000
     1.0000   1.0000   1.0000   1.0000   1.0000   1.0000   1.0000   1.0000
     1.0000   1.0000   1.0000   1.0000   1.0000   1.0000   1.0000   1.0000
     1.0000   1.0000   1.0000   1.0000   1.0000   1.0000   1.0000   1.0000
     1.0000   1.0000   1.0000   1.0000   1.0000   1.0000   1.0000   1.0000
     1.0000   1.0000   1.0000   1.0000   1.0000   1.0000   1.0000   1.0000
     1.0000   1.0000   1.0000   1.0000   1.0000   1.0000   1.0000   1.0000
     1.0000   1.0000   1.0000   1.0000   1.0000   1.0000   1.0000   1.0000
     1.0000   1.0000   1.0000   1.0000   1.0000   1.0000   1.0000   1.0000
     1.0000   1.0000   1.0000   1.0000   1.0000   1.0000   1.0000   1.0000
     1.0000   1.0000   1.0000   1.0000   1.0000   1.0000   1.0000   1.0000
     1.0000   1.0000   1.0000   1.0000   1.0000   1.0001   1.0001   1.0004
     1.0014   1.0021   1.0046   1.0070   1.0299   1.0471   1.0617   1.0832
     1.0169   0.9846   0.8257   0.7852   0.7547   0.6187   0.3762   0.2550
     0.2114   0.1714   0.1333   0.0234   0.0217   0.0050   0.0000   0.0000
     0.0000   0.0000   0.0000   0.0000   0.0000   0.0000   0.0000   0.0000
     0.0000   0.0000   0.0000   0.0000   0.0000   0.0000   0.0000   0.0000
     0.0000

          k = 0.1250-0.2887 0.0000 ( 44582 PWs)   bands (ev):

   -12.0262 -11.7203 -11.1793 -10.6050 -10.5800 -10.5780 -10.5656 -10.5154
   -10.5012 -10.4254 -10.3465 -10.3267 -10.3201 -10.2515 -10.2228 -10.2052
   -10.1361 -10.1155 -10.0749 -10.0644  -9.9392  -9.8889  -9.8797  -9.8631
    -9.8447  -9.7986  -9.7141  -9.6622  -9.6019  -9.4458  -9.3790  -9.2481
    -9.2410  -9.0993  -8.9305  -8.8369  -8.8197  -8.7877  -8.7533  -8.6516
    -8.6153  -8.4619  -8.4165  -8.3806  -8.3242  -8.2402  -8.2207  -8.2122
    -8.1854  -8.1146  -8.1008  -8.0664  -8.0362  -7.9965  -7.9687  -7.9603
    -7.9552  -7.9312  -7.8836  -7.8433  -7.8314  -7.7931  -7.7420  -7.7108
    -7.6583  -7.5688  -7.5353  -7.4656  -7.4623  -7.4313  -7.3872  -7.3479
    -7.3404  -7.3054  -7.2551  -7.0259  -6.9936  -6.9240  -6.8983  -6.8790
    -6.8526  -6.7785  -6.7202  -6.6657  -6.5879  -6.5444  -6.4675  -6.4467
    -6.4201  -6.3874  -6.3691  -6.3345  -6.3211  -6.2898  -6.1988  -6.1475
    -6.0307  -5.9851  -5.9516  -5.9230  -5.9116  -5.8857  -5.8600  -5.8070
    -5.7637  -5.7406  -5.6994  -5.6493  -5.6206  -5.5766  -5.5618  -5.4630
    -5.4458  -5.4201  -5.3987  -5.3917  -5.3726  -5.3616  -5.3412  -5.2550
    -5.1957  -5.1402  -5.0710  -5.0589  -4.8513  -4.6454  -4.4727  -4.2567
    -4.1825  -3.9549  -3.6953  -3.3232  -3.0045  -2.6118  -2.2870  -1.8931
    -1.5947  -1.3057  -1.0340  -0.8765  -0.5135  -0.0855   0.2038   0.3821
     0.7838

     occupation numbers 
     1.0000   1.0000   1.0000   1.0000   1.0000   1.0000   1.0000   1.0000
     1.0000   1.0000   1.0000   1.0000   1.0000   1.0000   1.0000   1.0000
     1.0000   1.0000   1.0000   1.0000   1.0000   1.0000   1.0000   1.0000
     1.0000   1.0000   1.0000   1.0000   1.0000   1.0000   1.0000   1.0000
     1.0000   1.0000   1.0000   1.0000   1.0000   1.0000   1.0000   1.0000
     1.0000   1.0000   1.0000   1.0000   1.0000   1.0000   1.0000   1.0000
     1.0000   1.0000   1.0000   1.0000   1.0000   1.0000   1.0000   1.0000
     1.0000   1.0000   1.0000   1.0000   1.0000   1.0000   1.0000   1.0000
     1.0000   1.0000   1.0000   1.0000   1.0000   1.0000   1.0000   1.0000
     1.0000   1.0000   1.0000   1.0000   1.0000   1.0000   1.0000   1.0000
     1.0000   1.0000   1.0000   1.0000   1.0000   1.0000   1.0000   1.0000
     1.0000   1.0000   1.0000   1.0000   1.0000   1.0000   1.0000   1.0000
     1.0000   1.0001   1.0003   1.0007   1.0009   1.0016   1.0028   1.0077
     1.0157   1.0220   1.0370   1.0598   1.0723   1.0832   1.0826   0.9788
     0.9389   0.8676   0.7991   0.7752   0.7069   0.6662   0.5895   0.2911
     0.1485   0.0682   0.0212   0.0168   0.0001   0.0000   0.0000   0.0000
     0.0000   0.0000   0.0000   0.0000   0.0000   0.0000   0.0000   0.0000
     0.0000   0.0000   0.0000   0.0000   0.0000   0.0000   0.0000   0.0000
     0.0000

          k = 0.1250-0.2165 0.0000 ( 44571 PWs)   bands (ev):

   -12.2211 -11.8458 -11.3319 -10.7214 -10.7095 -10.6915 -10.6692 -10.6143
   -10.6032 -10.5827 -10.4655 -10.4318 -10.4293 -10.3685 -10.3434 -10.3336
   -10.2510 -10.2316 -10.1946 -10.1857 -10.0679 -10.0144  -9.9722  -9.9689
    -9.9573  -9.9187  -9.8063  -9.7945  -9.7457  -9.6096  -9.4554  -9.3041
    -9.2970  -9.0864  -8.8630  -8.7965  -8.7440  -8.6929  -8.6666  -8.5804
    -8.5247  -8.4545  -8.3726  -8.3197  -8.2777  -8.2697  -8.2345  -8.2061
    -8.1674  -8.1265  -8.1124  -8.0461  -8.0410  -8.0332  -7.9907  -7.9402
    -7.9040  -7.8742  -7.8606  -7.8511  -7.8190  -7.7846  -7.7473  -7.6674
    -7.6420  -7.5968  -7.5575  -7.5251  -7.4989  -7.4592  -7.3422  -7.1343
    -7.1153  -7.0924  -7.0011  -6.9474  -6.8935  -6.8489  -6.8398  -6.8049
    -6.7436  -6.6074  -6.5770  -6.5289  -6.4833  -6.3588  -6.3009  -6.2640
    -6.2502  -6.2390  -6.1970  -6.1762  -6.1195  -6.1030  -6.0307  -5.9144
    -5.8913  -5.8697  -5.8431  -5.8194  -5.6916  -5.6726  -5.6483  -5.6046
    -5.5860  -5.5552  -5.5498  -5.5404  -5.5179  -5.5083  -5.4600  -5.4280
    -5.4249  -5.3912  -5.3678  -5.3556  -5.3386  -5.3280  -5.2447  -5.2401
    -5.1713  -5.0657  -5.0604  -5.0308  -4.8730  -4.4327  -4.3724  -4.0736
    -3.8652  -3.7628  -3.5222  -3.5034  -2.9312  -2.6335  -2.5284  -2.3238
    -1.7910  -1.3468  -1.0164  -0.9707  -0.7385  -0.5343  -0.4183   0.4851
     0.6965

     occupation numbers 
     1.0000   1.0000   1.0000   1.0000   1.0000   1.0000   1.0000   1.0000
     1.0000   1.0000   1.0000   1.0000   1.0000   1.0000   1.0000   1.0000
     1.0000   1.0000   1.0000   1.0000   1.0000   1.0000   1.0000   1.0000
     1.0000   1.0000   1.0000   1.0000   1.0000   1.0000   1.0000   1.0000
     1.0000   1.0000   1.0000   1.0000   1.0000   1.0000   1.0000   1.0000
     1.0000   1.0000   1.0000   1.0000   1.0000   1.0000   1.0000   1.0000
     1.0000   1.0000   1.0000   1.0000   1.0000   1.0000   1.0000   1.0000
     1.0000   1.0000   1.0000   1.0000   1.0000   1.0000   1.0000   1.0000
     1.0000   1.0000   1.0000   1.0000   1.0000   1.0000   1.0000   1.0000
     1.0000   1.0000   1.0000   1.0000   1.0000   1.0000   1.0000   1.0000
     1.0000   1.0000   1.0000   1.0000   1.0000   1.0000   1.0000   1.0000
     1.0000   1.0000   1.0000   1.0000   1.0000   1.0000   1.0000   1.0008
     1.0014   1.0023   1.0039   1.0061   1.0403   1.0488   1.0602   1.0779
     1.0822   1.0814   1.0800   1.0763   1.0611   1.0515   0.9723   0.8910
     0.8821   0.7733   0.6892   0.6437   0.5798   0.5400   0.2619   0.2495
     0.1074   0.0192   0.0173   0.0096   0.0002   0.0000   0.0000   0.0000
     0.0000   0.0000   0.0000   0.0000   0.0000   0.0000   0.0000   0.0000
     0.0000   0.0000   0.0000   0.0000   0.0000   0.0000   0.0000   0.0000
     0.0000

          k = 0.1250-0.1443 0.0000 ( 44578 PWs)   bands (ev):

   -12.3699 -11.9479 -11.4426 -10.8366 -10.8017 -10.7824 -10.7658 -10.7038
   -10.6875 -10.6401 -10.5840 -10.5053 -10.4941 -10.4717 -10.4402 -10.4021
   -10.3679 -10.3571 -10.2772 -10.2321 -10.1748 -10.1271 -10.0486 -10.0358
   -10.0298 -10.0048  -9.9196  -9.8655  -9.8427  -9.7498  -9.5006  -9.3490
    -9.3361  -9.0811  -8.8207  -8.7971  -8.6802  -8.5930  -8.5757  -8.5381
    -8.5074  -8.4371  -8.3608  -8.3117  -8.2880  -8.2575  -8.2219  -8.1924
    -8.1756  -8.1501  -8.1481  -8.1465  -8.1071  -8.0257  -7.9793  -7.9484
    -7.8919  -7.8778  -7.8574  -7.8311  -7.7953  -7.7315  -7.6900  -7.6388
    -7.6112  -7.6008  -7.5747  -7.5366  -7.4653  -7.4192  -7.2116  -7.0123
    -6.9958  -6.9555  -6.8561  -6.8311  -6.8086  -6.7732  -6.7599  -6.7269
    -6.6044  -6.5322  -6.4888  -6.4734  -6.3782  -6.2848  -6.2436  -6.1938
    -6.1604  -6.1092  -6.0360  -5.9589  -5.9453  -5.8929  -5.8747  -5.8170
    -5.7728  -5.7605  -5.7152  -5.6819  -5.5764  -5.5367  -5.5300  -5.5189
    -5.5040  -5.4125  -5.3991  -5.3929  -5.3754  -5.3687  -5.3498  -5.3268
    -5.3115  -5.3033  -5.2984  -5.2968  -5.2727  -5.2472  -5.1806  -5.1548
    -5.1383  -5.0957  -5.0325  -4.9941  -4.9913  -4.5868  -4.2184  -3.8688
    -3.7769  -3.4835  -3.2583  -3.2058  -2.9041  -2.8164  -2.6727  -2.2281
    -2.0990  -1.6366  -1.3045  -1.0952  -0.8987  -0.8233  -0.5236   0.2849
     0.4527

     occupation numbers 
     1.0000   1.0000   1.0000   1.0000   1.0000   1.0000   1.0000   1.0000
     1.0000   1.0000   1.0000   1.0000   1.0000   1.0000   1.0000   1.0000
     1.0000   1.0000   1.0000   1.0000   1.0000   1.0000   1.0000   1.0000
     1.0000   1.0000   1.0000   1.0000   1.0000   1.0000   1.0000   1.0000
     1.0000   1.0000   1.0000   1.0000   1.0000   1.0000   1.0000   1.0000
     1.0000   1.0000   1.0000   1.0000   1.0000   1.0000   1.0000   1.0000
     1.0000   1.0000   1.0000   1.0000   1.0000   1.0000   1.0000   1.0000
     1.0000   1.0000   1.0000   1.0000   1.0000   1.0000   1.0000   1.0000
     1.0000   1.0000   1.0000   1.0000   1.0000   1.0000   1.0000   1.0000
     1.0000   1.0000   1.0000   1.0000   1.0000   1.0000   1.0000   1.0000
     1.0000   1.0000   1.0000   1.0000   1.0000   1.0000   1.0000   1.0000
     1.0000   1.0000   1.0000   1.0003   1.0004   1.0014   1.0020   1.0064
     1.0136   1.0165   1.0306   1.0446   1.0832   1.0744   1.0704   1.0620
     1.0465   0.8443   0.8004   0.7792   0.7172   0.6925   0.6219   0.5354
     0.4789   0.4493   0.4320   0.4264   0.3455   0.2690   0.1219   0.0849
     0.0663   0.0330   0.0100   0.0044   0.0041   0.0000   0.0000   0.0000
     0.0000   0.0000   0.0000   0.0000   0.0000   0.0000   0.0000   0.0000
     0.0000   0.0000   0.0000   0.0000   0.0000   0.0000   0.0000   0.0000
     0.0000

          k = 0.1875-0.1083 0.0000 ( 44580 PWs)   bands (ev):

   -12.3051 -11.8789 -11.3827 -10.7898 -10.7695 -10.7377 -10.7271 -10.6888
   -10.6551 -10.5691 -10.5630 -10.4836 -10.4476 -10.4449 -10.4233 -10.3408
   -10.3309 -10.3059 -10.2758 -10.1616 -10.1368 -10.0825 -10.0319 -10.0089
    -9.9974  -9.9714  -9.8993  -9.8392  -9.7815  -9.7229  -9.4656  -9.3396
    -9.3168  -9.0754  -8.8585  -8.8025  -8.6741  -8.6471  -8.6069  -8.5755
    -8.5166  -8.4709  -8.3397  -8.3005  -8.2779  -8.2674  -8.2496  -8.1882
    -8.1743  -8.1396  -8.1331  -8.1111  -8.0849  -8.0136  -7.9845  -7.9273
    -7.9055  -7.8928  -7.8491  -7.8413  -7.8321  -7.7221  -7.7108  -7.6413
    -7.6330  -7.6140  -7.5917  -7.5582  -7.5223  -7.4498  -7.2416  -7.0350
    -7.0237  -7.0098  -6.9291  -6.8882  -6.8450  -6.8145  -6.7948  -6.7810
    -6.6727  -6.6013  -6.5119  -6.4889  -6.3488  -6.3150  -6.2770  -6.2345
    -6.1960  -6.1594  -6.1043  -6.0827  -5.9688  -5.9283  -5.9146  -5.9035
    -5.8181  -5.7938  -5.7823  -5.7705  -5.6075  -5.5990  -5.5314  -5.5204
    -5.5106  -5.4930  -5.4816  -5.4736  -5.4596  -5.4527  -5.4137  -5.3466
    -5.3352  -5.3191  -5.2976  -5.2935  -5.2785  -5.2541  -5.1886  -5.1743
    -5.1495  -5.1051  -5.0634  -4.9782  -4.9749  -4.9189  -4.3450  -4.0370
    -3.8054  -3.2792  -3.2073  -3.1016  -2.8912  -2.6232  -2.5920  -2.2219
    -2.1513  -1.7391  -1.5632  -1.2594  -0.7166  -0.5826   0.1579   0.2532
     0.4718

     occupation numbers 
     1.0000   1.0000   1.0000   1.0000   1.0000   1.0000   1.0000   1.0000
     1.0000   1.0000   1.0000   1.0000   1.0000   1.0000   1.0000   1.0000
     1.0000   1.0000   1.0000   1.0000   1.0000   1.0000   1.0000   1.0000
     1.0000   1.0000   1.0000   1.0000   1.0000   1.0000   1.0000   1.0000
     1.0000   1.0000   1.0000   1.0000   1.0000   1.0000   1.0000   1.0000
     1.0000   1.0000   1.0000   1.0000   1.0000   1.0000   1.0000   1.0000
     1.0000   1.0000   1.0000   1.0000   1.0000   1.0000   1.0000   1.0000
     1.0000   1.0000   1.0000   1.0000   1.0000   1.0000   1.0000   1.0000
     1.0000   1.0000   1.0000   1.0000   1.0000   1.0000   1.0000   1.0000
     1.0000   1.0000   1.0000   1.0000   1.0000   1.0000   1.0000   1.0000
     1.0000   1.0000   1.0000   1.0000   1.0000   1.0000   1.0000   1.0000
     1.0000   1.0000   1.0000   1.0000   1.0002   1.0006   1.0008   1.0011
     1.0063   1.0097   1.0117   1.0141   1.0770   1.0795   1.0714   1.0632
     1.0540   1.0322   1.0143   1.0000   0.9715   0.9558   0.8479   0.6100
     0.5672   0.5068   0.4293   0.4149   0.3643   0.2885   0.1354   0.1119
     0.0786   0.0388   0.0184   0.0031   0.0028   0.0007   0.0000   0.0000
     0.0000   0.0000   0.0000   0.0000   0.0000   0.0000   0.0000   0.0000
     0.0000   0.0000   0.0000   0.0000   0.0000   0.0000   0.0000   0.0000
     0.0000

          k = 0.1875-0.0361 0.0000 ( 44578 PWs)   bands (ev):

   -12.3658 -11.9229 -11.4260 -10.8326 -10.8009 -10.7846 -10.7645 -10.7035
   -10.6873 -10.6466 -10.5789 -10.5051 -10.4939 -10.4711 -10.4409 -10.4100
   -10.3658 -10.3532 -10.2768 -10.2332 -10.1687 -10.1172 -10.0522 -10.0361
   -10.0215 -10.0063  -9.9610  -9.8588  -9.8109  -9.7977  -9.4827  -9.3554
    -9.3337  -9.0729  -8.8519  -8.7831  -8.6799  -8.6177  -8.5843  -8.5496
    -8.4819  -8.4374  -8.3604  -8.3082  -8.2941  -8.2601  -8.2189  -8.1943
    -8.1871  -8.1516  -8.1476  -8.1438  -8.1068  -8.0029  -7.9733  -7.9625
    -7.8881  -7.8821  -7.8619  -7.8479  -7.8088  -7.7436  -7.7215  -7.6266
    -7.6087  -7.5923  -7.5650  -7.5497  -7.5187  -7.3980  -7.2091  -7.0101
    -6.9842  -6.9644  -6.8552  -6.8375  -6.8240  -6.7738  -6.7566  -6.7265
    -6.6126  -6.5341  -6.4857  -6.4663  -6.3911  -6.2828  -6.2204  -6.1842
    -6.1535  -6.1231  -6.0137  -5.9937  -5.9341  -5.8933  -5.8690  -5.7964
    -5.7660  -5.7565  -5.7360  -5.6810  -5.5648  -5.5451  -5.5283  -5.5170
    -5.5067  -5.4127  -5.4067  -5.3929  -5.3739  -5.3674  -5.3468  -5.3247
    -5.3083  -5.3061  -5.2993  -5.2946  -5.2731  -5.2500  -5.1841  -5.1567
    -5.1419  -5.0901  -5.0307  -4.9946  -4.9904  -4.5700  -4.2280  -3.8528
    -3.7718  -3.4817  -3.2898  -3.1711  -2.8741  -2.8529  -2.6307  -2.1889
    -2.1171  -1.4981  -1.2390  -1.1813  -0.8853  -0.8174  -0.5075   0.2239
     0.4467

     occupation numbers 
     1.0000   1.0000   1.0000   1.0000   1.0000   1.0000   1.0000   1.0000
     1.0000   1.0000   1.0000   1.0000   1.0000   1.0000   1.0000   1.0000
     1.0000   1.0000   1.0000   1.0000   1.0000   1.0000   1.0000   1.0000
     1.0000   1.0000   1.0000   1.0000   1.0000   1.0000   1.0000   1.0000
     1.0000   1.0000   1.0000   1.0000   1.0000   1.0000   1.0000   1.0000
     1.0000   1.0000   1.0000   1.0000   1.0000   1.0000   1.0000   1.0000
     1.0000   1.0000   1.0000   1.0000   1.0000   1.0000   1.0000   1.0000
     1.0000   1.0000   1.0000   1.0000   1.0000   1.0000   1.0000   1.0000
     1.0000   1.0000   1.0000   1.0000   1.0000   1.0000   1.0000   1.0000
     1.0000   1.0000   1.0000   1.0000   1.0000   1.0000   1.0000   1.0000
     1.0000   1.0000   1.0000   1.0000   1.0000   1.0000   1.0000   1.0000
     1.0000   1.0000   1.0001   1.0001   1.0005   1.0014   1.0023   1.0093
     1.0152   1.0175   1.0234   1.0450   1.0830   1.0783   1.0693   1.0602
     1.0497   0.8447   0.8255   0.7791   0.7116   0.6877   0.6106   0.5277
     0.4674   0.4594   0.4351   0.4186   0.3465   0.2767   0.1278   0.0873
     0.0701   0.0299   0.0096   0.0044   0.0041   0.0000   0.0000   0.0000
     0.0000   0.0000   0.0000   0.0000   0.0000   0.0000   0.0000   0.0000
     0.0000   0.0000   0.0000   0.0000   0.0000   0.0000   0.0000   0.0000
     0.0000

          k = 0.1875 0.0361 0.0000 ( 44578 PWs)   bands (ev):

   -12.3658 -11.9229 -11.4260 -10.8326 -10.8009 -10.7846 -10.7645 -10.7035
   -10.6873 -10.6466 -10.5789 -10.5051 -10.4939 -10.4711 -10.4409 -10.4100
   -10.3658 -10.3532 -10.2768 -10.2332 -10.1687 -10.1172 -10.0522 -10.0361
   -10.0215 -10.0063  -9.9610  -9.8588  -9.8109  -9.7977  -9.4827  -9.3554
    -9.3337  -9.0729  -8.8519  -8.7831  -8.6799  -8.6177  -8.5843  -8.5496
    -8.4819  -8.4374  -8.3604  -8.3082  -8.2941  -8.2601  -8.2189  -8.1943
    -8.1871  -8.1516  -8.1476  -8.1438  -8.1068  -8.0029  -7.9733  -7.9625
    -7.8881  -7.8821  -7.8619  -7.8479  -7.8088  -7.7436  -7.7215  -7.6266
    -7.6087  -7.5923  -7.5650  -7.5497  -7.5187  -7.3980  -7.2091  -7.0101
    -6.9842  -6.9644  -6.8552  -6.8375  -6.8240  -6.7738  -6.7566  -6.7265
    -6.6126  -6.5341  -6.4857  -6.4663  -6.3911  -6.2828  -6.2204  -6.1842
    -6.1535  -6.1231  -6.0137  -5.9937  -5.9341  -5.8933  -5.8690  -5.7964
    -5.7660  -5.7565  -5.7360  -5.6810  -5.5648  -5.5451  -5.5283  -5.5170
    -5.5067  -5.4127  -5.4067  -5.3929  -5.3739  -5.3674  -5.3468  -5.3247
    -5.3083  -5.3061  -5.2993  -5.2946  -5.2731  -5.2500  -5.1841  -5.1567
    -5.1419  -5.0901  -5.0307  -4.9946  -4.9904  -4.5700  -4.2280  -3.8528
    -3.7718  -3.4817  -3.2898  -3.1711  -2.8741  -2.8529  -2.6307  -2.1889
    -2.1171  -1.4981  -1.2390  -1.1813  -0.8853  -0.8174  -0.5075   0.2239
     0.4467

     occupation numbers 
     1.0000   1.0000   1.0000   1.0000   1.0000   1.0000   1.0000   1.0000
     1.0000   1.0000   1.0000   1.0000   1.0000   1.0000   1.0000   1.0000
     1.0000   1.0000   1.0000   1.0000   1.0000   1.0000   1.0000   1.0000
     1.0000   1.0000   1.0000   1.0000   1.0000   1.0000   1.0000   1.0000
     1.0000   1.0000   1.0000   1.0000   1.0000   1.0000   1.0000   1.0000
     1.0000   1.0000   1.0000   1.0000   1.0000   1.0000   1.0000   1.0000
     1.0000   1.0000   1.0000   1.0000   1.0000   1.0000   1.0000   1.0000
     1.0000   1.0000   1.0000   1.0000   1.0000   1.0000   1.0000   1.0000
     1.0000   1.0000   1.0000   1.0000   1.0000   1.0000   1.0000   1.0000
     1.0000   1.0000   1.0000   1.0000   1.0000   1.0000   1.0000   1.0000
     1.0000   1.0000   1.0000   1.0000   1.0000   1.0000   1.0000   1.0000
     1.0000   1.0000   1.0001   1.0001   1.0005   1.0014   1.0023   1.0093
     1.0152   1.0175   1.0234   1.0450   1.0830   1.0783   1.0693   1.0602
     1.0497   0.8447   0.8255   0.7791   0.7116   0.6877   0.6106   0.5277
     0.4674   0.4594   0.4351   0.4186   0.3465   0.2767   0.1278   0.0873
     0.0701   0.0299   0.0096   0.0044   0.0041   0.0000   0.0000   0.0000
     0.0000   0.0000   0.0000   0.0000   0.0000   0.0000   0.0000   0.0000
     0.0000   0.0000   0.0000   0.0000   0.0000   0.0000   0.0000   0.0000
     0.0000

          k = 0.1875 0.1083 0.0000 ( 44580 PWs)   bands (ev):

   -12.3051 -11.8789 -11.3827 -10.7898 -10.7695 -10.7377 -10.7271 -10.6888
   -10.6551 -10.5691 -10.5630 -10.4836 -10.4476 -10.4449 -10.4233 -10.3408
   -10.3309 -10.3059 -10.2758 -10.1616 -10.1368 -10.0825 -10.0319 -10.0089
    -9.9974  -9.9714  -9.8993  -9.8392  -9.7815  -9.7229  -9.4656  -9.3396
    -9.3168  -9.0754  -8.8585  -8.8025  -8.6741  -8.6471  -8.6069  -8.5755
    -8.5166  -8.4709  -8.3397  -8.3005  -8.2779  -8.2674  -8.2496  -8.1882
    -8.1743  -8.1396  -8.1331  -8.1111  -8.0849  -8.0136  -7.9845  -7.9273
    -7.9055  -7.8928  -7.8491  -7.8413  -7.8321  -7.7221  -7.7108  -7.6413
    -7.6330  -7.6140  -7.5917  -7.5582  -7.5223  -7.4498  -7.2416  -7.0350
    -7.0237  -7.0098  -6.9291  -6.8882  -6.8450  -6.8145  -6.7948  -6.7810
    -6.6727  -6.6013  -6.5119  -6.4889  -6.3488  -6.3150  -6.2770  -6.2345
    -6.1960  -6.1594  -6.1043  -6.0827  -5.9688  -5.9283  -5.9146  -5.9035
    -5.8181  -5.7938  -5.7823  -5.7705  -5.6075  -5.5990  -5.5314  -5.5204
    -5.5106  -5.4930  -5.4816  -5.4736  -5.4596  -5.4527  -5.4137  -5.3466
    -5.3352  -5.3191  -5.2976  -5.2935  -5.2785  -5.2541  -5.1886  -5.1743
    -5.1495  -5.1051  -5.0634  -4.9782  -4.9749  -4.9189  -4.3450  -4.0370
    -3.8054  -3.2792  -3.2073  -3.1016  -2.8912  -2.6232  -2.5920  -2.2219
    -2.1513  -1.7391  -1.5632  -1.2594  -0.7166  -0.5826   0.1579   0.2532
     0.4718

     occupation numbers 
     1.0000   1.0000   1.0000   1.0000   1.0000   1.0000   1.0000   1.0000
     1.0000   1.0000   1.0000   1.0000   1.0000   1.0000   1.0000   1.0000
     1.0000   1.0000   1.0000   1.0000   1.0000   1.0000   1.0000   1.0000
     1.0000   1.0000   1.0000   1.0000   1.0000   1.0000   1.0000   1.0000
     1.0000   1.0000   1.0000   1.0000   1.0000   1.0000   1.0000   1.0000
     1.0000   1.0000   1.0000   1.0000   1.0000   1.0000   1.0000   1.0000
     1.0000   1.0000   1.0000   1.0000   1.0000   1.0000   1.0000   1.0000
     1.0000   1.0000   1.0000   1.0000   1.0000   1.0000   1.0000   1.0000
     1.0000   1.0000   1.0000   1.0000   1.0000   1.0000   1.0000   1.0000
     1.0000   1.0000   1.0000   1.0000   1.0000   1.0000   1.0000   1.0000
     1.0000   1.0000   1.0000   1.0000   1.0000   1.0000   1.0000   1.0000
     1.0000   1.0000   1.0000   1.0000   1.0002   1.0006   1.0008   1.0011
     1.0063   1.0097   1.0117   1.0141   1.0770   1.0795   1.0714   1.0632
     1.0540   1.0322   1.0143   1.0000   0.9715   0.9558   0.8479   0.6100
     0.5672   0.5068   0.4293   0.4149   0.3643   0.2885   0.1354   0.1119
     0.0786   0.0388   0.0184   0.0031   0.0028   0.0007   0.0000   0.0000
     0.0000   0.0000   0.0000   0.0000   0.0000   0.0000   0.0000   0.0000
     0.0000   0.0000   0.0000   0.0000   0.0000   0.0000   0.0000   0.0000
     0.0000

          k = 0.1875 0.1804 0.0000 ( 44582 PWs)   bands (ev):

   -12.1864 -11.7966 -11.2965 -10.7160 -10.6848 -10.6670 -10.6562 -10.6423
   -10.5612 -10.5335 -10.4583 -10.4307 -10.3968 -10.3618 -10.3559 -10.2751
   -10.2400 -10.2288 -10.2064 -10.1136 -10.0428  -9.9995  -9.9781  -9.9546
    -9.9403  -9.9109  -9.8030  -9.7674  -9.7327  -9.5959  -9.4302  -9.3083
    -9.2840  -9.0811  -8.8793  -8.8231  -8.7376  -8.7172  -8.6536  -8.5820
    -8.5403  -8.5253  -8.3623  -8.3119  -8.2987  -8.2648  -8.2272  -8.2028
    -8.1685  -8.1233  -8.1065  -8.0390  -8.0297  -8.0260  -8.0033  -7.9567
    -7.9357  -7.8744  -7.8485  -7.8301  -7.8165  -7.7763  -7.7521  -7.6988
    -7.6569  -7.5982  -7.5710  -7.5233  -7.5040  -7.4829  -7.3355  -7.1687
    -7.1504  -7.1055  -7.0311  -6.9689  -6.9004  -6.8744  -6.8495  -6.8268
    -6.7732  -6.6985  -6.5610  -6.5092  -6.4639  -6.3712  -6.3184  -6.3078
    -6.2914  -6.2646  -6.2449  -6.1928  -6.1480  -6.1279  -6.0609  -5.9513
    -5.8879  -5.8653  -5.8380  -5.7662  -5.7180  -5.6911  -5.6776  -5.6585
    -5.6470  -5.6282  -5.5930  -5.5696  -5.5335  -5.5079  -5.4788  -5.4558
    -5.3986  -5.3755  -5.3653  -5.3346  -5.3325  -5.3200  -5.2997  -5.1848
    -5.1730  -5.1081  -5.0476  -5.0020  -4.9988  -4.7932  -4.4771  -4.2211
    -3.7407  -3.6727  -3.2429  -3.1023  -2.8565  -2.7215  -2.5383  -2.1255
    -1.9593  -1.6094  -1.3479  -1.0571  -0.6943  -0.3756   0.1298   0.4522
     0.7234

     occupation numbers 
     1.0000   1.0000   1.0000   1.0000   1.0000   1.0000   1.0000   1.0000
     1.0000   1.0000   1.0000   1.0000   1.0000   1.0000   1.0000   1.0000
     1.0000   1.0000   1.0000   1.0000   1.0000   1.0000   1.0000   1.0000
     1.0000   1.0000   1.0000   1.0000   1.0000   1.0000   1.0000   1.0000
     1.0000   1.0000   1.0000   1.0000   1.0000   1.0000   1.0000   1.0000
     1.0000   1.0000   1.0000   1.0000   1.0000   1.0000   1.0000   1.0000
     1.0000   1.0000   1.0000   1.0000   1.0000   1.0000   1.0000   1.0000
     1.0000   1.0000   1.0000   1.0000   1.0000   1.0000   1.0000   1.0000
     1.0000   1.0000   1.0000   1.0000   1.0000   1.0000   1.0000   1.0000
     1.0000   1.0000   1.0000   1.0000   1.0000   1.0000   1.0000   1.0000
     1.0000   1.0000   1.0000   1.0000   1.0000   1.0000   1.0000   1.0000
     1.0000   1.0000   1.0000   1.0000   1.0000   1.0000   1.0000   1.0003
     1.0015   1.0025   1.0043   1.0151   1.0296   1.0405   1.0465   1.0554
     1.0608   1.0692   1.0810   1.0833   1.0726   1.0510   1.0096   0.9630
     0.7986   0.7176   0.6799   0.5647   0.5569   0.5104   0.4367   0.1289
     0.1099   0.0408   0.0135   0.0052   0.0049   0.0000   0.0000   0.0000
     0.0000   0.0000   0.0000   0.0000   0.0000   0.0000   0.0000   0.0000
     0.0000   0.0000   0.0000   0.0000   0.0000   0.0000   0.0000   0.0000
     0.0000

          k = 0.1875 0.2526 0.0000 ( 44582 PWs)   bands (ev):

   -12.0163 -11.6862 -11.1682 -10.6057 -10.5799 -10.5784 -10.5656 -10.5267
   -10.4871 -10.4259 -10.3479 -10.3254 -10.3204 -10.2568 -10.2228 -10.1962
   -10.1491 -10.1140 -10.0763 -10.0589  -9.9274  -9.8982  -9.8822  -9.8653
    -9.8429  -9.8231  -9.6877  -9.6649  -9.6408  -9.4397  -9.3683  -9.2624
    -9.2353  -9.0926  -8.9329  -8.8370  -8.8269  -8.7993  -8.7571  -8.6506
    -8.6094  -8.4654  -8.4495  -8.3895  -8.3125  -8.2365  -8.2237  -8.2138
    -8.1966  -8.1192  -8.1015  -8.0722  -8.0365  -8.0032  -7.9661  -7.9593
    -7.9450  -7.9314  -7.8836  -7.8514  -7.8257  -7.7967  -7.7573  -7.7092
    -7.6615  -7.5865  -7.5392  -7.4657  -7.4590  -7.4272  -7.3716  -7.3480
    -7.3409  -7.3197  -7.2517  -7.0271  -6.9868  -6.9363  -6.9022  -6.8794
    -6.8486  -6.7986  -6.6997  -6.6588  -6.5857  -6.5554  -6.4833  -6.4455
    -6.4097  -6.3808  -6.3622  -6.3313  -6.3196  -6.3005  -6.2039  -6.1504
    -6.0062  -5.9864  -5.9434  -5.9326  -5.9126  -5.8889  -5.8553  -5.8085
    -5.7678  -5.7413  -5.6987  -5.6475  -5.6190  -5.5755  -5.5599  -5.4576
    -5.4364  -5.4231  -5.4063  -5.3889  -5.3729  -5.3639  -5.3420  -5.2506
    -5.1968  -5.1382  -5.0747  -5.0594  -4.9000  -4.6364  -4.4426  -4.2400
    -4.2216  -3.8805  -3.5948  -3.3826  -3.0224  -2.5681  -2.2904  -1.8903
    -1.5785  -1.3111  -1.0631  -0.8613  -0.5096  -0.0942   0.2016   0.4360
     0.7070

     occupation numbers 
     1.0000   1.0000   1.0000   1.0000   1.0000   1.0000   1.0000   1.0000
     1.0000   1.0000   1.0000   1.0000   1.0000   1.0000   1.0000   1.0000
     1.0000   1.0000   1.0000   1.0000   1.0000   1.0000   1.0000   1.0000
     1.0000   1.0000   1.0000   1.0000   1.0000   1.0000   1.0000   1.0000
     1.0000   1.0000   1.0000   1.0000   1.0000   1.0000   1.0000   1.0000
     1.0000   1.0000   1.0000   1.0000   1.0000   1.0000   1.0000   1.0000
     1.0000   1.0000   1.0000   1.0000   1.0000   1.0000   1.0000   1.0000
     1.0000   1.0000   1.0000   1.0000   1.0000   1.0000   1.0000   1.0000
     1.0000   1.0000   1.0000   1.0000   1.0000   1.0000   1.0000   1.0000
     1.0000   1.0000   1.0000   1.0000   1.0000   1.0000   1.0000   1.0000
     1.0000   1.0000   1.0000   1.0000   1.0000   1.0000   1.0000   1.0000
     1.0000   1.0000   1.0000   1.0000   1.0000   1.0000   1.0000   1.0000
     1.0001   1.0001   1.0004   1.0005   1.0009   1.0015   1.0031   1.0075
     1.0147   1.0218   1.0372   1.0606   1.0729   1.0833   1.0823   0.9669
     0.9145   0.8768   0.8244   0.7652   0.7080   0.6750   0.5925   0.2785
     0.1505   0.0662   0.0226   0.0170   0.0004   0.0000   0.0000   0.0000
     0.0000   0.0000   0.0000   0.0000   0.0000   0.0000   0.0000   0.0000
     0.0000   0.0000   0.0000   0.0000   0.0000   0.0000   0.0000   0.0000
     0.0000

          k = 0.1875 0.3248 0.0000 ( 44577 PWs)   bands (ev):

   -11.8112 -11.5558 -11.0006 -10.4726 -10.4705 -10.4604 -10.4573 -10.4499
   -10.3377 -10.2594 -10.2398 -10.2349 -10.1653 -10.1142 -10.1100 -10.0507
   -10.0316 -10.0142  -9.9908  -9.9080  -9.8122  -9.7996  -9.7732  -9.7362
    -9.7138  -9.6944  -9.5884  -9.5293  -9.4997  -9.3291  -9.2249  -9.2081
    -9.1672  -9.1119  -9.0011  -8.9395  -8.9039  -8.8640  -8.8098  -8.7690
    -8.6684  -8.5845  -8.4709  -8.3912  -8.3493  -8.3213  -8.2838  -8.2596
    -8.2411  -8.1850  -8.1555  -8.1402  -8.0945  -8.0331  -7.9888  -7.9443
    -7.9291  -7.9003  -7.8805  -7.8708  -7.8429  -7.8341  -7.7151  -7.6953
    -7.6405  -7.6320  -7.6037  -7.5511  -7.5370  -7.5023  -7.4571  -7.3910
    -7.3647  -7.2795  -7.2074  -7.1962  -7.1391  -7.0834  -6.9543  -6.9313
    -6.9140  -6.8989  -6.8775  -6.8251  -6.7766  -6.7380  -6.7114  -6.6887
    -6.6495  -6.6313  -6.4836  -6.4537  -6.4311  -6.3898  -6.3539  -6.2248
    -6.2019  -6.1706  -6.1490  -6.1245  -6.1131  -6.0165  -5.9599  -5.9330
    -5.8937  -5.8279  -5.8169  -5.7032  -5.6402  -5.6229  -5.5453  -5.5423
    -5.4981  -5.4617  -5.4396  -5.4166  -5.3904  -5.3800  -5.3725  -5.2417
    -5.2147  -5.1603  -5.1564  -5.1265  -4.7750  -4.7050  -4.5537  -4.4522
    -4.3465  -4.1153  -4.0774  -3.3193  -2.9622  -2.7880  -1.9246  -1.5400
    -1.3256  -1.2472  -0.8618  -0.5083  -0.1514   0.1981   0.3965   0.4826
     0.6340

     occupation numbers 
     1.0000   1.0000   1.0000   1.0000   1.0000   1.0000   1.0000   1.0000
     1.0000   1.0000   1.0000   1.0000   1.0000   1.0000   1.0000   1.0000
     1.0000   1.0000   1.0000   1.0000   1.0000   1.0000   1.0000   1.0000
     1.0000   1.0000   1.0000   1.0000   1.0000   1.0000   1.0000   1.0000
     1.0000   1.0000   1.0000   1.0000   1.0000   1.0000   1.0000   1.0000
     1.0000   1.0000   1.0000   1.0000   1.0000   1.0000   1.0000   1.0000
     1.0000   1.0000   1.0000   1.0000   1.0000   1.0000   1.0000   1.0000
     1.0000   1.0000   1.0000   1.0000   1.0000   1.0000   1.0000   1.0000
     1.0000   1.0000   1.0000   1.0000   1.0000   1.0000   1.0000   1.0000
     1.0000   1.0000   1.0000   1.0000   1.0000   1.0000   1.0000   1.0000
     1.0000   1.0000   1.0000   1.0000   1.0000   1.0000   1.0000   1.0000
     1.0000   1.0000   1.0000   1.0000   1.0000   1.0000   1.0000   1.0000
     1.0000   1.0000   1.0000   1.0000   1.0000   1.0001   1.0003   1.0005
     1.0014   1.0052   1.0064   1.0354   1.0639   1.0714   1.0784   1.0771
     1.0391   0.9759   0.9230   0.8568   0.7706   0.7339   0.7065   0.2538
     0.1874   0.0919   0.0869   0.0551   0.0000   0.0000   0.0000   0.0000
     0.0000   0.0000   0.0000   0.0000   0.0000   0.0000   0.0000   0.0000
     0.0000   0.0000   0.0000   0.0000   0.0000   0.0000   0.0000   0.0000
     0.0000

          k = 0.1875 0.3969 0.0000 ( 44536 PWs)   bands (ev):

   -11.6192 -11.3859 -10.8036 -10.4516 -10.3432 -10.3303 -10.3228 -10.2995
   -10.1633 -10.1509 -10.1036 -10.0756 -10.0442 -10.0083  -9.9531  -9.9270
    -9.8945  -9.8846  -9.8401  -9.7572  -9.7068  -9.7026  -9.6580  -9.6183
    -9.5909  -9.5310  -9.4877  -9.4012  -9.3174  -9.2565  -9.1660  -9.1588
    -9.1017  -9.0623  -9.0434  -8.9941  -8.9811  -8.9360  -8.8988  -8.8132
    -8.7432  -8.6857  -8.5438  -8.4637  -8.4582  -8.4372  -8.3922  -8.3381
    -8.3025  -8.2732  -8.2452  -8.1742  -8.1422  -8.1025  -7.9917  -7.9822
    -7.9774  -7.9267  -7.8971  -7.8889  -7.8689  -7.8299  -7.8236  -7.7970
    -7.7864  -7.7484  -7.7104  -7.5178  -7.5103  -7.4682  -7.4415  -7.4071
    -7.3224  -7.3106  -7.2867  -7.2743  -7.1721  -7.1644  -7.0900  -7.0605
    -7.0416  -7.0168  -7.0059  -6.9825  -6.9520  -6.9352  -6.8299  -6.8165
    -6.8070  -6.7038  -6.6209  -6.5874  -6.5505  -6.5101  -6.4720  -6.3657
    -6.3373  -6.3073  -6.2997  -6.2758  -6.1510  -6.1383  -6.0867  -6.0135
    -5.9484  -5.9365  -5.8211  -5.7942  -5.7012  -5.6786  -5.6623  -5.5542
    -5.5211  -5.5102  -5.4981  -5.4621  -5.4321  -5.4018  -5.3754  -5.2614
    -5.2477  -5.1739  -5.1703  -5.1332  -5.0605  -4.9530  -4.7327  -4.6095
    -4.4700  -4.2290  -3.8574  -3.4962  -3.0606  -2.5104  -1.9137  -1.4487
    -1.2477  -0.8475  -0.5890  -0.2888  -0.0004   0.2972   0.4198   0.7747
     1.2345

     occupation numbers 
     1.0000   1.0000   1.0000   1.0000   1.0000   1.0000   1.0000   1.0000
     1.0000   1.0000   1.0000   1.0000   1.0000   1.0000   1.0000   1.0000
     1.0000   1.0000   1.0000   1.0000   1.0000   1.0000   1.0000   1.0000
     1.0000   1.0000   1.0000   1.0000   1.0000   1.0000   1.0000   1.0000
     1.0000   1.0000   1.0000   1.0000   1.0000   1.0000   1.0000   1.0000
     1.0000   1.0000   1.0000   1.0000   1.0000   1.0000   1.0000   1.0000
     1.0000   1.0000   1.0000   1.0000   1.0000   1.0000   1.0000   1.0000
     1.0000   1.0000   1.0000   1.0000   1.0000   1.0000   1.0000   1.0000
     1.0000   1.0000   1.0000   1.0000   1.0000   1.0000   1.0000   1.0000
     1.0000   1.0000   1.0000   1.0000   1.0000   1.0000   1.0000   1.0000
     1.0000   1.0000   1.0000   1.0000   1.0000   1.0000   1.0000   1.0000
     1.0000   1.0000   1.0000   1.0000   1.0000   1.0000   1.0000   1.0000
     1.0000   1.0000   1.0000   1.0000   1.0000   1.0000   1.0000   1.0001
     1.0004   1.0005   1.0060   1.0096   1.0362   1.0461   1.0537   1.0812
     1.0638   1.0535   1.0392   0.9769   0.9027   0.8093   0.7171   0.3102
     0.2704   0.1113   0.1059   0.0612   0.0174   0.0017   0.0000   0.0000
     0.0000   0.0000   0.0000   0.0000   0.0000   0.0000   0.0000   0.0000
     0.0000   0.0000   0.0000   0.0000   0.0000   0.0000   0.0000   0.0000
     0.0000

          k = 0.1875-0.6856 0.0000 ( 44502 PWs)   bands (ev):

   -11.5030 -11.1438 -10.6020 -10.4918 -10.2434 -10.2109 -10.1860 -10.1596
   -10.1197 -10.0245  -9.9696  -9.9507  -9.9005  -9.8941  -9.8330  -9.8075
    -9.7870  -9.7242  -9.6488  -9.6396  -9.6280  -9.6160  -9.5858  -9.4701
    -9.4615  -9.4328  -9.3801  -9.2841  -9.2448  -9.2088  -9.1764  -9.1397
    -9.1032  -9.0886  -9.0603  -9.0146  -8.9861  -8.9089  -8.8751  -8.8643
    -8.8084  -8.7181  -8.6657  -8.6335  -8.5949  -8.5130  -8.4816  -8.3707
    -8.3571  -8.3287  -8.3054  -8.2644  -8.2275  -8.1804  -8.1540  -8.0746
    -8.0328  -8.0020  -7.9562  -7.9378  -7.9075  -7.9025  -7.8321  -7.7931
    -7.7670  -7.7422  -7.6970  -7.6624  -7.6450  -7.5995  -7.5143  -7.4605
    -7.4518  -7.4345  -7.3505  -7.3107  -7.2833  -7.2194  -7.1959  -7.1872
    -7.1566  -7.0873  -6.9954  -6.9578  -6.9112  -6.9020  -6.8939  -6.8412
    -6.8106  -6.7840  -6.6718  -6.6442  -6.6227  -6.6067  -6.5321  -6.4610
    -6.4347  -6.3729  -6.3333  -6.3045  -6.2471  -6.1600  -6.1263  -6.0969
    -6.0826  -6.0419  -5.9064  -5.8858  -5.7499  -5.7326  -5.7110  -5.6751
    -5.5995  -5.5147  -5.4776  -5.4677  -5.4478  -5.4372  -5.4052  -5.3784
    -5.3689  -5.3123  -5.3020  -5.1886  -5.1769  -5.1721  -4.8354  -4.5415
    -4.4513  -4.1965  -3.8903  -3.4992  -3.0167  -2.4330  -1.9647  -1.4222
    -0.9063  -0.6705  -0.5315  -0.3142   0.1183   0.3709   0.7277   1.0204
     1.3327

     occupation numbers 
     1.0000   1.0000   1.0000   1.0000   1.0000   1.0000   1.0000   1.0000
     1.0000   1.0000   1.0000   1.0000   1.0000   1.0000   1.0000   1.0000
     1.0000   1.0000   1.0000   1.0000   1.0000   1.0000   1.0000   1.0000
     1.0000   1.0000   1.0000   1.0000   1.0000   1.0000   1.0000   1.0000
     1.0000   1.0000   1.0000   1.0000   1.0000   1.0000   1.0000   1.0000
     1.0000   1.0000   1.0000   1.0000   1.0000   1.0000   1.0000   1.0000
     1.0000   1.0000   1.0000   1.0000   1.0000   1.0000   1.0000   1.0000
     1.0000   1.0000   1.0000   1.0000   1.0000   1.0000   1.0000   1.0000
     1.0000   1.0000   1.0000   1.0000   1.0000   1.0000   1.0000   1.0000
     1.0000   1.0000   1.0000   1.0000   1.0000   1.0000   1.0000   1.0000
     1.0000   1.0000   1.0000   1.0000   1.0000   1.0000   1.0000   1.0000
     1.0000   1.0000   1.0000   1.0000   1.0000   1.0000   1.0000   1.0000
     1.0000   1.0000   1.0000   1.0000   1.0000   1.0000   1.0000   1.0000
     1.0000   1.0000   1.0010   1.0016   1.0193   1.0245   1.0322   1.0477
     1.0794   1.0581   1.0073   0.9885   0.9439   0.9167   0.8207   0.7279
     0.6934   0.4821   0.4447   0.1354   0.1160   0.1085   0.0001   0.0000
     0.0000   0.0000   0.0000   0.0000   0.0000   0.0000   0.0000   0.0000
     0.0000   0.0000   0.0000   0.0000   0.0000   0.0000   0.0000   0.0000
     0.0000

          k = 0.1875-0.6134 0.0000 ( 44484 PWs)   bands (ev):

   -11.4528 -10.8743 -10.6388 -10.4238 -10.2935 -10.1098 -10.0844 -10.0474
   -10.0365  -9.9819  -9.9270  -9.8899  -9.8519  -9.8120  -9.7450  -9.7287
    -9.6767  -9.6476  -9.5896  -9.5609  -9.5333  -9.4943  -9.4653  -9.4059
    -9.3890  -9.3230  -9.3147  -9.2738  -9.2241  -9.2101  -9.2001  -9.1868
    -9.1661  -9.1261  -9.0290  -8.9950  -8.9774  -8.9470  -8.8837  -8.8586
    -8.8103  -8.7948  -8.7446  -8.6930  -8.6190  -8.5900  -8.5425  -8.4680
    -8.4219  -8.3548  -8.3122  -8.2619  -8.1974  -8.1832  -8.1600  -8.1271
    -8.0848  -8.0420  -8.0221  -8.0008  -7.9651  -7.9075  -7.8789  -7.8637
    -7.8485  -7.8079  -7.7508  -7.7155  -7.6915  -7.6659  -7.6445  -7.5959
    -7.5561  -7.4998  -7.4824  -7.4594  -7.2510  -7.2239  -7.1636  -7.1239
    -7.0675  -7.0475  -7.0349  -7.0226  -6.9815  -6.9362  -6.8849  -6.8574
    -6.7887  -6.7239  -6.7060  -6.6276  -6.6058  -6.5697  -6.5320  -6.4598
    -6.4415  -6.4055  -6.3789  -6.3194  -6.2612  -6.2218  -6.1813  -6.1299
    -6.0820  -6.0229  -5.9691  -5.9526  -5.9362  -5.7758  -5.7525  -5.7374
    -5.6978  -5.6643  -5.6104  -5.5155  -5.4464  -5.4389  -5.4131  -5.4062
    -5.3856  -5.3794  -5.3575  -5.3485  -5.1921  -5.1784  -4.7289  -4.4712
    -4.4083  -4.2469  -4.0534  -3.3077  -2.9222  -2.6860  -1.7572  -1.3411
    -1.0390  -0.6508  -0.3552  -0.1426   0.2222   0.3905   0.4935   1.1073
     1.8485

     occupation numbers 
     1.0000   1.0000   1.0000   1.0000   1.0000   1.0000   1.0000   1.0000
     1.0000   1.0000   1.0000   1.0000   1.0000   1.0000   1.0000   1.0000
     1.0000   1.0000   1.0000   1.0000   1.0000   1.0000   1.0000   1.0000
     1.0000   1.0000   1.0000   1.0000   1.0000   1.0000   1.0000   1.0000
     1.0000   1.0000   1.0000   1.0000   1.0000   1.0000   1.0000   1.0000
     1.0000   1.0000   1.0000   1.0000   1.0000   1.0000   1.0000   1.0000
     1.0000   1.0000   1.0000   1.0000   1.0000   1.0000   1.0000   1.0000
     1.0000   1.0000   1.0000   1.0000   1.0000   1.0000   1.0000   1.0000
     1.0000   1.0000   1.0000   1.0000   1.0000   1.0000   1.0000   1.0000
     1.0000   1.0000   1.0000   1.0000   1.0000   1.0000   1.0000   1.0000
     1.0000   1.0000   1.0000   1.0000   1.0000   1.0000   1.0000   1.0000
     1.0000   1.0000   1.0000   1.0000   1.0000   1.0000   1.0000   1.0000
     1.0000   1.0000   1.0000   1.0000   1.0000   1.0000   1.0000   1.0000
     1.0000   1.0000   1.0002   1.0003   1.0005   1.0130   1.0185   1.0230
     1.0376   1.0527   1.0761   1.0588   0.9405   0.9211   0.8460   0.8239
     0.7537   0.7315   0.6510   0.6170   0.1418   0.1183   0.0000   0.0000
     0.0000   0.0000   0.0000   0.0000   0.0000   0.0000   0.0000   0.0000
     0.0000   0.0000   0.0000   0.0000   0.0000   0.0000   0.0000   0.0000
     0.0000

          k = 0.1875-0.5413 0.0000 ( 44484 PWs)   bands (ev):

   -11.4528 -10.8743 -10.6388 -10.4238 -10.2935 -10.1098 -10.0844 -10.0474
   -10.0365  -9.9819  -9.9270  -9.8899  -9.8519  -9.8120  -9.7450  -9.7287
    -9.6767  -9.6476  -9.5896  -9.5609  -9.5333  -9.4943  -9.4653  -9.4059
    -9.3890  -9.3230  -9.3147  -9.2738  -9.2241  -9.2101  -9.2001  -9.1868
    -9.1661  -9.1261  -9.0290  -8.9950  -8.9774  -8.9470  -8.8837  -8.8586
    -8.8103  -8.7948  -8.7446  -8.6930  -8.6190  -8.5900  -8.5425  -8.4680
    -8.4219  -8.3548  -8.3122  -8.2619  -8.1974  -8.1832  -8.1600  -8.1271
    -8.0848  -8.0420  -8.0221  -8.0008  -7.9651  -7.9075  -7.8789  -7.8637
    -7.8485  -7.8079  -7.7508  -7.7155  -7.6915  -7.6659  -7.6445  -7.5959
    -7.5561  -7.4998  -7.4824  -7.4594  -7.2510  -7.2239  -7.1636  -7.1239
    -7.0675  -7.0475  -7.0349  -7.0226  -6.9815  -6.9362  -6.8849  -6.8574
    -6.7887  -6.7239  -6.7060  -6.6276  -6.6058  -6.5697  -6.5320  -6.4598
    -6.4415  -6.4055  -6.3789  -6.3194  -6.2612  -6.2218  -6.1813  -6.1299
    -6.0820  -6.0229  -5.9691  -5.9526  -5.9362  -5.7758  -5.7525  -5.7374
    -5.6978  -5.6643  -5.6104  -5.5155  -5.4464  -5.4389  -5.4131  -5.4062
    -5.3856  -5.3794  -5.3575  -5.3485  -5.1921  -5.1784  -4.7289  -4.4712
    -4.4083  -4.2469  -4.0534  -3.3077  -2.9222  -2.6860  -1.7572  -1.3411
    -1.0390  -0.6508  -0.3552  -0.1426   0.2222   0.3905   0.4935   1.1073
     1.8492

     occupation numbers 
     1.0000   1.0000   1.0000   1.0000   1.0000   1.0000   1.0000   1.0000
     1.0000   1.0000   1.0000   1.0000   1.0000   1.0000   1.0000   1.0000
     1.0000   1.0000   1.0000   1.0000   1.0000   1.0000   1.0000   1.0000
     1.0000   1.0000   1.0000   1.0000   1.0000   1.0000   1.0000   1.0000
     1.0000   1.0000   1.0000   1.0000   1.0000   1.0000   1.0000   1.0000
     1.0000   1.0000   1.0000   1.0000   1.0000   1.0000   1.0000   1.0000
     1.0000   1.0000   1.0000   1.0000   1.0000   1.0000   1.0000   1.0000
     1.0000   1.0000   1.0000   1.0000   1.0000   1.0000   1.0000   1.0000
     1.0000   1.0000   1.0000   1.0000   1.0000   1.0000   1.0000   1.0000
     1.0000   1.0000   1.0000   1.0000   1.0000   1.0000   1.0000   1.0000
     1.0000   1.0000   1.0000   1.0000   1.0000   1.0000   1.0000   1.0000
     1.0000   1.0000   1.0000   1.0000   1.0000   1.0000   1.0000   1.0000
     1.0000   1.0000   1.0000   1.0000   1.0000   1.0000   1.0000   1.0000
     1.0000   1.0000   1.0002   1.0003   1.0005   1.0130   1.0185   1.0230
     1.0376   1.0527   1.0761   1.0588   0.9405   0.9211   0.8460   0.8239
     0.7537   0.7315   0.6510   0.6170   0.1418   0.1183   0.0000   0.0000
     0.0000   0.0000   0.0000   0.0000   0.0000   0.0000   0.0000   0.0000
     0.0000   0.0000   0.0000   0.0000   0.0000   0.0000   0.0000   0.0000
     0.0000

          k = 0.1875-0.4691 0.0000 ( 44502 PWs)   bands (ev):

   -11.5030 -11.1438 -10.6020 -10.4918 -10.2434 -10.2109 -10.1860 -10.1596
   -10.1197 -10.0245  -9.9696  -9.9507  -9.9005  -9.8941  -9.8330  -9.8075
    -9.7870  -9.7242  -9.6488  -9.6396  -9.6280  -9.6160  -9.5858  -9.4701
    -9.4615  -9.4328  -9.3801  -9.2841  -9.2448  -9.2088  -9.1764  -9.1397
    -9.1032  -9.0886  -9.0603  -9.0146  -8.9861  -8.9089  -8.8751  -8.8643
    -8.8084  -8.7181  -8.6657  -8.6335  -8.5949  -8.5130  -8.4816  -8.3707
    -8.3571  -8.3287  -8.3054  -8.2644  -8.2275  -8.1804  -8.1540  -8.0746
    -8.0328  -8.0020  -7.9562  -7.9378  -7.9075  -7.9025  -7.8321  -7.7931
    -7.7670  -7.7422  -7.6970  -7.6624  -7.6450  -7.5995  -7.5143  -7.4605
    -7.4518  -7.4345  -7.3505  -7.3107  -7.2833  -7.2194  -7.1959  -7.1872
    -7.1566  -7.0873  -6.9954  -6.9578  -6.9112  -6.9020  -6.8939  -6.8412
    -6.8106  -6.7840  -6.6718  -6.6442  -6.6227  -6.6067  -6.5321  -6.4610
    -6.4347  -6.3729  -6.3333  -6.3045  -6.2471  -6.1600  -6.1263  -6.0969
    -6.0826  -6.0419  -5.9064  -5.8858  -5.7499  -5.7326  -5.7110  -5.6751
    -5.5995  -5.5147  -5.4776  -5.4677  -5.4478  -5.4372  -5.4052  -5.3784
    -5.3689  -5.3123  -5.3020  -5.1886  -5.1769  -5.1721  -4.8354  -4.5415
    -4.4513  -4.1965  -3.8903  -3.4992  -3.0167  -2.4330  -1.9647  -1.4222
    -0.9063  -0.6705  -0.5315  -0.3142   0.1183   0.3709   0.7277   1.0204
     1.3327

     occupation numbers 
     1.0000   1.0000   1.0000   1.0000   1.0000   1.0000   1.0000   1.0000
     1.0000   1.0000   1.0000   1.0000   1.0000   1.0000   1.0000   1.0000
     1.0000   1.0000   1.0000   1.0000   1.0000   1.0000   1.0000   1.0000
     1.0000   1.0000   1.0000   1.0000   1.0000   1.0000   1.0000   1.0000
     1.0000   1.0000   1.0000   1.0000   1.0000   1.0000   1.0000   1.0000
     1.0000   1.0000   1.0000   1.0000   1.0000   1.0000   1.0000   1.0000
     1.0000   1.0000   1.0000   1.0000   1.0000   1.0000   1.0000   1.0000
     1.0000   1.0000   1.0000   1.0000   1.0000   1.0000   1.0000   1.0000
     1.0000   1.0000   1.0000   1.0000   1.0000   1.0000   1.0000   1.0000
     1.0000   1.0000   1.0000   1.0000   1.0000   1.0000   1.0000   1.0000
     1.0000   1.0000   1.0000   1.0000   1.0000   1.0000   1.0000   1.0000
     1.0000   1.0000   1.0000   1.0000   1.0000   1.0000   1.0000   1.0000
     1.0000   1.0000   1.0000   1.0000   1.0000   1.0000   1.0000   1.0000
     1.0000   1.0000   1.0010   1.0016   1.0193   1.0245   1.0322   1.0477
     1.0794   1.0581   1.0073   0.9885   0.9439   0.9167   0.8207   0.7279
     0.6934   0.4821   0.4447   0.1354   0.1160   0.1085   0.0001   0.0000
     0.0000   0.0000   0.0000   0.0000   0.0000   0.0000   0.0000   0.0000
     0.0000   0.0000   0.0000   0.0000   0.0000   0.0000   0.0000   0.0000
     0.0000

          k = 0.1875-0.3969 0.0000 ( 44536 PWs)   bands (ev):

   -11.6192 -11.3859 -10.8036 -10.4516 -10.3432 -10.3303 -10.3228 -10.2995
   -10.1633 -10.1509 -10.1036 -10.0756 -10.0442 -10.0083  -9.9531  -9.9270
    -9.8945  -9.8846  -9.8401  -9.7572  -9.7068  -9.7026  -9.6580  -9.6183
    -9.5909  -9.5310  -9.4877  -9.4012  -9.3174  -9.2565  -9.1660  -9.1588
    -9.1017  -9.0623  -9.0434  -8.9941  -8.9811  -8.9360  -8.8988  -8.8132
    -8.7432  -8.6857  -8.5438  -8.4637  -8.4582  -8.4372  -8.3922  -8.3381
    -8.3025  -8.2732  -8.2452  -8.1742  -8.1422  -8.1025  -7.9917  -7.9822
    -7.9774  -7.9267  -7.8971  -7.8889  -7.8689  -7.8299  -7.8236  -7.7970
    -7.7864  -7.7484  -7.7104  -7.5178  -7.5103  -7.4682  -7.4415  -7.4071
    -7.3224  -7.3106  -7.2867  -7.2743  -7.1721  -7.1644  -7.0900  -7.0605
    -7.0416  -7.0168  -7.0059  -6.9825  -6.9520  -6.9352  -6.8299  -6.8165
    -6.8070  -6.7038  -6.6209  -6.5874  -6.5505  -6.5101  -6.4720  -6.3657
    -6.3373  -6.3073  -6.2997  -6.2758  -6.1510  -6.1383  -6.0867  -6.0135
    -5.9484  -5.9365  -5.8211  -5.7942  -5.7012  -5.6786  -5.6623  -5.5542
    -5.5211  -5.5102  -5.4981  -5.4621  -5.4321  -5.4018  -5.3754  -5.2614
    -5.2477  -5.1739  -5.1703  -5.1332  -5.0605  -4.9530  -4.7327  -4.6095
    -4.4700  -4.2290  -3.8574  -3.4962  -3.0606  -2.5104  -1.9137  -1.4487
    -1.2477  -0.8475  -0.5890  -0.2888  -0.0004   0.2972   0.4198   0.7747
     1.2345

     occupation numbers 
     1.0000   1.0000   1.0000   1.0000   1.0000   1.0000   1.0000   1.0000
     1.0000   1.0000   1.0000   1.0000   1.0000   1.0000   1.0000   1.0000
     1.0000   1.0000   1.0000   1.0000   1.0000   1.0000   1.0000   1.0000
     1.0000   1.0000   1.0000   1.0000   1.0000   1.0000   1.0000   1.0000
     1.0000   1.0000   1.0000   1.0000   1.0000   1.0000   1.0000   1.0000
     1.0000   1.0000   1.0000   1.0000   1.0000   1.0000   1.0000   1.0000
     1.0000   1.0000   1.0000   1.0000   1.0000   1.0000   1.0000   1.0000
     1.0000   1.0000   1.0000   1.0000   1.0000   1.0000   1.0000   1.0000
     1.0000   1.0000   1.0000   1.0000   1.0000   1.0000   1.0000   1.0000
     1.0000   1.0000   1.0000   1.0000   1.0000   1.0000   1.0000   1.0000
     1.0000   1.0000   1.0000   1.0000   1.0000   1.0000   1.0000   1.0000
     1.0000   1.0000   1.0000   1.0000   1.0000   1.0000   1.0000   1.0000
     1.0000   1.0000   1.0000   1.0000   1.0000   1.0000   1.0000   1.0001
     1.0004   1.0005   1.0060   1.0096   1.0362   1.0461   1.0537   1.0812
     1.0638   1.0535   1.0392   0.9769   0.9027   0.8093   0.7171   0.3102
     0.2704   0.1113   0.1059   0.0612   0.0174   0.0017   0.0000   0.0000
     0.0000   0.0000   0.0000   0.0000   0.0000   0.0000   0.0000   0.0000
     0.0000   0.0000   0.0000   0.0000   0.0000   0.0000   0.0000   0.0000
     0.0000

          k = 0.1875-0.3248 0.0000 ( 44577 PWs)   bands (ev):

   -11.8112 -11.5558 -11.0006 -10.4726 -10.4705 -10.4604 -10.4573 -10.4499
   -10.3377 -10.2594 -10.2398 -10.2349 -10.1653 -10.1142 -10.1100 -10.0507
   -10.0316 -10.0142  -9.9908  -9.9080  -9.8122  -9.7996  -9.7732  -9.7362
    -9.7138  -9.6944  -9.5884  -9.5293  -9.4997  -9.3291  -9.2249  -9.2081
    -9.1672  -9.1119  -9.0011  -8.9395  -8.9039  -8.8640  -8.8098  -8.7690
    -8.6684  -8.5845  -8.4709  -8.3912  -8.3493  -8.3213  -8.2838  -8.2596
    -8.2411  -8.1850  -8.1555  -8.1402  -8.0945  -8.0331  -7.9888  -7.9443
    -7.9291  -7.9003  -7.8805  -7.8708  -7.8429  -7.8341  -7.7151  -7.6953
    -7.6405  -7.6320  -7.6037  -7.5511  -7.5370  -7.5023  -7.4571  -7.3910
    -7.3647  -7.2795  -7.2074  -7.1962  -7.1391  -7.0834  -6.9543  -6.9313
    -6.9140  -6.8989  -6.8775  -6.8251  -6.7766  -6.7380  -6.7114  -6.6887
    -6.6495  -6.6313  -6.4836  -6.4537  -6.4311  -6.3898  -6.3539  -6.2248
    -6.2019  -6.1706  -6.1490  -6.1245  -6.1131  -6.0165  -5.9599  -5.9330
    -5.8937  -5.8279  -5.8169  -5.7032  -5.6402  -5.6229  -5.5453  -5.5423
    -5.4981  -5.4617  -5.4396  -5.4166  -5.3904  -5.3800  -5.3725  -5.2417
    -5.2147  -5.1603  -5.1564  -5.1265  -4.7750  -4.7050  -4.5537  -4.4522
    -4.3465  -4.1153  -4.0774  -3.3193  -2.9622  -2.7880  -1.9246  -1.5400
    -1.3256  -1.2472  -0.8618  -0.5083  -0.1514   0.1981   0.3965   0.4826
     0.6340

     occupation numbers 
     1.0000   1.0000   1.0000   1.0000   1.0000   1.0000   1.0000   1.0000
     1.0000   1.0000   1.0000   1.0000   1.0000   1.0000   1.0000   1.0000
     1.0000   1.0000   1.0000   1.0000   1.0000   1.0000   1.0000   1.0000
     1.0000   1.0000   1.0000   1.0000   1.0000   1.0000   1.0000   1.0000
     1.0000   1.0000   1.0000   1.0000   1.0000   1.0000   1.0000   1.0000
     1.0000   1.0000   1.0000   1.0000   1.0000   1.0000   1.0000   1.0000
     1.0000   1.0000   1.0000   1.0000   1.0000   1.0000   1.0000   1.0000
     1.0000   1.0000   1.0000   1.0000   1.0000   1.0000   1.0000   1.0000
     1.0000   1.0000   1.0000   1.0000   1.0000   1.0000   1.0000   1.0000
     1.0000   1.0000   1.0000   1.0000   1.0000   1.0000   1.0000   1.0000
     1.0000   1.0000   1.0000   1.0000   1.0000   1.0000   1.0000   1.0000
     1.0000   1.0000   1.0000   1.0000   1.0000   1.0000   1.0000   1.0000
     1.0000   1.0000   1.0000   1.0000   1.0000   1.0001   1.0003   1.0005
     1.0014   1.0052   1.0064   1.0354   1.0639   1.0714   1.0784   1.0771
     1.0391   0.9759   0.9230   0.8568   0.7706   0.7339   0.7065   0.2538
     0.1874   0.0919   0.0869   0.0551   0.0000   0.0000   0.0000   0.0000
     0.0000   0.0000   0.0000   0.0000   0.0000   0.0000   0.0000   0.0000
     0.0000   0.0000   0.0000   0.0000   0.0000   0.0000   0.0000   0.0000
     0.0000

          k = 0.1875-0.2526 0.0000 ( 44582 PWs)   bands (ev):

   -12.0163 -11.6862 -11.1682 -10.6057 -10.5799 -10.5784 -10.5656 -10.5267
   -10.4871 -10.4259 -10.3479 -10.3254 -10.3204 -10.2568 -10.2228 -10.1962
   -10.1491 -10.1140 -10.0763 -10.0589  -9.9274  -9.8982  -9.8822  -9.8653
    -9.8429  -9.8231  -9.6877  -9.6649  -9.6408  -9.4397  -9.3683  -9.2624
    -9.2353  -9.0926  -8.9329  -8.8370  -8.8269  -8.7993  -8.7571  -8.6506
    -8.6094  -8.4654  -8.4495  -8.3895  -8.3125  -8.2365  -8.2237  -8.2138
    -8.1966  -8.1192  -8.1015  -8.0722  -8.0365  -8.0032  -7.9661  -7.9593
    -7.9450  -7.9314  -7.8836  -7.8514  -7.8257  -7.7967  -7.7573  -7.7092
    -7.6615  -7.5865  -7.5392  -7.4657  -7.4590  -7.4272  -7.3716  -7.3480
    -7.3409  -7.3197  -7.2517  -7.0271  -6.9868  -6.9363  -6.9022  -6.8794
    -6.8486  -6.7986  -6.6997  -6.6588  -6.5857  -6.5554  -6.4833  -6.4455
    -6.4097  -6.3808  -6.3622  -6.3313  -6.3196  -6.3005  -6.2039  -6.1504
    -6.0062  -5.9864  -5.9434  -5.9326  -5.9126  -5.8889  -5.8553  -5.8085
    -5.7678  -5.7413  -5.6987  -5.6475  -5.6190  -5.5755  -5.5599  -5.4576
    -5.4364  -5.4231  -5.4063  -5.3889  -5.3729  -5.3639  -5.3420  -5.2506
    -5.1968  -5.1382  -5.0747  -5.0594  -4.9000  -4.6364  -4.4426  -4.2400
    -4.2216  -3.8805  -3.5948  -3.3826  -3.0224  -2.5681  -2.2904  -1.8903
    -1.5785  -1.3111  -1.0631  -0.8613  -0.5096  -0.0942   0.2016   0.4360
     0.7070

     occupation numbers 
     1.0000   1.0000   1.0000   1.0000   1.0000   1.0000   1.0000   1.0000
     1.0000   1.0000   1.0000   1.0000   1.0000   1.0000   1.0000   1.0000
     1.0000   1.0000   1.0000   1.0000   1.0000   1.0000   1.0000   1.0000
     1.0000   1.0000   1.0000   1.0000   1.0000   1.0000   1.0000   1.0000
     1.0000   1.0000   1.0000   1.0000   1.0000   1.0000   1.0000   1.0000
     1.0000   1.0000   1.0000   1.0000   1.0000   1.0000   1.0000   1.0000
     1.0000   1.0000   1.0000   1.0000   1.0000   1.0000   1.0000   1.0000
     1.0000   1.0000   1.0000   1.0000   1.0000   1.0000   1.0000   1.0000
     1.0000   1.0000   1.0000   1.0000   1.0000   1.0000   1.0000   1.0000
     1.0000   1.0000   1.0000   1.0000   1.0000   1.0000   1.0000   1.0000
     1.0000   1.0000   1.0000   1.0000   1.0000   1.0000   1.0000   1.0000
     1.0000   1.0000   1.0000   1.0000   1.0000   1.0000   1.0000   1.0000
     1.0001   1.0001   1.0004   1.0005   1.0009   1.0015   1.0031   1.0075
     1.0147   1.0218   1.0372   1.0606   1.0729   1.0833   1.0823   0.9669
     0.9145   0.8768   0.8244   0.7652   0.7080   0.6750   0.5925   0.2785
     0.1505   0.0662   0.0226   0.0170   0.0004   0.0000   0.0000   0.0000
     0.0000   0.0000   0.0000   0.0000   0.0000   0.0000   0.0000   0.0000
     0.0000   0.0000   0.0000   0.0000   0.0000   0.0000   0.0000   0.0000
     0.0000

          k = 0.1875-0.1804 0.0000 ( 44582 PWs)   bands (ev):

   -12.1864 -11.7966 -11.2965 -10.7160 -10.6848 -10.6670 -10.6562 -10.6423
   -10.5612 -10.5335 -10.4583 -10.4307 -10.3968 -10.3618 -10.3559 -10.2751
   -10.2400 -10.2288 -10.2064 -10.1136 -10.0428  -9.9995  -9.9781  -9.9546
    -9.9403  -9.9109  -9.8030  -9.7674  -9.7327  -9.5959  -9.4302  -9.3083
    -9.2840  -9.0811  -8.8793  -8.8231  -8.7376  -8.7172  -8.6536  -8.5820
    -8.5403  -8.5253  -8.3623  -8.3119  -8.2987  -8.2648  -8.2272  -8.2028
    -8.1685  -8.1233  -8.1065  -8.0390  -8.0297  -8.0260  -8.0033  -7.9567
    -7.9357  -7.8744  -7.8485  -7.8301  -7.8165  -7.7763  -7.7521  -7.6988
    -7.6569  -7.5982  -7.5710  -7.5233  -7.5040  -7.4829  -7.3355  -7.1687
    -7.1504  -7.1055  -7.0311  -6.9689  -6.9004  -6.8744  -6.8495  -6.8268
    -6.7732  -6.6985  -6.5610  -6.5092  -6.4639  -6.3712  -6.3184  -6.3078
    -6.2914  -6.2646  -6.2449  -6.1928  -6.1480  -6.1279  -6.0609  -5.9513
    -5.8879  -5.8653  -5.8380  -5.7662  -5.7180  -5.6911  -5.6776  -5.6585
    -5.6470  -5.6282  -5.5930  -5.5696  -5.5335  -5.5079  -5.4788  -5.4558
    -5.3986  -5.3755  -5.3653  -5.3346  -5.3325  -5.3200  -5.2997  -5.1848
    -5.1730  -5.1081  -5.0476  -5.0020  -4.9988  -4.7932  -4.4771  -4.2211
    -3.7407  -3.6727  -3.2429  -3.1023  -2.8565  -2.7215  -2.5383  -2.1255
    -1.9593  -1.6094  -1.3479  -1.0571  -0.6943  -0.3756   0.1298   0.4522
     0.7234

     occupation numbers 
     1.0000   1.0000   1.0000   1.0000   1.0000   1.0000   1.0000   1.0000
     1.0000   1.0000   1.0000   1.0000   1.0000   1.0000   1.0000   1.0000
     1.0000   1.0000   1.0000   1.0000   1.0000   1.0000   1.0000   1.0000
     1.0000   1.0000   1.0000   1.0000   1.0000   1.0000   1.0000   1.0000
     1.0000   1.0000   1.0000   1.0000   1.0000   1.0000   1.0000   1.0000
     1.0000   1.0000   1.0000   1.0000   1.0000   1.0000   1.0000   1.0000
     1.0000   1.0000   1.0000   1.0000   1.0000   1.0000   1.0000   1.0000
     1.0000   1.0000   1.0000   1.0000   1.0000   1.0000   1.0000   1.0000
     1.0000   1.0000   1.0000   1.0000   1.0000   1.0000   1.0000   1.0000
     1.0000   1.0000   1.0000   1.0000   1.0000   1.0000   1.0000   1.0000
     1.0000   1.0000   1.0000   1.0000   1.0000   1.0000   1.0000   1.0000
     1.0000   1.0000   1.0000   1.0000   1.0000   1.0000   1.0000   1.0003
     1.0015   1.0025   1.0043   1.0151   1.0296   1.0405   1.0465   1.0554
     1.0608   1.0692   1.0810   1.0833   1.0726   1.0510   1.0096   0.9630
     0.7986   0.7176   0.6799   0.5647   0.5569   0.5104   0.4367   0.1289
     0.1099   0.0408   0.0135   0.0052   0.0049   0.0000   0.0000   0.0000
     0.0000   0.0000   0.0000   0.0000   0.0000   0.0000   0.0000   0.0000
     0.0000   0.0000   0.0000   0.0000   0.0000   0.0000   0.0000   0.0000
     0.0000

          k = 0.2500-0.1443 0.0000 ( 44592 PWs)   bands (ev):

   -12.0933 -11.7015 -11.2166 -10.6799 -10.6559 -10.6208 -10.6118 -10.5838
   -10.4947 -10.4381 -10.4321 -10.4026 -10.3335 -10.3233 -10.3193 -10.2318
   -10.1927 -10.1848 -10.1379 -10.0190  -9.9930  -9.9602  -9.9449  -9.9103
    -9.8941  -9.8549  -9.7747  -9.7414  -9.6466  -9.5561  -9.3825  -9.2898
    -9.2591  -9.0807  -8.9198  -8.8456  -8.8090  -8.6838  -8.6628  -8.6508
    -8.5941  -8.5628  -8.4053  -8.3586  -8.2985  -8.2434  -8.2291  -8.1951
    -8.1638  -8.1141  -8.0846  -8.0400  -8.0137  -8.0035  -7.9905  -7.9742
    -7.9643  -7.8944  -7.8605  -7.8354  -7.7870  -7.7753  -7.7653  -7.7229
    -7.7005  -7.6085  -7.5416  -7.5242  -7.4993  -7.4573  -7.3899  -7.2735
    -7.2593  -7.1899  -7.1052  -7.0015  -6.9493  -6.9135  -6.8883  -6.8671
    -6.8541  -6.7807  -6.5979  -6.5291  -6.4803  -6.4711  -6.4362  -6.3816
    -6.3508  -6.3202  -6.2772  -6.2595  -6.2410  -6.2208  -6.1773  -5.9482
    -5.9113  -5.9030  -5.8864  -5.8037  -5.7950  -5.7622  -5.7489  -5.7282
    -5.7211  -5.7097  -5.6870  -5.6287  -5.6190  -5.5584  -5.5182  -5.5053
    -5.4598  -5.4232  -5.3880  -5.3745  -5.3372  -5.3058  -5.3041  -5.2640
    -5.1669  -5.1604  -5.1253  -4.9903  -4.9762  -4.9345  -4.7223  -4.5388
    -3.6462  -3.2389  -3.0314  -3.0187  -2.6611  -2.5662  -2.4792  -2.2118
    -2.1321  -1.6810  -1.3995  -1.3554  -0.4246  -0.2081   0.2962   0.7410
     0.8469

     occupation numbers 
     1.0000   1.0000   1.0000   1.0000   1.0000   1.0000   1.0000   1.0000
     1.0000   1.0000   1.0000   1.0000   1.0000   1.0000   1.0000   1.0000
     1.0000   1.0000   1.0000   1.0000   1.0000   1.0000   1.0000   1.0000
     1.0000   1.0000   1.0000   1.0000   1.0000   1.0000   1.0000   1.0000
     1.0000   1.0000   1.0000   1.0000   1.0000   1.0000   1.0000   1.0000
     1.0000   1.0000   1.0000   1.0000   1.0000   1.0000   1.0000   1.0000
     1.0000   1.0000   1.0000   1.0000   1.0000   1.0000   1.0000   1.0000
     1.0000   1.0000   1.0000   1.0000   1.0000   1.0000   1.0000   1.0000
     1.0000   1.0000   1.0000   1.0000   1.0000   1.0000   1.0000   1.0000
     1.0000   1.0000   1.0000   1.0000   1.0000   1.0000   1.0000   1.0000
     1.0000   1.0000   1.0000   1.0000   1.0000   1.0000   1.0000   1.0000
     1.0000   1.0000   1.0000   1.0000   1.0000   1.0000   1.0000   1.0004
     1.0009   1.0011   1.0016   1.0081   1.0095   1.0161   1.0195   1.0260
     1.0285   1.0328   1.0423   1.0690   1.0729   1.0821   1.0613   1.0482
     0.9719   0.8769   0.7622   0.7137   0.5744   0.4583   0.4521   0.3181
     0.1010   0.0921   0.0540   0.0040   0.0029   0.0011   0.0000   0.0000
     0.0000   0.0000   0.0000   0.0000   0.0000   0.0000   0.0000   0.0000
     0.0000   0.0000   0.0000   0.0000   0.0000   0.0000   0.0000   0.0000
     0.0000

          k = 0.2500-0.0722 0.0000 ( 44582 PWs)   bands (ev):

   -12.1802 -11.7610 -11.2774 -10.7159 -10.6822 -10.6663 -10.6567 -10.6410
   -10.5607 -10.5408 -10.4534 -10.4301 -10.3968 -10.3620 -10.3551 -10.2845
   -10.2357 -10.2278 -10.2048 -10.1146 -10.0415  -9.9921  -9.9763  -9.9515
    -9.9344  -9.8986  -9.8536  -9.7776  -9.6838  -9.6635  -9.4074  -9.3080
    -9.2850  -9.0737  -8.9113  -8.8120  -8.7392  -8.7181  -8.6656  -8.6244
    -8.5436  -8.4937  -8.3669  -8.3129  -8.3022  -8.2624  -8.2461  -8.1943
    -8.1746  -8.1234  -8.1021  -8.0346  -8.0274  -8.0154  -7.9977  -7.9643
    -7.9320  -7.8851  -7.8544  -7.8342  -7.8224  -7.7803  -7.7591  -7.7186
    -7.6702  -7.6294  -7.5730  -7.5344  -7.5056  -7.4657  -7.3378  -7.1656
    -7.1505  -7.1033  -7.0439  -6.9635  -6.9017  -6.8732  -6.8461  -6.8292
    -6.8125  -6.6840  -6.5606  -6.5016  -6.4585  -6.3648  -6.3318  -6.3041
    -6.2804  -6.2619  -6.2432  -6.1940  -6.1460  -6.1290  -6.0619  -5.9407
    -5.8747  -5.8519  -5.8355  -5.7787  -5.7210  -5.6959  -5.6775  -5.6571
    -5.6428  -5.6276  -5.5890  -5.5694  -5.5377  -5.5014  -5.4788  -5.4556
    -5.4049  -5.3769  -5.3612  -5.3364  -5.3298  -5.3225  -5.2973  -5.1844
    -5.1747  -5.1104  -5.0314  -4.9997  -4.9938  -4.7824  -4.4636  -4.2100
    -3.7979  -3.6242  -3.2623  -3.0836  -2.8628  -2.6835  -2.5308  -2.1036
    -1.9554  -1.4966  -1.3805  -0.9864  -0.7367  -0.3179   0.1518   0.3715
     0.7250

     occupation numbers 
     1.0000   1.0000   1.0000   1.0000   1.0000   1.0000   1.0000   1.0000
     1.0000   1.0000   1.0000   1.0000   1.0000   1.0000   1.0000   1.0000
     1.0000   1.0000   1.0000   1.0000   1.0000   1.0000   1.0000   1.0000
     1.0000   1.0000   1.0000   1.0000   1.0000   1.0000   1.0000   1.0000
     1.0000   1.0000   1.0000   1.0000   1.0000   1.0000   1.0000   1.0000
     1.0000   1.0000   1.0000   1.0000   1.0000   1.0000   1.0000   1.0000
     1.0000   1.0000   1.0000   1.0000   1.0000   1.0000   1.0000   1.0000
     1.0000   1.0000   1.0000   1.0000   1.0000   1.0000   1.0000   1.0000
     1.0000   1.0000   1.0000   1.0000   1.0000   1.0000   1.0000   1.0000
     1.0000   1.0000   1.0000   1.0000   1.0000   1.0000   1.0000   1.0000
     1.0000   1.0000   1.0000   1.0000   1.0000   1.0000   1.0000   1.0000
     1.0000   1.0000   1.0000   1.0000   1.0000   1.0000   1.0000   1.0004
     1.0020   1.0033   1.0045   1.0124   1.0285   1.0384   1.0466   1.0561
     1.0628   1.0695   1.0818   1.0833   1.0750   1.0435   1.0095   0.9624
     0.8198   0.7225   0.6650   0.5716   0.5466   0.5195   0.4280   0.1281
     0.1124   0.0424   0.0098   0.0050   0.0044   0.0000   0.0000   0.0000
     0.0000   0.0000   0.0000   0.0000   0.0000   0.0000   0.0000   0.0000
     0.0000   0.0000   0.0000   0.0000   0.0000   0.0000   0.0000   0.0000
     0.0000

          k = 0.2500 0.0000 0.0000 ( 44571 PWs)   bands (ev):

   -12.2096 -11.7817 -11.2977 -10.7183 -10.7096 -10.6881 -10.6667 -10.6144
   -10.6117 -10.5830 -10.4606 -10.4317 -10.4286 -10.3671 -10.3474 -10.3404
   -10.2469 -10.2289 -10.1934 -10.1903 -10.0563 -10.0029  -9.9763  -9.9658
    -9.9427  -9.9181  -9.8919  -9.7671  -9.7331  -9.6831  -9.4152  -9.3134
    -9.2942  -9.0706  -8.9102  -8.7913  -8.7467  -8.6950  -8.6787  -8.6239
    -8.5278  -8.4439  -8.3783  -8.3074  -8.2875  -8.2617  -8.2595  -8.2034
    -8.1826  -8.1295  -8.1054  -8.0445  -8.0395  -8.0148  -7.9880  -7.9524
    -7.8979  -7.8847  -7.8674  -7.8539  -7.8392  -7.7909  -7.7667  -7.7063
    -7.6379  -7.6326  -7.5800  -7.5336  -7.5195  -7.4461  -7.3289  -7.1217
    -7.1131  -7.0995  -7.0210  -6.9268  -6.9090  -6.8596  -6.8316  -6.8040
    -6.7953  -6.6042  -6.5734  -6.5124  -6.4628  -6.3497  -6.2889  -6.2580
    -6.2547  -6.2440  -6.2301  -6.1555  -6.1089  -6.0939  -6.0202  -5.9285
    -5.8914  -5.8601  -5.8217  -5.8150  -5.6909  -5.6590  -5.6505  -5.6241
    -5.5818  -5.5649  -5.5471  -5.5335  -5.5230  -5.4955  -5.4591  -5.4357
    -5.4201  -5.3859  -5.3619  -5.3493  -5.3472  -5.3283  -5.2493  -5.2347
    -5.1746  -5.0657  -5.0625  -5.0326  -4.8464  -4.4381  -4.3666  -4.0589
    -3.8535  -3.7283  -3.5096  -3.4934  -2.8812  -2.6492  -2.5100  -2.3096
    -1.6535  -1.2560  -1.0672  -0.9540  -0.6900  -0.4856  -0.4159   0.3563
     0.7087

     occupation numbers 
     1.0000   1.0000   1.0000   1.0000   1.0000   1.0000   1.0000   1.0000
     1.0000   1.0000   1.0000   1.0000   1.0000   1.0000   1.0000   1.0000
     1.0000   1.0000   1.0000   1.0000   1.0000   1.0000   1.0000   1.0000
     1.0000   1.0000   1.0000   1.0000   1.0000   1.0000   1.0000   1.0000
     1.0000   1.0000   1.0000   1.0000   1.0000   1.0000   1.0000   1.0000
     1.0000   1.0000   1.0000   1.0000   1.0000   1.0000   1.0000   1.0000
     1.0000   1.0000   1.0000   1.0000   1.0000   1.0000   1.0000   1.0000
     1.0000   1.0000   1.0000   1.0000   1.0000   1.0000   1.0000   1.0000
     1.0000   1.0000   1.0000   1.0000   1.0000   1.0000   1.0000   1.0000
     1.0000   1.0000   1.0000   1.0000   1.0000   1.0000   1.0000   1.0000
     1.0000   1.0000   1.0000   1.0000   1.0000   1.0000   1.0000   1.0000
     1.0000   1.0000   1.0000   1.0000   1.0000   1.0000   1.0001   1.0006
     1.0014   1.0028   1.0059   1.0067   1.0406   1.0552   1.0592   1.0709
     1.0828   1.0830   1.0791   1.0726   1.0653   1.0357   0.9704   0.9124
     0.8678   0.7548   0.6675   0.6201   0.6123   0.5411   0.2747   0.2353
     0.1124   0.0192   0.0181   0.0100   0.0001   0.0000   0.0000   0.0000
     0.0000   0.0000   0.0000   0.0000   0.0000   0.0000   0.0000   0.0000
     0.0000   0.0000   0.0000   0.0000   0.0000   0.0000   0.0000   0.0000
     0.0000

          k = 0.2500 0.0722 0.0000 ( 44582 PWs)   bands (ev):

   -12.1802 -11.7610 -11.2774 -10.7159 -10.6822 -10.6663 -10.6567 -10.6410
   -10.5607 -10.5408 -10.4534 -10.4301 -10.3968 -10.3620 -10.3551 -10.2845
   -10.2357 -10.2278 -10.2048 -10.1146 -10.0415  -9.9921  -9.9763  -9.9515
    -9.9344  -9.8986  -9.8536  -9.7776  -9.6838  -9.6635  -9.4074  -9.3080
    -9.2850  -9.0737  -8.9113  -8.8120  -8.7392  -8.7181  -8.6656  -8.6244
    -8.5436  -8.4937  -8.3669  -8.3129  -8.3022  -8.2624  -8.2461  -8.1943
    -8.1746  -8.1234  -8.1021  -8.0346  -8.0274  -8.0154  -7.9977  -7.9643
    -7.9320  -7.8851  -7.8544  -7.8342  -7.8224  -7.7803  -7.7591  -7.7186
    -7.6702  -7.6294  -7.5730  -7.5344  -7.5056  -7.4657  -7.3378  -7.1656
    -7.1505  -7.1033  -7.0439  -6.9635  -6.9017  -6.8732  -6.8461  -6.8292
    -6.8125  -6.6840  -6.5606  -6.5016  -6.4585  -6.3648  -6.3318  -6.3041
    -6.2804  -6.2619  -6.2432  -6.1940  -6.1460  -6.1290  -6.0619  -5.9407
    -5.8747  -5.8519  -5.8355  -5.7787  -5.7210  -5.6959  -5.6775  -5.6571
    -5.6428  -5.6276  -5.5890  -5.5694  -5.5377  -5.5014  -5.4788  -5.4556
    -5.4049  -5.3769  -5.3612  -5.3364  -5.3298  -5.3225  -5.2973  -5.1844
    -5.1747  -5.1104  -5.0314  -4.9997  -4.9938  -4.7824  -4.4636  -4.2100
    -3.7979  -3.6242  -3.2623  -3.0836  -2.8628  -2.6835  -2.5308  -2.1036
    -1.9554  -1.4966  -1.3805  -0.9864  -0.7367  -0.3179   0.1518   0.3715
     0.7250

     occupation numbers 
     1.0000   1.0000   1.0000   1.0000   1.0000   1.0000   1.0000   1.0000
     1.0000   1.0000   1.0000   1.0000   1.0000   1.0000   1.0000   1.0000
     1.0000   1.0000   1.0000   1.0000   1.0000   1.0000   1.0000   1.0000
     1.0000   1.0000   1.0000   1.0000   1.0000   1.0000   1.0000   1.0000
     1.0000   1.0000   1.0000   1.0000   1.0000   1.0000   1.0000   1.0000
     1.0000   1.0000   1.0000   1.0000   1.0000   1.0000   1.0000   1.0000
     1.0000   1.0000   1.0000   1.0000   1.0000   1.0000   1.0000   1.0000
     1.0000   1.0000   1.0000   1.0000   1.0000   1.0000   1.0000   1.0000
     1.0000   1.0000   1.0000   1.0000   1.0000   1.0000   1.0000   1.0000
     1.0000   1.0000   1.0000   1.0000   1.0000   1.0000   1.0000   1.0000
     1.0000   1.0000   1.0000   1.0000   1.0000   1.0000   1.0000   1.0000
     1.0000   1.0000   1.0000   1.0000   1.0000   1.0000   1.0000   1.0004
     1.0020   1.0033   1.0045   1.0124   1.0285   1.0384   1.0466   1.0561
     1.0628   1.0695   1.0818   1.0833   1.0750   1.0435   1.0095   0.9624
     0.8198   0.7225   0.6650   0.5716   0.5466   0.5195   0.4280   0.1281
     0.1124   0.0424   0.0098   0.0050   0.0044   0.0000   0.0000   0.0000
     0.0000   0.0000   0.0000   0.0000   0.0000   0.0000   0.0000   0.0000
     0.0000   0.0000   0.0000   0.0000   0.0000   0.0000   0.0000   0.0000
     0.0000

          k = 0.2500 0.1443 0.0000 ( 44592 PWs)   bands (ev):

   -12.0933 -11.7015 -11.2166 -10.6799 -10.6559 -10.6208 -10.6118 -10.5838
   -10.4947 -10.4381 -10.4321 -10.4026 -10.3335 -10.3233 -10.3193 -10.2318
   -10.1927 -10.1848 -10.1379 -10.0190  -9.9930  -9.9602  -9.9449  -9.9103
    -9.8941  -9.8549  -9.7747  -9.7414  -9.6466  -9.5561  -9.3825  -9.2898
    -9.2591  -9.0807  -8.9198  -8.8456  -8.8090  -8.6838  -8.6628  -8.6508
    -8.5941  -8.5628  -8.4053  -8.3586  -8.2985  -8.2434  -8.2291  -8.1951
    -8.1638  -8.1141  -8.0846  -8.0400  -8.0137  -8.0035  -7.9905  -7.9742
    -7.9643  -7.8944  -7.8605  -7.8354  -7.7870  -7.7753  -7.7653  -7.7229
    -7.7005  -7.6085  -7.5416  -7.5242  -7.4993  -7.4573  -7.3899  -7.2735
    -7.2593  -7.1899  -7.1052  -7.0015  -6.9493  -6.9135  -6.8883  -6.8671
    -6.8541  -6.7807  -6.5979  -6.5291  -6.4803  -6.4711  -6.4362  -6.3816
    -6.3508  -6.3202  -6.2772  -6.2595  -6.2410  -6.2208  -6.1773  -5.9482
    -5.9113  -5.9030  -5.8864  -5.8037  -5.7950  -5.7622  -5.7489  -5.7282
    -5.7211  -5.7097  -5.6870  -5.6287  -5.6190  -5.5584  -5.5182  -5.5053
    -5.4598  -5.4232  -5.3880  -5.3745  -5.3372  -5.3058  -5.3041  -5.2640
    -5.1669  -5.1604  -5.1253  -4.9903  -4.9762  -4.9345  -4.7223  -4.5388
    -3.6462  -3.2389  -3.0314  -3.0187  -2.6611  -2.5662  -2.4792  -2.2118
    -2.1321  -1.6810  -1.3995  -1.3554  -0.4246  -0.2081   0.2962   0.7410
     0.8469

     occupation numbers 
     1.0000   1.0000   1.0000   1.0000   1.0000   1.0000   1.0000   1.0000
     1.0000   1.0000   1.0000   1.0000   1.0000   1.0000   1.0000   1.0000
     1.0000   1.0000   1.0000   1.0000   1.0000   1.0000   1.0000   1.0000
     1.0000   1.0000   1.0000   1.0000   1.0000   1.0000   1.0000   1.0000
     1.0000   1.0000   1.0000   1.0000   1.0000   1.0000   1.0000   1.0000
     1.0000   1.0000   1.0000   1.0000   1.0000   1.0000   1.0000   1.0000
     1.0000   1.0000   1.0000   1.0000   1.0000   1.0000   1.0000   1.0000
     1.0000   1.0000   1.0000   1.0000   1.0000   1.0000   1.0000   1.0000
     1.0000   1.0000   1.0000   1.0000   1.0000   1.0000   1.0000   1.0000
     1.0000   1.0000   1.0000   1.0000   1.0000   1.0000   1.0000   1.0000
     1.0000   1.0000   1.0000   1.0000   1.0000   1.0000   1.0000   1.0000
     1.0000   1.0000   1.0000   1.0000   1.0000   1.0000   1.0000   1.0004
     1.0009   1.0011   1.0016   1.0081   1.0095   1.0161   1.0195   1.0260
     1.0285   1.0328   1.0423   1.0690   1.0729   1.0821   1.0613   1.0482
     0.9719   0.8769   0.7622   0.7137   0.5744   0.4583   0.4521   0.3181
     0.1010   0.0921   0.0540   0.0040   0.0029   0.0011   0.0000   0.0000
     0.0000   0.0000   0.0000   0.0000   0.0000   0.0000   0.0000   0.0000
     0.0000   0.0000   0.0000   0.0000   0.0000   0.0000   0.0000   0.0000
     0.0000

          k = 0.2500 0.2165 0.0000 ( 44578 PWs)   bands (ev):

   -11.9530 -11.6107 -11.1153 -10.6222 -10.6015 -10.5352 -10.5325 -10.4814
   -10.4008 -10.3864 -10.3458 -10.3095 -10.2669 -10.2639 -10.2038 -10.1833
   -10.1161 -10.0857 -10.0312  -9.9644  -9.9036  -9.8884  -9.8520  -9.8460
    -9.8151  -9.7893  -9.6891  -9.6442  -9.5935  -9.4099  -9.3351  -9.2543
    -9.2178  -9.0899  -8.9524  -8.9067  -8.8498  -8.7625  -8.7312  -8.6741
    -8.6168  -8.5678  -8.4930  -8.4237  -8.3049  -8.2627  -8.2316  -8.1993
    -8.1792  -8.1235  -8.0816  -8.0652  -8.0373  -8.0042  -7.9856  -7.9539
    -7.9505  -7.9236  -7.8852  -7.8481  -7.8365  -7.7875  -7.7404  -7.6749
    -7.6424  -7.5913  -7.5282  -7.5059  -7.4811  -7.4466  -7.4187  -7.4091
    -7.3528  -7.3238  -7.2887  -7.0789  -7.0318  -6.9865  -6.9285  -6.8975
    -6.8808  -6.8454  -6.7129  -6.6749  -6.6419  -6.6009  -6.5322  -6.4846
    -6.4737  -6.4376  -6.3998  -6.3764  -6.3547  -6.2683  -6.2201  -6.1256
    -6.0460  -6.0125  -5.9842  -5.9766  -5.9175  -5.8883  -5.8666  -5.8540
    -5.8200  -5.8069  -5.7780  -5.6963  -5.6754  -5.6676  -5.5927  -5.5535
    -5.4914  -5.4296  -5.4096  -5.3714  -5.3461  -5.3276  -5.3222  -5.2858
    -5.1818  -5.1763  -5.1561  -5.0588  -5.0077  -5.0009  -4.8378  -4.4086
    -3.6272  -3.5580  -3.2340  -3.1471  -2.8213  -2.3747  -2.2277  -1.9646
    -1.8558  -1.7006  -1.4489  -0.8570  -0.5125   0.0380   0.2375   0.7997
     1.0100

     occupation numbers 
     1.0000   1.0000   1.0000   1.0000   1.0000   1.0000   1.0000   1.0000
     1.0000   1.0000   1.0000   1.0000   1.0000   1.0000   1.0000   1.0000
     1.0000   1.0000   1.0000   1.0000   1.0000   1.0000   1.0000   1.0000
     1.0000   1.0000   1.0000   1.0000   1.0000   1.0000   1.0000   1.0000
     1.0000   1.0000   1.0000   1.0000   1.0000   1.0000   1.0000   1.0000
     1.0000   1.0000   1.0000   1.0000   1.0000   1.0000   1.0000   1.0000
     1.0000   1.0000   1.0000   1.0000   1.0000   1.0000   1.0000   1.0000
     1.0000   1.0000   1.0000   1.0000   1.0000   1.0000   1.0000   1.0000
     1.0000   1.0000   1.0000   1.0000   1.0000   1.0000   1.0000   1.0000
     1.0000   1.0000   1.0000   1.0000   1.0000   1.0000   1.0000   1.0000
     1.0000   1.0000   1.0000   1.0000   1.0000   1.0000   1.0000   1.0000
     1.0000   1.0000   1.0000   1.0000   1.0000   1.0000   1.0000   1.0000
     1.0000   1.0001   1.0001   1.0002   1.0008   1.0015   1.0024   1.0031
     1.0061   1.0077   1.0125   1.0383   1.0475   1.0512   1.0810   1.0810
     1.0298   0.8955   0.8348   0.7024   0.6081   0.5387   0.5185   0.3884
     0.1238   0.1150   0.0865   0.0168   0.0059   0.0051   0.0001   0.0000
     0.0000   0.0000   0.0000   0.0000   0.0000   0.0000   0.0000   0.0000
     0.0000   0.0000   0.0000   0.0000   0.0000   0.0000   0.0000   0.0000
     0.0000

          k = 0.2500 0.2887 0.0000 ( 44558 PWs)   bands (ev):

   -11.7692 -11.4979 -10.9742 -10.5540 -10.4827 -10.4368 -10.4259 -10.3721
   -10.3263 -10.2616 -10.2436 -10.1904 -10.1692 -10.1618 -10.0931 -10.0479
   -10.0272  -9.9742  -9.9260  -9.8908  -9.8187  -9.7796  -9.7654  -9.7301
    -9.7064  -9.6859  -9.5742  -9.5440  -9.5020  -9.2966  -9.2192  -9.2051
    -9.1512  -9.1091  -9.0153  -8.9793  -8.8945  -8.8486  -8.8088  -8.7774
    -8.6578  -8.6076  -8.5069  -8.4782  -8.3548  -8.3342  -8.3099  -8.2425
    -8.1955  -8.1848  -8.1479  -8.1399  -8.0864  -8.0323  -7.9931  -7.9510
    -7.9275  -7.9075  -7.8803  -7.8729  -7.8193  -7.7935  -7.7200  -7.7004
    -7.6881  -7.6310  -7.5776  -7.5714  -7.5281  -7.5014  -7.4613  -7.4123
    -7.3686  -7.2856  -7.2470  -7.2021  -7.1906  -7.0531  -6.9792  -6.9639
    -6.9302  -6.8918  -6.8739  -6.8495  -6.8164  -6.7565  -6.7352  -6.7057
    -6.6859  -6.5659  -6.4970  -6.4680  -6.4442  -6.4129  -6.3062  -6.2591
    -6.2154  -6.1952  -6.1690  -6.1432  -6.0956  -6.0043  -5.9873  -5.9404
    -5.8933  -5.8634  -5.8453  -5.8104  -5.7213  -5.6745  -5.6305  -5.5667
    -5.4813  -5.4462  -5.4346  -5.3976  -5.3869  -5.3488  -5.2846  -5.2447
    -5.2197  -5.2010  -5.1882  -5.0785  -5.0724  -5.0189  -4.8151  -4.1941
    -4.1020  -3.8587  -3.6128  -3.4375  -2.9072  -2.4564  -1.9297  -1.6941
    -1.5718  -1.2426  -0.9975  -0.7271  -0.2232   0.0712   0.4481   0.7618
     0.9407

     occupation numbers 
     1.0000   1.0000   1.0000   1.0000   1.0000   1.0000   1.0000   1.0000
     1.0000   1.0000   1.0000   1.0000   1.0000   1.0000   1.0000   1.0000
     1.0000   1.0000   1.0000   1.0000   1.0000   1.0000   1.0000   1.0000
     1.0000   1.0000   1.0000   1.0000   1.0000   1.0000   1.0000   1.0000
     1.0000   1.0000   1.0000   1.0000   1.0000   1.0000   1.0000   1.0000
     1.0000   1.0000   1.0000   1.0000   1.0000   1.0000   1.0000   1.0000
     1.0000   1.0000   1.0000   1.0000   1.0000   1.0000   1.0000   1.0000
     1.0000   1.0000   1.0000   1.0000   1.0000   1.0000   1.0000   1.0000
     1.0000   1.0000   1.0000   1.0000   1.0000   1.0000   1.0000   1.0000
     1.0000   1.0000   1.0000   1.0000   1.0000   1.0000   1.0000   1.0000
     1.0000   1.0000   1.0000   1.0000   1.0000   1.0000   1.0000   1.0000
     1.0000   1.0000   1.0000   1.0000   1.0000   1.0000   1.0000   1.0000
     1.0000   1.0000   1.0000   1.0000   1.0000   1.0001   1.0001   1.0004
     1.0014   1.0026   1.0038   1.0072   1.0284   1.0479   1.0682   1.0831
     1.0138   0.9400   0.9094   0.7952   0.7583   0.6182   0.3844   0.2620
     0.1988   0.1586   0.1348   0.0243   0.0217   0.0075   0.0000   0.0000
     0.0000   0.0000   0.0000   0.0000   0.0000   0.0000   0.0000   0.0000
     0.0000   0.0000   0.0000   0.0000   0.0000   0.0000   0.0000   0.0000
     0.0000

          k = 0.2500 0.3608 0.0000 ( 44536 PWs)   bands (ev):

   -11.5715 -11.3581 -10.7982 -10.4578 -10.3393 -10.3306 -10.3231 -10.2987
   -10.1633 -10.1457 -10.1017 -10.0765 -10.0534 -10.0083  -9.9597  -9.9467
    -9.8886  -9.8713  -9.8423  -9.7559  -9.7216  -9.6967  -9.6574  -9.6237
    -9.6015  -9.5335  -9.4805  -9.4012  -9.3749  -9.2322  -9.1760  -9.1533
    -9.1003  -9.0694  -9.0361  -9.0032  -8.9800  -8.9430  -8.8971  -8.8106
    -8.7419  -8.6951  -8.5760  -8.4708  -8.4561  -8.4430  -8.4023  -8.3477
    -8.2922  -8.2787  -8.2432  -8.1932  -8.1481  -8.0847  -8.0020  -7.9814
    -7.9769  -7.9239  -7.8986  -7.8880  -7.8652  -7.8333  -7.8209  -7.8012
    -7.7857  -7.7599  -7.6922  -7.5203  -7.5101  -7.4806  -7.4560  -7.3946
    -7.3359  -7.3071  -7.2832  -7.2562  -7.2267  -7.1230  -7.0933  -7.0626
    -7.0419  -7.0194  -7.0022  -6.9818  -6.9574  -6.9371  -6.8329  -6.8156
    -6.7997  -6.7026  -6.6157  -6.5886  -6.5514  -6.5160  -6.4629  -6.3646
    -6.3396  -6.3130  -6.2865  -6.2769  -6.1638  -6.1367  -6.0736  -6.0115
    -5.9479  -5.9371  -5.8175  -5.7967  -5.7001  -5.6811  -5.6562  -5.5571
    -5.5148  -5.5094  -5.4867  -5.4639  -5.4506  -5.4008  -5.3683  -5.2581
    -5.2431  -5.1991  -5.1707  -5.1585  -5.0450  -4.9504  -4.7516  -4.5956
    -4.4230  -4.1389  -3.8762  -3.5146  -3.0396  -2.4900  -1.8938  -1.5111
    -1.2254  -0.8422  -0.5605  -0.2539  -0.0066   0.2205   0.4267   0.7782
     1.2325

     occupation numbers 
     1.0000   1.0000   1.0000   1.0000   1.0000   1.0000   1.0000   1.0000
     1.0000   1.0000   1.0000   1.0000   1.0000   1.0000   1.0000   1.0000
     1.0000   1.0000   1.0000   1.0000   1.0000   1.0000   1.0000   1.0000
     1.0000   1.0000   1.0000   1.0000   1.0000   1.0000   1.0000   1.0000
     1.0000   1.0000   1.0000   1.0000   1.0000   1.0000   1.0000   1.0000
     1.0000   1.0000   1.0000   1.0000   1.0000   1.0000   1.0000   1.0000
     1.0000   1.0000   1.0000   1.0000   1.0000   1.0000   1.0000   1.0000
     1.0000   1.0000   1.0000   1.0000   1.0000   1.0000   1.0000   1.0000
     1.0000   1.0000   1.0000   1.0000   1.0000   1.0000   1.0000   1.0000
     1.0000   1.0000   1.0000   1.0000   1.0000   1.0000   1.0000   1.0000
     1.0000   1.0000   1.0000   1.0000   1.0000   1.0000   1.0000   1.0000
     1.0000   1.0000   1.0000   1.0000   1.0000   1.0000   1.0000   1.0000
     1.0000   1.0000   1.0000   1.0000   1.0000   1.0000   1.0000   1.0001
     1.0004   1.0005   1.0064   1.0092   1.0367   1.0449   1.0565   1.0818
     1.0582   1.0527   1.0227   0.9807   0.9508   0.8061   0.6910   0.3003
     0.2576   0.1549   0.1064   0.0896   0.0129   0.0016   0.0000   0.0000
     0.0000   0.0000   0.0000   0.0000   0.0000   0.0000   0.0000   0.0000
     0.0000   0.0000   0.0000   0.0000   0.0000   0.0000   0.0000   0.0000
     0.0000

          k = 0.2500-0.7217 0.0000 ( 44491 PWs)   bands (ev):

   -11.4276 -11.1502 -10.6025 -10.3446 -10.3381 -10.1954 -10.1818 -10.1806
   -10.0287 -10.0275  -9.9813  -9.9387  -9.9197  -9.8939  -9.8657  -9.7881
    -9.7762  -9.7622  -9.6542  -9.6508  -9.6463  -9.6283  -9.6027  -9.4956
    -9.4904  -9.4250  -9.3880  -9.3045  -9.2210  -9.1913  -9.1561  -9.1429
    -9.1335  -9.1255  -9.0732  -9.0324  -8.9885  -8.9090  -8.8728  -8.8523
    -8.8168  -8.7492  -8.6507  -8.6419  -8.5940  -8.4983  -8.4649  -8.4487
    -8.3974  -8.3392  -8.3031  -8.2817  -8.2648  -8.1972  -8.1407  -8.0984
    -8.0396  -8.0053  -7.9768  -7.9169  -7.9142  -7.8901  -7.8425  -7.7967
    -7.7820  -7.7781  -7.7139  -7.6935  -7.6524  -7.5809  -7.5149  -7.4665
    -7.4406  -7.4101  -7.3842  -7.3156  -7.2468  -7.2210  -7.2020  -7.1778
    -7.1530  -7.0867  -6.9795  -6.9451  -6.9186  -6.8985  -6.8816  -6.8432
    -6.8169  -6.8098  -6.6662  -6.6325  -6.6064  -6.6012  -6.5137  -6.4356
    -6.3971  -6.3664  -6.3414  -6.2866  -6.2115  -6.1544  -6.1011  -6.0813
    -6.0319  -6.0195  -5.7986  -5.7675  -5.7066  -5.6868  -5.6529  -5.6507
    -5.5677  -5.5480  -5.5321  -5.5213  -5.5092  -5.4803  -5.4315  -5.2936
    -5.2773  -5.2717  -5.2673  -5.1105  -5.0322  -4.9746  -4.9180  -4.8435
    -4.6630  -4.5947  -3.7764  -3.4057  -3.3774  -2.3056  -1.8266  -1.7913
    -0.8536  -0.3504  -0.1441  -0.0341   0.0751   0.3045   0.6387   1.1168
     1.4179

     occupation numbers 
     1.0000   1.0000   1.0000   1.0000   1.0000   1.0000   1.0000   1.0000
     1.0000   1.0000   1.0000   1.0000   1.0000   1.0000   1.0000   1.0000
     1.0000   1.0000   1.0000   1.0000   1.0000   1.0000   1.0000   1.0000
     1.0000   1.0000   1.0000   1.0000   1.0000   1.0000   1.0000   1.0000
     1.0000   1.0000   1.0000   1.0000   1.0000   1.0000   1.0000   1.0000
     1.0000   1.0000   1.0000   1.0000   1.0000   1.0000   1.0000   1.0000
     1.0000   1.0000   1.0000   1.0000   1.0000   1.0000   1.0000   1.0000
     1.0000   1.0000   1.0000   1.0000   1.0000   1.0000   1.0000   1.0000
     1.0000   1.0000   1.0000   1.0000   1.0000   1.0000   1.0000   1.0000
     1.0000   1.0000   1.0000   1.0000   1.0000   1.0000   1.0000   1.0000
     1.0000   1.0000   1.0000   1.0000   1.0000   1.0000   1.0000   1.0000
     1.0000   1.0000   1.0000   1.0000   1.0000   1.0000   1.0000   1.0000
     1.0000   1.0000   1.0000   1.0000   1.0000   1.0000   1.0000   1.0000
     1.0000   1.0001   1.0089   1.0148   1.0340   1.0424   1.0581   1.0591
     1.0832   1.0794   1.0718   1.0640   1.0525   1.0121   0.9008   0.4153
     0.3603   0.3422   0.3284   0.0424   0.0099   0.0028   0.0007   0.0001
     0.0000   0.0000   0.0000   0.0000   0.0000   0.0000   0.0000   0.0000
     0.0000   0.0000   0.0000   0.0000   0.0000   0.0000   0.0000   0.0000
     0.0000

          k = 0.2500-0.6495 0.0000 ( 44485 PWs)   bands (ev):

   -11.3557 -10.8848 -10.4312 -10.4061 -10.2336 -10.1741 -10.1033 -10.0560
    -9.9581  -9.8998  -9.8814  -9.8407  -9.8138  -9.8069  -9.7478  -9.6773
    -9.6534  -9.6376  -9.6083  -9.5826  -9.5638  -9.5128  -9.4667  -9.4129
    -9.3863  -9.3683  -9.3515  -9.2920  -9.2564  -9.1924  -9.1739  -9.1550
    -9.1499  -9.1335  -9.0644  -9.0578  -9.0151  -8.9032  -8.8763  -8.8635
    -8.8256  -8.7929  -8.7562  -8.7165  -8.6527  -8.6059  -8.5651  -8.4676
    -8.4391  -8.3850  -8.3279  -8.3061  -8.2780  -8.2590  -8.1939  -8.1404
    -8.0970  -8.0876  -8.0713  -8.0355  -8.0122  -7.9705  -7.9238  -7.8975
    -7.8849  -7.8262  -7.7830  -7.7559  -7.6995  -7.6787  -7.6570  -7.6137
    -7.5423  -7.5173  -7.4515  -7.4460  -7.2978  -7.2132  -7.1845  -7.1342
    -7.0631  -7.0330  -7.0212  -6.9910  -6.9787  -6.9418  -6.9355  -6.8571
    -6.7310  -6.7025  -6.6908  -6.6344  -6.6198  -6.5575  -6.4478  -6.4341
    -6.4094  -6.3619  -6.3333  -6.2583  -6.2168  -6.1788  -6.1596  -6.1184
    -6.0109  -5.9450  -5.8584  -5.8397  -5.7652  -5.7171  -5.6926  -5.6672
    -5.6251  -5.5866  -5.5711  -5.5284  -5.5156  -5.4791  -5.4397  -5.4221
    -5.3722  -5.3568  -5.3444  -5.2975  -5.2846  -5.1571  -4.9850  -4.9320
    -4.7172  -4.4918  -3.9412  -3.5141  -3.1500  -2.4328  -1.9220  -1.5875
    -0.7677  -0.2490  -0.0937   0.0890   0.3946   0.6748   0.9178   1.1154
     1.4416

     occupation numbers 
     1.0000   1.0000   1.0000   1.0000   1.0000   1.0000   1.0000   1.0000
     1.0000   1.0000   1.0000   1.0000   1.0000   1.0000   1.0000   1.0000
     1.0000   1.0000   1.0000   1.0000   1.0000   1.0000   1.0000   1.0000
     1.0000   1.0000   1.0000   1.0000   1.0000   1.0000   1.0000   1.0000
     1.0000   1.0000   1.0000   1.0000   1.0000   1.0000   1.0000   1.0000
     1.0000   1.0000   1.0000   1.0000   1.0000   1.0000   1.0000   1.0000
     1.0000   1.0000   1.0000   1.0000   1.0000   1.0000   1.0000   1.0000
     1.0000   1.0000   1.0000   1.0000   1.0000   1.0000   1.0000   1.0000
     1.0000   1.0000   1.0000   1.0000   1.0000   1.0000   1.0000   1.0000
     1.0000   1.0000   1.0000   1.0000   1.0000   1.0000   1.0000   1.0000
     1.0000   1.0000   1.0000   1.0000   1.0000   1.0000   1.0000   1.0000
     1.0000   1.0000   1.0000   1.0000   1.0000   1.0000   1.0000   1.0000
     1.0000   1.0000   1.0000   1.0000   1.0000   1.0000   1.0000   1.0000
     1.0001   1.0004   1.0029   1.0042   1.0153   1.0299   1.0398   1.0513
     1.0705   1.0822   1.0833   1.0694   1.0590   1.0100   0.9233   0.8736
     0.7054   0.6483   0.6016   0.4289   0.3843   0.0877   0.0036   0.0010
     0.0000   0.0000   0.0000   0.0000   0.0000   0.0000   0.0000   0.0000
     0.0000   0.0000   0.0000   0.0000   0.0000   0.0000   0.0000   0.0000
     0.0000

          k = 0.2500-0.5774 0.0000 ( 44432 PWs)   bands (ev):

   -11.3335 -10.6296 -10.6136 -10.2837 -10.2503 -10.1731 -10.0983  -9.9241
    -9.9081  -9.8908  -9.8645  -9.8570  -9.7806  -9.7416  -9.6854  -9.6363
    -9.6166  -9.6123  -9.5143  -9.5078  -9.4744  -9.4579  -9.4431  -9.4024
    -9.3569  -9.3509  -9.3412  -9.3198  -9.2576  -9.2252  -9.2019  -9.1850
    -9.1504  -9.1273  -9.1037  -9.0604  -9.0469  -8.9989  -8.8614  -8.8508
    -8.8356  -8.8088  -8.7846  -8.7289  -8.6854  -8.6034  -8.5441  -8.4790
    -8.3714  -8.3589  -8.3442  -8.3180  -8.3011  -8.2302  -8.1891  -8.1694
    -8.1461  -8.1318  -8.1172  -8.0958  -8.0722  -8.0111  -7.9961  -7.9794
    -7.9543  -7.9480  -7.8934  -7.7941  -7.7123  -7.6542  -7.6363  -7.5775
    -7.5554  -7.5302  -7.4980  -7.4771  -7.3161  -7.2788  -7.2227  -7.1261
    -7.0901  -7.0129  -7.0075  -6.9823  -6.9630  -6.9294  -6.8743  -6.8415
    -6.8151  -6.7234  -6.6260  -6.6206  -6.5295  -6.5131  -6.5012  -6.4681
    -6.3999  -6.3608  -6.3132  -6.2709  -6.2116  -6.1628  -6.1115  -6.0955
    -5.9479  -5.9107  -5.8657  -5.7752  -5.7712  -5.7535  -5.7194  -5.6872
    -5.6844  -5.6729  -5.6189  -5.5807  -5.5342  -5.5123  -5.4983  -5.4453
    -5.4362  -5.4238  -5.3946  -5.3506  -5.3032  -5.2889  -4.9869  -4.9349
    -4.7033  -4.3265  -4.1425  -3.5199  -2.9585  -2.6250  -1.9382  -1.3789
    -0.9507  -0.2091   0.0836   0.1901   0.4483   0.5449   1.0152   1.4040
     1.5144

     occupation numbers 
     1.0000   1.0000   1.0000   1.0000   1.0000   1.0000   1.0000   1.0000
     1.0000   1.0000   1.0000   1.0000   1.0000   1.0000   1.0000   1.0000
     1.0000   1.0000   1.0000   1.0000   1.0000   1.0000   1.0000   1.0000
     1.0000   1.0000   1.0000   1.0000   1.0000   1.0000   1.0000   1.0000
     1.0000   1.0000   1.0000   1.0000   1.0000   1.0000   1.0000   1.0000
     1.0000   1.0000   1.0000   1.0000   1.0000   1.0000   1.0000   1.0000
     1.0000   1.0000   1.0000   1.0000   1.0000   1.0000   1.0000   1.0000
     1.0000   1.0000   1.0000   1.0000   1.0000   1.0000   1.0000   1.0000
     1.0000   1.0000   1.0000   1.0000   1.0000   1.0000   1.0000   1.0000
     1.0000   1.0000   1.0000   1.0000   1.0000   1.0000   1.0000   1.0000
     1.0000   1.0000   1.0000   1.0000   1.0000   1.0000   1.0000   1.0000
     1.0000   1.0000   1.0000   1.0000   1.0000   1.0000   1.0000   1.0000
     1.0000   1.0000   1.0000   1.0000   1.0000   1.0000   1.0000   1.0000
     1.0004   1.0009   1.0025   1.0131   1.0140   1.0183   1.0291   1.0422
     1.0435   1.0487   1.0730   1.0829   1.0730   1.0557   1.0394   0.9378
     0.9140   0.8786   0.7850   0.6252   0.4489   0.3989   0.0037   0.0011
     0.0000   0.0000   0.0000   0.0000   0.0000   0.0000   0.0000   0.0000
     0.0000   0.0000   0.0000   0.0000   0.0000   0.0000   0.0000   0.0000
     0.0000

          k = 0.2500-0.5052 0.0000 ( 44485 PWs)   bands (ev):

   -11.3557 -10.8848 -10.4312 -10.4061 -10.2336 -10.1741 -10.1033 -10.0560
    -9.9581  -9.8998  -9.8814  -9.8407  -9.8138  -9.8069  -9.7478  -9.6773
    -9.6534  -9.6376  -9.6083  -9.5826  -9.5638  -9.5128  -9.4667  -9.4129
    -9.3863  -9.3683  -9.3515  -9.2920  -9.2564  -9.1924  -9.1739  -9.1550
    -9.1499  -9.1335  -9.0644  -9.0578  -9.0151  -8.9032  -8.8763  -8.8635
    -8.8256  -8.7929  -8.7562  -8.7165  -8.6527  -8.6059  -8.5651  -8.4676
    -8.4391  -8.3850  -8.3279  -8.3061  -8.2780  -8.2590  -8.1939  -8.1404
    -8.0970  -8.0876  -8.0713  -8.0355  -8.0122  -7.9705  -7.9238  -7.8975
    -7.8849  -7.8262  -7.7830  -7.7559  -7.6995  -7.6787  -7.6570  -7.6137
    -7.5423  -7.5173  -7.4515  -7.4460  -7.2978  -7.2132  -7.1845  -7.1342
    -7.0631  -7.0330  -7.0212  -6.9910  -6.9787  -6.9418  -6.9355  -6.8571
    -6.7310  -6.7025  -6.6908  -6.6344  -6.6198  -6.5575  -6.4478  -6.4341
    -6.4094  -6.3619  -6.3333  -6.2583  -6.2168  -6.1788  -6.1596  -6.1184
    -6.0109  -5.9450  -5.8584  -5.8397  -5.7652  -5.7171  -5.6926  -5.6672
    -5.6251  -5.5866  -5.5711  -5.5284  -5.5156  -5.4791  -5.4397  -5.4221
    -5.3722  -5.3568  -5.3444  -5.2975  -5.2846  -5.1571  -4.9850  -4.9320
    -4.7172  -4.4918  -3.9412  -3.5141  -3.1500  -2.4328  -1.9220  -1.5875
    -0.7677  -0.2490  -0.0937   0.0890   0.3946   0.6748   0.9178   1.1154
     1.4416

     occupation numbers 
     1.0000   1.0000   1.0000   1.0000   1.0000   1.0000   1.0000   1.0000
     1.0000   1.0000   1.0000   1.0000   1.0000   1.0000   1.0000   1.0000
     1.0000   1.0000   1.0000   1.0000   1.0000   1.0000   1.0000   1.0000
     1.0000   1.0000   1.0000   1.0000   1.0000   1.0000   1.0000   1.0000
     1.0000   1.0000   1.0000   1.0000   1.0000   1.0000   1.0000   1.0000
     1.0000   1.0000   1.0000   1.0000   1.0000   1.0000   1.0000   1.0000
     1.0000   1.0000   1.0000   1.0000   1.0000   1.0000   1.0000   1.0000
     1.0000   1.0000   1.0000   1.0000   1.0000   1.0000   1.0000   1.0000
     1.0000   1.0000   1.0000   1.0000   1.0000   1.0000   1.0000   1.0000
     1.0000   1.0000   1.0000   1.0000   1.0000   1.0000   1.0000   1.0000
     1.0000   1.0000   1.0000   1.0000   1.0000   1.0000   1.0000   1.0000
     1.0000   1.0000   1.0000   1.0000   1.0000   1.0000   1.0000   1.0000
     1.0000   1.0000   1.0000   1.0000   1.0000   1.0000   1.0000   1.0000
     1.0001   1.0004   1.0029   1.0042   1.0153   1.0299   1.0398   1.0513
     1.0705   1.0822   1.0833   1.0694   1.0590   1.0100   0.9233   0.8736
     0.7054   0.6483   0.6016   0.4289   0.3843   0.0877   0.0036   0.0010
     0.0000   0.0000   0.0000   0.0000   0.0000   0.0000   0.0000   0.0000
     0.0000   0.0000   0.0000   0.0000   0.0000   0.0000   0.0000   0.0000
     0.0000

          k = 0.2500-0.4330 0.0000 ( 44491 PWs)   bands (ev):

   -11.4276 -11.1502 -10.6025 -10.3446 -10.3381 -10.1954 -10.1818 -10.1806
   -10.0287 -10.0275  -9.9813  -9.9387  -9.9197  -9.8939  -9.8657  -9.7881
    -9.7762  -9.7622  -9.6542  -9.6508  -9.6463  -9.6283  -9.6027  -9.4956
    -9.4904  -9.4250  -9.3880  -9.3045  -9.2210  -9.1913  -9.1561  -9.1429
    -9.1335  -9.1255  -9.0732  -9.0324  -8.9885  -8.9090  -8.8728  -8.8523
    -8.8168  -8.7492  -8.6507  -8.6419  -8.5940  -8.4983  -8.4649  -8.4487
    -8.3974  -8.3392  -8.3031  -8.2817  -8.2648  -8.1972  -8.1407  -8.0984
    -8.0396  -8.0053  -7.9768  -7.9169  -7.9142  -7.8901  -7.8425  -7.7967
    -7.7820  -7.7781  -7.7139  -7.6935  -7.6524  -7.5809  -7.5149  -7.4665
    -7.4406  -7.4101  -7.3842  -7.3156  -7.2468  -7.2210  -7.2020  -7.1778
    -7.1530  -7.0867  -6.9795  -6.9451  -6.9186  -6.8985  -6.8816  -6.8432
    -6.8169  -6.8098  -6.6662  -6.6325  -6.6064  -6.6012  -6.5137  -6.4356
    -6.3971  -6.3664  -6.3414  -6.2866  -6.2115  -6.1544  -6.1011  -6.0813
    -6.0319  -6.0195  -5.7986  -5.7675  -5.7066  -5.6868  -5.6529  -5.6507
    -5.5677  -5.5480  -5.5321  -5.5213  -5.5092  -5.4803  -5.4315  -5.2936
    -5.2773  -5.2717  -5.2673  -5.1105  -5.0322  -4.9746  -4.9180  -4.8435
    -4.6630  -4.5947  -3.7764  -3.4057  -3.3774  -2.3056  -1.8266  -1.7913
    -0.8536  -0.3504  -0.1441  -0.0341   0.0751   0.3045   0.6387   1.1168
     1.4177

     occupation numbers 
     1.0000   1.0000   1.0000   1.0000   1.0000   1.0000   1.0000   1.0000
     1.0000   1.0000   1.0000   1.0000   1.0000   1.0000   1.0000   1.0000
     1.0000   1.0000   1.0000   1.0000   1.0000   1.0000   1.0000   1.0000
     1.0000   1.0000   1.0000   1.0000   1.0000   1.0000   1.0000   1.0000
     1.0000   1.0000   1.0000   1.0000   1.0000   1.0000   1.0000   1.0000
     1.0000   1.0000   1.0000   1.0000   1.0000   1.0000   1.0000   1.0000
     1.0000   1.0000   1.0000   1.0000   1.0000   1.0000   1.0000   1.0000
     1.0000   1.0000   1.0000   1.0000   1.0000   1.0000   1.0000   1.0000
     1.0000   1.0000   1.0000   1.0000   1.0000   1.0000   1.0000   1.0000
     1.0000   1.0000   1.0000   1.0000   1.0000   1.0000   1.0000   1.0000
     1.0000   1.0000   1.0000   1.0000   1.0000   1.0000   1.0000   1.0000
     1.0000   1.0000   1.0000   1.0000   1.0000   1.0000   1.0000   1.0000
     1.0000   1.0000   1.0000   1.0000   1.0000   1.0000   1.0000   1.0000
     1.0000   1.0001   1.0089   1.0148   1.0340   1.0424   1.0581   1.0591
     1.0832   1.0794   1.0718   1.0640   1.0525   1.0121   0.9008   0.4153
     0.3603   0.3422   0.3284   0.0424   0.0099   0.0028   0.0007   0.0001
     0.0000   0.0000   0.0000   0.0000   0.0000   0.0000   0.0000   0.0000
     0.0000   0.0000   0.0000   0.0000   0.0000   0.0000   0.0000   0.0000
     0.0000

          k = 0.2500-0.3608 0.0000 ( 44536 PWs)   bands (ev):

   -11.5715 -11.3581 -10.7982 -10.4578 -10.3393 -10.3306 -10.3231 -10.2987
   -10.1633 -10.1457 -10.1017 -10.0765 -10.0534 -10.0083  -9.9597  -9.9467
    -9.8886  -9.8713  -9.8423  -9.7559  -9.7216  -9.6967  -9.6574  -9.6237
    -9.6015  -9.5335  -9.4805  -9.4012  -9.3749  -9.2322  -9.1760  -9.1533
    -9.1003  -9.0694  -9.0361  -9.0032  -8.9800  -8.9430  -8.8971  -8.8106
    -8.7419  -8.6951  -8.5760  -8.4708  -8.4561  -8.4430  -8.4023  -8.3477
    -8.2922  -8.2787  -8.2432  -8.1932  -8.1481  -8.0847  -8.0020  -7.9814
    -7.9769  -7.9239  -7.8986  -7.8880  -7.8652  -7.8333  -7.8209  -7.8012
    -7.7857  -7.7599  -7.6922  -7.5203  -7.5101  -7.4806  -7.4560  -7.3946
    -7.3359  -7.3071  -7.2832  -7.2562  -7.2267  -7.1230  -7.0933  -7.0626
    -7.0419  -7.0194  -7.0022  -6.9818  -6.9574  -6.9371  -6.8329  -6.8156
    -6.7997  -6.7026  -6.6157  -6.5886  -6.5514  -6.5160  -6.4629  -6.3646
    -6.3396  -6.3130  -6.2865  -6.2769  -6.1638  -6.1367  -6.0736  -6.0115
    -5.9479  -5.9371  -5.8175  -5.7967  -5.7001  -5.6811  -5.6562  -5.5571
    -5.5148  -5.5094  -5.4867  -5.4639  -5.4506  -5.4008  -5.3683  -5.2581
    -5.2431  -5.1991  -5.1707  -5.1585  -5.0450  -4.9504  -4.7516  -4.5956
    -4.4230  -4.1389  -3.8762  -3.5146  -3.0396  -2.4900  -1.8938  -1.5111
    -1.2254  -0.8422  -0.5605  -0.2539  -0.0066   0.2205   0.4267   0.7782
     1.2325

     occupation numbers 
     1.0000   1.0000   1.0000   1.0000   1.0000   1.0000   1.0000   1.0000
     1.0000   1.0000   1.0000   1.0000   1.0000   1.0000   1.0000   1.0000
     1.0000   1.0000   1.0000   1.0000   1.0000   1.0000   1.0000   1.0000
     1.0000   1.0000   1.0000   1.0000   1.0000   1.0000   1.0000   1.0000
     1.0000   1.0000   1.0000   1.0000   1.0000   1.0000   1.0000   1.0000
     1.0000   1.0000   1.0000   1.0000   1.0000   1.0000   1.0000   1.0000
     1.0000   1.0000   1.0000   1.0000   1.0000   1.0000   1.0000   1.0000
     1.0000   1.0000   1.0000   1.0000   1.0000   1.0000   1.0000   1.0000
     1.0000   1.0000   1.0000   1.0000   1.0000   1.0000   1.0000   1.0000
     1.0000   1.0000   1.0000   1.0000   1.0000   1.0000   1.0000   1.0000
     1.0000   1.0000   1.0000   1.0000   1.0000   1.0000   1.0000   1.0000
     1.0000   1.0000   1.0000   1.0000   1.0000   1.0000   1.0000   1.0000
     1.0000   1.0000   1.0000   1.0000   1.0000   1.0000   1.0000   1.0001
     1.0004   1.0005   1.0064   1.0092   1.0367   1.0449   1.0565   1.0818
     1.0582   1.0527   1.0227   0.9807   0.9508   0.8061   0.6910   0.3003
     0.2576   0.1549   0.1064   0.0896   0.0129   0.0016   0.0000   0.0000
     0.0000   0.0000   0.0000   0.0000   0.0000   0.0000   0.0000   0.0000
     0.0000   0.0000   0.0000   0.0000   0.0000   0.0000   0.0000   0.0000
     0.0000

          k = 0.2500-0.2887 0.0000 ( 44558 PWs)   bands (ev):

   -11.7692 -11.4979 -10.9742 -10.5540 -10.4827 -10.4368 -10.4259 -10.3721
   -10.3263 -10.2616 -10.2436 -10.1904 -10.1692 -10.1618 -10.0931 -10.0479
   -10.0272  -9.9742  -9.9260  -9.8908  -9.8187  -9.7796  -9.7654  -9.7301
    -9.7064  -9.6859  -9.5742  -9.5440  -9.5020  -9.2966  -9.2192  -9.2051
    -9.1512  -9.1091  -9.0153  -8.9793  -8.8945  -8.8486  -8.8088  -8.7774
    -8.6578  -8.6076  -8.5069  -8.4782  -8.3548  -8.3342  -8.3099  -8.2425
    -8.1955  -8.1848  -8.1479  -8.1399  -8.0864  -8.0323  -7.9931  -7.9510
    -7.9275  -7.9075  -7.8803  -7.8729  -7.8193  -7.7935  -7.7200  -7.7004
    -7.6881  -7.6310  -7.5776  -7.5714  -7.5281  -7.5014  -7.4613  -7.4123
    -7.3686  -7.2856  -7.2470  -7.2021  -7.1906  -7.0531  -6.9792  -6.9639
    -6.9302  -6.8918  -6.8739  -6.8495  -6.8164  -6.7565  -6.7352  -6.7057
    -6.6859  -6.5659  -6.4970  -6.4680  -6.4442  -6.4129  -6.3062  -6.2591
    -6.2154  -6.1952  -6.1690  -6.1432  -6.0956  -6.0043  -5.9873  -5.9404
    -5.8933  -5.8634  -5.8453  -5.8104  -5.7213  -5.6745  -5.6305  -5.5667
    -5.4813  -5.4462  -5.4346  -5.3976  -5.3869  -5.3488  -5.2846  -5.2447
    -5.2197  -5.2010  -5.1882  -5.0785  -5.0724  -5.0189  -4.8151  -4.1941
    -4.1020  -3.8587  -3.6128  -3.4375  -2.9072  -2.4564  -1.9297  -1.6941
    -1.5718  -1.2426  -0.9975  -0.7271  -0.2232   0.0712   0.4481   0.7618
     0.9407

     occupation numbers 
     1.0000   1.0000   1.0000   1.0000   1.0000   1.0000   1.0000   1.0000
     1.0000   1.0000   1.0000   1.0000   1.0000   1.0000   1.0000   1.0000
     1.0000   1.0000   1.0000   1.0000   1.0000   1.0000   1.0000   1.0000
     1.0000   1.0000   1.0000   1.0000   1.0000   1.0000   1.0000   1.0000
     1.0000   1.0000   1.0000   1.0000   1.0000   1.0000   1.0000   1.0000
     1.0000   1.0000   1.0000   1.0000   1.0000   1.0000   1.0000   1.0000
     1.0000   1.0000   1.0000   1.0000   1.0000   1.0000   1.0000   1.0000
     1.0000   1.0000   1.0000   1.0000   1.0000   1.0000   1.0000   1.0000
     1.0000   1.0000   1.0000   1.0000   1.0000   1.0000   1.0000   1.0000
     1.0000   1.0000   1.0000   1.0000   1.0000   1.0000   1.0000   1.0000
     1.0000   1.0000   1.0000   1.0000   1.0000   1.0000   1.0000   1.0000
     1.0000   1.0000   1.0000   1.0000   1.0000   1.0000   1.0000   1.0000
     1.0000   1.0000   1.0000   1.0000   1.0000   1.0001   1.0001   1.0004
     1.0014   1.0026   1.0038   1.0072   1.0284   1.0479   1.0682   1.0831
     1.0138   0.9400   0.9094   0.7952   0.7583   0.6182   0.3844   0.2620
     0.1988   0.1586   0.1348   0.0243   0.0217   0.0075   0.0000   0.0000
     0.0000   0.0000   0.0000   0.0000   0.0000   0.0000   0.0000   0.0000
     0.0000   0.0000   0.0000   0.0000   0.0000   0.0000   0.0000   0.0000
     0.0000

          k = 0.2500-0.2165 0.0000 ( 44578 PWs)   bands (ev):

   -11.9530 -11.6107 -11.1153 -10.6222 -10.6015 -10.5352 -10.5325 -10.4814
   -10.4008 -10.3864 -10.3458 -10.3095 -10.2669 -10.2639 -10.2038 -10.1833
   -10.1161 -10.0857 -10.0312  -9.9644  -9.9036  -9.8884  -9.8520  -9.8460
    -9.8151  -9.7893  -9.6891  -9.6442  -9.5935  -9.4099  -9.3351  -9.2543
    -9.2178  -9.0899  -8.9524  -8.9067  -8.8498  -8.7625  -8.7312  -8.6741
    -8.6168  -8.5678  -8.4930  -8.4237  -8.3049  -8.2627  -8.2316  -8.1993
    -8.1792  -8.1235  -8.0816  -8.0652  -8.0373  -8.0042  -7.9856  -7.9539
    -7.9505  -7.9236  -7.8852  -7.8481  -7.8365  -7.7875  -7.7404  -7.6749
    -7.6424  -7.5913  -7.5282  -7.5059  -7.4811  -7.4466  -7.4187  -7.4091
    -7.3528  -7.3238  -7.2887  -7.0789  -7.0318  -6.9865  -6.9285  -6.8975
    -6.8808  -6.8454  -6.7129  -6.6749  -6.6419  -6.6009  -6.5322  -6.4846
    -6.4737  -6.4376  -6.3998  -6.3764  -6.3547  -6.2683  -6.2201  -6.1256
    -6.0460  -6.0125  -5.9842  -5.9766  -5.9175  -5.8883  -5.8666  -5.8540
    -5.8200  -5.8069  -5.7780  -5.6963  -5.6754  -5.6676  -5.5927  -5.5535
    -5.4914  -5.4296  -5.4096  -5.3714  -5.3461  -5.3276  -5.3222  -5.2858
    -5.1818  -5.1763  -5.1561  -5.0588  -5.0077  -5.0009  -4.8378  -4.4086
    -3.6272  -3.5580  -3.2340  -3.1471  -2.8213  -2.3747  -2.2277  -1.9646
    -1.8558  -1.7006  -1.4489  -0.8570  -0.5125   0.0380   0.2375   0.7997
     1.0100

     occupation numbers 
     1.0000   1.0000   1.0000   1.0000   1.0000   1.0000   1.0000   1.0000
     1.0000   1.0000   1.0000   1.0000   1.0000   1.0000   1.0000   1.0000
     1.0000   1.0000   1.0000   1.0000   1.0000   1.0000   1.0000   1.0000
     1.0000   1.0000   1.0000   1.0000   1.0000   1.0000   1.0000   1.0000
     1.0000   1.0000   1.0000   1.0000   1.0000   1.0000   1.0000   1.0000
     1.0000   1.0000   1.0000   1.0000   1.0000   1.0000   1.0000   1.0000
     1.0000   1.0000   1.0000   1.0000   1.0000   1.0000   1.0000   1.0000
     1.0000   1.0000   1.0000   1.0000   1.0000   1.0000   1.0000   1.0000
     1.0000   1.0000   1.0000   1.0000   1.0000   1.0000   1.0000   1.0000
     1.0000   1.0000   1.0000   1.0000   1.0000   1.0000   1.0000   1.0000
     1.0000   1.0000   1.0000   1.0000   1.0000   1.0000   1.0000   1.0000
     1.0000   1.0000   1.0000   1.0000   1.0000   1.0000   1.0000   1.0000
     1.0000   1.0001   1.0001   1.0002   1.0008   1.0015   1.0024   1.0031
     1.0061   1.0077   1.0125   1.0383   1.0475   1.0512   1.0810   1.0810
     1.0298   0.8955   0.8348   0.7024   0.6081   0.5387   0.5185   0.3884
     0.1238   0.1150   0.0865   0.0168   0.0059   0.0051   0.0001   0.0000
     0.0000   0.0000   0.0000   0.0000   0.0000   0.0000   0.0000   0.0000
     0.0000   0.0000   0.0000   0.0000   0.0000   0.0000   0.0000   0.0000
     0.0000

          k = 0.3125-0.1804 0.0000 ( 44550 PWs)   bands (ev):

   -11.8366 -11.4984 -11.0257 -10.6338 -10.5612 -10.4734 -10.4713 -10.4110
   -10.3321 -10.3104 -10.2885 -10.2810 -10.2346 -10.1710 -10.1640 -10.1603
   -10.0316 -10.0229  -9.9571  -9.8801  -9.8576  -9.8386  -9.7978  -9.7797
    -9.7631  -9.7170  -9.6511  -9.6132  -9.5329  -9.3609  -9.2692  -9.2203
    -9.1880  -9.0870  -8.9942  -8.9732  -8.8816  -8.7443  -8.7362  -8.7065
    -8.6959  -8.6236  -8.5630  -8.4683  -8.3296  -8.3143  -8.2554  -8.1866
    -8.1645  -8.1501  -8.1098  -8.0354  -8.0255  -8.0150  -8.0097  -7.9866
    -7.9347  -7.9228  -7.8799  -7.8481  -7.8005  -7.7888  -7.6959  -7.6063
    -7.5919  -7.5874  -7.5802  -7.5690  -7.5634  -7.5194  -7.4693  -7.4120
    -7.3861  -7.3660  -7.2914  -7.1976  -7.1504  -7.0018  -6.9854  -6.9112
    -6.8999  -6.8893  -6.8156  -6.8002  -6.7233  -6.6663  -6.6462  -6.6083
    -6.5443  -6.5040  -6.4557  -6.4343  -6.4110  -6.2622  -6.2259  -6.1731
    -6.1184  -6.0991  -6.0805  -6.0471  -6.0433  -5.9524  -5.9346  -5.9286
    -5.9036  -5.8936  -5.8296  -5.8185  -5.7995  -5.7472  -5.6486  -5.5809
    -5.5287  -5.5001  -5.4522  -5.4316  -5.3977  -5.3626  -5.2924  -5.2899
    -5.2521  -5.1764  -5.1611  -5.1531  -5.1344  -4.9814  -4.9758  -4.3019
    -3.7560  -3.0785  -2.8842  -2.8678  -2.5795  -2.5381  -2.2595  -2.0596
    -1.9378  -1.8523  -1.3235  -1.1699  -0.2680   0.0539   0.0974   1.1510
     1.5311

     occupation numbers 
     1.0000   1.0000   1.0000   1.0000   1.0000   1.0000   1.0000   1.0000
     1.0000   1.0000   1.0000   1.0000   1.0000   1.0000   1.0000   1.0000
     1.0000   1.0000   1.0000   1.0000   1.0000   1.0000   1.0000   1.0000
     1.0000   1.0000   1.0000   1.0000   1.0000   1.0000   1.0000   1.0000
     1.0000   1.0000   1.0000   1.0000   1.0000   1.0000   1.0000   1.0000
     1.0000   1.0000   1.0000   1.0000   1.0000   1.0000   1.0000   1.0000
     1.0000   1.0000   1.0000   1.0000   1.0000   1.0000   1.0000   1.0000
     1.0000   1.0000   1.0000   1.0000   1.0000   1.0000   1.0000   1.0000
     1.0000   1.0000   1.0000   1.0000   1.0000   1.0000   1.0000   1.0000
     1.0000   1.0000   1.0000   1.0000   1.0000   1.0000   1.0000   1.0000
     1.0000   1.0000   1.0000   1.0000   1.0000   1.0000   1.0000   1.0000
     1.0000   1.0000   1.0000   1.0000   1.0000   1.0000   1.0000   1.0000
     1.0000   1.0000   1.0000   1.0000   1.0000   1.0003   1.0005   1.0006
     1.0011   1.0014   1.0051   1.0063   1.0088   1.0200   1.0601   1.0829
     1.0696   1.0418   0.9547   0.9011   0.7955   0.6701   0.4111   0.4023
     0.2827   0.1151   0.0930   0.0828   0.0624   0.0033   0.0029   0.0000
     0.0000   0.0000   0.0000   0.0000   0.0000   0.0000   0.0000   0.0000
     0.0000   0.0000   0.0000   0.0000   0.0000   0.0000   0.0000   0.0000
     0.0000

          k = 0.3125-0.1083 0.0000 ( 44578 PWs)   bands (ev):

   -11.9442 -11.5657 -11.0984 -10.6222 -10.6016 -10.5355 -10.5324 -10.4774
   -10.4071 -10.3870 -10.3462 -10.3042 -10.2679 -10.2634 -10.2027 -10.1836
   -10.1248 -10.0807 -10.0302  -9.9667  -9.9039  -9.8949  -9.8506  -9.8298
    -9.8165  -9.7636  -9.7137  -9.6779  -9.5563  -9.4934  -9.3046  -9.2484
    -9.2207  -9.0828  -8.9712  -8.9074  -8.8605  -8.7732  -8.7303  -8.6746
    -8.6639  -8.5486  -8.4915  -8.4222  -8.3161  -8.2617  -8.2212  -8.2004
    -8.1777  -8.1195  -8.0899  -8.0673  -8.0244  -8.0150  -7.9810  -7.9575
    -7.9510  -7.9309  -7.8900  -7.8514  -7.8286  -7.7966  -7.7540  -7.6802
    -7.6448  -7.6295  -7.5432  -7.5053  -7.4744  -7.4547  -7.4162  -7.4004
    -7.3590  -7.3244  -7.2909  -7.0873  -7.0441  -6.9856  -6.9360  -6.9028
    -6.8801  -6.8326  -6.7230  -6.6655  -6.6375  -6.6037  -6.5203  -6.4881
    -6.4732  -6.4317  -6.4005  -6.3763  -6.3492  -6.2594  -6.2199  -6.1354
    -6.0305  -6.0181  -5.9817  -5.9746  -5.8999  -5.8798  -5.8673  -5.8498
    -5.8209  -5.8079  -5.7792  -5.7060  -5.6784  -5.6548  -5.5847  -5.5573
    -5.4922  -5.4362  -5.3910  -5.3833  -5.3366  -5.3321  -5.3214  -5.2824
    -5.1805  -5.1759  -5.1564  -5.0426  -5.0073  -5.0010  -4.8101  -4.4075
    -3.6764  -3.5291  -3.2539  -3.1082  -2.8325  -2.3072  -2.2211  -1.9656
    -1.8702  -1.6788  -1.4119  -0.7589  -0.5671   0.0745   0.2298   0.8208
     0.9760

     occupation numbers 
     1.0000   1.0000   1.0000   1.0000   1.0000   1.0000   1.0000   1.0000
     1.0000   1.0000   1.0000   1.0000   1.0000   1.0000   1.0000   1.0000
     1.0000   1.0000   1.0000   1.0000   1.0000   1.0000   1.0000   1.0000
     1.0000   1.0000   1.0000   1.0000   1.0000   1.0000   1.0000   1.0000
     1.0000   1.0000   1.0000   1.0000   1.0000   1.0000   1.0000   1.0000
     1.0000   1.0000   1.0000   1.0000   1.0000   1.0000   1.0000   1.0000
     1.0000   1.0000   1.0000   1.0000   1.0000   1.0000   1.0000   1.0000
     1.0000   1.0000   1.0000   1.0000   1.0000   1.0000   1.0000   1.0000
     1.0000   1.0000   1.0000   1.0000   1.0000   1.0000   1.0000   1.0000
     1.0000   1.0000   1.0000   1.0000   1.0000   1.0000   1.0000   1.0000
     1.0000   1.0000   1.0000   1.0000   1.0000   1.0000   1.0000   1.0000
     1.0000   1.0000   1.0000   1.0000   1.0000   1.0000   1.0000   1.0000
     1.0000   1.0001   1.0002   1.0002   1.0012   1.0018   1.0024   1.0034
     1.0060   1.0076   1.0123   1.0342   1.0462   1.0572   1.0824   1.0819
     1.0310   0.9140   0.7726   0.7457   0.5724   0.5555   0.5154   0.3772
     0.1216   0.1144   0.0869   0.0123   0.0059   0.0051   0.0000   0.0000
     0.0000   0.0000   0.0000   0.0000   0.0000   0.0000   0.0000   0.0000
     0.0000   0.0000   0.0000   0.0000   0.0000   0.0000   0.0000   0.0000
     0.0000

          k = 0.3125-0.0361 0.0000 ( 44582 PWs)   bands (ev):

   -11.9991 -11.6016 -11.1345 -10.6058 -10.5804 -10.5785 -10.5651 -10.5145
   -10.5008 -10.4256 -10.3473 -10.3257 -10.3151 -10.2577 -10.2210 -10.2064
   -10.1485 -10.1103 -10.0755 -10.0635  -9.9271  -9.8980  -9.8740  -9.8503
    -9.8407  -9.7923  -9.7783  -9.6672  -9.5982  -9.5618  -9.3198  -9.2542
    -9.2419  -9.0774  -8.9851  -8.8343  -8.8270  -8.8049  -8.7599  -8.6922
    -8.6441  -8.4633  -8.4330  -8.3931  -8.3420  -8.2417  -8.2267  -8.2147
    -8.1770  -8.1207  -8.0934  -8.0820  -8.0391  -7.9960  -7.9662  -7.9617
    -7.9485  -7.9319  -7.8967  -7.8618  -7.8356  -7.7972  -7.7667  -7.7126
    -7.6893  -7.6510  -7.5589  -7.4638  -7.4550  -7.4275  -7.3901  -7.3429
    -7.3333  -7.3130  -7.2612  -7.0350  -6.9962  -6.9594  -6.9144  -6.8843
    -6.8549  -6.7730  -6.7124  -6.6388  -6.5735  -6.5631  -6.4733  -6.4365
    -6.4151  -6.3877  -6.3524  -6.3318  -6.3135  -6.2977  -6.2065  -6.1264
    -5.9959  -5.9753  -5.9451  -5.9291  -5.9085  -5.8804  -5.8490  -5.8095
    -5.7661  -5.7424  -5.6904  -5.6596  -5.6040  -5.5762  -5.5626  -5.4548
    -5.4293  -5.4206  -5.3968  -5.3867  -5.3798  -5.3646  -5.3419  -5.2507
    -5.1958  -5.1404  -5.0748  -5.0595  -4.8670  -4.5966  -4.4418  -4.2476
    -4.1964  -3.9020  -3.6238  -3.2801  -3.0232  -2.5707  -2.2605  -1.8576
    -1.4725  -1.3232  -1.0050  -0.8525  -0.4274  -0.0166   0.2170   0.2912
     0.7173

     occupation numbers 
     1.0000   1.0000   1.0000   1.0000   1.0000   1.0000   1.0000   1.0000
     1.0000   1.0000   1.0000   1.0000   1.0000   1.0000   1.0000   1.0000
     1.0000   1.0000   1.0000   1.0000   1.0000   1.0000   1.0000   1.0000
     1.0000   1.0000   1.0000   1.0000   1.0000   1.0000   1.0000   1.0000
     1.0000   1.0000   1.0000   1.0000   1.0000   1.0000   1.0000   1.0000
     1.0000   1.0000   1.0000   1.0000   1.0000   1.0000   1.0000   1.0000
     1.0000   1.0000   1.0000   1.0000   1.0000   1.0000   1.0000   1.0000
     1.0000   1.0000   1.0000   1.0000   1.0000   1.0000   1.0000   1.0000
     1.0000   1.0000   1.0000   1.0000   1.0000   1.0000   1.0000   1.0000
     1.0000   1.0000   1.0000   1.0000   1.0000   1.0000   1.0000   1.0000
     1.0000   1.0000   1.0000   1.0000   1.0000   1.0000   1.0000   1.0000
     1.0000   1.0000   1.0000   1.0000   1.0000   1.0000   1.0000   1.0000
     1.0001   1.0002   1.0004   1.0006   1.0010   1.0018   1.0035   1.0073
     1.0151   1.0214   1.0408   1.0549   1.0781   1.0832   1.0827   0.9605
     0.8946   0.8692   0.7926   0.7577   0.7331   0.6774   0.5922   0.2788
     0.1486   0.0685   0.0227   0.0170   0.0002   0.0000   0.0000   0.0000
     0.0000   0.0000   0.0000   0.0000   0.0000   0.0000   0.0000   0.0000
     0.0000   0.0000   0.0000   0.0000   0.0000   0.0000   0.0000   0.0000
     0.0000

          k = 0.3125 0.0361 0.0000 ( 44582 PWs)   bands (ev):

   -11.9991 -11.6016 -11.1345 -10.6058 -10.5804 -10.5785 -10.5651 -10.5145
   -10.5008 -10.4256 -10.3473 -10.3257 -10.3151 -10.2577 -10.2210 -10.2064
   -10.1485 -10.1103 -10.0755 -10.0635  -9.9271  -9.8980  -9.8740  -9.8503
    -9.8407  -9.7923  -9.7783  -9.6672  -9.5982  -9.5618  -9.3198  -9.2542
    -9.2419  -9.0774  -8.9851  -8.8343  -8.8270  -8.8049  -8.7599  -8.6922
    -8.6441  -8.4633  -8.4330  -8.3931  -8.3420  -8.2417  -8.2267  -8.2147
    -8.1770  -8.1207  -8.0934  -8.0820  -8.0391  -7.9960  -7.9662  -7.9617
    -7.9485  -7.9319  -7.8967  -7.8618  -7.8356  -7.7972  -7.7667  -7.7126
    -7.6893  -7.6510  -7.5589  -7.4638  -7.4550  -7.4275  -7.3901  -7.3429
    -7.3333  -7.3130  -7.2612  -7.0350  -6.9962  -6.9594  -6.9144  -6.8843
    -6.8549  -6.7730  -6.7124  -6.6388  -6.5735  -6.5631  -6.4733  -6.4365
    -6.4151  -6.3877  -6.3524  -6.3318  -6.3135  -6.2977  -6.2065  -6.1264
    -5.9959  -5.9753  -5.9451  -5.9291  -5.9085  -5.8804  -5.8490  -5.8095
    -5.7661  -5.7424  -5.6904  -5.6596  -5.6040  -5.5762  -5.5626  -5.4548
    -5.4293  -5.4206  -5.3968  -5.3867  -5.3798  -5.3646  -5.3419  -5.2507
    -5.1958  -5.1404  -5.0748  -5.0595  -4.8670  -4.5966  -4.4418  -4.2476
    -4.1964  -3.9020  -3.6238  -3.2801  -3.0232  -2.5707  -2.2605  -1.8576
    -1.4725  -1.3232  -1.0050  -0.8525  -0.4274  -0.0166   0.2170   0.2912
     0.7173

     occupation numbers 
     1.0000   1.0000   1.0000   1.0000   1.0000   1.0000   1.0000   1.0000
     1.0000   1.0000   1.0000   1.0000   1.0000   1.0000   1.0000   1.0000
     1.0000   1.0000   1.0000   1.0000   1.0000   1.0000   1.0000   1.0000
     1.0000   1.0000   1.0000   1.0000   1.0000   1.0000   1.0000   1.0000
     1.0000   1.0000   1.0000   1.0000   1.0000   1.0000   1.0000   1.0000
     1.0000   1.0000   1.0000   1.0000   1.0000   1.0000   1.0000   1.0000
     1.0000   1.0000   1.0000   1.0000   1.0000   1.0000   1.0000   1.0000
     1.0000   1.0000   1.0000   1.0000   1.0000   1.0000   1.0000   1.0000
     1.0000   1.0000   1.0000   1.0000   1.0000   1.0000   1.0000   1.0000
     1.0000   1.0000   1.0000   1.0000   1.0000   1.0000   1.0000   1.0000
     1.0000   1.0000   1.0000   1.0000   1.0000   1.0000   1.0000   1.0000
     1.0000   1.0000   1.0000   1.0000   1.0000   1.0000   1.0000   1.0000
     1.0001   1.0002   1.0004   1.0006   1.0010   1.0018   1.0035   1.0073
     1.0151   1.0214   1.0408   1.0549   1.0781   1.0832   1.0827   0.9605
     0.8946   0.8692   0.7926   0.7577   0.7331   0.6774   0.5922   0.2788
     0.1486   0.0685   0.0227   0.0170   0.0002   0.0000   0.0000   0.0000
     0.0000   0.0000   0.0000   0.0000   0.0000   0.0000   0.0000   0.0000
     0.0000   0.0000   0.0000   0.0000   0.0000   0.0000   0.0000   0.0000
     0.0000

          k = 0.3125 0.1083 0.0000 ( 44578 PWs)   bands (ev):

   -11.9442 -11.5657 -11.0984 -10.6222 -10.6016 -10.5355 -10.5324 -10.4774
   -10.4071 -10.3870 -10.3462 -10.3042 -10.2679 -10.2634 -10.2027 -10.1836
   -10.1248 -10.0807 -10.0302  -9.9667  -9.9039  -9.8949  -9.8506  -9.8298
    -9.8165  -9.7636  -9.7137  -9.6779  -9.5563  -9.4934  -9.3046  -9.2484
    -9.2207  -9.0828  -8.9712  -8.9074  -8.8605  -8.7732  -8.7303  -8.6746
    -8.6639  -8.5486  -8.4915  -8.4222  -8.3161  -8.2617  -8.2212  -8.2004
    -8.1777  -8.1195  -8.0899  -8.0673  -8.0244  -8.0150  -7.9810  -7.9575
    -7.9510  -7.9309  -7.8900  -7.8514  -7.8286  -7.7966  -7.7540  -7.6802
    -7.6448  -7.6295  -7.5432  -7.5053  -7.4744  -7.4547  -7.4162  -7.4004
    -7.3590  -7.3244  -7.2909  -7.0873  -7.0441  -6.9856  -6.9360  -6.9028
    -6.8801  -6.8326  -6.7230  -6.6655  -6.6375  -6.6037  -6.5203  -6.4881
    -6.4732  -6.4317  -6.4005  -6.3763  -6.3492  -6.2594  -6.2199  -6.1354
    -6.0305  -6.0181  -5.9817  -5.9746  -5.8999  -5.8798  -5.8673  -5.8498
    -5.8209  -5.8079  -5.7792  -5.7060  -5.6784  -5.6548  -5.5847  -5.5573
    -5.4922  -5.4362  -5.3910  -5.3833  -5.3366  -5.3321  -5.3214  -5.2824
    -5.1805  -5.1759  -5.1564  -5.0426  -5.0073  -5.0010  -4.8101  -4.4075
    -3.6764  -3.5291  -3.2539  -3.1082  -2.8325  -2.3072  -2.2211  -1.9656
    -1.8702  -1.6788  -1.4119  -0.7589  -0.5671   0.0745   0.2298   0.8208
     0.9760

     occupation numbers 
     1.0000   1.0000   1.0000   1.0000   1.0000   1.0000   1.0000   1.0000
     1.0000   1.0000   1.0000   1.0000   1.0000   1.0000   1.0000   1.0000
     1.0000   1.0000   1.0000   1.0000   1.0000   1.0000   1.0000   1.0000
     1.0000   1.0000   1.0000   1.0000   1.0000   1.0000   1.0000   1.0000
     1.0000   1.0000   1.0000   1.0000   1.0000   1.0000   1.0000   1.0000
     1.0000   1.0000   1.0000   1.0000   1.0000   1.0000   1.0000   1.0000
     1.0000   1.0000   1.0000   1.0000   1.0000   1.0000   1.0000   1.0000
     1.0000   1.0000   1.0000   1.0000   1.0000   1.0000   1.0000   1.0000
     1.0000   1.0000   1.0000   1.0000   1.0000   1.0000   1.0000   1.0000
     1.0000   1.0000   1.0000   1.0000   1.0000   1.0000   1.0000   1.0000
     1.0000   1.0000   1.0000   1.0000   1.0000   1.0000   1.0000   1.0000
     1.0000   1.0000   1.0000   1.0000   1.0000   1.0000   1.0000   1.0000
     1.0000   1.0001   1.0002   1.0002   1.0012   1.0018   1.0024   1.0034
     1.0060   1.0076   1.0123   1.0342   1.0462   1.0572   1.0824   1.0819
     1.0310   0.9140   0.7726   0.7457   0.5724   0.5555   0.5154   0.3772
     0.1216   0.1144   0.0869   0.0123   0.0059   0.0051   0.0000   0.0000
     0.0000   0.0000   0.0000   0.0000   0.0000   0.0000   0.0000   0.0000
     0.0000   0.0000   0.0000   0.0000   0.0000   0.0000   0.0000   0.0000
     0.0000

          k = 0.3125 0.1804 0.0000 ( 44550 PWs)   bands (ev):

   -11.8366 -11.4984 -11.0257 -10.6338 -10.5612 -10.4734 -10.4713 -10.4110
   -10.3321 -10.3104 -10.2885 -10.2810 -10.2346 -10.1710 -10.1640 -10.1603
   -10.0316 -10.0229  -9.9571  -9.8801  -9.8576  -9.8386  -9.7978  -9.7797
    -9.7631  -9.7170  -9.6511  -9.6132  -9.5329  -9.3609  -9.2692  -9.2203
    -9.1880  -9.0870  -8.9942  -8.9732  -8.8816  -8.7443  -8.7362  -8.7065
    -8.6959  -8.6236  -8.5630  -8.4683  -8.3296  -8.3143  -8.2554  -8.1866
    -8.1645  -8.1501  -8.1098  -8.0354  -8.0255  -8.0150  -8.0097  -7.9866
    -7.9347  -7.9228  -7.8799  -7.8481  -7.8005  -7.7888  -7.6959  -7.6063
    -7.5919  -7.5874  -7.5802  -7.5690  -7.5634  -7.5194  -7.4693  -7.4120
    -7.3861  -7.3660  -7.2914  -7.1976  -7.1504  -7.0018  -6.9854  -6.9112
    -6.8999  -6.8893  -6.8156  -6.8002  -6.7233  -6.6663  -6.6462  -6.6083
    -6.5443  -6.5040  -6.4557  -6.4343  -6.4110  -6.2622  -6.2259  -6.1731
    -6.1184  -6.0991  -6.0805  -6.0471  -6.0433  -5.9524  -5.9346  -5.9286
    -5.9036  -5.8936  -5.8296  -5.8185  -5.7995  -5.7472  -5.6486  -5.5809
    -5.5287  -5.5001  -5.4522  -5.4316  -5.3977  -5.3626  -5.2924  -5.2899
    -5.2521  -5.1764  -5.1611  -5.1531  -5.1344  -4.9814  -4.9758  -4.3019
    -3.7560  -3.0785  -2.8842  -2.8678  -2.5795  -2.5381  -2.2595  -2.0596
    -1.9378  -1.8523  -1.3235  -1.1699  -0.2680   0.0539   0.0974   1.1509
     1.5297

     occupation numbers 
     1.0000   1.0000   1.0000   1.0000   1.0000   1.0000   1.0000   1.0000
     1.0000   1.0000   1.0000   1.0000   1.0000   1.0000   1.0000   1.0000
     1.0000   1.0000   1.0000   1.0000   1.0000   1.0000   1.0000   1.0000
     1.0000   1.0000   1.0000   1.0000   1.0000   1.0000   1.0000   1.0000
     1.0000   1.0000   1.0000   1.0000   1.0000   1.0000   1.0000   1.0000
     1.0000   1.0000   1.0000   1.0000   1.0000   1.0000   1.0000   1.0000
     1.0000   1.0000   1.0000   1.0000   1.0000   1.0000   1.0000   1.0000
     1.0000   1.0000   1.0000   1.0000   1.0000   1.0000   1.0000   1.0000
     1.0000   1.0000   1.0000   1.0000   1.0000   1.0000   1.0000   1.0000
     1.0000   1.0000   1.0000   1.0000   1.0000   1.0000   1.0000   1.0000
     1.0000   1.0000   1.0000   1.0000   1.0000   1.0000   1.0000   1.0000
     1.0000   1.0000   1.0000   1.0000   1.0000   1.0000   1.0000   1.0000
     1.0000   1.0000   1.0000   1.0000   1.0000   1.0003   1.0005   1.0006
     1.0011   1.0014   1.0051   1.0063   1.0088   1.0200   1.0601   1.0829
     1.0696   1.0418   0.9547   0.9011   0.7955   0.6701   0.4111   0.4023
     0.2827   0.1151   0.0930   0.0828   0.0624   0.0033   0.0029   0.0000
     0.0000   0.0000   0.0000   0.0000   0.0000   0.0000   0.0000   0.0000
     0.0000   0.0000   0.0000   0.0000   0.0000   0.0000   0.0000   0.0000
     0.0000

          k = 0.3125 0.2526 0.0000 ( 44528 PWs)   bands (ev):

   -11.6827 -11.4074 -10.9160 -10.6147 -10.4805 -10.3952 -10.3834 -10.3134
   -10.2902 -10.2544 -10.1996 -10.1779 -10.1558 -10.1099 -10.0923 -10.0358
    -9.9445  -9.9261  -9.8605  -9.8227  -9.8029  -9.7386  -9.7222  -9.7069
    -9.6683  -9.6434  -9.5697  -9.5281  -9.4802  -9.2341  -9.1985  -9.1662
    -9.1373  -9.1062  -9.0674  -9.0011  -8.8848  -8.8360  -8.8214  -8.7849
    -8.6660  -8.6281  -8.6086  -8.5356  -8.4042  -8.3803  -8.3211  -8.2375
    -8.2164  -8.1666  -8.1458  -8.0812  -8.0600  -8.0324  -8.0070  -7.9661
    -7.9363  -7.8879  -7.8684  -7.8450  -7.8047  -7.7671  -7.7437  -7.7094
    -7.6754  -7.6564  -7.6086  -7.5622  -7.5097  -7.4835  -7.4680  -7.4551
    -7.3940  -7.3622  -7.2825  -7.2660  -7.1768  -7.0674  -7.0559  -7.0165
    -6.9389  -6.9337  -6.8970  -6.8876  -6.8667  -6.8375  -6.8270  -6.7247
    -6.6697  -6.5470  -6.5225  -6.5051  -6.4869  -6.4685  -6.3048  -6.2732
    -6.2389  -6.2200  -6.2062  -6.1881  -6.1232  -6.0865  -6.0137  -6.0008
    -5.9931  -5.9610  -5.9305  -5.8790  -5.8637  -5.7802  -5.7595  -5.6659
    -5.5554  -5.4993  -5.4626  -5.4299  -5.4101  -5.3214  -5.3077  -5.2938
    -5.2669  -5.2006  -5.1768  -5.1674  -5.1458  -5.0089  -5.0021  -4.1451
    -3.8198  -3.4704  -3.2191  -2.9189  -2.6735  -2.2171  -2.1377  -1.8825
    -1.7793  -1.5721  -1.3449  -0.6818  -0.3629  -0.2166   0.5227   1.1280
     1.3951

     occupation numbers 
     1.0000   1.0000   1.0000   1.0000   1.0000   1.0000   1.0000   1.0000
     1.0000   1.0000   1.0000   1.0000   1.0000   1.0000   1.0000   1.0000
     1.0000   1.0000   1.0000   1.0000   1.0000   1.0000   1.0000   1.0000
     1.0000   1.0000   1.0000   1.0000   1.0000   1.0000   1.0000   1.0000
     1.0000   1.0000   1.0000   1.0000   1.0000   1.0000   1.0000   1.0000
     1.0000   1.0000   1.0000   1.0000   1.0000   1.0000   1.0000   1.0000
     1.0000   1.0000   1.0000   1.0000   1.0000   1.0000   1.0000   1.0000
     1.0000   1.0000   1.0000   1.0000   1.0000   1.0000   1.0000   1.0000
     1.0000   1.0000   1.0000   1.0000   1.0000   1.0000   1.0000   1.0000
     1.0000   1.0000   1.0000   1.0000   1.0000   1.0000   1.0000   1.0000
     1.0000   1.0000   1.0000   1.0000   1.0000   1.0000   1.0000   1.0000
     1.0000   1.0000   1.0000   1.0000   1.0000   1.0000   1.0000   1.0000
     1.0000   1.0000   1.0000   1.0000   1.0000   1.0000   1.0001   1.0001
     1.0001   1.0003   1.0006   1.0019   1.0026   1.0121   1.0167   1.0520
     1.0815   1.0407   0.9779   0.8963   0.8367   0.5152   0.4652   0.4161
     0.3269   0.1578   0.1157   0.1017   0.0744   0.0061   0.0052   0.0000
     0.0000   0.0000   0.0000   0.0000   0.0000   0.0000   0.0000   0.0000
     0.0000   0.0000   0.0000   0.0000   0.0000   0.0000   0.0000   0.0000
     0.0000

          k = 0.3125 0.3248 0.0000 ( 44545 PWs)   bands (ev):

   -11.4999 -11.2943 -10.7706 -10.5678 -10.3638 -10.3002 -10.2739 -10.2299
   -10.2276 -10.1726 -10.0947 -10.0646 -10.0352 -10.0201  -9.9793  -9.9081
    -9.8506  -9.7969  -9.7869  -9.7465  -9.7231  -9.6664  -9.6545  -9.6021
    -9.5692  -9.5309  -9.4792  -9.4221  -9.3818  -9.1896  -9.1668  -9.1381
    -9.1196  -9.0811  -9.0390  -9.0022  -8.9407  -8.9337  -8.9000  -8.8273
    -8.7543  -8.6513  -8.6219  -8.5338  -8.4887  -8.4741  -8.4579  -8.3239
    -8.2974  -8.2435  -8.2015  -8.1526  -8.0862  -8.0621  -8.0383  -8.0249
    -7.9922  -7.9199  -7.9010  -7.8764  -7.8590  -7.8307  -7.8162  -7.7837
    -7.7614  -7.7094  -7.6460  -7.5674  -7.5056  -7.4882  -7.4514  -7.4144
    -7.3759  -7.3445  -7.3075  -7.2716  -7.2221  -7.1296  -7.1077  -7.1007
    -7.0780  -7.0437  -7.0303  -6.9761  -6.9599  -6.9204  -6.8453  -6.8202
    -6.7867  -6.7165  -6.6207  -6.5925  -6.5748  -6.5546  -6.4669  -6.4033
    -6.3572  -6.3348  -6.3188  -6.2394  -6.1925  -6.1888  -6.1415  -6.0482
    -6.0338  -5.9892  -5.9611  -5.9156  -5.8072  -5.7546  -5.7277  -5.6279
    -5.6074  -5.5022  -5.4518  -5.4410  -5.4160  -5.3786  -5.3500  -5.3420
    -5.2572  -5.2493  -5.2367  -5.2162  -5.0850  -5.0763  -4.9785  -4.0657
    -4.0021  -3.8195  -3.7326  -3.4267  -2.6752  -2.2704  -2.1606  -1.4667
    -1.3193  -1.0673  -0.9111  -0.5966  -0.3891   0.1404   0.7192   1.0632
     1.1973

     occupation numbers 
     1.0000   1.0000   1.0000   1.0000   1.0000   1.0000   1.0000   1.0000
     1.0000   1.0000   1.0000   1.0000   1.0000   1.0000   1.0000   1.0000
     1.0000   1.0000   1.0000   1.0000   1.0000   1.0000   1.0000   1.0000
     1.0000   1.0000   1.0000   1.0000   1.0000   1.0000   1.0000   1.0000
     1.0000   1.0000   1.0000   1.0000   1.0000   1.0000   1.0000   1.0000
     1.0000   1.0000   1.0000   1.0000   1.0000   1.0000   1.0000   1.0000
     1.0000   1.0000   1.0000   1.0000   1.0000   1.0000   1.0000   1.0000
     1.0000   1.0000   1.0000   1.0000   1.0000   1.0000   1.0000   1.0000
     1.0000   1.0000   1.0000   1.0000   1.0000   1.0000   1.0000   1.0000
     1.0000   1.0000   1.0000   1.0000   1.0000   1.0000   1.0000   1.0000
     1.0000   1.0000   1.0000   1.0000   1.0000   1.0000   1.0000   1.0000
     1.0000   1.0000   1.0000   1.0000   1.0000   1.0000   1.0000   1.0000
     1.0000   1.0000   1.0000   1.0000   1.0000   1.0000   1.0000   1.0000
     1.0000   1.0001   1.0003   1.0008   1.0077   1.0180   1.0261   1.0693
     1.0770   1.0444   0.9537   0.9266   0.8551   0.7287   0.6227   0.5925
     0.2978   0.2749   0.2405   0.1906   0.0273   0.0233   0.0031   0.0000
     0.0000   0.0000   0.0000   0.0000   0.0000   0.0000   0.0000   0.0000
     0.0000   0.0000   0.0000   0.0000   0.0000   0.0000   0.0000   0.0000
     0.0000

          k = 0.3125-0.7578 0.0000 ( 44502 PWs)   bands (ev):

   -11.3432 -11.1267 -10.5974 -10.5005 -10.2441 -10.2073 -10.1865 -10.1598
   -10.1256 -10.0186  -9.9909  -9.9510  -9.9131  -9.8978  -9.8319  -9.8177
    -9.7914  -9.7181  -9.6495  -9.6415  -9.6326  -9.6167  -9.6007  -9.4847
    -9.4656  -9.4388  -9.4004  -9.2920  -9.2535  -9.2415  -9.1939  -9.1221
    -9.1033  -9.0936  -9.0640  -9.0499  -9.0022  -8.8972  -8.8775  -8.8321
    -8.8192  -8.7211  -8.6994  -8.6474  -8.6275  -8.5149  -8.4962  -8.3764
    -8.3512  -8.3375  -8.3305  -8.2678  -8.2309  -8.2148  -8.1179  -8.0857
    -8.0295  -8.0044  -7.9612  -7.9349  -7.9104  -7.8858  -7.8302  -7.7917
    -7.7636  -7.7477  -7.7111  -7.6833  -7.6327  -7.5858  -7.5527  -7.4699
    -7.4543  -7.4032  -7.3426  -7.3115  -7.2818  -7.2264  -7.2045  -7.1831
    -7.1499  -7.0874  -7.0102  -6.9389  -6.9237  -6.9034  -6.8928  -6.8397
    -6.8084  -6.7808  -6.6689  -6.6489  -6.6177  -6.6076  -6.5276  -6.4606
    -6.4285  -6.3962  -6.3339  -6.3070  -6.2087  -6.1724  -6.1314  -6.1001
    -6.0769  -6.0375  -5.9133  -5.8925  -5.7428  -5.7188  -5.7004  -5.6730
    -5.6045  -5.5038  -5.4859  -5.4750  -5.4521  -5.4423  -5.4022  -5.3811
    -5.3674  -5.3114  -5.2993  -5.2067  -5.1820  -5.1695  -4.7787  -4.5163
    -4.4044  -4.1186  -3.9022  -3.5034  -2.9939  -2.3641  -2.0079  -1.4531
    -0.8205  -0.6697  -0.5172  -0.3278   0.0660   0.3433   0.7640   1.0316
     1.3084

     occupation numbers 
     1.0000   1.0000   1.0000   1.0000   1.0000   1.0000   1.0000   1.0000
     1.0000   1.0000   1.0000   1.0000   1.0000   1.0000   1.0000   1.0000
     1.0000   1.0000   1.0000   1.0000   1.0000   1.0000   1.0000   1.0000
     1.0000   1.0000   1.0000   1.0000   1.0000   1.0000   1.0000   1.0000
     1.0000   1.0000   1.0000   1.0000   1.0000   1.0000   1.0000   1.0000
     1.0000   1.0000   1.0000   1.0000   1.0000   1.0000   1.0000   1.0000
     1.0000   1.0000   1.0000   1.0000   1.0000   1.0000   1.0000   1.0000
     1.0000   1.0000   1.0000   1.0000   1.0000   1.0000   1.0000   1.0000
     1.0000   1.0000   1.0000   1.0000   1.0000   1.0000   1.0000   1.0000
     1.0000   1.0000   1.0000   1.0000   1.0000   1.0000   1.0000   1.0000
     1.0000   1.0000   1.0000   1.0000   1.0000   1.0000   1.0000   1.0000
     1.0000   1.0000   1.0000   1.0000   1.0000   1.0000   1.0000   1.0000
     1.0000   1.0000   1.0000   1.0000   1.0000   1.0000   1.0000   1.0000
     1.0000   1.0000   1.0009   1.0014   1.0213   1.0293   1.0365   1.0486
     1.0780   1.0464   1.0213   1.0026   0.9542   0.9300   0.8108   0.7378
     0.6879   0.4788   0.4353   0.1702   0.1242   0.1047   0.0000   0.0000
     0.0000   0.0000   0.0000   0.0000   0.0000   0.0000   0.0000   0.0000
     0.0000   0.0000   0.0000   0.0000   0.0000   0.0000   0.0000   0.0000
     0.0000

          k = 0.3125-0.6856 0.0000 ( 44485 PWs)   bands (ev):

   -11.2564 -10.8839 -10.4289 -10.4151 -10.2304 -10.1809 -10.1038 -10.0564
    -9.9665  -9.8976  -9.8757  -9.8664  -9.8134  -9.7949  -9.7576  -9.6783
    -9.6533  -9.6497  -9.6057  -9.5754  -9.5577  -9.5342  -9.4677  -9.4095
    -9.3873  -9.3817  -9.3600  -9.3002  -9.2662  -9.1946  -9.1632  -9.1542
    -9.1492  -9.1386  -9.0743  -9.0533  -9.0465  -8.9033  -8.8735  -8.8576
    -8.8368  -8.7924  -8.7428  -8.7187  -8.6988  -8.6175  -8.5629  -8.4698
    -8.4534  -8.3804  -8.3275  -8.3081  -8.2930  -8.2338  -8.2053  -8.1424
    -8.1048  -8.0801  -8.0700  -8.0550  -8.0004  -7.9560  -7.9364  -7.8958
    -7.8838  -7.8278  -7.7951  -7.7519  -7.7020  -7.6644  -7.6436  -7.6200
    -7.5520  -7.5050  -7.4556  -7.4456  -7.3028  -7.2187  -7.1703  -7.1421
    -7.0628  -7.0399  -7.0152  -6.9931  -6.9749  -6.9567  -6.9225  -6.8570
    -6.7288  -6.7073  -6.6889  -6.6396  -6.6174  -6.5576  -6.4651  -6.4344
    -6.3975  -6.3632  -6.3292  -6.2460  -6.2224  -6.1828  -6.1563  -6.1197
    -6.0068  -5.9448  -5.8918  -5.8326  -5.7354  -5.7147  -5.6865  -5.6519
    -5.6359  -5.6116  -5.5477  -5.5326  -5.5217  -5.4812  -5.4436  -5.4288
    -5.3718  -5.3588  -5.3474  -5.2989  -5.2872  -5.1571  -4.9684  -4.9093
    -4.6529  -4.4966  -3.9409  -3.5134  -3.1334  -2.3912  -1.9911  -1.5491
    -0.6978  -0.3454  -0.0881   0.0925   0.4207   0.7133   0.9219   1.0825
     1.4044

     occupation numbers 
     1.0000   1.0000   1.0000   1.0000   1.0000   1.0000   1.0000   1.0000
     1.0000   1.0000   1.0000   1.0000   1.0000   1.0000   1.0000   1.0000
     1.0000   1.0000   1.0000   1.0000   1.0000   1.0000   1.0000   1.0000
     1.0000   1.0000   1.0000   1.0000   1.0000   1.0000   1.0000   1.0000
     1.0000   1.0000   1.0000   1.0000   1.0000   1.0000   1.0000   1.0000
     1.0000   1.0000   1.0000   1.0000   1.0000   1.0000   1.0000   1.0000
     1.0000   1.0000   1.0000   1.0000   1.0000   1.0000   1.0000   1.0000
     1.0000   1.0000   1.0000   1.0000   1.0000   1.0000   1.0000   1.0000
     1.0000   1.0000   1.0000   1.0000   1.0000   1.0000   1.0000   1.0000
     1.0000   1.0000   1.0000   1.0000   1.0000   1.0000   1.0000   1.0000
     1.0000   1.0000   1.0000   1.0000   1.0000   1.0000   1.0000   1.0000
     1.0000   1.0000   1.0000   1.0000   1.0000   1.0000   1.0000   1.0000
     1.0000   1.0000   1.0000   1.0000   1.0000   1.0000   1.0000   1.0000
     1.0001   1.0004   1.0014   1.0048   1.0236   1.0308   1.0425   1.0586
     1.0659   1.0756   1.0793   1.0721   1.0643   1.0136   0.9334   0.8932
     0.7040   0.6557   0.6131   0.4336   0.3931   0.0878   0.0024   0.0006
     0.0000   0.0000   0.0000   0.0000   0.0000   0.0000   0.0000   0.0000
     0.0000   0.0000   0.0000   0.0000   0.0000   0.0000   0.0000   0.0000
     0.0000

          k = 0.3125-0.6134 0.0000 ( 44465 PWs)   bands (ev):

   -11.2181 -10.6151 -10.3749 -10.3722 -10.2597 -10.1633 -10.1522  -9.9146
    -9.8687  -9.8547  -9.8150  -9.7782  -9.7670  -9.6835  -9.6768  -9.5920
    -9.5563  -9.5456  -9.5212  -9.5052  -9.4972  -9.4830  -9.4223  -9.4085
    -9.3941  -9.3681  -9.3588  -9.3336  -9.2892  -9.2479  -9.2269  -9.2143
    -9.1747  -9.1301  -9.0778  -9.0708  -9.0492  -8.9784  -8.9562  -8.9527
    -8.8369  -8.7807  -8.7204  -8.6721  -8.6080  -8.5867  -8.5584  -8.5293
    -8.4556  -8.4028  -8.3939  -8.3625  -8.2882  -8.2638  -8.2274  -8.1888
    -8.1753  -8.1426  -8.1268  -8.1005  -8.0972  -8.0836  -8.0564  -8.0273
    -8.0221  -7.9948  -7.9254  -7.7913  -7.7118  -7.6124  -7.6001  -7.5921
    -7.5814  -7.5201  -7.5121  -7.4650  -7.3569  -7.2964  -7.2843  -7.1512
    -7.0722  -7.0377  -6.9961  -6.9833  -6.9591  -6.9059  -6.8404  -6.8132
    -6.7674  -6.7073  -6.7011  -6.6340  -6.5428  -6.5221  -6.4512  -6.3830
    -6.3563  -6.3339  -6.2795  -6.2491  -6.2422  -6.2322  -6.0983  -5.9264
    -5.8896  -5.8331  -5.8040  -5.7523  -5.7475  -5.7104  -5.6954  -5.6837
    -5.6724  -5.6693  -5.6639  -5.5769  -5.4934  -5.4699  -5.4311  -5.4193
    -5.3916  -5.3835  -5.3744  -5.3645  -5.3597  -5.3426  -5.3391  -5.1544
    -5.0252  -4.3086  -3.9554  -3.8064  -2.8984  -2.4219  -2.2598  -1.2940
    -0.7288  -0.5488   0.2312   0.7293   0.8564   0.9153   0.9379   1.1586
     1.3998

     occupation numbers 
     1.0000   1.0000   1.0000   1.0000   1.0000   1.0000   1.0000   1.0000
     1.0000   1.0000   1.0000   1.0000   1.0000   1.0000   1.0000   1.0000
     1.0000   1.0000   1.0000   1.0000   1.0000   1.0000   1.0000   1.0000
     1.0000   1.0000   1.0000   1.0000   1.0000   1.0000   1.0000   1.0000
     1.0000   1.0000   1.0000   1.0000   1.0000   1.0000   1.0000   1.0000
     1.0000   1.0000   1.0000   1.0000   1.0000   1.0000   1.0000   1.0000
     1.0000   1.0000   1.0000   1.0000   1.0000   1.0000   1.0000   1.0000
     1.0000   1.0000   1.0000   1.0000   1.0000   1.0000   1.0000   1.0000
     1.0000   1.0000   1.0000   1.0000   1.0000   1.0000   1.0000   1.0000
     1.0000   1.0000   1.0000   1.0000   1.0000   1.0000   1.0000   1.0000
     1.0000   1.0000   1.0000   1.0000   1.0000   1.0000   1.0000   1.0000
     1.0000   1.0000   1.0000   1.0000   1.0000   1.0000   1.0000   1.0000
     1.0000   1.0000   1.0000   1.0000   1.0000   1.0000   1.0000   1.0006
     1.0015   1.0048   1.0081   1.0186   1.0199   1.0325   1.0386   1.0438
     1.0489   1.0504   1.0529   1.0832   1.0327   0.9930   0.8998   0.8652
     0.7747   0.7463   0.7134   0.6769   0.6593   0.5950   0.5817   0.0844
     0.0086   0.0000   0.0000   0.0000   0.0000   0.0000   0.0000   0.0000
     0.0000   0.0000   0.0000   0.0000   0.0000   0.0000   0.0000   0.0000
     0.0000

          k = 0.3125-0.5413 0.0000 ( 44465 PWs)   bands (ev):

   -11.2181 -10.6151 -10.3749 -10.3722 -10.2597 -10.1633 -10.1522  -9.9146
    -9.8687  -9.8547  -9.8150  -9.7782  -9.7670  -9.6835  -9.6768  -9.5920
    -9.5563  -9.5456  -9.5212  -9.5052  -9.4972  -9.4830  -9.4223  -9.4085
    -9.3941  -9.3681  -9.3588  -9.3336  -9.2892  -9.2479  -9.2269  -9.2143
    -9.1747  -9.1301  -9.0778  -9.0708  -9.0492  -8.9784  -8.9562  -8.9527
    -8.8369  -8.7807  -8.7204  -8.6721  -8.6080  -8.5867  -8.5584  -8.5293
    -8.4556  -8.4028  -8.3939  -8.3625  -8.2882  -8.2638  -8.2274  -8.1888
    -8.1753  -8.1426  -8.1268  -8.1005  -8.0972  -8.0836  -8.0564  -8.0273
    -8.0221  -7.9948  -7.9254  -7.7913  -7.7118  -7.6124  -7.6001  -7.5921
    -7.5814  -7.5201  -7.5121  -7.4650  -7.3569  -7.2964  -7.2843  -7.1512
    -7.0722  -7.0377  -6.9961  -6.9833  -6.9591  -6.9059  -6.8404  -6.8132
    -6.7674  -6.7073  -6.7011  -6.6340  -6.5428  -6.5221  -6.4512  -6.3830
    -6.3563  -6.3339  -6.2795  -6.2491  -6.2422  -6.2322  -6.0983  -5.9264
    -5.8896  -5.8331  -5.8040  -5.7523  -5.7475  -5.7104  -5.6954  -5.6837
    -5.6724  -5.6693  -5.6639  -5.5769  -5.4934  -5.4699  -5.4311  -5.4193
    -5.3916  -5.3835  -5.3744  -5.3645  -5.3597  -5.3426  -5.3391  -5.1544
    -5.0252  -4.3086  -3.9554  -3.8064  -2.8984  -2.4219  -2.2598  -1.2940
    -0.7288  -0.5488   0.2312   0.7293   0.8564   0.9153   0.9379   1.1586
     1.3998

     occupation numbers 
     1.0000   1.0000   1.0000   1.0000   1.0000   1.0000   1.0000   1.0000
     1.0000   1.0000   1.0000   1.0000   1.0000   1.0000   1.0000   1.0000
     1.0000   1.0000   1.0000   1.0000   1.0000   1.0000   1.0000   1.0000
     1.0000   1.0000   1.0000   1.0000   1.0000   1.0000   1.0000   1.0000
     1.0000   1.0000   1.0000   1.0000   1.0000   1.0000   1.0000   1.0000
     1.0000   1.0000   1.0000   1.0000   1.0000   1.0000   1.0000   1.0000
     1.0000   1.0000   1.0000   1.0000   1.0000   1.0000   1.0000   1.0000
     1.0000   1.0000   1.0000   1.0000   1.0000   1.0000   1.0000   1.0000
     1.0000   1.0000   1.0000   1.0000   1.0000   1.0000   1.0000   1.0000
     1.0000   1.0000   1.0000   1.0000   1.0000   1.0000   1.0000   1.0000
     1.0000   1.0000   1.0000   1.0000   1.0000   1.0000   1.0000   1.0000
     1.0000   1.0000   1.0000   1.0000   1.0000   1.0000   1.0000   1.0000
     1.0000   1.0000   1.0000   1.0000   1.0000   1.0000   1.0000   1.0006
     1.0015   1.0048   1.0081   1.0186   1.0199   1.0325   1.0386   1.0438
     1.0489   1.0504   1.0529   1.0832   1.0327   0.9930   0.8998   0.8652
     0.7747   0.7463   0.7134   0.6769   0.6593   0.5950   0.5817   0.0844
     0.0086   0.0000   0.0000   0.0000   0.0000   0.0000   0.0000   0.0000
     0.0000   0.0000   0.0000   0.0000   0.0000   0.0000   0.0000   0.0000
     0.0000

          k = 0.3125-0.4691 0.0000 ( 44485 PWs)   bands (ev):

   -11.2564 -10.8839 -10.4289 -10.4151 -10.2304 -10.1809 -10.1038 -10.0564
    -9.9665  -9.8976  -9.8757  -9.8664  -9.8134  -9.7949  -9.7576  -9.6783
    -9.6533  -9.6497  -9.6057  -9.5754  -9.5577  -9.5342  -9.4677  -9.4095
    -9.3873  -9.3817  -9.3600  -9.3002  -9.2662  -9.1946  -9.1632  -9.1542
    -9.1492  -9.1386  -9.0743  -9.0533  -9.0465  -8.9033  -8.8735  -8.8576
    -8.8368  -8.7924  -8.7428  -8.7187  -8.6988  -8.6175  -8.5629  -8.4698
    -8.4534  -8.3804  -8.3275  -8.3081  -8.2930  -8.2338  -8.2053  -8.1424
    -8.1048  -8.0801  -8.0700  -8.0550  -8.0004  -7.9560  -7.9364  -7.8958
    -7.8838  -7.8278  -7.7951  -7.7519  -7.7020  -7.6644  -7.6436  -7.6200
    -7.5520  -7.5050  -7.4556  -7.4456  -7.3028  -7.2187  -7.1703  -7.1421
    -7.0628  -7.0399  -7.0152  -6.9931  -6.9749  -6.9567  -6.9225  -6.8570
    -6.7288  -6.7073  -6.6889  -6.6396  -6.6174  -6.5576  -6.4651  -6.4344
    -6.3975  -6.3632  -6.3292  -6.2460  -6.2224  -6.1828  -6.1563  -6.1197
    -6.0068  -5.9448  -5.8918  -5.8326  -5.7354  -5.7147  -5.6865  -5.6519
    -5.6359  -5.6116  -5.5477  -5.5326  -5.5217  -5.4812  -5.4436  -5.4288
    -5.3718  -5.3588  -5.3474  -5.2989  -5.2872  -5.1571  -4.9684  -4.9093
    -4.6529  -4.4966  -3.9409  -3.5134  -3.1334  -2.3912  -1.9911  -1.5491
    -0.6978  -0.3454  -0.0881   0.0925   0.4207   0.7133   0.9219   1.0825
     1.4044

     occupation numbers 
     1.0000   1.0000   1.0000   1.0000   1.0000   1.0000   1.0000   1.0000
     1.0000   1.0000   1.0000   1.0000   1.0000   1.0000   1.0000   1.0000
     1.0000   1.0000   1.0000   1.0000   1.0000   1.0000   1.0000   1.0000
     1.0000   1.0000   1.0000   1.0000   1.0000   1.0000   1.0000   1.0000
     1.0000   1.0000   1.0000   1.0000   1.0000   1.0000   1.0000   1.0000
     1.0000   1.0000   1.0000   1.0000   1.0000   1.0000   1.0000   1.0000
     1.0000   1.0000   1.0000   1.0000   1.0000   1.0000   1.0000   1.0000
     1.0000   1.0000   1.0000   1.0000   1.0000   1.0000   1.0000   1.0000
     1.0000   1.0000   1.0000   1.0000   1.0000   1.0000   1.0000   1.0000
     1.0000   1.0000   1.0000   1.0000   1.0000   1.0000   1.0000   1.0000
     1.0000   1.0000   1.0000   1.0000   1.0000   1.0000   1.0000   1.0000
     1.0000   1.0000   1.0000   1.0000   1.0000   1.0000   1.0000   1.0000
     1.0000   1.0000   1.0000   1.0000   1.0000   1.0000   1.0000   1.0000
     1.0001   1.0004   1.0014   1.0048   1.0236   1.0308   1.0425   1.0586
     1.0659   1.0756   1.0793   1.0721   1.0643   1.0136   0.9334   0.8932
     0.7040   0.6557   0.6131   0.4336   0.3931   0.0878   0.0024   0.0006
     0.0000   0.0000   0.0000   0.0000   0.0000   0.0000   0.0000   0.0000
     0.0000   0.0000   0.0000   0.0000   0.0000   0.0000   0.0000   0.0000
     0.0000

          k = 0.3125-0.3969 0.0000 ( 44502 PWs)   bands (ev):

   -11.3432 -11.1267 -10.5974 -10.5005 -10.2441 -10.2073 -10.1865 -10.1598
   -10.1256 -10.0186  -9.9909  -9.9510  -9.9131  -9.8978  -9.8319  -9.8177
    -9.7914  -9.7181  -9.6495  -9.6415  -9.6326  -9.6167  -9.6007  -9.4847
    -9.4656  -9.4388  -9.4004  -9.2920  -9.2535  -9.2415  -9.1939  -9.1221
    -9.1033  -9.0936  -9.0640  -9.0499  -9.0022  -8.8972  -8.8775  -8.8321
    -8.8192  -8.7211  -8.6994  -8.6474  -8.6275  -8.5149  -8.4962  -8.3764
    -8.3512  -8.3375  -8.3305  -8.2678  -8.2309  -8.2148  -8.1179  -8.0857
    -8.0295  -8.0044  -7.9612  -7.9349  -7.9104  -7.8858  -7.8302  -7.7917
    -7.7636  -7.7477  -7.7111  -7.6833  -7.6327  -7.5858  -7.5527  -7.4699
    -7.4543  -7.4032  -7.3426  -7.3115  -7.2818  -7.2264  -7.2045  -7.1831
    -7.1499  -7.0874  -7.0102  -6.9389  -6.9237  -6.9034  -6.8928  -6.8397
    -6.8084  -6.7808  -6.6689  -6.6489  -6.6177  -6.6076  -6.5276  -6.4606
    -6.4285  -6.3962  -6.3339  -6.3070  -6.2087  -6.1724  -6.1314  -6.1001
    -6.0769  -6.0375  -5.9133  -5.8925  -5.7428  -5.7188  -5.7004  -5.6730
    -5.6045  -5.5038  -5.4859  -5.4750  -5.4521  -5.4423  -5.4022  -5.3811
    -5.3674  -5.3114  -5.2993  -5.2067  -5.1820  -5.1695  -4.7787  -4.5163
    -4.4044  -4.1186  -3.9022  -3.5034  -2.9939  -2.3641  -2.0079  -1.4531
    -0.8205  -0.6697  -0.5172  -0.3278   0.0660   0.3433   0.7640   1.0316
     1.3084

     occupation numbers 
     1.0000   1.0000   1.0000   1.0000   1.0000   1.0000   1.0000   1.0000
     1.0000   1.0000   1.0000   1.0000   1.0000   1.0000   1.0000   1.0000
     1.0000   1.0000   1.0000   1.0000   1.0000   1.0000   1.0000   1.0000
     1.0000   1.0000   1.0000   1.0000   1.0000   1.0000   1.0000   1.0000
     1.0000   1.0000   1.0000   1.0000   1.0000   1.0000   1.0000   1.0000
     1.0000   1.0000   1.0000   1.0000   1.0000   1.0000   1.0000   1.0000
     1.0000   1.0000   1.0000   1.0000   1.0000   1.0000   1.0000   1.0000
     1.0000   1.0000   1.0000   1.0000   1.0000   1.0000   1.0000   1.0000
     1.0000   1.0000   1.0000   1.0000   1.0000   1.0000   1.0000   1.0000
     1.0000   1.0000   1.0000   1.0000   1.0000   1.0000   1.0000   1.0000
     1.0000   1.0000   1.0000   1.0000   1.0000   1.0000   1.0000   1.0000
     1.0000   1.0000   1.0000   1.0000   1.0000   1.0000   1.0000   1.0000
     1.0000   1.0000   1.0000   1.0000   1.0000   1.0000   1.0000   1.0000
     1.0000   1.0000   1.0009   1.0014   1.0213   1.0293   1.0365   1.0486
     1.0780   1.0464   1.0213   1.0026   0.9542   0.9300   0.8108   0.7378
     0.6879   0.4788   0.4353   0.1702   0.1242   0.1047   0.0000   0.0000
     0.0000   0.0000   0.0000   0.0000   0.0000   0.0000   0.0000   0.0000
     0.0000   0.0000   0.0000   0.0000   0.0000   0.0000   0.0000   0.0000
     0.0000

          k = 0.3125-0.3248 0.0000 ( 44545 PWs)   bands (ev):

   -11.4999 -11.2943 -10.7706 -10.5678 -10.3638 -10.3002 -10.2739 -10.2299
   -10.2276 -10.1726 -10.0947 -10.0646 -10.0352 -10.0201  -9.9793  -9.9081
    -9.8506  -9.7969  -9.7869  -9.7465  -9.7231  -9.6664  -9.6545  -9.6021
    -9.5692  -9.5309  -9.4792  -9.4221  -9.3818  -9.1896  -9.1668  -9.1381
    -9.1196  -9.0811  -9.0390  -9.0022  -8.9407  -8.9337  -8.9000  -8.8273
    -8.7543  -8.6513  -8.6219  -8.5338  -8.4887  -8.4741  -8.4579  -8.3239
    -8.2974  -8.2435  -8.2015  -8.1526  -8.0862  -8.0621  -8.0383  -8.0249
    -7.9922  -7.9199  -7.9010  -7.8764  -7.8590  -7.8307  -7.8162  -7.7837
    -7.7614  -7.7094  -7.6460  -7.5674  -7.5056  -7.4882  -7.4514  -7.4144
    -7.3759  -7.3445  -7.3075  -7.2716  -7.2221  -7.1296  -7.1077  -7.1007
    -7.0780  -7.0437  -7.0303  -6.9761  -6.9599  -6.9204  -6.8453  -6.8202
    -6.7867  -6.7165  -6.6207  -6.5925  -6.5748  -6.5546  -6.4669  -6.4033
    -6.3572  -6.3348  -6.3188  -6.2394  -6.1925  -6.1888  -6.1415  -6.0482
    -6.0338  -5.9892  -5.9611  -5.9156  -5.8072  -5.7546  -5.7277  -5.6279
    -5.6074  -5.5022  -5.4518  -5.4410  -5.4160  -5.3786  -5.3500  -5.3420
    -5.2572  -5.2493  -5.2367  -5.2162  -5.0850  -5.0763  -4.9785  -4.0657
    -4.0021  -3.8195  -3.7326  -3.4267  -2.6752  -2.2704  -2.1606  -1.4667
    -1.3193  -1.0673  -0.9111  -0.5966  -0.3891   0.1404   0.7192   1.0632
     1.1973

     occupation numbers 
     1.0000   1.0000   1.0000   1.0000   1.0000   1.0000   1.0000   1.0000
     1.0000   1.0000   1.0000   1.0000   1.0000   1.0000   1.0000   1.0000
     1.0000   1.0000   1.0000   1.0000   1.0000   1.0000   1.0000   1.0000
     1.0000   1.0000   1.0000   1.0000   1.0000   1.0000   1.0000   1.0000
     1.0000   1.0000   1.0000   1.0000   1.0000   1.0000   1.0000   1.0000
     1.0000   1.0000   1.0000   1.0000   1.0000   1.0000   1.0000   1.0000
     1.0000   1.0000   1.0000   1.0000   1.0000   1.0000   1.0000   1.0000
     1.0000   1.0000   1.0000   1.0000   1.0000   1.0000   1.0000   1.0000
     1.0000   1.0000   1.0000   1.0000   1.0000   1.0000   1.0000   1.0000
     1.0000   1.0000   1.0000   1.0000   1.0000   1.0000   1.0000   1.0000
     1.0000   1.0000   1.0000   1.0000   1.0000   1.0000   1.0000   1.0000
     1.0000   1.0000   1.0000   1.0000   1.0000   1.0000   1.0000   1.0000
     1.0000   1.0000   1.0000   1.0000   1.0000   1.0000   1.0000   1.0000
     1.0000   1.0001   1.0003   1.0008   1.0077   1.0180   1.0261   1.0693
     1.0770   1.0444   0.9537   0.9266   0.8551   0.7287   0.6227   0.5925
     0.2978   0.2749   0.2405   0.1906   0.0273   0.0233   0.0031   0.0000
     0.0000   0.0000   0.0000   0.0000   0.0000   0.0000   0.0000   0.0000
     0.0000   0.0000   0.0000   0.0000   0.0000   0.0000   0.0000   0.0000
     0.0000

          k = 0.3125-0.2526 0.0000 ( 44528 PWs)   bands (ev):

   -11.6827 -11.4074 -10.9160 -10.6147 -10.4805 -10.3952 -10.3834 -10.3134
   -10.2902 -10.2544 -10.1996 -10.1779 -10.1558 -10.1099 -10.0923 -10.0358
    -9.9445  -9.9261  -9.8605  -9.8227  -9.8029  -9.7386  -9.7222  -9.7069
    -9.6683  -9.6434  -9.5697  -9.5281  -9.4802  -9.2341  -9.1985  -9.1662
    -9.1373  -9.1062  -9.0674  -9.0011  -8.8848  -8.8360  -8.8214  -8.7849
    -8.6660  -8.6281  -8.6086  -8.5356  -8.4042  -8.3803  -8.3211  -8.2375
    -8.2164  -8.1666  -8.1458  -8.0812  -8.0600  -8.0324  -8.0070  -7.9661
    -7.9363  -7.8879  -7.8684  -7.8450  -7.8047  -7.7671  -7.7437  -7.7094
    -7.6754  -7.6564  -7.6086  -7.5622  -7.5097  -7.4835  -7.4680  -7.4551
    -7.3940  -7.3622  -7.2825  -7.2660  -7.1768  -7.0674  -7.0559  -7.0165
    -6.9389  -6.9337  -6.8970  -6.8876  -6.8667  -6.8375  -6.8270  -6.7247
    -6.6697  -6.5470  -6.5225  -6.5051  -6.4869  -6.4685  -6.3048  -6.2732
    -6.2389  -6.2200  -6.2062  -6.1881  -6.1232  -6.0865  -6.0137  -6.0008
    -5.9931  -5.9610  -5.9305  -5.8790  -5.8637  -5.7802  -5.7595  -5.6659
    -5.5554  -5.4993  -5.4626  -5.4299  -5.4101  -5.3214  -5.3077  -5.2938
    -5.2669  -5.2006  -5.1768  -5.1674  -5.1458  -5.0089  -5.0021  -4.1451
    -3.8198  -3.4704  -3.2191  -2.9189  -2.6735  -2.2171  -2.1377  -1.8825
    -1.7793  -1.5721  -1.3449  -0.6818  -0.3629  -0.2166   0.5227   1.1280
     1.3950

     occupation numbers 
     1.0000   1.0000   1.0000   1.0000   1.0000   1.0000   1.0000   1.0000
     1.0000   1.0000   1.0000   1.0000   1.0000   1.0000   1.0000   1.0000
     1.0000   1.0000   1.0000   1.0000   1.0000   1.0000   1.0000   1.0000
     1.0000   1.0000   1.0000   1.0000   1.0000   1.0000   1.0000   1.0000
     1.0000   1.0000   1.0000   1.0000   1.0000   1.0000   1.0000   1.0000
     1.0000   1.0000   1.0000   1.0000   1.0000   1.0000   1.0000   1.0000
     1.0000   1.0000   1.0000   1.0000   1.0000   1.0000   1.0000   1.0000
     1.0000   1.0000   1.0000   1.0000   1.0000   1.0000   1.0000   1.0000
     1.0000   1.0000   1.0000   1.0000   1.0000   1.0000   1.0000   1.0000
     1.0000   1.0000   1.0000   1.0000   1.0000   1.0000   1.0000   1.0000
     1.0000   1.0000   1.0000   1.0000   1.0000   1.0000   1.0000   1.0000
     1.0000   1.0000   1.0000   1.0000   1.0000   1.0000   1.0000   1.0000
     1.0000   1.0000   1.0000   1.0000   1.0000   1.0000   1.0001   1.0001
     1.0001   1.0003   1.0006   1.0019   1.0026   1.0121   1.0167   1.0520
     1.0815   1.0407   0.9779   0.8963   0.8367   0.5152   0.4652   0.4161
     0.3269   0.1578   0.1157   0.1017   0.0744   0.0061   0.0052   0.0000
     0.0000   0.0000   0.0000   0.0000   0.0000   0.0000   0.0000   0.0000
     0.0000   0.0000   0.0000   0.0000   0.0000   0.0000   0.0000   0.0000
     0.0000

          k = 0.3750-0.2165 0.0000 ( 44520 PWs)   bands (ev):

   -11.5515 -11.2941 -10.8316 -10.6518 -10.4475 -10.3296 -10.3272 -10.3123
   -10.2648 -10.1533 -10.1459 -10.1445 -10.1282 -10.0391 -10.0102 -10.0087
    -9.8596  -9.8515  -9.8042  -9.7824  -9.7239  -9.7163  -9.6526  -9.6351
    -9.6223  -9.5813  -9.5129  -9.4782  -9.4554  -9.1967  -9.1787  -9.1316
    -9.1156  -9.1003  -9.0503  -8.9999  -8.9287  -8.9054  -8.7999  -8.7656
    -8.7498  -8.7182  -8.5963  -8.5668  -8.4708  -8.4328  -8.3774  -8.2905
    -8.2727  -8.1618  -8.1316  -8.0525  -8.0436  -8.0260  -8.0224  -7.9783
    -7.9608  -7.8648  -7.8614  -7.8556  -7.8289  -7.8019  -7.7804  -7.7480
    -7.7064  -7.5883  -7.5844  -7.5535  -7.5247  -7.4871  -7.4768  -7.4554
    -7.4199  -7.3934  -7.3758  -7.2216  -7.1846  -7.1566  -7.1121  -7.0713
    -7.0229  -7.0020  -6.9961  -6.9745  -6.8873  -6.8705  -6.8539  -6.8073
    -6.6712  -6.6132  -6.5928  -6.5640  -6.5470  -6.5246  -6.3574  -6.3414
    -6.3109  -6.2833  -6.2717  -6.2396  -6.2335  -6.1663  -6.1405  -6.0903
    -6.0765  -6.0360  -6.0228  -5.9577  -5.9106  -5.8718  -5.8522  -5.8371
    -5.7380  -5.5232  -5.4973  -5.4718  -5.4073  -5.3897  -5.2676  -5.2641
    -5.2385  -5.1838  -5.1674  -5.1485  -5.1240  -4.9821  -4.9771  -4.1502
    -3.8552  -2.8883  -2.7976  -2.7407  -2.5086  -2.4529  -2.2910  -2.0515
    -1.9842  -1.4084  -1.1475  -1.0309  -0.5359   0.0890   0.3075   1.0301
     1.5355

     occupation numbers 
     1.0000   1.0000   1.0000   1.0000   1.0000   1.0000   1.0000   1.0000
     1.0000   1.0000   1.0000   1.0000   1.0000   1.0000   1.0000   1.0000
     1.0000   1.0000   1.0000   1.0000   1.0000   1.0000   1.0000   1.0000
     1.0000   1.0000   1.0000   1.0000   1.0000   1.0000   1.0000   1.0000
     1.0000   1.0000   1.0000   1.0000   1.0000   1.0000   1.0000   1.0000
     1.0000   1.0000   1.0000   1.0000   1.0000   1.0000   1.0000   1.0000
     1.0000   1.0000   1.0000   1.0000   1.0000   1.0000   1.0000   1.0000
     1.0000   1.0000   1.0000   1.0000   1.0000   1.0000   1.0000   1.0000
     1.0000   1.0000   1.0000   1.0000   1.0000   1.0000   1.0000   1.0000
     1.0000   1.0000   1.0000   1.0000   1.0000   1.0000   1.0000   1.0000
     1.0000   1.0000   1.0000   1.0000   1.0000   1.0000   1.0000   1.0000
     1.0000   1.0000   1.0000   1.0000   1.0000   1.0000   1.0000   1.0000
     1.0000   1.0000   1.0000   1.0000   1.0000   1.0000   1.0000   1.0000
     1.0000   1.0000   1.0000   1.0003   1.0009   1.0022   1.0033   1.0044
     1.0228   1.0655   1.0381   0.9966   0.8275   0.7682   0.3292   0.3184
     0.2452   0.1272   0.1017   0.0774   0.0530   0.0034   0.0030   0.0000
     0.0000   0.0000   0.0000   0.0000   0.0000   0.0000   0.0000   0.0000
     0.0000   0.0000   0.0000   0.0000   0.0000   0.0000   0.0000   0.0000
     0.0000

          k = 0.3750-0.1443 0.0000 ( 44528 PWs)   bands (ev):

   -11.6700 -11.3586 -10.9067 -10.6147 -10.4807 -10.3957 -10.3838 -10.3112
   -10.2901 -10.2603 -10.1998 -10.1782 -10.1518 -10.1080 -10.0932 -10.0374
    -9.9528  -9.9211  -9.8577  -9.8239  -9.8099  -9.7457  -9.7212  -9.6905
    -9.6699  -9.6284  -9.5682  -9.5557  -9.4804  -9.3001  -9.1885  -9.1553
    -9.1366  -9.1029  -9.0541  -8.9974  -8.9278  -8.8453  -8.8287  -8.7936
    -8.6677  -8.6392  -8.6048  -8.5327  -8.3962  -8.3714  -8.3149  -8.2413
    -8.2237  -8.1707  -8.1544  -8.0821  -8.0591  -8.0386  -7.9934  -7.9669
    -7.9467  -7.8896  -7.8707  -7.8320  -7.8226  -7.7697  -7.7473  -7.7054
    -7.6817  -7.6615  -7.6357  -7.5602  -7.5164  -7.4911  -7.4589  -7.4565
    -7.4007  -7.3446  -7.3048  -7.2766  -7.1780  -7.0811  -7.0241  -7.0015
    -6.9786  -6.9441  -6.8864  -6.8803  -6.8646  -6.8379  -6.8241  -6.7387
    -6.6663  -6.5370  -6.5124  -6.5051  -6.4827  -6.4747  -6.3075  -6.2528
    -6.2448  -6.2224  -6.2048  -6.1848  -6.1174  -6.0892  -6.0119  -5.9979
    -5.9789  -5.9601  -5.9127  -5.8812  -5.8646  -5.7801  -5.7587  -5.6717
    -5.5410  -5.4957  -5.4610  -5.4327  -5.4003  -5.3205  -5.3064  -5.2893
    -5.2635  -5.1900  -5.1809  -5.1659  -5.1449  -5.0088  -5.0023  -4.1380
    -3.8217  -3.4777  -3.2443  -2.9171  -2.6209  -2.1949  -2.1508  -1.8432
    -1.8045  -1.5562  -1.3193  -0.6316  -0.4012  -0.2050   0.5587   1.0992
     1.4093

     occupation numbers 
     1.0000   1.0000   1.0000   1.0000   1.0000   1.0000   1.0000   1.0000
     1.0000   1.0000   1.0000   1.0000   1.0000   1.0000   1.0000   1.0000
     1.0000   1.0000   1.0000   1.0000   1.0000   1.0000   1.0000   1.0000
     1.0000   1.0000   1.0000   1.0000   1.0000   1.0000   1.0000   1.0000
     1.0000   1.0000   1.0000   1.0000   1.0000   1.0000   1.0000   1.0000
     1.0000   1.0000   1.0000   1.0000   1.0000   1.0000   1.0000   1.0000
     1.0000   1.0000   1.0000   1.0000   1.0000   1.0000   1.0000   1.0000
     1.0000   1.0000   1.0000   1.0000   1.0000   1.0000   1.0000   1.0000
     1.0000   1.0000   1.0000   1.0000   1.0000   1.0000   1.0000   1.0000
     1.0000   1.0000   1.0000   1.0000   1.0000   1.0000   1.0000   1.0000
     1.0000   1.0000   1.0000   1.0000   1.0000   1.0000   1.0000   1.0000
     1.0000   1.0000   1.0000   1.0000   1.0000   1.0000   1.0000   1.0000
     1.0000   1.0000   1.0000   1.0000   1.0000   1.0000   1.0001   1.0001
     1.0002   1.0003   1.0009   1.0018   1.0025   1.0121   1.0169   1.0492
     1.0765   1.0359   0.9746   0.9042   0.8043   0.5119   0.4604   0.4003
     0.3166   0.1379   0.1223   0.0995   0.0734   0.0061   0.0053   0.0000
     0.0000   0.0000   0.0000   0.0000   0.0000   0.0000   0.0000   0.0000
     0.0000   0.0000   0.0000   0.0000   0.0000   0.0000   0.0000   0.0000
     0.0000

          k = 0.3750-0.0722 0.0000 ( 44558 PWs)   bands (ev):

   -11.7437 -11.4005 -10.9509 -10.5540 -10.4831 -10.4377 -10.4265 -10.3721
   -10.3288 -10.2621 -10.2421 -10.1905 -10.1692 -10.1589 -10.0930 -10.0480
   -10.0366  -9.9713  -9.9299  -9.8932  -9.8183  -9.7890  -9.7508  -9.7245
    -9.6954  -9.6660  -9.6237  -9.5562  -9.4833  -9.4124  -9.2178  -9.1803
    -9.1582  -9.0774  -9.0476  -8.9883  -8.8949  -8.8754  -8.8200  -8.7826
    -8.7159  -8.6124  -8.5020  -8.4746  -8.3538  -8.3286  -8.2933  -8.2386
    -8.2002  -8.1900  -8.1735  -8.1406  -8.0958  -8.0395  -7.9898  -7.9490
    -7.9350  -7.9130  -7.8832  -7.8557  -7.8312  -7.7920  -7.7447  -7.7063
    -7.6913  -7.6733  -7.5926  -7.5752  -7.5346  -7.5063  -7.4586  -7.4100
    -7.3738  -7.2951  -7.2600  -7.2149  -7.1974  -7.0561  -6.9960  -6.9534
    -6.9198  -6.8916  -6.8708  -6.8563  -6.8184  -6.7464  -6.7295  -6.7178
    -6.6815  -6.5624  -6.4817  -6.4567  -6.4487  -6.4117  -6.2980  -6.2660
    -6.2130  -6.1737  -6.1626  -6.1442  -6.0949  -6.0001  -5.9494  -5.9448
    -5.8909  -5.8634  -5.8416  -5.8096  -5.7179  -5.6772  -5.6105  -5.5692
    -5.4855  -5.4520  -5.4163  -5.3967  -5.3877  -5.3465  -5.2738  -5.2383
    -5.2187  -5.2052  -5.1798  -5.0788  -5.0729  -5.0018  -4.7738  -4.2107
    -4.0873  -3.8671  -3.6236  -3.4231  -2.8353  -2.4765  -1.8758  -1.6878
    -1.5664  -1.1656  -0.9862  -0.6944  -0.1375   0.0225   0.5312   0.7174
     0.9411

     occupation numbers 
     1.0000   1.0000   1.0000   1.0000   1.0000   1.0000   1.0000   1.0000
     1.0000   1.0000   1.0000   1.0000   1.0000   1.0000   1.0000   1.0000
     1.0000   1.0000   1.0000   1.0000   1.0000   1.0000   1.0000   1.0000
     1.0000   1.0000   1.0000   1.0000   1.0000   1.0000   1.0000   1.0000
     1.0000   1.0000   1.0000   1.0000   1.0000   1.0000   1.0000   1.0000
     1.0000   1.0000   1.0000   1.0000   1.0000   1.0000   1.0000   1.0000
     1.0000   1.0000   1.0000   1.0000   1.0000   1.0000   1.0000   1.0000
     1.0000   1.0000   1.0000   1.0000   1.0000   1.0000   1.0000   1.0000
     1.0000   1.0000   1.0000   1.0000   1.0000   1.0000   1.0000   1.0000
     1.0000   1.0000   1.0000   1.0000   1.0000   1.0000   1.0000   1.0000
     1.0000   1.0000   1.0000   1.0000   1.0000   1.0000   1.0000   1.0000
     1.0000   1.0000   1.0000   1.0000   1.0000   1.0000   1.0000   1.0000
     1.0000   1.0000   1.0000   1.0000   1.0000   1.0001   1.0004   1.0004
     1.0014   1.0026   1.0040   1.0073   1.0296   1.0467   1.0760   1.0833
     1.0207   0.9541   0.8562   0.7921   0.7610   0.6096   0.3488   0.2447
     0.1963   0.1670   0.1206   0.0244   0.0219   0.0052   0.0000   0.0000
     0.0000   0.0000   0.0000   0.0000   0.0000   0.0000   0.0000   0.0000
     0.0000   0.0000   0.0000   0.0000   0.0000   0.0000   0.0000   0.0000
     0.0000

          k = 0.3750 0.0000 0.0000 ( 44577 PWs)   bands (ev):

   -11.7686 -11.4151 -10.9655 -10.4726 -10.4723 -10.4623 -10.4593 -10.4512
   -10.3338 -10.2593 -10.2393 -10.2347 -10.1615 -10.1162 -10.1145 -10.0484
   -10.0363 -10.0267  -9.9888  -9.9079  -9.8097  -9.8074  -9.7564  -9.7341
    -9.7034  -9.6955  -9.6394  -9.5192  -9.4899  -9.4787  -9.2157  -9.2021
    -9.1588  -9.0847  -9.0615  -8.9392  -8.9083  -8.8644  -8.8145  -8.7772
    -8.7641  -8.5958  -8.4800  -8.3857  -8.3824  -8.3133  -8.2685  -8.2600
    -8.2293  -8.2012  -8.1598  -8.1512  -8.1146  -8.0417  -7.9944  -7.9428
    -7.9310  -7.9040  -7.8906  -7.8667  -7.8418  -7.8269  -7.7569  -7.7042
    -7.6768  -7.6426  -7.6187  -7.5611  -7.5423  -7.5172  -7.4541  -7.3830
    -7.3657  -7.2973  -7.2339  -7.2042  -7.1473  -7.0949  -6.9724  -6.9184
    -6.9138  -6.8977  -6.8657  -6.8264  -6.7960  -6.7175  -6.7020  -6.6882
    -6.6557  -6.6244  -6.4699  -6.4429  -6.4355  -6.3800  -6.3462  -6.2400
    -6.1834  -6.1595  -6.1493  -6.1277  -6.0897  -5.9685  -5.9509  -5.9344
    -5.9070  -5.8262  -5.8034  -5.7080  -5.6277  -5.6122  -5.5602  -5.5358
    -5.4954  -5.4495  -5.4339  -5.4205  -5.3860  -5.3787  -5.3710  -5.2466
    -5.1949  -5.1629  -5.1579  -5.1266  -4.7476  -4.7021  -4.5137  -4.4503
    -4.3105  -4.1088  -4.0659  -3.2674  -2.9463  -2.7678  -1.8442  -1.5398
    -1.3071  -1.2421  -0.7912  -0.3831  -0.0271   0.1059   0.3518   0.5066
     0.6437

     occupation numbers 
     1.0000   1.0000   1.0000   1.0000   1.0000   1.0000   1.0000   1.0000
     1.0000   1.0000   1.0000   1.0000   1.0000   1.0000   1.0000   1.0000
     1.0000   1.0000   1.0000   1.0000   1.0000   1.0000   1.0000   1.0000
     1.0000   1.0000   1.0000   1.0000   1.0000   1.0000   1.0000   1.0000
     1.0000   1.0000   1.0000   1.0000   1.0000   1.0000   1.0000   1.0000
     1.0000   1.0000   1.0000   1.0000   1.0000   1.0000   1.0000   1.0000
     1.0000   1.0000   1.0000   1.0000   1.0000   1.0000   1.0000   1.0000
     1.0000   1.0000   1.0000   1.0000   1.0000   1.0000   1.0000   1.0000
     1.0000   1.0000   1.0000   1.0000   1.0000   1.0000   1.0000   1.0000
     1.0000   1.0000   1.0000   1.0000   1.0000   1.0000   1.0000   1.0000
     1.0000   1.0000   1.0000   1.0000   1.0000   1.0000   1.0000   1.0000
     1.0000   1.0000   1.0000   1.0000   1.0000   1.0000   1.0000   1.0000
     1.0000   1.0000   1.0000   1.0000   1.0000   1.0002   1.0003   1.0005
     1.0010   1.0054   1.0082   1.0334   1.0694   1.0754   1.0824   1.0739
     1.0355   0.9481   0.9075   0.8689   0.7550   0.7292   0.7009   0.2671
     0.1470   0.0954   0.0889   0.0553   0.0000   0.0000   0.0000   0.0000
     0.0000   0.0000   0.0000   0.0000   0.0000   0.0000   0.0000   0.0000
     0.0000   0.0000   0.0000   0.0000   0.0000   0.0000   0.0000   0.0000
     0.0000

          k = 0.3750 0.0722 0.0000 ( 44558 PWs)   bands (ev):

   -11.7437 -11.4005 -10.9509 -10.5540 -10.4831 -10.4377 -10.4265 -10.3721
   -10.3288 -10.2621 -10.2421 -10.1905 -10.1692 -10.1589 -10.0930 -10.0480
   -10.0366  -9.9713  -9.9299  -9.8932  -9.8183  -9.7890  -9.7508  -9.7245
    -9.6954  -9.6660  -9.6237  -9.5562  -9.4833  -9.4124  -9.2178  -9.1803
    -9.1582  -9.0774  -9.0476  -8.9883  -8.8949  -8.8754  -8.8200  -8.7826
    -8.7159  -8.6124  -8.5020  -8.4746  -8.3538  -8.3286  -8.2933  -8.2386
    -8.2002  -8.1900  -8.1735  -8.1406  -8.0958  -8.0395  -7.9898  -7.9490
    -7.9350  -7.9130  -7.8832  -7.8557  -7.8312  -7.7920  -7.7447  -7.7063
    -7.6913  -7.6733  -7.5926  -7.5752  -7.5346  -7.5063  -7.4586  -7.4100
    -7.3738  -7.2951  -7.2600  -7.2149  -7.1974  -7.0561  -6.9960  -6.9534
    -6.9198  -6.8916  -6.8708  -6.8563  -6.8184  -6.7464  -6.7295  -6.7178
    -6.6815  -6.5624  -6.4817  -6.4567  -6.4487  -6.4117  -6.2980  -6.2660
    -6.2130  -6.1737  -6.1626  -6.1442  -6.0949  -6.0001  -5.9494  -5.9448
    -5.8909  -5.8634  -5.8416  -5.8096  -5.7179  -5.6772  -5.6105  -5.5692
    -5.4855  -5.4520  -5.4163  -5.3967  -5.3877  -5.3465  -5.2738  -5.2383
    -5.2187  -5.2052  -5.1798  -5.0788  -5.0729  -5.0018  -4.7738  -4.2107
    -4.0873  -3.8671  -3.6236  -3.4231  -2.8353  -2.4765  -1.8758  -1.6878
    -1.5664  -1.1656  -0.9862  -0.6944  -0.1375   0.0225   0.5312   0.7174
     0.9411

     occupation numbers 
     1.0000   1.0000   1.0000   1.0000   1.0000   1.0000   1.0000   1.0000
     1.0000   1.0000   1.0000   1.0000   1.0000   1.0000   1.0000   1.0000
     1.0000   1.0000   1.0000   1.0000   1.0000   1.0000   1.0000   1.0000
     1.0000   1.0000   1.0000   1.0000   1.0000   1.0000   1.0000   1.0000
     1.0000   1.0000   1.0000   1.0000   1.0000   1.0000   1.0000   1.0000
     1.0000   1.0000   1.0000   1.0000   1.0000   1.0000   1.0000   1.0000
     1.0000   1.0000   1.0000   1.0000   1.0000   1.0000   1.0000   1.0000
     1.0000   1.0000   1.0000   1.0000   1.0000   1.0000   1.0000   1.0000
     1.0000   1.0000   1.0000   1.0000   1.0000   1.0000   1.0000   1.0000
     1.0000   1.0000   1.0000   1.0000   1.0000   1.0000   1.0000   1.0000
     1.0000   1.0000   1.0000   1.0000   1.0000   1.0000   1.0000   1.0000
     1.0000   1.0000   1.0000   1.0000   1.0000   1.0000   1.0000   1.0000
     1.0000   1.0000   1.0000   1.0000   1.0000   1.0001   1.0004   1.0004
     1.0014   1.0026   1.0040   1.0073   1.0296   1.0467   1.0760   1.0833
     1.0207   0.9541   0.8562   0.7921   0.7610   0.6096   0.3488   0.2447
     0.1963   0.1670   0.1206   0.0244   0.0219   0.0052   0.0000   0.0000
     0.0000   0.0000   0.0000   0.0000   0.0000   0.0000   0.0000   0.0000
     0.0000   0.0000   0.0000   0.0000   0.0000   0.0000   0.0000   0.0000
     0.0000

          k = 0.3750 0.1443 0.0000 ( 44528 PWs)   bands (ev):

   -11.6700 -11.3586 -10.9067 -10.6147 -10.4807 -10.3957 -10.3838 -10.3112
   -10.2901 -10.2603 -10.1998 -10.1782 -10.1518 -10.1080 -10.0932 -10.0374
    -9.9528  -9.9211  -9.8577  -9.8239  -9.8099  -9.7457  -9.7212  -9.6905
    -9.6699  -9.6284  -9.5682  -9.5557  -9.4804  -9.3001  -9.1885  -9.1553
    -9.1366  -9.1029  -9.0541  -8.9974  -8.9278  -8.8453  -8.8287  -8.7936
    -8.6677  -8.6392  -8.6048  -8.5327  -8.3962  -8.3714  -8.3149  -8.2413
    -8.2237  -8.1707  -8.1544  -8.0821  -8.0591  -8.0386  -7.9934  -7.9669
    -7.9467  -7.8896  -7.8707  -7.8320  -7.8226  -7.7697  -7.7473  -7.7054
    -7.6817  -7.6615  -7.6357  -7.5602  -7.5164  -7.4911  -7.4589  -7.4565
    -7.4007  -7.3446  -7.3048  -7.2766  -7.1780  -7.0811  -7.0241  -7.0015
    -6.9786  -6.9441  -6.8864  -6.8803  -6.8646  -6.8379  -6.8241  -6.7387
    -6.6663  -6.5370  -6.5124  -6.5051  -6.4827  -6.4747  -6.3075  -6.2528
    -6.2448  -6.2224  -6.2048  -6.1848  -6.1174  -6.0892  -6.0119  -5.9979
    -5.9789  -5.9601  -5.9127  -5.8812  -5.8646  -5.7801  -5.7587  -5.6717
    -5.5410  -5.4957  -5.4610  -5.4327  -5.4003  -5.3205  -5.3064  -5.2893
    -5.2635  -5.1900  -5.1809  -5.1659  -5.1449  -5.0088  -5.0023  -4.1380
    -3.8217  -3.4777  -3.2443  -2.9171  -2.6209  -2.1949  -2.1508  -1.8432
    -1.8045  -1.5562  -1.3193  -0.6316  -0.4012  -0.2050   0.5587   1.0992
     1.4092

     occupation numbers 
     1.0000   1.0000   1.0000   1.0000   1.0000   1.0000   1.0000   1.0000
     1.0000   1.0000   1.0000   1.0000   1.0000   1.0000   1.0000   1.0000
     1.0000   1.0000   1.0000   1.0000   1.0000   1.0000   1.0000   1.0000
     1.0000   1.0000   1.0000   1.0000   1.0000   1.0000   1.0000   1.0000
     1.0000   1.0000   1.0000   1.0000   1.0000   1.0000   1.0000   1.0000
     1.0000   1.0000   1.0000   1.0000   1.0000   1.0000   1.0000   1.0000
     1.0000   1.0000   1.0000   1.0000   1.0000   1.0000   1.0000   1.0000
     1.0000   1.0000   1.0000   1.0000   1.0000   1.0000   1.0000   1.0000
     1.0000   1.0000   1.0000   1.0000   1.0000   1.0000   1.0000   1.0000
     1.0000   1.0000   1.0000   1.0000   1.0000   1.0000   1.0000   1.0000
     1.0000   1.0000   1.0000   1.0000   1.0000   1.0000   1.0000   1.0000
     1.0000   1.0000   1.0000   1.0000   1.0000   1.0000   1.0000   1.0000
     1.0000   1.0000   1.0000   1.0000   1.0000   1.0000   1.0001   1.0001
     1.0002   1.0003   1.0009   1.0018   1.0025   1.0121   1.0169   1.0492
     1.0765   1.0359   0.9746   0.9042   0.8043   0.5119   0.4604   0.4003
     0.3166   0.1379   0.1223   0.0995   0.0734   0.0061   0.0053   0.0000
     0.0000   0.0000   0.0000   0.0000   0.0000   0.0000   0.0000   0.0000
     0.0000   0.0000   0.0000   0.0000   0.0000   0.0000   0.0000   0.0000
     0.0000

          k = 0.3750 0.2165 0.0000 ( 44520 PWs)   bands (ev):

   -11.5515 -11.2941 -10.8316 -10.6518 -10.4475 -10.3296 -10.3272 -10.3123
   -10.2648 -10.1533 -10.1459 -10.1445 -10.1282 -10.0391 -10.0102 -10.0087
    -9.8596  -9.8515  -9.8042  -9.7824  -9.7239  -9.7163  -9.6526  -9.6351
    -9.6223  -9.5813  -9.5129  -9.4782  -9.4554  -9.1967  -9.1787  -9.1316
    -9.1156  -9.1003  -9.0503  -8.9999  -8.9287  -8.9054  -8.7999  -8.7656
    -8.7498  -8.7182  -8.5963  -8.5668  -8.4708  -8.4328  -8.3774  -8.2905
    -8.2727  -8.1618  -8.1316  -8.0525  -8.0436  -8.0260  -8.0224  -7.9783
    -7.9608  -7.8648  -7.8614  -7.8556  -7.8289  -7.8019  -7.7804  -7.7480
    -7.7064  -7.5883  -7.5844  -7.5535  -7.5247  -7.4871  -7.4768  -7.4554
    -7.4199  -7.3934  -7.3758  -7.2216  -7.1846  -7.1566  -7.1121  -7.0713
    -7.0229  -7.0020  -6.9961  -6.9745  -6.8873  -6.8705  -6.8539  -6.8073
    -6.6712  -6.6132  -6.5928  -6.5640  -6.5470  -6.5246  -6.3574  -6.3414
    -6.3109  -6.2833  -6.2717  -6.2396  -6.2335  -6.1663  -6.1405  -6.0903
    -6.0765  -6.0360  -6.0228  -5.9577  -5.9106  -5.8718  -5.8522  -5.8371
    -5.7380  -5.5232  -5.4973  -5.4718  -5.4073  -5.3897  -5.2676  -5.2641
    -5.2385  -5.1838  -5.1674  -5.1485  -5.1240  -4.9821  -4.9771  -4.1502
    -3.8552  -2.8883  -2.7976  -2.7407  -2.5086  -2.4529  -2.2910  -2.0515
    -1.9842  -1.4084  -1.1475  -1.0309  -0.5359   0.0890   0.3075   1.0301
     1.5355

     occupation numbers 
     1.0000   1.0000   1.0000   1.0000   1.0000   1.0000   1.0000   1.0000
     1.0000   1.0000   1.0000   1.0000   1.0000   1.0000   1.0000   1.0000
     1.0000   1.0000   1.0000   1.0000   1.0000   1.0000   1.0000   1.0000
     1.0000   1.0000   1.0000   1.0000   1.0000   1.0000   1.0000   1.0000
     1.0000   1.0000   1.0000   1.0000   1.0000   1.0000   1.0000   1.0000
     1.0000   1.0000   1.0000   1.0000   1.0000   1.0000   1.0000   1.0000
     1.0000   1.0000   1.0000   1.0000   1.0000   1.0000   1.0000   1.0000
     1.0000   1.0000   1.0000   1.0000   1.0000   1.0000   1.0000   1.0000
     1.0000   1.0000   1.0000   1.0000   1.0000   1.0000   1.0000   1.0000
     1.0000   1.0000   1.0000   1.0000   1.0000   1.0000   1.0000   1.0000
     1.0000   1.0000   1.0000   1.0000   1.0000   1.0000   1.0000   1.0000
     1.0000   1.0000   1.0000   1.0000   1.0000   1.0000   1.0000   1.0000
     1.0000   1.0000   1.0000   1.0000   1.0000   1.0000   1.0000   1.0000
     1.0000   1.0000   1.0000   1.0003   1.0009   1.0022   1.0033   1.0044
     1.0228   1.0655   1.0381   0.9966   0.8275   0.7682   0.3292   0.3184
     0.2452   0.1272   0.1017   0.0774   0.0530   0.0034   0.0030   0.0000
     0.0000   0.0000   0.0000   0.0000   0.0000   0.0000   0.0000   0.0000
     0.0000   0.0000   0.0000   0.0000   0.0000   0.0000   0.0000   0.0000
     0.0000

          k = 0.3750 0.2887 0.0000 ( 44509 PWs)   bands (ev):

   -11.3995 -11.2093 -10.7250 -10.6654 -10.3933 -10.2885 -10.2550 -10.2407
   -10.1961 -10.1294 -10.0939 -10.0464 -10.0389  -9.9666  -9.9475  -9.9182
    -9.7761  -9.7496  -9.7346  -9.7163  -9.6869  -9.6513  -9.6137  -9.5577
    -9.5384  -9.5049  -9.4326  -9.4093  -9.3596  -9.2842  -9.1318  -9.0897
    -9.0762  -9.0620  -9.0349  -9.0026  -8.9887  -8.9126  -8.8561  -8.8314
    -8.7886  -8.6642  -8.6230  -8.5795  -8.5332  -8.5186  -8.4871  -8.3591
    -8.3274  -8.1996  -8.1611  -8.1107  -8.0979  -8.0584  -8.0381  -8.0184
    -7.9868  -7.9205  -7.8999  -7.8812  -7.8732  -7.8337  -7.7975  -7.7243
    -7.7089  -7.6554  -7.6253  -7.5733  -7.5240  -7.4700  -7.4590  -7.4381
    -7.4225  -7.3810  -7.3659  -7.2534  -7.2367  -7.2134  -7.1791  -7.1469
    -7.0956  -7.0734  -7.0264  -6.9879  -6.9584  -6.8982  -6.8713  -6.8526
    -6.7683  -6.7051  -6.6809  -6.6362  -6.6275  -6.5252  -6.4911  -6.4608
    -6.4233  -6.4000  -6.3752  -6.3136  -6.2851  -6.2371  -6.2079  -6.1620
    -6.1286  -6.1022  -6.0776  -6.0039  -5.9418  -5.8572  -5.8479  -5.8113
    -5.7472  -5.5872  -5.5321  -5.4719  -5.4163  -5.3983  -5.2895  -5.2674
    -5.2602  -5.2134  -5.1825  -5.1718  -5.0206  -5.0054  -4.9703  -4.2185
    -3.7059  -3.3996  -3.1979  -2.8393  -2.5532  -2.2443  -2.0964  -1.8258
    -1.7203  -1.3175  -1.0012  -0.7506  -0.4100  -0.2444   0.6885   0.9115
     1.3074

     occupation numbers 
     1.0000   1.0000   1.0000   1.0000   1.0000   1.0000   1.0000   1.0000
     1.0000   1.0000   1.0000   1.0000   1.0000   1.0000   1.0000   1.0000
     1.0000   1.0000   1.0000   1.0000   1.0000   1.0000   1.0000   1.0000
     1.0000   1.0000   1.0000   1.0000   1.0000   1.0000   1.0000   1.0000
     1.0000   1.0000   1.0000   1.0000   1.0000   1.0000   1.0000   1.0000
     1.0000   1.0000   1.0000   1.0000   1.0000   1.0000   1.0000   1.0000
     1.0000   1.0000   1.0000   1.0000   1.0000   1.0000   1.0000   1.0000
     1.0000   1.0000   1.0000   1.0000   1.0000   1.0000   1.0000   1.0000
     1.0000   1.0000   1.0000   1.0000   1.0000   1.0000   1.0000   1.0000
     1.0000   1.0000   1.0000   1.0000   1.0000   1.0000   1.0000   1.0000
     1.0000   1.0000   1.0000   1.0000   1.0000   1.0000   1.0000   1.0000
     1.0000   1.0000   1.0000   1.0000   1.0000   1.0000   1.0000   1.0000
     1.0000   1.0000   1.0000   1.0000   1.0000   1.0000   1.0000   1.0000
     1.0000   1.0000   1.0000   1.0001   1.0004   1.0030   1.0036   1.0071
     1.0200   1.0821   1.0718   0.9967   0.8561   0.7979   0.4012   0.3286
     0.3066   0.1845   0.1249   0.1082   0.0078   0.0056   0.0026   0.0000
     0.0000   0.0000   0.0000   0.0000   0.0000   0.0000   0.0000   0.0000
     0.0000   0.0000   0.0000   0.0000   0.0000   0.0000   0.0000   0.0000
     0.0000

          k = 0.3750-0.7939 0.0000 ( 44477 PWs)   bands (ev):

   -11.2553 -11.0801 -10.6636 -10.5846 -10.3476 -10.1944 -10.1613 -10.1478
   -10.1151 -10.0986 -10.0096  -9.9632  -9.9474  -9.9062  -9.8316  -9.8302
    -9.7353  -9.6678  -9.6457  -9.6341  -9.6273  -9.6075  -9.5492  -9.4569
    -9.4490  -9.4195  -9.3646  -9.3495  -9.2913  -9.2582  -9.1610  -9.1386
    -9.1198  -9.0988  -9.0447  -9.0245  -8.9208  -8.9024  -8.8768  -8.8652
    -8.8504  -8.6948  -8.6871  -8.6198  -8.5836  -8.5679  -8.5247  -8.4120
    -8.3575  -8.3338  -8.3147  -8.2201  -8.1795  -8.1530  -8.0801  -8.0331
    -8.0086  -7.9783  -7.9608  -7.9319  -7.9001  -7.8355  -7.8119  -7.7638
    -7.7360  -7.7199  -7.6607  -7.6442  -7.6159  -7.5890  -7.5348  -7.5220
    -7.4708  -7.3884  -7.3540  -7.3133  -7.2758  -7.2512  -7.2294  -7.1793
    -7.1566  -7.0961  -7.0335  -6.9626  -6.9502  -6.8978  -6.8874  -6.8337
    -6.8108  -6.7224  -6.6953  -6.6764  -6.6433  -6.6158  -6.5557  -6.5186
    -6.4956  -6.4493  -6.3940  -6.3654  -6.3265  -6.2294  -6.1958  -6.1443
    -6.1214  -6.0944  -6.0514  -6.0128  -5.9756  -5.8066  -5.7849  -5.7580
    -5.7334  -5.6175  -5.5846  -5.4704  -5.4396  -5.4121  -5.3470  -5.3265
    -5.3109  -5.2812  -5.2554  -5.2484  -5.0883  -5.0767  -4.7831  -4.2536
    -3.9578  -3.8215  -3.5421  -3.3300  -2.7102  -2.3847  -1.9158  -1.3950
    -1.1846  -0.9609  -0.7959  -0.5803  -0.4337   0.3120   0.6087   0.8255
     1.4827

     occupation numbers 
     1.0000   1.0000   1.0000   1.0000   1.0000   1.0000   1.0000   1.0000
     1.0000   1.0000   1.0000   1.0000   1.0000   1.0000   1.0000   1.0000
     1.0000   1.0000   1.0000   1.0000   1.0000   1.0000   1.0000   1.0000
     1.0000   1.0000   1.0000   1.0000   1.0000   1.0000   1.0000   1.0000
     1.0000   1.0000   1.0000   1.0000   1.0000   1.0000   1.0000   1.0000
     1.0000   1.0000   1.0000   1.0000   1.0000   1.0000   1.0000   1.0000
     1.0000   1.0000   1.0000   1.0000   1.0000   1.0000   1.0000   1.0000
     1.0000   1.0000   1.0000   1.0000   1.0000   1.0000   1.0000   1.0000
     1.0000   1.0000   1.0000   1.0000   1.0000   1.0000   1.0000   1.0000
     1.0000   1.0000   1.0000   1.0000   1.0000   1.0000   1.0000   1.0000
     1.0000   1.0000   1.0000   1.0000   1.0000   1.0000   1.0000   1.0000
     1.0000   1.0000   1.0000   1.0000   1.0000   1.0000   1.0000   1.0000
     1.0000   1.0000   1.0000   1.0000   1.0000   1.0000   1.0000   1.0000
     1.0000   1.0000   1.0000   1.0001   1.0002   1.0078   1.0112   1.0171
     1.0242   1.0735   1.0824   0.9939   0.9229   0.8430   0.6115   0.5344
     0.4768   0.3730   0.2924   0.2722   0.0290   0.0235   0.0000   0.0000
     0.0000   0.0000   0.0000   0.0000   0.0000   0.0000   0.0000   0.0000
     0.0000   0.0000   0.0000   0.0000   0.0000   0.0000   0.0000   0.0000
     0.0000

          k = 0.3750-0.7217 0.0000 ( 44484 PWs)   bands (ev):

   -11.1705 -10.8729 -10.6467 -10.4285 -10.3124 -10.1088 -10.0850 -10.0499
   -10.0430  -9.9836  -9.9277  -9.9086  -9.8536  -9.8472  -9.7423  -9.7304
    -9.6880  -9.6466  -9.5966  -9.5599  -9.5342  -9.5299  -9.4680  -9.4122
    -9.4021  -9.3427  -9.3206  -9.2981  -9.2260  -9.2122  -9.2026  -9.1936
    -9.1888  -9.1457  -9.0306  -9.0127  -8.9893  -8.9535  -8.9023  -8.8843
    -8.8474  -8.8064  -8.7642  -8.6748  -8.6214  -8.5839  -8.5614  -8.4759
    -8.4653  -8.3649  -8.3512  -8.2701  -8.2125  -8.1822  -8.1563  -8.1226
    -8.1049  -8.0388  -8.0166  -7.9935  -7.9531  -7.9064  -7.8865  -7.8627
    -7.8533  -7.8167  -7.7617  -7.7086  -7.6889  -7.6610  -7.6252  -7.5890
    -7.5599  -7.4950  -7.4796  -7.4586  -7.2769  -7.2053  -7.1730  -7.1314
    -7.0584  -7.0484  -7.0377  -7.0242  -6.9775  -6.9427  -6.8837  -6.8487
    -6.7866  -6.7248  -6.7130  -6.6292  -6.6054  -6.5740  -6.5384  -6.4671
    -6.4571  -6.3938  -6.3819  -6.3165  -6.2485  -6.2262  -6.1752  -6.1395
    -6.0720  -6.0155  -5.9639  -5.9572  -5.9444  -5.7827  -5.7393  -5.7235
    -5.6925  -5.6419  -5.6030  -5.4849  -5.4736  -5.4307  -5.4155  -5.4106
    -5.3858  -5.3769  -5.3585  -5.3490  -5.1930  -5.1802  -4.5857  -4.4708
    -4.3929  -4.2421  -4.0142  -3.2599  -2.9082  -2.6744  -1.7538  -1.3247
    -0.9997  -0.6501  -0.3486  -0.1512   0.1924   0.4070   0.4844   1.1086
     1.7679

     occupation numbers 
     1.0000   1.0000   1.0000   1.0000   1.0000   1.0000   1.0000   1.0000
     1.0000   1.0000   1.0000   1.0000   1.0000   1.0000   1.0000   1.0000
     1.0000   1.0000   1.0000   1.0000   1.0000   1.0000   1.0000   1.0000
     1.0000   1.0000   1.0000   1.0000   1.0000   1.0000   1.0000   1.0000
     1.0000   1.0000   1.0000   1.0000   1.0000   1.0000   1.0000   1.0000
     1.0000   1.0000   1.0000   1.0000   1.0000   1.0000   1.0000   1.0000
     1.0000   1.0000   1.0000   1.0000   1.0000   1.0000   1.0000   1.0000
     1.0000   1.0000   1.0000   1.0000   1.0000   1.0000   1.0000   1.0000
     1.0000   1.0000   1.0000   1.0000   1.0000   1.0000   1.0000   1.0000
     1.0000   1.0000   1.0000   1.0000   1.0000   1.0000   1.0000   1.0000
     1.0000   1.0000   1.0000   1.0000   1.0000   1.0000   1.0000   1.0000
     1.0000   1.0000   1.0000   1.0000   1.0000   1.0000   1.0000   1.0000
     1.0000   1.0000   1.0000   1.0000   1.0000   1.0000   1.0000   1.0000
     1.0000   1.0001   1.0002   1.0003   1.0004   1.0116   1.0224   1.0276
     1.0399   1.0632   1.0784   1.0197   1.0000   0.8987   0.8537   0.8380
     0.7545   0.7227   0.6547   0.6192   0.1435   0.1212   0.0000   0.0000
     0.0000   0.0000   0.0000   0.0000   0.0000   0.0000   0.0000   0.0000
     0.0000   0.0000   0.0000   0.0000   0.0000   0.0000   0.0000   0.0000
     0.0000

          k = 0.3750-0.6495 0.0000 ( 44432 PWs)   bands (ev):

   -11.1279 -10.6306 -10.6231 -10.2927 -10.2697 -10.1733 -10.0986  -9.9251
    -9.9108  -9.9011  -9.8775  -9.8498  -9.7808  -9.7747  -9.6841  -9.6380
    -9.6165  -9.6081  -9.5209  -9.5114  -9.4729  -9.4684  -9.4444  -9.4347
    -9.3552  -9.3512  -9.3464  -9.3353  -9.2619  -9.2260  -9.2193  -9.2045
    -9.1414  -9.1277  -9.1057  -9.0594  -9.0512  -9.0041  -8.8621  -8.8592
    -8.8360  -8.8340  -8.8199  -8.7830  -8.6439  -8.5951  -8.5677  -8.5594
    -8.3776  -8.3571  -8.3483  -8.3156  -8.3008  -8.2289  -8.1899  -8.1762
    -8.1540  -8.1306  -8.1165  -8.0900  -8.0565  -8.0260  -7.9934  -7.9743
    -7.9576  -7.9490  -7.9033  -7.7395  -7.7100  -7.6532  -7.6249  -7.5955
    -7.5553  -7.5313  -7.4967  -7.4771  -7.3191  -7.2678  -7.2328  -7.1477
    -7.0939  -7.0194  -6.9958  -6.9789  -6.9502  -6.9298  -6.8733  -6.8327
    -6.8282  -6.7251  -6.6443  -6.6118  -6.5959  -6.5091  -6.4849  -6.4355
    -6.3959  -6.3804  -6.2979  -6.2637  -6.2099  -6.1733  -6.1260  -6.0902
    -5.9505  -5.9198  -5.8614  -5.7772  -5.7623  -5.7255  -5.7044  -5.6945
    -5.6782  -5.6725  -5.6097  -5.5864  -5.5370  -5.5272  -5.4728  -5.4449
    -5.4358  -5.4090  -5.4012  -5.3600  -5.3022  -5.2899  -4.9399  -4.9178
    -4.6347  -4.3184  -4.1596  -3.5046  -2.8832  -2.6562  -1.9774  -1.2597
    -0.9864  -0.2861   0.1151   0.2681   0.4176   0.5487   1.0490   1.3455
     1.5948

     occupation numbers 
     1.0000   1.0000   1.0000   1.0000   1.0000   1.0000   1.0000   1.0000
     1.0000   1.0000   1.0000   1.0000   1.0000   1.0000   1.0000   1.0000
     1.0000   1.0000   1.0000   1.0000   1.0000   1.0000   1.0000   1.0000
     1.0000   1.0000   1.0000   1.0000   1.0000   1.0000   1.0000   1.0000
     1.0000   1.0000   1.0000   1.0000   1.0000   1.0000   1.0000   1.0000
     1.0000   1.0000   1.0000   1.0000   1.0000   1.0000   1.0000   1.0000
     1.0000   1.0000   1.0000   1.0000   1.0000   1.0000   1.0000   1.0000
     1.0000   1.0000   1.0000   1.0000   1.0000   1.0000   1.0000   1.0000
     1.0000   1.0000   1.0000   1.0000   1.0000   1.0000   1.0000   1.0000
     1.0000   1.0000   1.0000   1.0000   1.0000   1.0000   1.0000   1.0000
     1.0000   1.0000   1.0000   1.0000   1.0000   1.0000   1.0000   1.0000
     1.0000   1.0000   1.0000   1.0000   1.0000   1.0000   1.0000   1.0000
     1.0000   1.0000   1.0000   1.0000   1.0000   1.0000   1.0000   1.0000
     1.0003   1.0007   1.0027   1.0127   1.0160   1.0269   1.0349   1.0390
     1.0463   1.0489   1.0763   1.0822   1.0746   1.0685   0.9985   0.9368
     0.9128   0.8329   0.8075   0.6605   0.4456   0.4026   0.0012   0.0007
     0.0000   0.0000   0.0000   0.0000   0.0000   0.0000   0.0000   0.0000
     0.0000   0.0000   0.0000   0.0000   0.0000   0.0000   0.0000   0.0000
     0.0000

          k = 0.3750-0.5774 0.0000 ( 44465 PWs)   bands (ev):

   -11.1144 -10.6222 -10.3761 -10.3718 -10.2798 -10.1604 -10.1534  -9.9151
    -9.8662  -9.8605  -9.8289  -9.7773  -9.7680  -9.6841  -9.6812  -9.5937
    -9.5581  -9.5486  -9.5150  -9.5095  -9.4940  -9.4885  -9.4268  -9.4173
    -9.3943  -9.3725  -9.3561  -9.3429  -9.2912  -9.2531  -9.2343  -9.2116
    -9.1726  -9.1331  -9.0835  -9.0681  -9.0549  -8.9773  -8.9639  -8.9527
    -8.8370  -8.7815  -8.7251  -8.6987  -8.6305  -8.5806  -8.5740  -8.5442
    -8.4774  -8.4015  -8.3934  -8.3578  -8.2926  -8.2669  -8.2217  -8.1962
    -8.1665  -8.1331  -8.1116  -8.1007  -8.0973  -8.0875  -8.0664  -8.0297
    -8.0203  -8.0053  -7.9267  -7.7283  -7.7110  -7.6412  -7.6001  -7.5953
    -7.5782  -7.5325  -7.4999  -7.4597  -7.3558  -7.2960  -7.2837  -7.1686
    -7.0819  -7.0289  -6.9926  -6.9825  -6.9530  -6.9078  -6.8418  -6.8134
    -6.7639  -6.7123  -6.6997  -6.6396  -6.5797  -6.5237  -6.4485  -6.3988
    -6.3246  -6.3101  -6.2814  -6.2561  -6.2359  -6.2288  -6.1336  -5.9466
    -5.8414  -5.8376  -5.8113  -5.7582  -5.7196  -5.7047  -5.6984  -5.6899
    -5.6741  -5.6705  -5.6631  -5.5783  -5.4772  -5.4657  -5.4294  -5.4169
    -5.3871  -5.3807  -5.3766  -5.3721  -5.3593  -5.3431  -5.3379  -5.1122
    -5.0277  -4.2950  -3.9731  -3.7922  -2.8444  -2.4916  -2.2331  -1.2162
    -0.8249  -0.5182   0.2901   0.6593   0.8582   0.9160   0.9633   1.2265
     1.5253

     occupation numbers 
     1.0000   1.0000   1.0000   1.0000   1.0000   1.0000   1.0000   1.0000
     1.0000   1.0000   1.0000   1.0000   1.0000   1.0000   1.0000   1.0000
     1.0000   1.0000   1.0000   1.0000   1.0000   1.0000   1.0000   1.0000
     1.0000   1.0000   1.0000   1.0000   1.0000   1.0000   1.0000   1.0000
     1.0000   1.0000   1.0000   1.0000   1.0000   1.0000   1.0000   1.0000
     1.0000   1.0000   1.0000   1.0000   1.0000   1.0000   1.0000   1.0000
     1.0000   1.0000   1.0000   1.0000   1.0000   1.0000   1.0000   1.0000
     1.0000   1.0000   1.0000   1.0000   1.0000   1.0000   1.0000   1.0000
     1.0000   1.0000   1.0000   1.0000   1.0000   1.0000   1.0000   1.0000
     1.0000   1.0000   1.0000   1.0000   1.0000   1.0000   1.0000   1.0000
     1.0000   1.0000   1.0000   1.0000   1.0000   1.0000   1.0000   1.0000
     1.0000   1.0000   1.0000   1.0000   1.0000   1.0000   1.0000   1.0000
     1.0000   1.0000   1.0000   1.0000   1.0000   1.0000   1.0000   1.0004
     1.0041   1.0044   1.0071   1.0170   1.0290   1.0347   1.0374   1.0410
     1.0482   1.0498   1.0533   1.0831   1.0066   0.9845   0.8951   0.8580
     0.7590   0.7362   0.7216   0.7053   0.6577   0.5966   0.5772   0.0436
     0.0090   0.0000   0.0000   0.0000   0.0000   0.0000   0.0000   0.0000
     0.0000   0.0000   0.0000   0.0000   0.0000   0.0000   0.0000   0.0000
     0.0000

          k = 0.3750-0.5052 0.0000 ( 44432 PWs)   bands (ev):

   -11.1279 -10.6306 -10.6231 -10.2927 -10.2697 -10.1733 -10.0986  -9.9251
    -9.9108  -9.9011  -9.8775  -9.8498  -9.7808  -9.7747  -9.6841  -9.6380
    -9.6165  -9.6081  -9.5209  -9.5114  -9.4729  -9.4684  -9.4444  -9.4347
    -9.3552  -9.3512  -9.3464  -9.3353  -9.2619  -9.2260  -9.2193  -9.2045
    -9.1414  -9.1277  -9.1057  -9.0594  -9.0512  -9.0041  -8.8621  -8.8592
    -8.8360  -8.8340  -8.8199  -8.7830  -8.6439  -8.5951  -8.5677  -8.5594
    -8.3776  -8.3571  -8.3483  -8.3156  -8.3008  -8.2289  -8.1899  -8.1762
    -8.1540  -8.1306  -8.1165  -8.0900  -8.0565  -8.0260  -7.9934  -7.9743
    -7.9576  -7.9490  -7.9033  -7.7395  -7.7100  -7.6532  -7.6249  -7.5955
    -7.5553  -7.5313  -7.4967  -7.4771  -7.3191  -7.2678  -7.2328  -7.1477
    -7.0939  -7.0194  -6.9958  -6.9789  -6.9502  -6.9298  -6.8733  -6.8327
    -6.8282  -6.7251  -6.6443  -6.6118  -6.5959  -6.5091  -6.4849  -6.4355
    -6.3959  -6.3804  -6.2979  -6.2637  -6.2099  -6.1733  -6.1260  -6.0902
    -5.9505  -5.9198  -5.8614  -5.7772  -5.7623  -5.7255  -5.7044  -5.6945
    -5.6782  -5.6725  -5.6097  -5.5864  -5.5370  -5.5272  -5.4728  -5.4449
    -5.4358  -5.4090  -5.4012  -5.3600  -5.3022  -5.2899  -4.9399  -4.9178
    -4.6347  -4.3184  -4.1596  -3.5046  -2.8832  -2.6562  -1.9774  -1.2597
    -0.9864  -0.2861   0.1151   0.2681   0.4176   0.5487   1.0490   1.3455
     1.5948

     occupation numbers 
     1.0000   1.0000   1.0000   1.0000   1.0000   1.0000   1.0000   1.0000
     1.0000   1.0000   1.0000   1.0000   1.0000   1.0000   1.0000   1.0000
     1.0000   1.0000   1.0000   1.0000   1.0000   1.0000   1.0000   1.0000
     1.0000   1.0000   1.0000   1.0000   1.0000   1.0000   1.0000   1.0000
     1.0000   1.0000   1.0000   1.0000   1.0000   1.0000   1.0000   1.0000
     1.0000   1.0000   1.0000   1.0000   1.0000   1.0000   1.0000   1.0000
     1.0000   1.0000   1.0000   1.0000   1.0000   1.0000   1.0000   1.0000
     1.0000   1.0000   1.0000   1.0000   1.0000   1.0000   1.0000   1.0000
     1.0000   1.0000   1.0000   1.0000   1.0000   1.0000   1.0000   1.0000
     1.0000   1.0000   1.0000   1.0000   1.0000   1.0000   1.0000   1.0000
     1.0000   1.0000   1.0000   1.0000   1.0000   1.0000   1.0000   1.0000
     1.0000   1.0000   1.0000   1.0000   1.0000   1.0000   1.0000   1.0000
     1.0000   1.0000   1.0000   1.0000   1.0000   1.0000   1.0000   1.0000
     1.0003   1.0007   1.0027   1.0127   1.0160   1.0269   1.0349   1.0390
     1.0463   1.0489   1.0763   1.0822   1.0746   1.0685   0.9985   0.9368
     0.9128   0.8329   0.8075   0.6605   0.4456   0.4026   0.0012   0.0007
     0.0000   0.0000   0.0000   0.0000   0.0000   0.0000   0.0000   0.0000
     0.0000   0.0000   0.0000   0.0000   0.0000   0.0000   0.0000   0.0000
     0.0000

          k = 0.3750-0.4330 0.0000 ( 44484 PWs)   bands (ev):

   -11.1705 -10.8729 -10.6467 -10.4285 -10.3124 -10.1088 -10.0850 -10.0499
   -10.0430  -9.9836  -9.9277  -9.9086  -9.8536  -9.8472  -9.7423  -9.7304
    -9.6880  -9.6466  -9.5966  -9.5599  -9.5342  -9.5299  -9.4680  -9.4122
    -9.4021  -9.3427  -9.3206  -9.2981  -9.2260  -9.2122  -9.2026  -9.1936
    -9.1888  -9.1457  -9.0306  -9.0127  -8.9893  -8.9535  -8.9023  -8.8843
    -8.8474  -8.8064  -8.7642  -8.6748  -8.6214  -8.5839  -8.5614  -8.4759
    -8.4653  -8.3649  -8.3512  -8.2701  -8.2125  -8.1822  -8.1563  -8.1226
    -8.1049  -8.0388  -8.0166  -7.9935  -7.9531  -7.9064  -7.8865  -7.8627
    -7.8533  -7.8167  -7.7617  -7.7086  -7.6889  -7.6610  -7.6252  -7.5890
    -7.5599  -7.4950  -7.4796  -7.4586  -7.2769  -7.2053  -7.1730  -7.1314
    -7.0584  -7.0484  -7.0377  -7.0242  -6.9775  -6.9427  -6.8837  -6.8487
    -6.7866  -6.7248  -6.7130  -6.6292  -6.6054  -6.5740  -6.5384  -6.4671
    -6.4571  -6.3938  -6.3819  -6.3165  -6.2485  -6.2262  -6.1752  -6.1395
    -6.0720  -6.0155  -5.9639  -5.9572  -5.9444  -5.7827  -5.7393  -5.7235
    -5.6925  -5.6419  -5.6030  -5.4849  -5.4736  -5.4307  -5.4155  -5.4106
    -5.3858  -5.3769  -5.3585  -5.3490  -5.1930  -5.1802  -4.5857  -4.4708
    -4.3929  -4.2421  -4.0142  -3.2599  -2.9082  -2.6744  -1.7538  -1.3247
    -0.9997  -0.6501  -0.3486  -0.1512   0.1924   0.4070   0.4844   1.1086
     1.7679

     occupation numbers 
     1.0000   1.0000   1.0000   1.0000   1.0000   1.0000   1.0000   1.0000
     1.0000   1.0000   1.0000   1.0000   1.0000   1.0000   1.0000   1.0000
     1.0000   1.0000   1.0000   1.0000   1.0000   1.0000   1.0000   1.0000
     1.0000   1.0000   1.0000   1.0000   1.0000   1.0000   1.0000   1.0000
     1.0000   1.0000   1.0000   1.0000   1.0000   1.0000   1.0000   1.0000
     1.0000   1.0000   1.0000   1.0000   1.0000   1.0000   1.0000   1.0000
     1.0000   1.0000   1.0000   1.0000   1.0000   1.0000   1.0000   1.0000
     1.0000   1.0000   1.0000   1.0000   1.0000   1.0000   1.0000   1.0000
     1.0000   1.0000   1.0000   1.0000   1.0000   1.0000   1.0000   1.0000
     1.0000   1.0000   1.0000   1.0000   1.0000   1.0000   1.0000   1.0000
     1.0000   1.0000   1.0000   1.0000   1.0000   1.0000   1.0000   1.0000
     1.0000   1.0000   1.0000   1.0000   1.0000   1.0000   1.0000   1.0000
     1.0000   1.0000   1.0000   1.0000   1.0000   1.0000   1.0000   1.0000
     1.0000   1.0001   1.0002   1.0003   1.0004   1.0116   1.0224   1.0276
     1.0399   1.0632   1.0784   1.0197   1.0000   0.8987   0.8537   0.8380
     0.7545   0.7227   0.6547   0.6192   0.1435   0.1212   0.0000   0.0000
     0.0000   0.0000   0.0000   0.0000   0.0000   0.0000   0.0000   0.0000
     0.0000   0.0000   0.0000   0.0000   0.0000   0.0000   0.0000   0.0000
     0.0000

          k = 0.3750-0.3608 0.0000 ( 44477 PWs)   bands (ev):

   -11.2553 -11.0801 -10.6636 -10.5846 -10.3476 -10.1944 -10.1613 -10.1478
   -10.1151 -10.0986 -10.0096  -9.9632  -9.9474  -9.9062  -9.8316  -9.8302
    -9.7353  -9.6678  -9.6457  -9.6341  -9.6273  -9.6075  -9.5492  -9.4569
    -9.4490  -9.4195  -9.3646  -9.3495  -9.2913  -9.2582  -9.1610  -9.1386
    -9.1198  -9.0988  -9.0447  -9.0245  -8.9208  -8.9024  -8.8768  -8.8652
    -8.8504  -8.6948  -8.6871  -8.6198  -8.5836  -8.5679  -8.5247  -8.4120
    -8.3575  -8.3338  -8.3147  -8.2201  -8.1795  -8.1530  -8.0801  -8.0331
    -8.0086  -7.9783  -7.9608  -7.9319  -7.9001  -7.8355  -7.8119  -7.7638
    -7.7360  -7.7199  -7.6607  -7.6442  -7.6159  -7.5890  -7.5348  -7.5220
    -7.4708  -7.3884  -7.3540  -7.3133  -7.2758  -7.2512  -7.2294  -7.1793
    -7.1566  -7.0961  -7.0335  -6.9626  -6.9502  -6.8978  -6.8874  -6.8337
    -6.8108  -6.7224  -6.6953  -6.6764  -6.6433  -6.6158  -6.5557  -6.5186
    -6.4956  -6.4493  -6.3940  -6.3654  -6.3265  -6.2294  -6.1958  -6.1443
    -6.1214  -6.0944  -6.0514  -6.0128  -5.9756  -5.8066  -5.7849  -5.7580
    -5.7334  -5.6175  -5.5846  -5.4704  -5.4396  -5.4121  -5.3470  -5.3265
    -5.3109  -5.2812  -5.2554  -5.2484  -5.0883  -5.0767  -4.7831  -4.2536
    -3.9578  -3.8215  -3.5421  -3.3300  -2.7102  -2.3847  -1.9158  -1.3950
    -1.1846  -0.9609  -0.7959  -0.5803  -0.4337   0.3120   0.6087   0.8255
     1.4827

     occupation numbers 
     1.0000   1.0000   1.0000   1.0000   1.0000   1.0000   1.0000   1.0000
     1.0000   1.0000   1.0000   1.0000   1.0000   1.0000   1.0000   1.0000
     1.0000   1.0000   1.0000   1.0000   1.0000   1.0000   1.0000   1.0000
     1.0000   1.0000   1.0000   1.0000   1.0000   1.0000   1.0000   1.0000
     1.0000   1.0000   1.0000   1.0000   1.0000   1.0000   1.0000   1.0000
     1.0000   1.0000   1.0000   1.0000   1.0000   1.0000   1.0000   1.0000
     1.0000   1.0000   1.0000   1.0000   1.0000   1.0000   1.0000   1.0000
     1.0000   1.0000   1.0000   1.0000   1.0000   1.0000   1.0000   1.0000
     1.0000   1.0000   1.0000   1.0000   1.0000   1.0000   1.0000   1.0000
     1.0000   1.0000   1.0000   1.0000   1.0000   1.0000   1.0000   1.0000
     1.0000   1.0000   1.0000   1.0000   1.0000   1.0000   1.0000   1.0000
     1.0000   1.0000   1.0000   1.0000   1.0000   1.0000   1.0000   1.0000
     1.0000   1.0000   1.0000   1.0000   1.0000   1.0000   1.0000   1.0000
     1.0000   1.0000   1.0000   1.0001   1.0002   1.0078   1.0112   1.0171
     1.0242   1.0735   1.0824   0.9939   0.9229   0.8430   0.6115   0.5344
     0.4768   0.3730   0.2924   0.2722   0.0290   0.0235   0.0000   0.0000
     0.0000   0.0000   0.0000   0.0000   0.0000   0.0000   0.0000   0.0000
     0.0000   0.0000   0.0000   0.0000   0.0000   0.0000   0.0000   0.0000
     0.0000

          k = 0.3750-0.2887 0.0000 ( 44509 PWs)   bands (ev):

   -11.3995 -11.2093 -10.7250 -10.6654 -10.3933 -10.2885 -10.2550 -10.2407
   -10.1961 -10.1294 -10.0939 -10.0464 -10.0389  -9.9666  -9.9475  -9.9182
    -9.7761  -9.7496  -9.7346  -9.7163  -9.6869  -9.6513  -9.6137  -9.5577
    -9.5384  -9.5049  -9.4326  -9.4093  -9.3596  -9.2842  -9.1318  -9.0897
    -9.0762  -9.0620  -9.0349  -9.0026  -8.9887  -8.9126  -8.8561  -8.8314
    -8.7886  -8.6642  -8.6230  -8.5795  -8.5332  -8.5186  -8.4871  -8.3591
    -8.3274  -8.1996  -8.1611  -8.1107  -8.0979  -8.0584  -8.0381  -8.0184
    -7.9868  -7.9205  -7.8999  -7.8812  -7.8732  -7.8337  -7.7975  -7.7243
    -7.7089  -7.6554  -7.6253  -7.5733  -7.5240  -7.4700  -7.4590  -7.4381
    -7.4225  -7.3810  -7.3659  -7.2534  -7.2367  -7.2134  -7.1791  -7.1469
    -7.0956  -7.0734  -7.0264  -6.9879  -6.9584  -6.8982  -6.8713  -6.8526
    -6.7683  -6.7051  -6.6809  -6.6362  -6.6275  -6.5252  -6.4911  -6.4608
    -6.4233  -6.4000  -6.3752  -6.3136  -6.2851  -6.2371  -6.2079  -6.1620
    -6.1286  -6.1022  -6.0776  -6.0039  -5.9418  -5.8572  -5.8479  -5.8113
    -5.7472  -5.5872  -5.5321  -5.4719  -5.4163  -5.3983  -5.2895  -5.2674
    -5.2602  -5.2134  -5.1825  -5.1718  -5.0206  -5.0054  -4.9703  -4.2185
    -3.7059  -3.3996  -3.1979  -2.8393  -2.5532  -2.2443  -2.0964  -1.8258
    -1.7203  -1.3175  -1.0012  -0.7506  -0.4100  -0.2444   0.6885   0.9115
     1.3074

     occupation numbers 
     1.0000   1.0000   1.0000   1.0000   1.0000   1.0000   1.0000   1.0000
     1.0000   1.0000   1.0000   1.0000   1.0000   1.0000   1.0000   1.0000
     1.0000   1.0000   1.0000   1.0000   1.0000   1.0000   1.0000   1.0000
     1.0000   1.0000   1.0000   1.0000   1.0000   1.0000   1.0000   1.0000
     1.0000   1.0000   1.0000   1.0000   1.0000   1.0000   1.0000   1.0000
     1.0000   1.0000   1.0000   1.0000   1.0000   1.0000   1.0000   1.0000
     1.0000   1.0000   1.0000   1.0000   1.0000   1.0000   1.0000   1.0000
     1.0000   1.0000   1.0000   1.0000   1.0000   1.0000   1.0000   1.0000
     1.0000   1.0000   1.0000   1.0000   1.0000   1.0000   1.0000   1.0000
     1.0000   1.0000   1.0000   1.0000   1.0000   1.0000   1.0000   1.0000
     1.0000   1.0000   1.0000   1.0000   1.0000   1.0000   1.0000   1.0000
     1.0000   1.0000   1.0000   1.0000   1.0000   1.0000   1.0000   1.0000
     1.0000   1.0000   1.0000   1.0000   1.0000   1.0000   1.0000   1.0000
     1.0000   1.0000   1.0000   1.0001   1.0004   1.0030   1.0036   1.0071
     1.0200   1.0821   1.0718   0.9967   0.8561   0.7979   0.4012   0.3286
     0.3066   0.1845   0.1249   0.1082   0.0078   0.0056   0.0026   0.0000
     0.0000   0.0000   0.0000   0.0000   0.0000   0.0000   0.0000   0.0000
     0.0000   0.0000   0.0000   0.0000   0.0000   0.0000   0.0000   0.0000
     0.0000

          k = 0.4375-0.2526 0.0000 ( 44502 PWs)   bands (ev):

   -11.2720 -11.1193 -10.7511 -10.6570 -10.4260 -10.2838 -10.1990 -10.1933
   -10.1895 -10.0737 -10.0593 -10.0581 -10.0187  -9.9172  -9.9107  -9.8798
    -9.7272  -9.7230  -9.7115  -9.6667  -9.6074  -9.6014  -9.5478  -9.5389
    -9.4965  -9.4778  -9.3924  -9.3669  -9.3230  -9.3061  -9.1269  -9.1180
    -9.0860  -9.0286  -9.0099  -8.9893  -8.9752  -8.9379  -8.8431  -8.8125
    -8.7807  -8.7694  -8.6089  -8.5951  -8.5800  -8.5431  -8.5047  -8.3912
    -8.3836  -8.2136  -8.1705  -8.1656  -8.1481  -8.1027  -8.0401  -7.9588
    -7.9499  -7.9282  -7.9061  -7.9009  -7.8766  -7.8372  -7.7397  -7.6994
    -7.6760  -7.6475  -7.6419  -7.6036  -7.5117  -7.4855  -7.4492  -7.4436
    -7.4206  -7.4164  -7.3660  -7.3463  -7.2926  -7.2171  -7.2046  -7.1777
    -7.1459  -7.0543  -7.0298  -7.0167  -6.9781  -6.9035  -6.8995  -6.8910
    -6.7808  -6.7270  -6.6965  -6.6832  -6.6559  -6.5719  -6.5602  -6.5038
    -6.4834  -6.4567  -6.4311  -6.4211  -6.4095  -6.3929  -6.2830  -6.2228
    -6.2044  -6.1895  -6.1527  -6.0258  -5.9916  -5.9117  -5.8849  -5.8651
    -5.8401  -5.6867  -5.4992  -5.4840  -5.4123  -5.3955  -5.2385  -5.2347
    -5.2244  -5.1964  -5.1615  -5.1524  -4.9912  -4.9785  -4.9059  -4.3752
    -3.5730  -2.8889  -2.7515  -2.7409  -2.5214  -2.4827  -2.1916  -1.9334
    -1.8792  -1.2652  -0.9473  -0.9055  -0.6915   0.1518   0.4259   0.5215
     1.6864

     occupation numbers 
     1.0000   1.0000   1.0000   1.0000   1.0000   1.0000   1.0000   1.0000
     1.0000   1.0000   1.0000   1.0000   1.0000   1.0000   1.0000   1.0000
     1.0000   1.0000   1.0000   1.0000   1.0000   1.0000   1.0000   1.0000
     1.0000   1.0000   1.0000   1.0000   1.0000   1.0000   1.0000   1.0000
     1.0000   1.0000   1.0000   1.0000   1.0000   1.0000   1.0000   1.0000
     1.0000   1.0000   1.0000   1.0000   1.0000   1.0000   1.0000   1.0000
     1.0000   1.0000   1.0000   1.0000   1.0000   1.0000   1.0000   1.0000
     1.0000   1.0000   1.0000   1.0000   1.0000   1.0000   1.0000   1.0000
     1.0000   1.0000   1.0000   1.0000   1.0000   1.0000   1.0000   1.0000
     1.0000   1.0000   1.0000   1.0000   1.0000   1.0000   1.0000   1.0000
     1.0000   1.0000   1.0000   1.0000   1.0000   1.0000   1.0000   1.0000
     1.0000   1.0000   1.0000   1.0000   1.0000   1.0000   1.0000   1.0000
     1.0000   1.0000   1.0000   1.0000   1.0000   1.0000   1.0000   1.0000
     1.0000   1.0000   1.0000   1.0000   1.0001   1.0009   1.0016   1.0025
     1.0042   1.0424   1.0406   1.0184   0.8434   0.7881   0.2453   0.2352
     0.2098   0.1497   0.0935   0.0820   0.0041   0.0031   0.0005   0.0000
     0.0000   0.0000   0.0000   0.0000   0.0000   0.0000   0.0000   0.0000
     0.0000   0.0000   0.0000   0.0000   0.0000   0.0000   0.0000   0.0000
     0.0000

          k = 0.4375-0.1804 0.0000 ( 44509 PWs)   bands (ev):

   -11.3798 -11.1737 -10.7268 -10.6648 -10.3937 -10.2888 -10.2548 -10.2417
   -10.1969 -10.1313 -10.0945 -10.0490 -10.0344  -9.9668  -9.9484  -9.9181
    -9.7843  -9.7474  -9.7378  -9.7054  -9.6994  -9.6501  -9.6119  -9.5520
    -9.5335  -9.5215  -9.4307  -9.4167  -9.3550  -9.2811  -9.1568  -9.0906
    -9.0736  -9.0556  -9.0359  -9.0023  -8.9800  -8.9565  -8.8753  -8.8374
    -8.7861  -8.6616  -8.6224  -8.5814  -8.5420  -8.5155  -8.4676  -8.3759
    -8.3257  -8.1963  -8.1628  -8.1124  -8.0843  -8.0623  -8.0370  -8.0215
    -7.9840  -7.9317  -7.9108  -7.8969  -7.8587  -7.8354  -7.8050  -7.7394
    -7.6980  -7.6607  -7.6145  -7.5706  -7.5373  -7.4715  -7.4635  -7.4378
    -7.4191  -7.3970  -7.3074  -7.2691  -7.2567  -7.2170  -7.1773  -7.1384
    -7.0994  -7.0762  -7.0338  -7.0002  -6.9681  -6.8888  -6.8798  -6.8551
    -6.7846  -6.7036  -6.6773  -6.6422  -6.6208  -6.5130  -6.4794  -6.4519
    -6.4285  -6.4067  -6.3687  -6.3104  -6.2887  -6.2208  -6.2074  -6.1639
    -6.1255  -6.0885  -6.0710  -5.9916  -5.9389  -5.8639  -5.8480  -5.8088
    -5.7469  -5.5896  -5.5226  -5.4602  -5.4237  -5.3925  -5.2881  -5.2674
    -5.2620  -5.2121  -5.1846  -5.1696  -5.0210  -5.0037  -4.9728  -4.2166
    -3.7019  -3.4014  -3.2096  -2.8538  -2.5339  -2.1947  -2.1020  -1.8169
    -1.7377  -1.2794  -1.0107  -0.7622  -0.3762  -0.2545   0.6875   0.9157
     1.3242

     occupation numbers 
     1.0000   1.0000   1.0000   1.0000   1.0000   1.0000   1.0000   1.0000
     1.0000   1.0000   1.0000   1.0000   1.0000   1.0000   1.0000   1.0000
     1.0000   1.0000   1.0000   1.0000   1.0000   1.0000   1.0000   1.0000
     1.0000   1.0000   1.0000   1.0000   1.0000   1.0000   1.0000   1.0000
     1.0000   1.0000   1.0000   1.0000   1.0000   1.0000   1.0000   1.0000
     1.0000   1.0000   1.0000   1.0000   1.0000   1.0000   1.0000   1.0000
     1.0000   1.0000   1.0000   1.0000   1.0000   1.0000   1.0000   1.0000
     1.0000   1.0000   1.0000   1.0000   1.0000   1.0000   1.0000   1.0000
     1.0000   1.0000   1.0000   1.0000   1.0000   1.0000   1.0000   1.0000
     1.0000   1.0000   1.0000   1.0000   1.0000   1.0000   1.0000   1.0000
     1.0000   1.0000   1.0000   1.0000   1.0000   1.0000   1.0000   1.0000
     1.0000   1.0000   1.0000   1.0000   1.0000   1.0000   1.0000   1.0000
     1.0000   1.0000   1.0000   1.0000   1.0000   1.0000   1.0000   1.0000
     1.0000   1.0000   1.0000   1.0001   1.0005   1.0026   1.0036   1.0074
     1.0201   1.0816   1.0650   0.9728   0.8784   0.7779   0.3962   0.3286
     0.3121   0.1817   0.1285   0.1049   0.0079   0.0054   0.0027   0.0000
     0.0000   0.0000   0.0000   0.0000   0.0000   0.0000   0.0000   0.0000
     0.0000   0.0000   0.0000   0.0000   0.0000   0.0000   0.0000   0.0000
     0.0000

          k = 0.4375-0.1083 0.0000 ( 44545 PWs)   bands (ev):

   -11.4594 -11.2095 -10.7662 -10.5676 -10.3644 -10.3011 -10.2747 -10.2322
   -10.2289 -10.1762 -10.0949 -10.0632 -10.0347 -10.0183  -9.9799  -9.9101
    -9.8614  -9.7968  -9.7882  -9.7479  -9.7250  -9.6658  -9.6532  -9.5965
    -9.5595  -9.5366  -9.5066  -9.4237  -9.3869  -9.2298  -9.1777  -9.1442
    -9.1139  -9.1006  -9.0447  -8.9867  -8.9425  -8.9342  -8.9282  -8.8849
    -8.7517  -8.6721  -8.6151  -8.5381  -8.4865  -8.4774  -8.4256  -8.3365
    -8.3003  -8.2406  -8.2091  -8.1749  -8.0845  -8.0749  -8.0417  -8.0157
    -7.9704  -7.9298  -7.9091  -7.8974  -7.8746  -7.8271  -7.8170  -7.7877
    -7.7655  -7.7123  -7.6731  -7.5357  -7.5208  -7.4895  -7.4557  -7.4234
    -7.3793  -7.3673  -7.2833  -7.2491  -7.1995  -7.1642  -7.1253  -7.1000
    -7.0723  -7.0425  -7.0320  -7.0008  -6.9608  -6.9088  -6.8639  -6.8286
    -6.8003  -6.7109  -6.6152  -6.5893  -6.5720  -6.5525  -6.4588  -6.3826
    -6.3668  -6.3429  -6.3107  -6.2188  -6.1974  -6.1684  -6.1357  -6.0457
    -6.0172  -5.9775  -5.9608  -5.9057  -5.8093  -5.7423  -5.7303  -5.6252
    -5.5973  -5.4988  -5.4532  -5.4280  -5.4122  -5.3773  -5.3541  -5.3391
    -5.2584  -5.2450  -5.2323  -5.1881  -5.0853  -5.0750  -4.9820  -4.0843
    -3.9880  -3.8165  -3.7192  -3.4370  -2.6317  -2.2610  -2.1620  -1.4365
    -1.2442  -1.0753  -0.9302  -0.5683  -0.3993   0.2172   0.7055   1.0700
     1.1945

     occupation numbers 
     1.0000   1.0000   1.0000   1.0000   1.0000   1.0000   1.0000   1.0000
     1.0000   1.0000   1.0000   1.0000   1.0000   1.0000   1.0000   1.0000
     1.0000   1.0000   1.0000   1.0000   1.0000   1.0000   1.0000   1.0000
     1.0000   1.0000   1.0000   1.0000   1.0000   1.0000   1.0000   1.0000
     1.0000   1.0000   1.0000   1.0000   1.0000   1.0000   1.0000   1.0000
     1.0000   1.0000   1.0000   1.0000   1.0000   1.0000   1.0000   1.0000
     1.0000   1.0000   1.0000   1.0000   1.0000   1.0000   1.0000   1.0000
     1.0000   1.0000   1.0000   1.0000   1.0000   1.0000   1.0000   1.0000
     1.0000   1.0000   1.0000   1.0000   1.0000   1.0000   1.0000   1.0000
     1.0000   1.0000   1.0000   1.0000   1.0000   1.0000   1.0000   1.0000
     1.0000   1.0000   1.0000   1.0000   1.0000   1.0000   1.0000   1.0000
     1.0000   1.0000   1.0000   1.0000   1.0000   1.0000   1.0000   1.0000
     1.0000   1.0000   1.0000   1.0000   1.0000   1.0000   1.0000   1.0000
     1.0001   1.0002   1.0003   1.0010   1.0074   1.0215   1.0253   1.0705
     1.0800   1.0401   0.9570   0.8909   0.8433   0.7241   0.6383   0.5818
     0.3013   0.2629   0.2292   0.1346   0.0275   0.0228   0.0033   0.0000
     0.0000   0.0000   0.0000   0.0000   0.0000   0.0000   0.0000   0.0000
     0.0000   0.0000   0.0000   0.0000   0.0000   0.0000   0.0000   0.0000
     0.0000

          k = 0.4375-0.0361 0.0000 ( 44536 PWs)   bands (ev):

   -11.5005 -11.2282 -10.7854 -10.4579 -10.3434 -10.3319 -10.3248 -10.3003
   -10.1624 -10.1468 -10.1028 -10.0747 -10.0555 -10.0070  -9.9603  -9.9520
    -9.8962  -9.8839  -9.8395  -9.7564  -9.7211  -9.7002  -9.6534  -9.6185
    -9.5831  -9.5686  -9.5073  -9.4018  -9.3838  -9.3085  -9.1747  -9.1654
    -9.1469  -9.0760  -9.0213  -9.0023  -8.9824  -8.9416  -8.9028  -8.8583
    -8.7704  -8.7382  -8.5738  -8.4665  -8.4613  -8.4214  -8.4033  -8.3412
    -8.3024  -8.2932  -8.2535  -8.2062  -8.1536  -8.1285  -7.9995  -7.9838
    -7.9454  -7.9267  -7.9096  -7.8975  -7.8789  -7.8379  -7.8225  -7.8073
    -7.7882  -7.7568  -7.7379  -7.5322  -7.5134  -7.4718  -7.4519  -7.3981
    -7.3486  -7.3218  -7.2866  -7.2658  -7.1680  -7.1281  -7.1097  -7.0796
    -7.0478  -7.0392  -6.9987  -6.9784  -6.9609  -6.9229  -6.8718  -6.8153
    -6.8042  -6.6956  -6.6025  -6.5844  -6.5565  -6.5117  -6.4602  -6.3678
    -6.3311  -6.3008  -6.2857  -6.2738  -6.1438  -6.1069  -6.0421  -6.0185
    -5.9420  -5.9239  -5.8429  -5.7711  -5.6964  -5.6753  -5.6414  -5.5548
    -5.5199  -5.5000  -5.4965  -5.4558  -5.4491  -5.3959  -5.3690  -5.2580
    -5.2473  -5.1833  -5.1703  -5.1349  -5.0188  -4.9474  -4.7102  -4.5990
    -4.4315  -4.1506  -3.8232  -3.5129  -3.0294  -2.4223  -1.9126  -1.4448
    -1.2288  -0.8271  -0.4735  -0.1957  -0.0357   0.3292   0.3887   0.8184
     1.1878

     occupation numbers 
     1.0000   1.0000   1.0000   1.0000   1.0000   1.0000   1.0000   1.0000
     1.0000   1.0000   1.0000   1.0000   1.0000   1.0000   1.0000   1.0000
     1.0000   1.0000   1.0000   1.0000   1.0000   1.0000   1.0000   1.0000
     1.0000   1.0000   1.0000   1.0000   1.0000   1.0000   1.0000   1.0000
     1.0000   1.0000   1.0000   1.0000   1.0000   1.0000   1.0000   1.0000
     1.0000   1.0000   1.0000   1.0000   1.0000   1.0000   1.0000   1.0000
     1.0000   1.0000   1.0000   1.0000   1.0000   1.0000   1.0000   1.0000
     1.0000   1.0000   1.0000   1.0000   1.0000   1.0000   1.0000   1.0000
     1.0000   1.0000   1.0000   1.0000   1.0000   1.0000   1.0000   1.0000
     1.0000   1.0000   1.0000   1.0000   1.0000   1.0000   1.0000   1.0000
     1.0000   1.0000   1.0000   1.0000   1.0000   1.0000   1.0000   1.0000
     1.0000   1.0000   1.0000   1.0000   1.0000   1.0000   1.0000   1.0000
     1.0000   1.0000   1.0000   1.0000   1.0000   1.0000   1.0000   1.0001
     1.0004   1.0007   1.0039   1.0140   1.0382   1.0476   1.0634   1.0813
     1.0628   1.0416   1.0371   0.9630   0.9472   0.7896   0.6938   0.3001
     0.2692   0.1264   0.1059   0.0630   0.0075   0.0015   0.0000   0.0000
     0.0000   0.0000   0.0000   0.0000   0.0000   0.0000   0.0000   0.0000
     0.0000   0.0000   0.0000   0.0000   0.0000   0.0000   0.0000   0.0000
     0.0000

          k = 0.4375 0.0361 0.0000 ( 44536 PWs)   bands (ev):

   -11.5005 -11.2282 -10.7854 -10.4579 -10.3434 -10.3319 -10.3248 -10.3003
   -10.1624 -10.1468 -10.1028 -10.0747 -10.0555 -10.0070  -9.9603  -9.9520
    -9.8962  -9.8839  -9.8395  -9.7564  -9.7211  -9.7002  -9.6534  -9.6185
    -9.5831  -9.5686  -9.5073  -9.4018  -9.3838  -9.3085  -9.1747  -9.1654
    -9.1469  -9.0760  -9.0213  -9.0023  -8.9824  -8.9416  -8.9028  -8.8583
    -8.7704  -8.7382  -8.5738  -8.4665  -8.4613  -8.4214  -8.4033  -8.3412
    -8.3024  -8.2932  -8.2535  -8.2062  -8.1536  -8.1285  -7.9995  -7.9838
    -7.9454  -7.9267  -7.9096  -7.8975  -7.8789  -7.8379  -7.8225  -7.8073
    -7.7882  -7.7568  -7.7379  -7.5322  -7.5134  -7.4718  -7.4519  -7.3981
    -7.3486  -7.3218  -7.2866  -7.2658  -7.1680  -7.1281  -7.1097  -7.0796
    -7.0478  -7.0392  -6.9987  -6.9784  -6.9609  -6.9229  -6.8718  -6.8153
    -6.8042  -6.6956  -6.6025  -6.5844  -6.5565  -6.5117  -6.4602  -6.3678
    -6.3311  -6.3008  -6.2857  -6.2738  -6.1438  -6.1069  -6.0421  -6.0185
    -5.9420  -5.9239  -5.8429  -5.7711  -5.6964  -5.6753  -5.6414  -5.5548
    -5.5199  -5.5000  -5.4965  -5.4558  -5.4491  -5.3959  -5.3690  -5.2580
    -5.2473  -5.1833  -5.1703  -5.1349  -5.0188  -4.9474  -4.7102  -4.5990
    -4.4315  -4.1506  -3.8232  -3.5129  -3.0294  -2.4223  -1.9126  -1.4448
    -1.2288  -0.8271  -0.4735  -0.1957  -0.0357   0.3292   0.3887   0.8184
     1.1877

     occupation numbers 
     1.0000   1.0000   1.0000   1.0000   1.0000   1.0000   1.0000   1.0000
     1.0000   1.0000   1.0000   1.0000   1.0000   1.0000   1.0000   1.0000
     1.0000   1.0000   1.0000   1.0000   1.0000   1.0000   1.0000   1.0000
     1.0000   1.0000   1.0000   1.0000   1.0000   1.0000   1.0000   1.0000
     1.0000   1.0000   1.0000   1.0000   1.0000   1.0000   1.0000   1.0000
     1.0000   1.0000   1.0000   1.0000   1.0000   1.0000   1.0000   1.0000
     1.0000   1.0000   1.0000   1.0000   1.0000   1.0000   1.0000   1.0000
     1.0000   1.0000   1.0000   1.0000   1.0000   1.0000   1.0000   1.0000
     1.0000   1.0000   1.0000   1.0000   1.0000   1.0000   1.0000   1.0000
     1.0000   1.0000   1.0000   1.0000   1.0000   1.0000   1.0000   1.0000
     1.0000   1.0000   1.0000   1.0000   1.0000   1.0000   1.0000   1.0000
     1.0000   1.0000   1.0000   1.0000   1.0000   1.0000   1.0000   1.0000
     1.0000   1.0000   1.0000   1.0000   1.0000   1.0000   1.0000   1.0001
     1.0004   1.0007   1.0039   1.0140   1.0382   1.0476   1.0634   1.0813
     1.0628   1.0416   1.0371   0.9630   0.9472   0.7896   0.6938   0.3001
     0.2692   0.1264   0.1059   0.0630   0.0075   0.0015   0.0000   0.0000
     0.0000   0.0000   0.0000   0.0000   0.0000   0.0000   0.0000   0.0000
     0.0000   0.0000   0.0000   0.0000   0.0000   0.0000   0.0000   0.0000
     0.0000

          k = 0.4375 0.1083 0.0000 ( 44545 PWs)   bands (ev):

   -11.4594 -11.2095 -10.7662 -10.5676 -10.3644 -10.3011 -10.2747 -10.2322
   -10.2289 -10.1762 -10.0949 -10.0632 -10.0347 -10.0183  -9.9799  -9.9101
    -9.8614  -9.7968  -9.7882  -9.7479  -9.7250  -9.6658  -9.6532  -9.5965
    -9.5595  -9.5366  -9.5066  -9.4237  -9.3869  -9.2298  -9.1777  -9.1442
    -9.1139  -9.1006  -9.0447  -8.9867  -8.9425  -8.9342  -8.9282  -8.8849
    -8.7517  -8.6721  -8.6151  -8.5381  -8.4865  -8.4774  -8.4256  -8.3365
    -8.3003  -8.2406  -8.2091  -8.1749  -8.0845  -8.0749  -8.0417  -8.0157
    -7.9704  -7.9298  -7.9091  -7.8974  -7.8746  -7.8271  -7.8170  -7.7877
    -7.7655  -7.7123  -7.6731  -7.5357  -7.5208  -7.4895  -7.4557  -7.4234
    -7.3793  -7.3673  -7.2833  -7.2491  -7.1995  -7.1642  -7.1253  -7.1000
    -7.0723  -7.0425  -7.0320  -7.0008  -6.9608  -6.9088  -6.8639  -6.8286
    -6.8003  -6.7109  -6.6152  -6.5893  -6.5720  -6.5525  -6.4588  -6.3826
    -6.3668  -6.3429  -6.3107  -6.2188  -6.1974  -6.1684  -6.1357  -6.0457
    -6.0172  -5.9775  -5.9608  -5.9057  -5.8093  -5.7423  -5.7303  -5.6252
    -5.5973  -5.4988  -5.4532  -5.4280  -5.4122  -5.3773  -5.3541  -5.3391
    -5.2584  -5.2450  -5.2323  -5.1881  -5.0853  -5.0750  -4.9820  -4.0843
    -3.9880  -3.8165  -3.7192  -3.4370  -2.6317  -2.2610  -2.1620  -1.4365
    -1.2442  -1.0753  -0.9302  -0.5683  -0.3993   0.2172   0.7055   1.0700
     1.1945

     occupation numbers 
     1.0000   1.0000   1.0000   1.0000   1.0000   1.0000   1.0000   1.0000
     1.0000   1.0000   1.0000   1.0000   1.0000   1.0000   1.0000   1.0000
     1.0000   1.0000   1.0000   1.0000   1.0000   1.0000   1.0000   1.0000
     1.0000   1.0000   1.0000   1.0000   1.0000   1.0000   1.0000   1.0000
     1.0000   1.0000   1.0000   1.0000   1.0000   1.0000   1.0000   1.0000
     1.0000   1.0000   1.0000   1.0000   1.0000   1.0000   1.0000   1.0000
     1.0000   1.0000   1.0000   1.0000   1.0000   1.0000   1.0000   1.0000
     1.0000   1.0000   1.0000   1.0000   1.0000   1.0000   1.0000   1.0000
     1.0000   1.0000   1.0000   1.0000   1.0000   1.0000   1.0000   1.0000
     1.0000   1.0000   1.0000   1.0000   1.0000   1.0000   1.0000   1.0000
     1.0000   1.0000   1.0000   1.0000   1.0000   1.0000   1.0000   1.0000
     1.0000   1.0000   1.0000   1.0000   1.0000   1.0000   1.0000   1.0000
     1.0000   1.0000   1.0000   1.0000   1.0000   1.0000   1.0000   1.0000
     1.0001   1.0002   1.0003   1.0010   1.0074   1.0215   1.0253   1.0705
     1.0800   1.0401   0.9570   0.8909   0.8433   0.7241   0.6383   0.5818
     0.3013   0.2629   0.2292   0.1346   0.0275   0.0228   0.0033   0.0000
     0.0000   0.0000   0.0000   0.0000   0.0000   0.0000   0.0000   0.0000
     0.0000   0.0000   0.0000   0.0000   0.0000   0.0000   0.0000   0.0000
     0.0000

          k = 0.4375 0.1804 0.0000 ( 44509 PWs)   bands (ev):

   -11.3798 -11.1737 -10.7268 -10.6648 -10.3937 -10.2888 -10.2548 -10.2417
   -10.1969 -10.1313 -10.0945 -10.0490 -10.0344  -9.9668  -9.9484  -9.9181
    -9.7843  -9.7474  -9.7378  -9.7054  -9.6994  -9.6501  -9.6119  -9.5520
    -9.5335  -9.5215  -9.4307  -9.4167  -9.3550  -9.2811  -9.1568  -9.0906
    -9.0736  -9.0556  -9.0359  -9.0023  -8.9800  -8.9565  -8.8753  -8.8374
    -8.7861  -8.6616  -8.6224  -8.5814  -8.5420  -8.5155  -8.4676  -8.3759
    -8.3257  -8.1963  -8.1628  -8.1124  -8.0843  -8.0623  -8.0370  -8.0215
    -7.9840  -7.9317  -7.9108  -7.8969  -7.8587  -7.8354  -7.8050  -7.7394
    -7.6980  -7.6607  -7.6145  -7.5706  -7.5373  -7.4715  -7.4635  -7.4378
    -7.4191  -7.3970  -7.3074  -7.2691  -7.2567  -7.2170  -7.1773  -7.1384
    -7.0994  -7.0762  -7.0338  -7.0002  -6.9681  -6.8888  -6.8798  -6.8551
    -6.7846  -6.7036  -6.6773  -6.6422  -6.6208  -6.5130  -6.4794  -6.4519
    -6.4285  -6.4067  -6.3687  -6.3104  -6.2887  -6.2208  -6.2074  -6.1639
    -6.1255  -6.0885  -6.0710  -5.9916  -5.9389  -5.8639  -5.8480  -5.8088
    -5.7469  -5.5896  -5.5226  -5.4602  -5.4237  -5.3925  -5.2881  -5.2674
    -5.2620  -5.2121  -5.1846  -5.1696  -5.0210  -5.0037  -4.9728  -4.2166
    -3.7019  -3.4014  -3.2096  -2.8538  -2.5339  -2.1947  -2.1020  -1.8169
    -1.7377  -1.2794  -1.0107  -0.7622  -0.3762  -0.2545   0.6875   0.9157
     1.3242

     occupation numbers 
     1.0000   1.0000   1.0000   1.0000   1.0000   1.0000   1.0000   1.0000
     1.0000   1.0000   1.0000   1.0000   1.0000   1.0000   1.0000   1.0000
     1.0000   1.0000   1.0000   1.0000   1.0000   1.0000   1.0000   1.0000
     1.0000   1.0000   1.0000   1.0000   1.0000   1.0000   1.0000   1.0000
     1.0000   1.0000   1.0000   1.0000   1.0000   1.0000   1.0000   1.0000
     1.0000   1.0000   1.0000   1.0000   1.0000   1.0000   1.0000   1.0000
     1.0000   1.0000   1.0000   1.0000   1.0000   1.0000   1.0000   1.0000
     1.0000   1.0000   1.0000   1.0000   1.0000   1.0000   1.0000   1.0000
     1.0000   1.0000   1.0000   1.0000   1.0000   1.0000   1.0000   1.0000
     1.0000   1.0000   1.0000   1.0000   1.0000   1.0000   1.0000   1.0000
     1.0000   1.0000   1.0000   1.0000   1.0000   1.0000   1.0000   1.0000
     1.0000   1.0000   1.0000   1.0000   1.0000   1.0000   1.0000   1.0000
     1.0000   1.0000   1.0000   1.0000   1.0000   1.0000   1.0000   1.0000
     1.0000   1.0000   1.0000   1.0001   1.0005   1.0026   1.0036   1.0074
     1.0201   1.0816   1.0650   0.9728   0.8784   0.7779   0.3962   0.3286
     0.3121   0.1817   0.1285   0.1049   0.0079   0.0054   0.0027   0.0000
     0.0000   0.0000   0.0000   0.0000   0.0000   0.0000   0.0000   0.0000
     0.0000   0.0000   0.0000   0.0000   0.0000   0.0000   0.0000   0.0000
     0.0000

          k = 0.4375 0.2526 0.0000 ( 44502 PWs)   bands (ev):

   -11.2720 -11.1193 -10.7511 -10.6570 -10.4260 -10.2838 -10.1990 -10.1933
   -10.1895 -10.0737 -10.0593 -10.0581 -10.0187  -9.9172  -9.9107  -9.8798
    -9.7272  -9.7230  -9.7115  -9.6667  -9.6074  -9.6014  -9.5478  -9.5389
    -9.4965  -9.4778  -9.3924  -9.3669  -9.3230  -9.3061  -9.1269  -9.1180
    -9.0860  -9.0286  -9.0099  -8.9893  -8.9752  -8.9379  -8.8431  -8.8125
    -8.7807  -8.7694  -8.6089  -8.5951  -8.5800  -8.5431  -8.5047  -8.3912
    -8.3836  -8.2136  -8.1705  -8.1656  -8.1481  -8.1027  -8.0401  -7.9588
    -7.9499  -7.9282  -7.9061  -7.9009  -7.8766  -7.8372  -7.7397  -7.6994
    -7.6760  -7.6475  -7.6419  -7.6036  -7.5117  -7.4855  -7.4492  -7.4436
    -7.4206  -7.4164  -7.3660  -7.3463  -7.2926  -7.2171  -7.2046  -7.1777
    -7.1459  -7.0543  -7.0298  -7.0167  -6.9781  -6.9035  -6.8995  -6.8910
    -6.7808  -6.7270  -6.6965  -6.6832  -6.6559  -6.5719  -6.5602  -6.5038
    -6.4834  -6.4567  -6.4311  -6.4211  -6.4095  -6.3929  -6.2830  -6.2228
    -6.2044  -6.1895  -6.1527  -6.0258  -5.9916  -5.9117  -5.8849  -5.8651
    -5.8401  -5.6867  -5.4992  -5.4840  -5.4123  -5.3955  -5.2385  -5.2347
    -5.2244  -5.1964  -5.1615  -5.1524  -4.9912  -4.9785  -4.9059  -4.3752
    -3.5730  -2.8889  -2.7515  -2.7409  -2.5214  -2.4827  -2.1916  -1.9334
    -1.8792  -1.2652  -0.9473  -0.9055  -0.6915   0.1518   0.4259   0.5215
     1.6864

     occupation numbers 
     1.0000   1.0000   1.0000   1.0000   1.0000   1.0000   1.0000   1.0000
     1.0000   1.0000   1.0000   1.0000   1.0000   1.0000   1.0000   1.0000
     1.0000   1.0000   1.0000   1.0000   1.0000   1.0000   1.0000   1.0000
     1.0000   1.0000   1.0000   1.0000   1.0000   1.0000   1.0000   1.0000
     1.0000   1.0000   1.0000   1.0000   1.0000   1.0000   1.0000   1.0000
     1.0000   1.0000   1.0000   1.0000   1.0000   1.0000   1.0000   1.0000
     1.0000   1.0000   1.0000   1.0000   1.0000   1.0000   1.0000   1.0000
     1.0000   1.0000   1.0000   1.0000   1.0000   1.0000   1.0000   1.0000
     1.0000   1.0000   1.0000   1.0000   1.0000   1.0000   1.0000   1.0000
     1.0000   1.0000   1.0000   1.0000   1.0000   1.0000   1.0000   1.0000
     1.0000   1.0000   1.0000   1.0000   1.0000   1.0000   1.0000   1.0000
     1.0000   1.0000   1.0000   1.0000   1.0000   1.0000   1.0000   1.0000
     1.0000   1.0000   1.0000   1.0000   1.0000   1.0000   1.0000   1.0000
     1.0000   1.0000   1.0000   1.0000   1.0001   1.0009   1.0016   1.0025
     1.0042   1.0424   1.0406   1.0184   0.8434   0.7881   0.2453   0.2352
     0.2098   0.1497   0.0935   0.0820   0.0041   0.0031   0.0005   0.0000
     0.0000   0.0000   0.0000   0.0000   0.0000   0.0000   0.0000   0.0000
     0.0000   0.0000   0.0000   0.0000   0.0000   0.0000   0.0000   0.0000
     0.0000

          k = 0.4375-0.8299 0.0000 ( 44516 PWs)   bands (ev):

   -11.1735 -11.0201 -10.8133 -10.5647 -10.4462 -10.2233 -10.1709 -10.1251
   -10.1232 -10.0744 -10.0298 -10.0241  -9.9805  -9.8938  -9.8645  -9.7931
    -9.7156  -9.7015  -9.6537  -9.6100  -9.5823  -9.5205  -9.4920  -9.4710
    -9.4655  -9.4302  -9.4092  -9.3126  -9.2918  -9.2766  -9.1658  -9.1381
    -9.1160  -9.0651  -8.9905  -8.9790  -8.9563  -8.9033  -8.8924  -8.8371
    -8.8219  -8.7098  -8.6831  -8.6044  -8.5921  -8.5522  -8.5169  -8.4505
    -8.4071  -8.3088  -8.2935  -8.1996  -8.1742  -8.1195  -8.0574  -8.0101
    -7.9611  -7.9514  -7.9325  -7.8787  -7.8531  -7.8343  -7.7546  -7.7257
    -7.6806  -7.6611  -7.6371  -7.6204  -7.6018  -7.5562  -7.5149  -7.4869
    -7.4596  -7.4446  -7.4133  -7.3414  -7.2831  -7.2360  -7.2250  -7.2022
    -7.1320  -7.0644  -7.0538  -7.0118  -6.9588  -6.9392  -6.8833  -6.8682
    -6.7846  -6.7448  -6.7043  -6.6875  -6.6382  -6.6243  -6.5864  -6.5724
    -6.5533  -6.5262  -6.5043  -6.4484  -6.4256  -6.3697  -6.3383  -6.2388
    -6.2056  -6.1875  -6.1358  -6.0258  -6.0006  -5.9499  -5.8931  -5.8396
    -5.8090  -5.7209  -5.5175  -5.4927  -5.4216  -5.4015  -5.2643  -5.2503
    -5.2330  -5.2288  -5.1946  -5.1803  -5.0147  -5.0044  -4.7631  -4.4597
    -3.4431  -3.3584  -3.1657  -2.9368  -2.6858  -2.1081  -2.0038  -1.7267
    -1.5964  -1.2845  -1.1371  -0.5279  -0.2620  -0.1863   0.2184   0.9594
     1.3656

     occupation numbers 
     1.0000   1.0000   1.0000   1.0000   1.0000   1.0000   1.0000   1.0000
     1.0000   1.0000   1.0000   1.0000   1.0000   1.0000   1.0000   1.0000
     1.0000   1.0000   1.0000   1.0000   1.0000   1.0000   1.0000   1.0000
     1.0000   1.0000   1.0000   1.0000   1.0000   1.0000   1.0000   1.0000
     1.0000   1.0000   1.0000   1.0000   1.0000   1.0000   1.0000   1.0000
     1.0000   1.0000   1.0000   1.0000   1.0000   1.0000   1.0000   1.0000
     1.0000   1.0000   1.0000   1.0000   1.0000   1.0000   1.0000   1.0000
     1.0000   1.0000   1.0000   1.0000   1.0000   1.0000   1.0000   1.0000
     1.0000   1.0000   1.0000   1.0000   1.0000   1.0000   1.0000   1.0000
     1.0000   1.0000   1.0000   1.0000   1.0000   1.0000   1.0000   1.0000
     1.0000   1.0000   1.0000   1.0000   1.0000   1.0000   1.0000   1.0000
     1.0000   1.0000   1.0000   1.0000   1.0000   1.0000   1.0000   1.0000
     1.0000   1.0000   1.0000   1.0000   1.0000   1.0000   1.0000   1.0000
     1.0000   1.0000   1.0000   1.0000   1.0001   1.0004   1.0014   1.0042
     1.0074   1.0285   1.0607   1.0316   0.8722   0.8084   0.3192   0.2777
     0.2311   0.2205   0.1463   0.1214   0.0069   0.0055   0.0000   0.0000
     0.0000   0.0000   0.0000   0.0000   0.0000   0.0000   0.0000   0.0000
     0.0000   0.0000   0.0000   0.0000   0.0000   0.0000   0.0000   0.0000
     0.0000

          k = 0.4375-0.7578 0.0000 ( 44554 PWs)   bands (ev):

   -11.1208 -10.8627 -10.8450 -10.4638 -10.4309 -10.1253 -10.1122 -10.0855
   -10.0782 -10.0403 -10.0282  -9.9583  -9.9285  -9.8633  -9.8019  -9.7046
    -9.7010  -9.6879  -9.6547  -9.5869  -9.5297  -9.5002  -9.4632  -9.4603
    -9.3574  -9.3517  -9.3460  -9.3377  -9.3229  -9.2269  -9.2107  -9.1470
    -9.1208  -9.1045  -9.0369  -8.9852  -8.9738  -8.9653  -8.8597  -8.8523
    -8.8456  -8.8350  -8.6936  -8.6182  -8.6058  -8.5314  -8.4881  -8.4783
    -8.4441  -8.4279  -8.4128  -8.1913  -8.1689  -8.1335  -8.1252  -8.1080
    -7.9921  -7.9811  -7.9695  -7.8926  -7.8771  -7.8584  -7.8412  -7.8077
    -7.7342  -7.7237  -7.6762  -7.6676  -7.6498  -7.6321  -7.5850  -7.5568
    -7.5464  -7.4875  -7.4651  -7.4598  -7.2644  -7.2275  -7.2032  -7.0913
    -7.0842  -7.0606  -7.0499  -7.0234  -7.0053  -6.9379  -6.8794  -6.8670
    -6.7571  -6.7190  -6.6964  -6.6759  -6.6317  -6.6105  -6.6059  -6.5671
    -6.5321  -6.4622  -6.4315  -6.4061  -6.3461  -6.3247  -6.2340  -6.1982
    -6.1868  -6.0930  -6.0277  -5.9932  -5.9831  -5.9547  -5.9465  -5.7879
    -5.7363  -5.6850  -5.5484  -5.5095  -5.4472  -5.4217  -5.3258  -5.3087
    -5.3063  -5.2841  -5.2742  -5.2634  -5.0887  -5.0763  -4.6171  -4.4371
    -3.9386  -3.8221  -3.4733  -3.1341  -2.9352  -2.3931  -1.6392  -1.3671
    -1.2849  -1.0243  -0.8634  -0.4456  -0.0736   0.0653   0.4689   0.8251
     1.6418

     occupation numbers 
     1.0000   1.0000   1.0000   1.0000   1.0000   1.0000   1.0000   1.0000
     1.0000   1.0000   1.0000   1.0000   1.0000   1.0000   1.0000   1.0000
     1.0000   1.0000   1.0000   1.0000   1.0000   1.0000   1.0000   1.0000
     1.0000   1.0000   1.0000   1.0000   1.0000   1.0000   1.0000   1.0000
     1.0000   1.0000   1.0000   1.0000   1.0000   1.0000   1.0000   1.0000
     1.0000   1.0000   1.0000   1.0000   1.0000   1.0000   1.0000   1.0000
     1.0000   1.0000   1.0000   1.0000   1.0000   1.0000   1.0000   1.0000
     1.0000   1.0000   1.0000   1.0000   1.0000   1.0000   1.0000   1.0000
     1.0000   1.0000   1.0000   1.0000   1.0000   1.0000   1.0000   1.0000
     1.0000   1.0000   1.0000   1.0000   1.0000   1.0000   1.0000   1.0000
     1.0000   1.0000   1.0000   1.0000   1.0000   1.0000   1.0000   1.0000
     1.0000   1.0000   1.0000   1.0000   1.0000   1.0000   1.0000   1.0000
     1.0000   1.0000   1.0000   1.0000   1.0000   1.0000   1.0000   1.0000
     1.0000   1.0000   1.0000   1.0001   1.0001   1.0003   1.0004   1.0107
     1.0233   1.0432   1.0795   1.0528   0.9424   0.8725   0.5319   0.4689
     0.4600   0.3827   0.3502   0.3164   0.0292   0.0233   0.0000   0.0000
     0.0000   0.0000   0.0000   0.0000   0.0000   0.0000   0.0000   0.0000
     0.0000   0.0000   0.0000   0.0000   0.0000   0.0000   0.0000   0.0000
     0.0000

          k = 0.4375-0.6856 0.0000 ( 44484 PWs)   bands (ev):

   -11.0953 -10.8821 -10.6439 -10.4467 -10.3059 -10.1102 -10.0857 -10.0481
   -10.0419  -9.9910  -9.9285  -9.9037  -9.8604  -9.8471  -9.7477  -9.7315
    -9.6877  -9.6516  -9.5995  -9.5658  -9.5338  -9.5259  -9.4693  -9.4097
    -9.4011  -9.3451  -9.3262  -9.3026  -9.2270  -9.2069  -9.2024  -9.1920
    -9.1892  -9.1499  -9.0396  -9.0212  -8.9933  -8.9663  -8.8945  -8.8868
    -8.8522  -8.8062  -8.7576  -8.7038  -8.6280  -8.5879  -8.5799  -8.4776
    -8.4484  -8.3630  -8.3558  -8.2661  -8.2124  -8.1976  -8.1552  -8.1300
    -8.1066  -8.0467  -8.0196  -7.9913  -7.9524  -7.9171  -7.8731  -7.8613
    -7.8469  -7.8159  -7.7404  -7.7158  -7.6949  -7.6624  -7.6211  -7.5738
    -7.5611  -7.4998  -7.4740  -7.4579  -7.2571  -7.2457  -7.1762  -7.1294
    -7.0612  -7.0536  -7.0396  -7.0149  -6.9752  -6.9304  -6.8845  -6.8554
    -6.7880  -6.7402  -6.7059  -6.6339  -6.6092  -6.5846  -6.5673  -6.4661
    -6.4550  -6.3902  -6.3823  -6.3174  -6.2396  -6.2130  -6.1613  -6.1162
    -6.0744  -6.0231  -5.9559  -5.9515  -5.9371  -5.7724  -5.7477  -5.7236
    -5.6868  -5.6468  -5.5895  -5.4972  -5.4764  -5.4186  -5.4109  -5.4002
    -5.3840  -5.3796  -5.3579  -5.3523  -5.1931  -5.1799  -4.5874  -4.4697
    -4.3880  -4.2480  -4.0144  -3.2211  -2.9352  -2.6805  -1.6883  -1.3585
    -1.0191  -0.6449  -0.2966  -0.1491   0.1676   0.4010   0.5029   1.1471
     1.7398

     occupation numbers 
     1.0000   1.0000   1.0000   1.0000   1.0000   1.0000   1.0000   1.0000
     1.0000   1.0000   1.0000   1.0000   1.0000   1.0000   1.0000   1.0000
     1.0000   1.0000   1.0000   1.0000   1.0000   1.0000   1.0000   1.0000
     1.0000   1.0000   1.0000   1.0000   1.0000   1.0000   1.0000   1.0000
     1.0000   1.0000   1.0000   1.0000   1.0000   1.0000   1.0000   1.0000
     1.0000   1.0000   1.0000   1.0000   1.0000   1.0000   1.0000   1.0000
     1.0000   1.0000   1.0000   1.0000   1.0000   1.0000   1.0000   1.0000
     1.0000   1.0000   1.0000   1.0000   1.0000   1.0000   1.0000   1.0000
     1.0000   1.0000   1.0000   1.0000   1.0000   1.0000   1.0000   1.0000
     1.0000   1.0000   1.0000   1.0000   1.0000   1.0000   1.0000   1.0000
     1.0000   1.0000   1.0000   1.0000   1.0000   1.0000   1.0000   1.0000
     1.0000   1.0000   1.0000   1.0000   1.0000   1.0000   1.0000   1.0000
     1.0000   1.0000   1.0000   1.0000   1.0000   1.0000   1.0000   1.0000
     1.0000   1.0000   1.0003   1.0003   1.0005   1.0137   1.0199   1.0276
     1.0424   1.0609   1.0816   1.0380   1.0052   0.8630   0.8390   0.8040
     0.7480   0.7322   0.6526   0.6313   0.1436   0.1207   0.0000   0.0000
     0.0000   0.0000   0.0000   0.0000   0.0000   0.0000   0.0000   0.0000
     0.0000   0.0000   0.0000   0.0000   0.0000   0.0000   0.0000   0.0000
     0.0000

          k = 0.4375-0.6134 0.0000 ( 44485 PWs)   bands (ev):

   -11.0845 -10.8929 -10.4420 -10.4244 -10.2337 -10.1810 -10.1058 -10.0572
    -9.9657  -9.9082  -9.8858  -9.8641  -9.8139  -9.8068  -9.7588  -9.6799
    -9.6591  -9.6488  -9.6059  -9.5816  -9.5660  -9.5398  -9.4669  -9.4101
    -9.4010  -9.3841  -9.3566  -9.3068  -9.2661  -9.1911  -9.1819  -9.1636
    -9.1524  -9.1477  -9.0714  -9.0623  -9.0546  -8.9043  -8.8902  -8.8671
    -8.8575  -8.7933  -8.7565  -8.7246  -8.6958  -8.6237  -8.6048  -8.4707
    -8.4410  -8.4178  -8.3316  -8.3067  -8.2940  -8.2590  -8.2150  -8.1361
    -8.1019  -8.0847  -8.0770  -8.0455  -8.0044  -7.9680  -7.9159  -7.8972
    -7.8746  -7.8292  -7.7800  -7.7407  -7.7145  -7.6646  -7.6432  -7.5757
    -7.5581  -7.5078  -7.4458  -7.4402  -7.3238  -7.2222  -7.1774  -7.1542
    -7.0627  -7.0571  -7.0136  -6.9895  -6.9577  -6.9406  -6.9331  -6.8587
    -6.7495  -6.7085  -6.6919  -6.6402  -6.6197  -6.5613  -6.5506  -6.4387
    -6.3811  -6.3585  -6.2889  -6.2397  -6.2194  -6.1773  -6.1397  -6.1129
    -6.0099  -5.9451  -5.8633  -5.8374  -5.7235  -5.6964  -5.6911  -5.6547
    -5.6274  -5.5989  -5.5612  -5.5289  -5.5212  -5.4792  -5.4339  -5.4219
    -5.3716  -5.3573  -5.3437  -5.2989  -5.2879  -5.1066  -4.9720  -4.9123
    -4.6564  -4.4906  -3.9368  -3.4905  -3.1130  -2.4286  -1.9304  -1.5287
    -0.7520  -0.2514  -0.1115   0.0941   0.4474   0.7792   0.8797   1.1880
     1.3398

     occupation numbers 
     1.0000   1.0000   1.0000   1.0000   1.0000   1.0000   1.0000   1.0000
     1.0000   1.0000   1.0000   1.0000   1.0000   1.0000   1.0000   1.0000
     1.0000   1.0000   1.0000   1.0000   1.0000   1.0000   1.0000   1.0000
     1.0000   1.0000   1.0000   1.0000   1.0000   1.0000   1.0000   1.0000
     1.0000   1.0000   1.0000   1.0000   1.0000   1.0000   1.0000   1.0000
     1.0000   1.0000   1.0000   1.0000   1.0000   1.0000   1.0000   1.0000
     1.0000   1.0000   1.0000   1.0000   1.0000   1.0000   1.0000   1.0000
     1.0000   1.0000   1.0000   1.0000   1.0000   1.0000   1.0000   1.0000
     1.0000   1.0000   1.0000   1.0000   1.0000   1.0000   1.0000   1.0000
     1.0000   1.0000   1.0000   1.0000   1.0000   1.0000   1.0000   1.0000
     1.0000   1.0000   1.0000   1.0000   1.0000   1.0000   1.0000   1.0000
     1.0000   1.0000   1.0000   1.0000   1.0000   1.0000   1.0000   1.0000
     1.0000   1.0000   1.0000   1.0000   1.0000   1.0000   1.0000   1.0000
     1.0001   1.0004   1.0026   1.0044   1.0276   1.0382   1.0405   1.0572
     1.0696   1.0795   1.0825   1.0697   1.0639   1.0102   0.9075   0.8732
     0.7033   0.6503   0.5992   0.4338   0.3955   0.0398   0.0027   0.0006
     0.0000   0.0000   0.0000   0.0000   0.0000   0.0000   0.0000   0.0000
     0.0000   0.0000   0.0000   0.0000   0.0000   0.0000   0.0000   0.0000
     0.0000

          k = 0.4375-0.5413 0.0000 ( 44485 PWs)   bands (ev):

   -11.0845 -10.8929 -10.4420 -10.4244 -10.2337 -10.1810 -10.1058 -10.0572
    -9.9657  -9.9082  -9.8858  -9.8641  -9.8139  -9.8068  -9.7588  -9.6799
    -9.6591  -9.6488  -9.6059  -9.5816  -9.5660  -9.5398  -9.4669  -9.4101
    -9.4010  -9.3841  -9.3566  -9.3068  -9.2661  -9.1911  -9.1819  -9.1636
    -9.1524  -9.1477  -9.0714  -9.0623  -9.0546  -8.9043  -8.8902  -8.8671
    -8.8575  -8.7933  -8.7565  -8.7246  -8.6958  -8.6237  -8.6048  -8.4707
    -8.4410  -8.4178  -8.3316  -8.3067  -8.2940  -8.2590  -8.2150  -8.1361
    -8.1019  -8.0847  -8.0770  -8.0455  -8.0044  -7.9680  -7.9159  -7.8972
    -7.8746  -7.8292  -7.7800  -7.7407  -7.7145  -7.6646  -7.6432  -7.5757
    -7.5581  -7.5078  -7.4458  -7.4402  -7.3238  -7.2222  -7.1774  -7.1542
    -7.0627  -7.0571  -7.0136  -6.9895  -6.9577  -6.9406  -6.9331  -6.8587
    -6.7495  -6.7085  -6.6919  -6.6402  -6.6197  -6.5613  -6.5506  -6.4387
    -6.3811  -6.3585  -6.2889  -6.2397  -6.2194  -6.1773  -6.1397  -6.1129
    -6.0099  -5.9451  -5.8633  -5.8374  -5.7235  -5.6964  -5.6911  -5.6547
    -5.6274  -5.5989  -5.5612  -5.5289  -5.5212  -5.4792  -5.4339  -5.4219
    -5.3716  -5.3573  -5.3437  -5.2989  -5.2879  -5.1066  -4.9720  -4.9123
    -4.6564  -4.4906  -3.9368  -3.4905  -3.1130  -2.4286  -1.9304  -1.5287
    -0.7520  -0.2514  -0.1115   0.0941   0.4474   0.7792   0.8797   1.1880
     1.3398

     occupation numbers 
     1.0000   1.0000   1.0000   1.0000   1.0000   1.0000   1.0000   1.0000
     1.0000   1.0000   1.0000   1.0000   1.0000   1.0000   1.0000   1.0000
     1.0000   1.0000   1.0000   1.0000   1.0000   1.0000   1.0000   1.0000
     1.0000   1.0000   1.0000   1.0000   1.0000   1.0000   1.0000   1.0000
     1.0000   1.0000   1.0000   1.0000   1.0000   1.0000   1.0000   1.0000
     1.0000   1.0000   1.0000   1.0000   1.0000   1.0000   1.0000   1.0000
     1.0000   1.0000   1.0000   1.0000   1.0000   1.0000   1.0000   1.0000
     1.0000   1.0000   1.0000   1.0000   1.0000   1.0000   1.0000   1.0000
     1.0000   1.0000   1.0000   1.0000   1.0000   1.0000   1.0000   1.0000
     1.0000   1.0000   1.0000   1.0000   1.0000   1.0000   1.0000   1.0000
     1.0000   1.0000   1.0000   1.0000   1.0000   1.0000   1.0000   1.0000
     1.0000   1.0000   1.0000   1.0000   1.0000   1.0000   1.0000   1.0000
     1.0000   1.0000   1.0000   1.0000   1.0000   1.0000   1.0000   1.0000
     1.0001   1.0004   1.0026   1.0044   1.0276   1.0382   1.0405   1.0572
     1.0696   1.0795   1.0825   1.0697   1.0639   1.0102   0.9075   0.8732
     0.7033   0.6503   0.5992   0.4338   0.3955   0.0398   0.0027   0.0006
     0.0000   0.0000   0.0000   0.0000   0.0000   0.0000   0.0000   0.0000
     0.0000   0.0000   0.0000   0.0000   0.0000   0.0000   0.0000   0.0000
     0.0000

          k = 0.4375-0.4691 0.0000 ( 44484 PWs)   bands (ev):

   -11.0953 -10.8821 -10.6439 -10.4467 -10.3059 -10.1102 -10.0857 -10.0481
   -10.0419  -9.9910  -9.9285  -9.9037  -9.8604  -9.8471  -9.7477  -9.7315
    -9.6877  -9.6516  -9.5995  -9.5658  -9.5338  -9.5259  -9.4693  -9.4097
    -9.4011  -9.3451  -9.3262  -9.3026  -9.2270  -9.2069  -9.2024  -9.1920
    -9.1892  -9.1499  -9.0396  -9.0212  -8.9933  -8.9663  -8.8945  -8.8868
    -8.8522  -8.8062  -8.7576  -8.7038  -8.6280  -8.5879  -8.5799  -8.4776
    -8.4484  -8.3630  -8.3558  -8.2661  -8.2124  -8.1976  -8.1552  -8.1300
    -8.1066  -8.0467  -8.0196  -7.9913  -7.9524  -7.9171  -7.8731  -7.8613
    -7.8469  -7.8159  -7.7404  -7.7158  -7.6949  -7.6624  -7.6211  -7.5738
    -7.5611  -7.4998  -7.4740  -7.4579  -7.2571  -7.2457  -7.1762  -7.1294
    -7.0612  -7.0536  -7.0396  -7.0149  -6.9752  -6.9304  -6.8845  -6.8554
    -6.7880  -6.7402  -6.7059  -6.6339  -6.6092  -6.5846  -6.5673  -6.4661
    -6.4550  -6.3902  -6.3823  -6.3174  -6.2396  -6.2130  -6.1613  -6.1162
    -6.0744  -6.0231  -5.9559  -5.9515  -5.9371  -5.7724  -5.7477  -5.7236
    -5.6868  -5.6468  -5.5895  -5.4972  -5.4764  -5.4186  -5.4109  -5.4002
    -5.3840  -5.3796  -5.3579  -5.3523  -5.1931  -5.1799  -4.5874  -4.4697
    -4.3880  -4.2480  -4.0144  -3.2211  -2.9352  -2.6805  -1.6883  -1.3585
    -1.0191  -0.6449  -0.2966  -0.1491   0.1676   0.4010   0.5029   1.1471
     1.7398

     occupation numbers 
     1.0000   1.0000   1.0000   1.0000   1.0000   1.0000   1.0000   1.0000
     1.0000   1.0000   1.0000   1.0000   1.0000   1.0000   1.0000   1.0000
     1.0000   1.0000   1.0000   1.0000   1.0000   1.0000   1.0000   1.0000
     1.0000   1.0000   1.0000   1.0000   1.0000   1.0000   1.0000   1.0000
     1.0000   1.0000   1.0000   1.0000   1.0000   1.0000   1.0000   1.0000
     1.0000   1.0000   1.0000   1.0000   1.0000   1.0000   1.0000   1.0000
     1.0000   1.0000   1.0000   1.0000   1.0000   1.0000   1.0000   1.0000
     1.0000   1.0000   1.0000   1.0000   1.0000   1.0000   1.0000   1.0000
     1.0000   1.0000   1.0000   1.0000   1.0000   1.0000   1.0000   1.0000
     1.0000   1.0000   1.0000   1.0000   1.0000   1.0000   1.0000   1.0000
     1.0000   1.0000   1.0000   1.0000   1.0000   1.0000   1.0000   1.0000
     1.0000   1.0000   1.0000   1.0000   1.0000   1.0000   1.0000   1.0000
     1.0000   1.0000   1.0000   1.0000   1.0000   1.0000   1.0000   1.0000
     1.0000   1.0000   1.0003   1.0003   1.0005   1.0137   1.0199   1.0276
     1.0424   1.0609   1.0816   1.0380   1.0052   0.8630   0.8390   0.8040
     0.7480   0.7322   0.6526   0.6313   0.1436   0.1207   0.0000   0.0000
     0.0000   0.0000   0.0000   0.0000   0.0000   0.0000   0.0000   0.0000
     0.0000   0.0000   0.0000   0.0000   0.0000   0.0000   0.0000   0.0000
     0.0000

          k = 0.4375-0.3969 0.0000 ( 44554 PWs)   bands (ev):

   -11.1208 -10.8627 -10.8450 -10.4638 -10.4309 -10.1253 -10.1122 -10.0855
   -10.0782 -10.0403 -10.0282  -9.9583  -9.9285  -9.8633  -9.8019  -9.7046
    -9.7010  -9.6879  -9.6547  -9.5869  -9.5297  -9.5002  -9.4632  -9.4603
    -9.3574  -9.3517  -9.3460  -9.3377  -9.3229  -9.2269  -9.2107  -9.1470
    -9.1208  -9.1045  -9.0369  -8.9852  -8.9738  -8.9653  -8.8597  -8.8523
    -8.8456  -8.8350  -8.6936  -8.6182  -8.6058  -8.5314  -8.4881  -8.4783
    -8.4441  -8.4279  -8.4128  -8.1913  -8.1689  -8.1335  -8.1252  -8.1080
    -7.9921  -7.9811  -7.9695  -7.8926  -7.8771  -7.8584  -7.8412  -7.8077
    -7.7342  -7.7237  -7.6762  -7.6676  -7.6498  -7.6321  -7.5850  -7.5568
    -7.5464  -7.4875  -7.4651  -7.4598  -7.2644  -7.2275  -7.2032  -7.0913
    -7.0842  -7.0606  -7.0499  -7.0234  -7.0053  -6.9379  -6.8794  -6.8670
    -6.7571  -6.7190  -6.6964  -6.6759  -6.6317  -6.6105  -6.6059  -6.5671
    -6.5321  -6.4622  -6.4315  -6.4061  -6.3461  -6.3247  -6.2340  -6.1982
    -6.1868  -6.0930  -6.0277  -5.9932  -5.9831  -5.9547  -5.9465  -5.7879
    -5.7363  -5.6850  -5.5484  -5.5095  -5.4472  -5.4217  -5.3258  -5.3087
    -5.3063  -5.2841  -5.2742  -5.2634  -5.0887  -5.0763  -4.6171  -4.4371
    -3.9386  -3.8221  -3.4733  -3.1341  -2.9352  -2.3931  -1.6392  -1.3671
    -1.2849  -1.0243  -0.8634  -0.4456  -0.0736   0.0653   0.4689   0.8251
     1.6418

     occupation numbers 
     1.0000   1.0000   1.0000   1.0000   1.0000   1.0000   1.0000   1.0000
     1.0000   1.0000   1.0000   1.0000   1.0000   1.0000   1.0000   1.0000
     1.0000   1.0000   1.0000   1.0000   1.0000   1.0000   1.0000   1.0000
     1.0000   1.0000   1.0000   1.0000   1.0000   1.0000   1.0000   1.0000
     1.0000   1.0000   1.0000   1.0000   1.0000   1.0000   1.0000   1.0000
     1.0000   1.0000   1.0000   1.0000   1.0000   1.0000   1.0000   1.0000
     1.0000   1.0000   1.0000   1.0000   1.0000   1.0000   1.0000   1.0000
     1.0000   1.0000   1.0000   1.0000   1.0000   1.0000   1.0000   1.0000
     1.0000   1.0000   1.0000   1.0000   1.0000   1.0000   1.0000   1.0000
     1.0000   1.0000   1.0000   1.0000   1.0000   1.0000   1.0000   1.0000
     1.0000   1.0000   1.0000   1.0000   1.0000   1.0000   1.0000   1.0000
     1.0000   1.0000   1.0000   1.0000   1.0000   1.0000   1.0000   1.0000
     1.0000   1.0000   1.0000   1.0000   1.0000   1.0000   1.0000   1.0000
     1.0000   1.0000   1.0000   1.0001   1.0001   1.0003   1.0004   1.0107
     1.0233   1.0432   1.0795   1.0528   0.9424   0.8725   0.5319   0.4689
     0.4600   0.3827   0.3502   0.3164   0.0292   0.0233   0.0000   0.0000
     0.0000   0.0000   0.0000   0.0000   0.0000   0.0000   0.0000   0.0000
     0.0000   0.0000   0.0000   0.0000   0.0000   0.0000   0.0000   0.0000
     0.0000

          k = 0.4375-0.3248 0.0000 ( 44516 PWs)   bands (ev):

   -11.1735 -11.0201 -10.8133 -10.5647 -10.4462 -10.2233 -10.1709 -10.1251
   -10.1232 -10.0744 -10.0298 -10.0241  -9.9805  -9.8938  -9.8645  -9.7931
    -9.7156  -9.7015  -9.6537  -9.6100  -9.5823  -9.5205  -9.4920  -9.4710
    -9.4655  -9.4302  -9.4092  -9.3126  -9.2918  -9.2766  -9.1658  -9.1381
    -9.1160  -9.0651  -8.9905  -8.9790  -8.9563  -8.9033  -8.8924  -8.8371
    -8.8219  -8.7098  -8.6831  -8.6044  -8.5921  -8.5522  -8.5169  -8.4505
    -8.4071  -8.3088  -8.2935  -8.1996  -8.1742  -8.1195  -8.0574  -8.0101
    -7.9611  -7.9514  -7.9325  -7.8787  -7.8531  -7.8343  -7.7546  -7.7257
    -7.6806  -7.6611  -7.6371  -7.6204  -7.6018  -7.5562  -7.5149  -7.4869
    -7.4596  -7.4446  -7.4133  -7.3414  -7.2831  -7.2360  -7.2249  -7.2022
    -7.1320  -7.0644  -7.0538  -7.0118  -6.9588  -6.9392  -6.8833  -6.8682
    -6.7846  -6.7448  -6.7043  -6.6875  -6.6382  -6.6243  -6.5864  -6.5724
    -6.5533  -6.5262  -6.5043  -6.4484  -6.4256  -6.3697  -6.3383  -6.2388
    -6.2056  -6.1875  -6.1358  -6.0258  -6.0006  -5.9499  -5.8931  -5.8396
    -5.8090  -5.7209  -5.5175  -5.4927  -5.4216  -5.4015  -5.2643  -5.2503
    -5.2330  -5.2288  -5.1946  -5.1803  -5.0147  -5.0044  -4.7631  -4.4597
    -3.4431  -3.3584  -3.1657  -2.9368  -2.6858  -2.1081  -2.0038  -1.7267
    -1.5964  -1.2845  -1.1371  -0.5279  -0.2620  -0.1863   0.2184   0.9594
     1.3656

     occupation numbers 
     1.0000   1.0000   1.0000   1.0000   1.0000   1.0000   1.0000   1.0000
     1.0000   1.0000   1.0000   1.0000   1.0000   1.0000   1.0000   1.0000
     1.0000   1.0000   1.0000   1.0000   1.0000   1.0000   1.0000   1.0000
     1.0000   1.0000   1.0000   1.0000   1.0000   1.0000   1.0000   1.0000
     1.0000   1.0000   1.0000   1.0000   1.0000   1.0000   1.0000   1.0000
     1.0000   1.0000   1.0000   1.0000   1.0000   1.0000   1.0000   1.0000
     1.0000   1.0000   1.0000   1.0000   1.0000   1.0000   1.0000   1.0000
     1.0000   1.0000   1.0000   1.0000   1.0000   1.0000   1.0000   1.0000
     1.0000   1.0000   1.0000   1.0000   1.0000   1.0000   1.0000   1.0000
     1.0000   1.0000   1.0000   1.0000   1.0000   1.0000   1.0000   1.0000
     1.0000   1.0000   1.0000   1.0000   1.0000   1.0000   1.0000   1.0000
     1.0000   1.0000   1.0000   1.0000   1.0000   1.0000   1.0000   1.0000
     1.0000   1.0000   1.0000   1.0000   1.0000   1.0000   1.0000   1.0000
     1.0000   1.0000   1.0000   1.0000   1.0001   1.0004   1.0014   1.0042
     1.0074   1.0285   1.0607   1.0316   0.8722   0.8084   0.3192   0.2777
     0.2311   0.2205   0.1463   0.1214   0.0069   0.0055   0.0000   0.0000
     0.0000   0.0000   0.0000   0.0000   0.0000   0.0000   0.0000   0.0000
     0.0000   0.0000   0.0000   0.0000   0.0000   0.0000   0.0000   0.0000
     0.0000

          k =-0.5000 0.2887 0.0000 ( 44486 PWs)   bands (ev):

   -11.1337 -10.9496 -10.9237 -10.5390 -10.5022 -10.2209 -10.2079 -10.0915
   -10.0872 -10.0834 -10.0801 -10.0293  -9.9946  -9.8910  -9.8820  -9.7554
    -9.7340  -9.6933  -9.6817  -9.5762  -9.5462  -9.5306  -9.5223  -9.4344
    -9.4271  -9.4226  -9.4082  -9.3520  -9.3398  -9.2464  -9.2276  -9.0688
    -9.0598  -9.0533  -9.0353  -8.9457  -8.9277  -8.9242  -8.9116  -8.7815
    -8.7761  -8.7584  -8.7520  -8.6067  -8.5672  -8.5355  -8.5151  -8.4463
    -8.4412  -8.3004  -8.2824  -8.1994  -8.1656  -8.0921  -8.0685  -7.9843
    -7.9780  -7.9406  -7.9367  -7.8558  -7.8531  -7.7763  -7.7369  -7.7104
    -7.6742  -7.6329  -7.6189  -7.6133  -7.5305  -7.5300  -7.5093  -7.4898
    -7.4682  -7.4449  -7.4406  -7.3673  -7.2798  -7.2533  -7.1786  -7.1676
    -7.1313  -7.1284  -7.0281  -7.0200  -6.9832  -6.9688  -6.8833  -6.8372
    -6.8080  -6.8065  -6.7041  -6.6892  -6.6692  -6.6512  -6.6252  -6.5766
    -6.5429  -6.5198  -6.5047  -6.4909  -6.4827  -6.4774  -6.3490  -6.3288
    -6.2609  -6.2509  -6.1242  -6.1160  -5.9719  -5.9003  -5.8805  -5.8788
    -5.8354  -5.8024  -5.4992  -5.4863  -5.4122  -5.3954  -5.2250  -5.2197
    -5.2102  -5.2086  -5.1681  -5.1575  -4.9882  -4.9787  -4.7313  -4.5642
    -3.3600  -3.0396  -2.7427  -2.7365  -2.5450  -2.4733  -2.1485  -1.9150
    -1.6215  -1.3915  -1.0476  -0.9189  -0.2257  -0.0618   0.2944   0.4646
     1.7353

     occupation numbers 
     1.0000   1.0000   1.0000   1.0000   1.0000   1.0000   1.0000   1.0000
     1.0000   1.0000   1.0000   1.0000   1.0000   1.0000   1.0000   1.0000
     1.0000   1.0000   1.0000   1.0000   1.0000   1.0000   1.0000   1.0000
     1.0000   1.0000   1.0000   1.0000   1.0000   1.0000   1.0000   1.0000
     1.0000   1.0000   1.0000   1.0000   1.0000   1.0000   1.0000   1.0000
     1.0000   1.0000   1.0000   1.0000   1.0000   1.0000   1.0000   1.0000
     1.0000   1.0000   1.0000   1.0000   1.0000   1.0000   1.0000   1.0000
     1.0000   1.0000   1.0000   1.0000   1.0000   1.0000   1.0000   1.0000
     1.0000   1.0000   1.0000   1.0000   1.0000   1.0000   1.0000   1.0000
     1.0000   1.0000   1.0000   1.0000   1.0000   1.0000   1.0000   1.0000
     1.0000   1.0000   1.0000   1.0000   1.0000   1.0000   1.0000   1.0000
     1.0000   1.0000   1.0000   1.0000   1.0000   1.0000   1.0000   1.0000
     1.0000   1.0000   1.0000   1.0000   1.0000   1.0000   1.0000   1.0000
     1.0000   1.0000   1.0000   1.0000   1.0002   1.0012   1.0018   1.0019
     1.0045   1.0083   1.0407   1.0220   0.8432   0.7879   0.2112   0.1986
     0.1777   0.1743   0.1027   0.0883   0.0039   0.0031   0.0000   0.0000
     0.0000   0.0000   0.0000   0.0000   0.0000   0.0000   0.0000   0.0000
     0.0000   0.0000   0.0000   0.0000   0.0000   0.0000   0.0000   0.0000
     0.0000

          k =-0.5000 0.3608 0.0000 ( 44516 PWs)   bands (ev):

   -11.1491 -11.0222 -10.8115 -10.5714 -10.4435 -10.2224 -10.1724 -10.1258
   -10.1223 -10.0742 -10.0322 -10.0222  -9.9803  -9.8973  -9.8633  -9.7930
    -9.7112  -9.7030  -9.6612  -9.6097  -9.5848  -9.5221  -9.4876  -9.4732
    -9.4621  -9.4302  -9.4094  -9.3126  -9.2960  -9.2798  -9.1638  -9.1377
    -9.1143  -9.0545  -9.0019  -8.9800  -8.9606  -8.9039  -8.8936  -8.8471
    -8.8192  -8.7152  -8.7000  -8.6033  -8.5965  -8.5299  -8.5150  -8.4633
    -8.4074  -8.3091  -8.2936  -8.1984  -8.1663  -8.1182  -8.0588  -8.0150
    -7.9704  -7.9417  -7.9358  -7.8766  -7.8578  -7.8356  -7.7612  -7.7212
    -7.6895  -7.6637  -7.6479  -7.6107  -7.5764  -7.5566  -7.5033  -7.4890
    -7.4602  -7.4418  -7.4235  -7.3563  -7.2793  -7.2396  -7.2205  -7.1944
    -7.1391  -7.0696  -7.0579  -7.0051  -6.9813  -6.9246  -6.8810  -6.8677
    -6.7859  -6.7506  -6.7154  -6.6822  -6.6575  -6.6246  -6.5860  -6.5623
    -6.5589  -6.5352  -6.4756  -6.4391  -6.4289  -6.3601  -6.3289  -6.2410
    -6.2075  -6.1852  -6.1350  -6.0280  -6.0011  -5.9435  -5.8860  -5.8458
    -5.8070  -5.7246  -5.5136  -5.4914  -5.4244  -5.3991  -5.2639  -5.2489
    -5.2365  -5.2271  -5.1948  -5.1801  -5.0148  -5.0041  -4.7628  -4.4598
    -3.4472  -3.3526  -3.1583  -2.9536  -2.6868  -2.0910  -1.9808  -1.7352
    -1.6035  -1.2930  -1.1293  -0.5093  -0.2717  -0.1891   0.2187   0.9640
     1.3702

     occupation numbers 
     1.0000   1.0000   1.0000   1.0000   1.0000   1.0000   1.0000   1.0000
     1.0000   1.0000   1.0000   1.0000   1.0000   1.0000   1.0000   1.0000
     1.0000   1.0000   1.0000   1.0000   1.0000   1.0000   1.0000   1.0000
     1.0000   1.0000   1.0000   1.0000   1.0000   1.0000   1.0000   1.0000
     1.0000   1.0000   1.0000   1.0000   1.0000   1.0000   1.0000   1.0000
     1.0000   1.0000   1.0000   1.0000   1.0000   1.0000   1.0000   1.0000
     1.0000   1.0000   1.0000   1.0000   1.0000   1.0000   1.0000   1.0000
     1.0000   1.0000   1.0000   1.0000   1.0000   1.0000   1.0000   1.0000
     1.0000   1.0000   1.0000   1.0000   1.0000   1.0000   1.0000   1.0000
     1.0000   1.0000   1.0000   1.0000   1.0000   1.0000   1.0000   1.0000
     1.0000   1.0000   1.0000   1.0000   1.0000   1.0000   1.0000   1.0000
     1.0000   1.0000   1.0000   1.0000   1.0000   1.0000   1.0000   1.0000
     1.0000   1.0000   1.0000   1.0000   1.0000   1.0000   1.0000   1.0000
     1.0000   1.0000   1.0000   1.0000   1.0001   1.0004   1.0016   1.0037
     1.0077   1.0272   1.0570   1.0298   0.8805   0.8003   0.3178   0.2736
     0.2401   0.2162   0.1467   0.1211   0.0069   0.0055   0.0000   0.0000
     0.0000   0.0000   0.0000   0.0000   0.0000   0.0000   0.0000   0.0000
     0.0000   0.0000   0.0000   0.0000   0.0000   0.0000   0.0000   0.0000
     0.0000

          k =-0.5000 0.4330 0.0000 ( 44477 PWs)   bands (ev):

   -11.1880 -11.0618 -10.6634 -10.5953 -10.3469 -10.1938 -10.1613 -10.1491
   -10.1159 -10.1032 -10.0085  -9.9646  -9.9457  -9.9092  -9.8339  -9.8290
    -9.7422  -9.6701  -9.6507  -9.6369  -9.6251  -9.6125  -9.5467  -9.4601
    -9.4484  -9.4264  -9.3630  -9.3461  -9.2965  -9.2513  -9.1776  -9.1337
    -9.1204  -9.0972  -9.0544  -9.0272  -8.9482  -8.9183  -8.8857  -8.8714
    -8.8494  -8.6960  -8.6825  -8.6529  -8.5953  -8.5690  -8.4934  -8.4286
    -8.3559  -8.3328  -8.3163  -8.2158  -8.1811  -8.1387  -8.0956  -8.0362
    -8.0128  -7.9949  -7.9623  -7.9226  -7.9031  -7.8411  -7.8163  -7.7711
    -7.7489  -7.7151  -7.6635  -7.6362  -7.6167  -7.5741  -7.5307  -7.4963
    -7.4466  -7.4036  -7.3557  -7.3435  -7.2765  -7.2481  -7.2181  -7.2011
    -7.1554  -7.0993  -7.0320  -6.9693  -6.9451  -6.9084  -6.8813  -6.8282
    -6.8167  -6.7583  -6.6976  -6.6818  -6.6625  -6.6149  -6.5544  -6.5164
    -6.5023  -6.4192  -6.3787  -6.3670  -6.3152  -6.2243  -6.1766  -6.1347
    -6.1137  -6.0943  -6.0473  -6.0018  -5.9702  -5.8093  -5.7840  -5.7506
    -5.7362  -5.6225  -5.5717  -5.4613  -5.4465  -5.4000  -5.3453  -5.3254
    -5.3136  -5.2811  -5.2572  -5.2468  -5.0885  -5.0762  -4.7823  -4.2533
    -3.9606  -3.8296  -3.5250  -3.3215  -2.7329  -2.3641  -1.8712  -1.3921
    -1.1848  -0.9775  -0.7707  -0.5706  -0.4304   0.3369   0.5928   0.8431
     1.4937

     occupation numbers 
     1.0000   1.0000   1.0000   1.0000   1.0000   1.0000   1.0000   1.0000
     1.0000   1.0000   1.0000   1.0000   1.0000   1.0000   1.0000   1.0000
     1.0000   1.0000   1.0000   1.0000   1.0000   1.0000   1.0000   1.0000
     1.0000   1.0000   1.0000   1.0000   1.0000   1.0000   1.0000   1.0000
     1.0000   1.0000   1.0000   1.0000   1.0000   1.0000   1.0000   1.0000
     1.0000   1.0000   1.0000   1.0000   1.0000   1.0000   1.0000   1.0000
     1.0000   1.0000   1.0000   1.0000   1.0000   1.0000   1.0000   1.0000
     1.0000   1.0000   1.0000   1.0000   1.0000   1.0000   1.0000   1.0000
     1.0000   1.0000   1.0000   1.0000   1.0000   1.0000   1.0000   1.0000
     1.0000   1.0000   1.0000   1.0000   1.0000   1.0000   1.0000   1.0000
     1.0000   1.0000   1.0000   1.0000   1.0000   1.0000   1.0000   1.0000
     1.0000   1.0000   1.0000   1.0000   1.0000   1.0000   1.0000   1.0000
     1.0000   1.0000   1.0000   1.0000   1.0000   1.0000   1.0000   1.0000
     1.0000   1.0000   1.0000   1.0001   1.0002   1.0074   1.0114   1.0191
     1.0233   1.0715   1.0833   0.9752   0.9408   0.8035   0.6050   0.5303
     0.4868   0.3729   0.2975   0.2678   0.0291   0.0233   0.0000   0.0000
     0.0000   0.0000   0.0000   0.0000   0.0000   0.0000   0.0000   0.0000
     0.0000   0.0000   0.0000   0.0000   0.0000   0.0000   0.0000   0.0000
     0.0000

          k =-0.5000 0.5052 0.0000 ( 44502 PWs)   bands (ev):

   -11.2226 -11.0771 -10.6091 -10.5000 -10.2457 -10.2113 -10.1876 -10.1609
   -10.1267 -10.0266  -9.9888  -9.9522  -9.9125  -9.8976  -9.8341  -9.8292
    -9.7944  -9.7246  -9.6517  -9.6457  -9.6279  -9.6165  -9.6129  -9.4862
    -9.4673  -9.4471  -9.4169  -9.2854  -9.2546  -9.2395  -9.1935  -9.1662
    -9.1147  -9.0922  -9.0868  -9.0508  -9.0085  -8.9136  -8.8871  -8.8744
    -8.8273  -8.7346  -8.6923  -8.6516  -8.6262  -8.5454  -8.4777  -8.3763
    -8.3487  -8.3394  -8.3272  -8.2918  -8.2431  -8.2186  -8.1592  -8.0645
    -8.0289  -8.0031  -7.9626  -7.9352  -7.9154  -7.8938  -7.8309  -7.8042
    -7.7809  -7.7556  -7.7033  -7.6641  -7.6433  -7.5882  -7.5185  -7.4575
    -7.4318  -7.3876  -7.3577  -7.3174  -7.2771  -7.2535  -7.2178  -7.1803
    -7.1615  -7.0923  -7.0050  -6.9369  -6.9209  -6.9005  -6.8959  -6.8427
    -6.8170  -6.7886  -6.7286  -6.6527  -6.6206  -6.6084  -6.5295  -6.4578
    -6.4469  -6.3653  -6.3188  -6.2802  -6.1854  -6.1732  -6.1124  -6.0963
    -6.0679  -6.0343  -5.9059  -5.8866  -5.7433  -5.7083  -5.6922  -5.6547
    -5.6105  -5.4943  -5.4859  -5.4725  -5.4494  -5.4451  -5.3962  -5.3722
    -5.3682  -5.3118  -5.3022  -5.1953  -5.1813  -5.1362  -4.7815  -4.5190
    -4.4079  -4.1241  -3.8880  -3.4641  -3.0058  -2.3608  -1.9468  -1.4532
    -0.7771  -0.6759  -0.5445  -0.2988   0.1781   0.3066   0.8162   0.9974
     1.3364

     occupation numbers 
     1.0000   1.0000   1.0000   1.0000   1.0000   1.0000   1.0000   1.0000
     1.0000   1.0000   1.0000   1.0000   1.0000   1.0000   1.0000   1.0000
     1.0000   1.0000   1.0000   1.0000   1.0000   1.0000   1.0000   1.0000
     1.0000   1.0000   1.0000   1.0000   1.0000   1.0000   1.0000   1.0000
     1.0000   1.0000   1.0000   1.0000   1.0000   1.0000   1.0000   1.0000
     1.0000   1.0000   1.0000   1.0000   1.0000   1.0000   1.0000   1.0000
     1.0000   1.0000   1.0000   1.0000   1.0000   1.0000   1.0000   1.0000
     1.0000   1.0000   1.0000   1.0000   1.0000   1.0000   1.0000   1.0000
     1.0000   1.0000   1.0000   1.0000   1.0000   1.0000   1.0000   1.0000
     1.0000   1.0000   1.0000   1.0000   1.0000   1.0000   1.0000   1.0000
     1.0000   1.0000   1.0000   1.0000   1.0000   1.0000   1.0000   1.0000
     1.0000   1.0000   1.0000   1.0000   1.0000   1.0000   1.0000   1.0000
     1.0000   1.0000   1.0000   1.0000   1.0000   1.0000   1.0000   1.0000
     1.0000   1.0000   1.0010   1.0016   1.0212   1.0333   1.0400   1.0572
     1.0760   1.0340   1.0214   0.9979   0.9478   0.9372   0.7905   0.7056
     0.6906   0.4800   0.4454   0.1476   0.1230   0.0642   0.0000   0.0000
     0.0000   0.0000   0.0000   0.0000   0.0000   0.0000   0.0000   0.0000
     0.0000   0.0000   0.0000   0.0000   0.0000   0.0000   0.0000   0.0000
     0.0000

          k =-0.5000 0.5774 0.0000 ( 44491 PWs)   bands (ev):

   -11.2354 -11.0814 -10.6116 -10.3470 -10.3420 -10.1971 -10.1841 -10.1807
   -10.0319 -10.0281  -9.9863  -9.9415  -9.9369  -9.8963  -9.8667  -9.7974
    -9.7821  -9.7683  -9.6558  -9.6512  -9.6495  -9.6241  -9.6172  -9.5049
    -9.4853  -9.4712  -9.3935  -9.3142  -9.2220  -9.1994  -9.1787  -9.1453
    -9.1424  -9.1270  -9.1144  -9.0751  -9.0005  -8.9029  -8.8790  -8.8501
    -8.8340  -8.8183  -8.6518  -8.6422  -8.6151  -8.4879  -8.4595  -8.4550
    -8.4250  -8.3475  -8.3214  -8.2833  -8.2765  -8.2272  -8.1440  -8.1318
    -8.0128  -7.9937  -7.9789  -7.9299  -7.9092  -7.8967  -7.8429  -7.8138
    -7.8003  -7.7852  -7.7170  -7.6713  -7.6450  -7.6009  -7.4817  -7.4515
    -7.4420  -7.3998  -7.3371  -7.3296  -7.2670  -7.2389  -7.2230  -7.1848
    -7.1520  -7.0932  -6.9805  -6.9437  -6.9063  -6.8970  -6.8919  -6.8442
    -6.8328  -6.8048  -6.7331  -6.6427  -6.6059  -6.6007  -6.5157  -6.4320
    -6.4208  -6.3449  -6.2951  -6.2933  -6.1707  -6.1289  -6.0947  -6.0769
    -6.0258  -6.0123  -5.8237  -5.7178  -5.7020  -5.6734  -5.6600  -5.6447
    -5.5601  -5.5478  -5.5283  -5.5227  -5.5129  -5.4809  -5.4280  -5.2906
    -5.2847  -5.2705  -5.2679  -5.0596  -5.0296  -4.9371  -4.9228  -4.8232
    -4.6465  -4.5953  -3.7191  -3.3980  -3.3840  -2.2240  -1.8594  -1.7746
    -0.7854  -0.3455  -0.1460  -0.0089   0.0850   0.3796   0.7458   1.0463
     1.3110

     occupation numbers 
     1.0000   1.0000   1.0000   1.0000   1.0000   1.0000   1.0000   1.0000
     1.0000   1.0000   1.0000   1.0000   1.0000   1.0000   1.0000   1.0000
     1.0000   1.0000   1.0000   1.0000   1.0000   1.0000   1.0000   1.0000
     1.0000   1.0000   1.0000   1.0000   1.0000   1.0000   1.0000   1.0000
     1.0000   1.0000   1.0000   1.0000   1.0000   1.0000   1.0000   1.0000
     1.0000   1.0000   1.0000   1.0000   1.0000   1.0000   1.0000   1.0000
     1.0000   1.0000   1.0000   1.0000   1.0000   1.0000   1.0000   1.0000
     1.0000   1.0000   1.0000   1.0000   1.0000   1.0000   1.0000   1.0000
     1.0000   1.0000   1.0000   1.0000   1.0000   1.0000   1.0000   1.0000
     1.0000   1.0000   1.0000   1.0000   1.0000   1.0000   1.0000   1.0000
     1.0000   1.0000   1.0000   1.0000   1.0000   1.0000   1.0000   1.0000
     1.0000   1.0000   1.0000   1.0000   1.0000   1.0000   1.0000   1.0000
     1.0000   1.0000   1.0000   1.0000   1.0000   1.0000   1.0000   1.0000
     1.0000   1.0001   1.0057   1.0297   1.0359   1.0484   1.0548   1.0619
     1.0824   1.0793   1.0693   1.0651   1.0563   1.0131   0.8910   0.4048
     0.3847   0.3384   0.3301   0.0171   0.0094   0.0011   0.0008   0.0000
     0.0000   0.0000   0.0000   0.0000   0.0000   0.0000   0.0000   0.0000
     0.0000   0.0000   0.0000   0.0000   0.0000   0.0000   0.0000   0.0000
     0.0000

          k =-0.5000 0.6495 0.0000 ( 44502 PWs)   bands (ev):

   -11.2226 -11.0771 -10.6091 -10.5000 -10.2457 -10.2113 -10.1876 -10.1609
   -10.1267 -10.0266  -9.9888  -9.9522  -9.9125  -9.8976  -9.8341  -9.8292
    -9.7944  -9.7246  -9.6517  -9.6457  -9.6279  -9.6165  -9.6129  -9.4862
    -9.4673  -9.4471  -9.4169  -9.2854  -9.2546  -9.2395  -9.1935  -9.1662
    -9.1147  -9.0922  -9.0868  -9.0508  -9.0085  -8.9136  -8.8871  -8.8744
    -8.8273  -8.7346  -8.6923  -8.6516  -8.6262  -8.5454  -8.4777  -8.3763
    -8.3487  -8.3394  -8.3272  -8.2918  -8.2431  -8.2186  -8.1592  -8.0645
    -8.0289  -8.0031  -7.9626  -7.9352  -7.9154  -7.8938  -7.8309  -7.8042
    -7.7809  -7.7556  -7.7033  -7.6641  -7.6433  -7.5882  -7.5185  -7.4575
    -7.4318  -7.3876  -7.3577  -7.3174  -7.2771  -7.2535  -7.2178  -7.1803
    -7.1615  -7.0923  -7.0050  -6.9369  -6.9209  -6.9005  -6.8959  -6.8427
    -6.8170  -6.7886  -6.7286  -6.6527  -6.6206  -6.6084  -6.5295  -6.4578
    -6.4469  -6.3653  -6.3188  -6.2802  -6.1854  -6.1732  -6.1124  -6.0963
    -6.0679  -6.0343  -5.9059  -5.8866  -5.7433  -5.7083  -5.6922  -5.6547
    -5.6105  -5.4943  -5.4859  -5.4725  -5.4494  -5.4451  -5.3962  -5.3722
    -5.3682  -5.3118  -5.3022  -5.1953  -5.1813  -5.1362  -4.7815  -4.5190
    -4.4079  -4.1241  -3.8880  -3.4641  -3.0058  -2.3608  -1.9468  -1.4532
    -0.7771  -0.6759  -0.5445  -0.2988   0.1781   0.3066   0.8162   0.9974
     1.3364

     occupation numbers 
     1.0000   1.0000   1.0000   1.0000   1.0000   1.0000   1.0000   1.0000
     1.0000   1.0000   1.0000   1.0000   1.0000   1.0000   1.0000   1.0000
     1.0000   1.0000   1.0000   1.0000   1.0000   1.0000   1.0000   1.0000
     1.0000   1.0000   1.0000   1.0000   1.0000   1.0000   1.0000   1.0000
     1.0000   1.0000   1.0000   1.0000   1.0000   1.0000   1.0000   1.0000
     1.0000   1.0000   1.0000   1.0000   1.0000   1.0000   1.0000   1.0000
     1.0000   1.0000   1.0000   1.0000   1.0000   1.0000   1.0000   1.0000
     1.0000   1.0000   1.0000   1.0000   1.0000   1.0000   1.0000   1.0000
     1.0000   1.0000   1.0000   1.0000   1.0000   1.0000   1.0000   1.0000
     1.0000   1.0000   1.0000   1.0000   1.0000   1.0000   1.0000   1.0000
     1.0000   1.0000   1.0000   1.0000   1.0000   1.0000   1.0000   1.0000
     1.0000   1.0000   1.0000   1.0000   1.0000   1.0000   1.0000   1.0000
     1.0000   1.0000   1.0000   1.0000   1.0000   1.0000   1.0000   1.0000
     1.0000   1.0000   1.0010   1.0016   1.0212   1.0333   1.0400   1.0572
     1.0760   1.0340   1.0214   0.9979   0.9478   0.9372   0.7905   0.7056
     0.6906   0.4800   0.4454   0.1476   0.1230   0.0642   0.0000   0.0000
     0.0000   0.0000   0.0000   0.0000   0.0000   0.0000   0.0000   0.0000
     0.0000   0.0000   0.0000   0.0000   0.0000   0.0000   0.0000   0.0000
     0.0000

          k =-0.5000 0.7217 0.0000 ( 44477 PWs)   bands (ev):

   -11.1880 -11.0618 -10.6634 -10.5953 -10.3469 -10.1938 -10.1613 -10.1491
   -10.1159 -10.1032 -10.0085  -9.9646  -9.9457  -9.9092  -9.8339  -9.8290
    -9.7422  -9.6701  -9.6507  -9.6369  -9.6251  -9.6125  -9.5467  -9.4601
    -9.4484  -9.4264  -9.3630  -9.3461  -9.2965  -9.2513  -9.1776  -9.1337
    -9.1204  -9.0972  -9.0544  -9.0272  -8.9482  -8.9183  -8.8857  -8.8714
    -8.8494  -8.6960  -8.6825  -8.6529  -8.5953  -8.5690  -8.4934  -8.4286
    -8.3559  -8.3328  -8.3163  -8.2158  -8.1811  -8.1387  -8.0956  -8.0362
    -8.0128  -7.9949  -7.9623  -7.9226  -7.9031  -7.8411  -7.8163  -7.7711
    -7.7489  -7.7151  -7.6635  -7.6362  -7.6167  -7.5741  -7.5307  -7.4963
    -7.4466  -7.4036  -7.3557  -7.3435  -7.2765  -7.2481  -7.2181  -7.2011
    -7.1554  -7.0993  -7.0320  -6.9693  -6.9451  -6.9084  -6.8813  -6.8282
    -6.8167  -6.7583  -6.6976  -6.6818  -6.6625  -6.6149  -6.5544  -6.5164
    -6.5023  -6.4192  -6.3787  -6.3670  -6.3152  -6.2243  -6.1766  -6.1347
    -6.1137  -6.0943  -6.0473  -6.0018  -5.9702  -5.8093  -5.7840  -5.7506
    -5.7362  -5.6225  -5.5717  -5.4613  -5.4465  -5.4000  -5.3453  -5.3254
    -5.3136  -5.2811  -5.2572  -5.2468  -5.0885  -5.0762  -4.7823  -4.2533
    -3.9606  -3.8296  -3.5250  -3.3215  -2.7329  -2.3641  -1.8712  -1.3921
    -1.1848  -0.9775  -0.7707  -0.5706  -0.4304   0.3369   0.5928   0.8431
     1.4937

     occupation numbers 
     1.0000   1.0000   1.0000   1.0000   1.0000   1.0000   1.0000   1.0000
     1.0000   1.0000   1.0000   1.0000   1.0000   1.0000   1.0000   1.0000
     1.0000   1.0000   1.0000   1.0000   1.0000   1.0000   1.0000   1.0000
     1.0000   1.0000   1.0000   1.0000   1.0000   1.0000   1.0000   1.0000
     1.0000   1.0000   1.0000   1.0000   1.0000   1.0000   1.0000   1.0000
     1.0000   1.0000   1.0000   1.0000   1.0000   1.0000   1.0000   1.0000
     1.0000   1.0000   1.0000   1.0000   1.0000   1.0000   1.0000   1.0000
     1.0000   1.0000   1.0000   1.0000   1.0000   1.0000   1.0000   1.0000
     1.0000   1.0000   1.0000   1.0000   1.0000   1.0000   1.0000   1.0000
     1.0000   1.0000   1.0000   1.0000   1.0000   1.0000   1.0000   1.0000
     1.0000   1.0000   1.0000   1.0000   1.0000   1.0000   1.0000   1.0000
     1.0000   1.0000   1.0000   1.0000   1.0000   1.0000   1.0000   1.0000
     1.0000   1.0000   1.0000   1.0000   1.0000   1.0000   1.0000   1.0000
     1.0000   1.0000   1.0000   1.0001   1.0002   1.0074   1.0114   1.0191
     1.0233   1.0715   1.0833   0.9752   0.9408   0.8035   0.6050   0.5303
     0.4868   0.3729   0.2975   0.2678   0.0291   0.0233   0.0000   0.0000
     0.0000   0.0000   0.0000   0.0000   0.0000   0.0000   0.0000   0.0000
     0.0000   0.0000   0.0000   0.0000   0.0000   0.0000   0.0000   0.0000
     0.0000

          k =-0.5000 0.7939 0.0000 ( 44516 PWs)   bands (ev):

   -11.1491 -11.0222 -10.8115 -10.5714 -10.4435 -10.2224 -10.1724 -10.1258
   -10.1223 -10.0742 -10.0322 -10.0222  -9.9803  -9.8973  -9.8633  -9.7930
    -9.7112  -9.7030  -9.6612  -9.6097  -9.5848  -9.5221  -9.4876  -9.4732
    -9.4621  -9.4302  -9.4094  -9.3126  -9.2960  -9.2798  -9.1638  -9.1377
    -9.1143  -9.0545  -9.0019  -8.9800  -8.9606  -8.9039  -8.8936  -8.8471
    -8.8192  -8.7152  -8.7000  -8.6033  -8.5965  -8.5299  -8.5150  -8.4633
    -8.4074  -8.3091  -8.2936  -8.1984  -8.1663  -8.1182  -8.0588  -8.0150
    -7.9704  -7.9417  -7.9358  -7.8766  -7.8578  -7.8356  -7.7612  -7.7212
    -7.6895  -7.6637  -7.6479  -7.6107  -7.5764  -7.5566  -7.5033  -7.4890
    -7.4602  -7.4418  -7.4235  -7.3563  -7.2793  -7.2396  -7.2205  -7.1944
    -7.1391  -7.0696  -7.0579  -7.0051  -6.9813  -6.9246  -6.8810  -6.8677
    -6.7859  -6.7506  -6.7154  -6.6822  -6.6575  -6.6246  -6.5860  -6.5623
    -6.5589  -6.5352  -6.4756  -6.4391  -6.4289  -6.3601  -6.3289  -6.2410
    -6.2075  -6.1852  -6.1350  -6.0280  -6.0011  -5.9435  -5.8860  -5.8458
    -5.8070  -5.7246  -5.5136  -5.4914  -5.4244  -5.3991  -5.2639  -5.2489
    -5.2365  -5.2271  -5.1948  -5.1801  -5.0148  -5.0041  -4.7628  -4.4598
    -3.4472  -3.3526  -3.1583  -2.9536  -2.6868  -2.0910  -1.9808  -1.7352
    -1.6035  -1.2930  -1.1293  -0.5093  -0.2717  -0.1891   0.2187   0.9640
     1.3702

     occupation numbers 
     1.0000   1.0000   1.0000   1.0000   1.0000   1.0000   1.0000   1.0000
     1.0000   1.0000   1.0000   1.0000   1.0000   1.0000   1.0000   1.0000
     1.0000   1.0000   1.0000   1.0000   1.0000   1.0000   1.0000   1.0000
     1.0000   1.0000   1.0000   1.0000   1.0000   1.0000   1.0000   1.0000
     1.0000   1.0000   1.0000   1.0000   1.0000   1.0000   1.0000   1.0000
     1.0000   1.0000   1.0000   1.0000   1.0000   1.0000   1.0000   1.0000
     1.0000   1.0000   1.0000   1.0000   1.0000   1.0000   1.0000   1.0000
     1.0000   1.0000   1.0000   1.0000   1.0000   1.0000   1.0000   1.0000
     1.0000   1.0000   1.0000   1.0000   1.0000   1.0000   1.0000   1.0000
     1.0000   1.0000   1.0000   1.0000   1.0000   1.0000   1.0000   1.0000
     1.0000   1.0000   1.0000   1.0000   1.0000   1.0000   1.0000   1.0000
     1.0000   1.0000   1.0000   1.0000   1.0000   1.0000   1.0000   1.0000
     1.0000   1.0000   1.0000   1.0000   1.0000   1.0000   1.0000   1.0000
     1.0000   1.0000   1.0000   1.0000   1.0001   1.0004   1.0016   1.0037
     1.0077   1.0272   1.0570   1.0298   0.8805   0.8003   0.3178   0.2736
     0.2401   0.2162   0.1467   0.1211   0.0069   0.0055   0.0000   0.0000
     0.0000   0.0000   0.0000   0.0000   0.0000   0.0000   0.0000   0.0000
     0.0000   0.0000   0.0000   0.0000   0.0000   0.0000   0.0000   0.0000
     0.0000

          k =-0.5000-0.2887 0.0000 ( 44486 PWs)   bands (ev):

   -11.1337 -10.9496 -10.9237 -10.5390 -10.5022 -10.2209 -10.2079 -10.0915
   -10.0872 -10.0834 -10.0801 -10.0293  -9.9946  -9.8910  -9.8820  -9.7554
    -9.7340  -9.6933  -9.6817  -9.5762  -9.5462  -9.5306  -9.5223  -9.4344
    -9.4271  -9.4226  -9.4082  -9.3520  -9.3398  -9.2464  -9.2276  -9.0688
    -9.0598  -9.0533  -9.0353  -8.9457  -8.9277  -8.9242  -8.9116  -8.7815
    -8.7761  -8.7584  -8.7520  -8.6067  -8.5672  -8.5355  -8.5151  -8.4463
    -8.4412  -8.3004  -8.2824  -8.1994  -8.1656  -8.0921  -8.0685  -7.9843
    -7.9780  -7.9406  -7.9367  -7.8558  -7.8531  -7.7763  -7.7369  -7.7104
    -7.6742  -7.6329  -7.6189  -7.6133  -7.5305  -7.5300  -7.5093  -7.4898
    -7.4682  -7.4449  -7.4406  -7.3673  -7.2798  -7.2533  -7.1786  -7.1676
    -7.1313  -7.1284  -7.0281  -7.0200  -6.9832  -6.9688  -6.8833  -6.8372
    -6.8080  -6.8065  -6.7041  -6.6892  -6.6692  -6.6512  -6.6252  -6.5766
    -6.5429  -6.5198  -6.5047  -6.4909  -6.4827  -6.4774  -6.3490  -6.3288
    -6.2609  -6.2509  -6.1242  -6.1160  -5.9719  -5.9003  -5.8805  -5.8788
    -5.8354  -5.8024  -5.4992  -5.4863  -5.4122  -5.3954  -5.2250  -5.2197
    -5.2102  -5.2086  -5.1681  -5.1575  -4.9882  -4.9787  -4.7313  -4.5642
    -3.3600  -3.0396  -2.7427  -2.7365  -2.5450  -2.4733  -2.1485  -1.9150
    -1.6215  -1.3915  -1.0476  -0.9189  -0.2257  -0.0618   0.2944   0.4646
     1.7353

     occupation numbers 
     1.0000   1.0000   1.0000   1.0000   1.0000   1.0000   1.0000   1.0000
     1.0000   1.0000   1.0000   1.0000   1.0000   1.0000   1.0000   1.0000
     1.0000   1.0000   1.0000   1.0000   1.0000   1.0000   1.0000   1.0000
     1.0000   1.0000   1.0000   1.0000   1.0000   1.0000   1.0000   1.0000
     1.0000   1.0000   1.0000   1.0000   1.0000   1.0000   1.0000   1.0000
     1.0000   1.0000   1.0000   1.0000   1.0000   1.0000   1.0000   1.0000
     1.0000   1.0000   1.0000   1.0000   1.0000   1.0000   1.0000   1.0000
     1.0000   1.0000   1.0000   1.0000   1.0000   1.0000   1.0000   1.0000
     1.0000   1.0000   1.0000   1.0000   1.0000   1.0000   1.0000   1.0000
     1.0000   1.0000   1.0000   1.0000   1.0000   1.0000   1.0000   1.0000
     1.0000   1.0000   1.0000   1.0000   1.0000   1.0000   1.0000   1.0000
     1.0000   1.0000   1.0000   1.0000   1.0000   1.0000   1.0000   1.0000
     1.0000   1.0000   1.0000   1.0000   1.0000   1.0000   1.0000   1.0000
     1.0000   1.0000   1.0000   1.0000   1.0002   1.0012   1.0018   1.0019
     1.0045   1.0083   1.0407   1.0220   0.8432   0.7879   0.2112   0.1986
     0.1777   0.1743   0.1027   0.0883   0.0039   0.0031   0.0000   0.0000
     0.0000   0.0000   0.0000   0.0000   0.0000   0.0000   0.0000   0.0000
     0.0000   0.0000   0.0000   0.0000   0.0000   0.0000   0.0000   0.0000
     0.0000

     the Fermi energy is    -5.2894 ev

!    total energy              =   -7950.20039927 Ry
     total all-electron energy =   -242212.982184 Ry
     estimated scf accuracy    <          1.7E-11 Ry
     smearing contrib. (-TS)   =       0.00354117 Ry
     internal energy E=F+TS    =   -7950.20394044 Ry

     The total energy is F=E-TS. E is the sum of the following terms:
     one-electron contribution =  -58291.46801220 Ry
     hartree contribution      =   29329.36216929 Ry
     xc contribution           =    -779.76250835 Ry
     ewald contribution        =   27956.20384901 Ry
     DFT-D3 Dispersion         =      -2.83619456 Ry
     one-center paw contrib.   =   -6161.70324363 Ry
      -> PAW hartree energy AE =      58.96200435 Ry
      -> PAW hartree energy PS =     -60.38238538 Ry
      -> PAW xc energy AE      =    -287.72445876 Ry
      -> PAW xc energy PS      =      32.40925958 Ry
      -> total E_H with PAW    =   29327.94178826 Ry
      -> total E_XC with PAW   =   -1035.07770752 Ry

     total magnetization       =     3.87 Bohr mag/cell
     absolute magnetization    =     4.07 Bohr mag/cell

     convergence has been achieved in  32 iterations

     negative rho (up, down):  7.356E-06 7.363E-06

     Forces acting on atoms (cartesian axes, Ry/au):

     atom    1 type  1   force =     0.00009186   -0.00003698   -0.00600250
     atom    2 type  1   force =    -0.00009185   -0.00003698   -0.00600249
     atom    3 type  1   force =     0.00000000    0.00010267   -0.00585354
     atom    4 type  1   force =    -0.00000001    0.00002771   -0.00594496
     atom    5 type  1   force =    -0.00069646   -0.00028384    0.00557147
     atom    6 type  1   force =    -0.00000000   -0.00028761    0.00614696
     atom    7 type  1   force =     0.00069646   -0.00028382    0.00557150
     atom    8 type  1   force =    -0.00000001    0.00058387    0.00490966
     atom    9 type  1   force =     0.00000005    0.00004758    0.00066760
     atom   10 type  1   force =    -0.00002909   -0.00002438    0.00073628
     atom   11 type  1   force =     0.00002909   -0.00002443    0.00073629
     atom   12 type  1   force =    -0.00000005    0.00004374    0.00086135
     atom   13 type  1   force =     0.00003701    0.00013593   -0.00000173
     atom   14 type  1   force =    -0.00000004   -0.00002344   -0.00023870
     atom   15 type  1   force =    -0.00003700    0.00013595   -0.00000171
     atom   16 type  1   force =     0.00000003   -0.00005881    0.00000211
     atom   17 type  1   force =    -0.00021111   -0.00001296   -0.00079510
     atom   18 type  1   force =    -0.00000005   -0.00003464   -0.00023703
     atom   19 type  1   force =     0.00021111   -0.00001290   -0.00079515
     atom   20 type  1   force =     0.00000003   -0.00018489   -0.00059904
     atom   21 type  1   force =     0.00032998   -0.00038755    0.00030008
     atom   22 type  1   force =     0.00000002   -0.00061596   -0.00002032
     atom   23 type  1   force =    -0.00033000   -0.00038753    0.00030005
     atom   24 type  1   force =     0.00000001   -0.00001749    0.00014266
     atom   25 type  2   force =    -0.00000000    0.00163675    0.00054624
     The non-local contrib.  to forces
     atom    1 type  1   force =    -0.00065543   -0.00132279   -0.11143581
     atom    2 type  1   force =     0.00065544   -0.00132278   -0.11143581
     atom    3 type  1   force =    -0.00000000    0.00086643   -0.11095110
     atom    4 type  1   force =    -0.00000000    0.00184652   -0.11295111
     atom    5 type  1   force =    -0.00039800   -0.00009052    0.01514214
     atom    6 type  1   force =     0.00000001   -0.00017276    0.01586278
     atom    7 type  1   force =     0.00039800   -0.00009050    0.01514215
     atom    8 type  1   force =    -0.00000000    0.00009105    0.01480318
     atom    9 type  1   force =     0.00000002   -0.00143465    0.00050597
     atom   10 type  1   force =     0.00018487    0.00118975    0.00116485
     atom   11 type  1   force =    -0.00018488    0.00118973    0.00116487
     atom   12 type  1   force =    -0.00000002   -0.00118435   -0.00013539
     atom   13 type  1   force =     0.00069679    0.00008512   -0.00110052
     atom   14 type  1   force =    -0.00000001    0.00051222   -0.00457800
     atom   15 type  1   force =    -0.00069680    0.00008514   -0.00110051
     atom   16 type  1   force =     0.00000001    0.00031935   -0.00296591
     atom   17 type  1   force =    -0.00198009   -0.00185350   -0.00992106
     atom   18 type  1   force =    -0.00000001    0.00342758   -0.00375891
     atom   19 type  1   force =     0.00198009   -0.00185348   -0.00992108
     atom   20 type  1   force =     0.00000001    0.00203685   -0.00312616
     atom   21 type  1   force =    -0.01226037    0.00061503    0.06697435
     atom   22 type  1   force =     0.00000001    0.00610740    0.11363570
     atom   23 type  1   force =     0.01226036    0.00061503    0.06697431
     atom   24 type  1   force =     0.00000000   -0.00801410    0.11092107
     atom   25 type  2   force =    -0.00000000    0.00008575   -0.02151387
     The ionic contribution  to forces
     atom    1 type  1   force =     0.00065915    0.00086612 -277.64617002
     atom    2 type  1   force =    -0.00065915    0.00086613 -277.64617005
     atom    3 type  1   force =    -0.00000001   -0.00048120 -277.64514931
     atom    4 type  1   force =     0.00000001   -0.00125852 -277.64575926
     atom    5 type  1   force =    -0.01129555   -0.01492635 -167.39793128
     atom    6 type  1   force =    -0.00000009    0.00837857 -167.37604108
     atom    7 type  1   force =     0.01129555   -0.01492621 -167.39793050
     atom    8 type  1   force =     0.00000008    0.01882103 -167.38236485
     atom    9 type  1   force =     0.00000179   -0.00463663  -56.90252640
     atom   10 type  1   force =    -0.00490510    0.00670539  -56.62810626
     atom   11 type  1   force =     0.00490517    0.00670345  -56.62810771
     atom   12 type  1   force =    -0.00000177   -0.00120933  -56.76190083
     atom   13 type  1   force =     0.01393517    0.01529699   53.78076235
     atom   14 type  1   force =    -0.00000127   -0.01436106   54.05892866
     atom   15 type  1   force =    -0.01393512    0.01529836   53.78076031
     atom   16 type  1   force =     0.00000118   -0.01902015   54.18400638
     atom   17 type  1   force =    -0.01656053    0.00172324  164.46671979
     atom   18 type  1   force =    -0.00000135   -0.01907233  164.72150874
     atom   19 type  1   force =     0.01656040    0.00172507  164.46672355
     atom   20 type  1   force =     0.00000128   -0.00711795  164.74813203
     atom   21 type  1   force =    -0.79861873    0.06528241  275.10272621
     atom   22 type  1   force =     0.00000034   -0.20528208  275.43692276
     atom   23 type  1   force =     0.79861853    0.06528248  275.10272372
     atom   24 type  1   force =     0.00000000    0.07846017  274.70522320
     atom   25 type  2   force =     0.00000004    0.01688240   32.50301985
     The local contribution  to forces
     atom    1 type  1   force =     0.00005706    0.00037597  277.70847283
     atom    2 type  1   force =    -0.00005706    0.00037595  277.70847286
     atom    3 type  1   force =     0.00000001   -0.00021485  277.70738850
     atom    4 type  1   force =    -0.00000001   -0.00055539  277.70973865
     atom    5 type  1   force =     0.01111830    0.01462083  167.38487617
     atom    6 type  1   force =     0.00000009   -0.00835282  167.36274489
     atom    7 type  1   force =    -0.01111829    0.01462069  167.38487540
     atom    8 type  1   force =    -0.00000007   -0.01832927  167.36875317
     atom    9 type  1   force =    -0.00000175    0.00592502   56.90314446
     atom   10 type  1   force =     0.00467953   -0.00787653   56.62834842
     atom   11 type  1   force =    -0.00467960   -0.00787461   56.62834988
     atom   12 type  1   force =     0.00000174    0.00251470   56.76372104
     atom   13 type  1   force =    -0.01462487   -0.01510045  -53.77984879
     atom   14 type  1   force =     0.00000125    0.01374549  -54.05444878
     atom   15 type  1   force =     0.01462482   -0.01510178  -53.77984675
     atom   16 type  1   force =    -0.00000116    0.01842288  -54.18082213
     atom   17 type  1   force =     0.01836891    0.00014293 -164.45388102
     atom   18 type  1   force =     0.00000132    0.01682707 -164.71167691
     atom   19 type  1   force =    -0.01836878    0.00014115 -164.45388481
     atom   20 type  1   force =    -0.00000124    0.00457830 -164.74266184
     atom   21 type  1   force =     0.80226156   -0.06578792 -275.13106184
     atom   22 type  1   force =    -0.00000034    0.19673930 -275.51082306
     atom   23 type  1   force =    -0.80226136   -0.06578799 -275.13105935
     atom   24 type  1   force =    -0.00000000   -0.06883918 -274.77617952
     atom   25 type  2   force =    -0.00000004   -0.01534543  -32.47890895
     The core correction contribution to forces
     atom    1 type  1   force =     0.00003202    0.00004557    0.01714954
     atom    2 type  1   force =    -0.00003202    0.00004557    0.01714954
     atom    3 type  1   force =    -0.00000000   -0.00006926    0.01688047
     atom    4 type  1   force =    -0.00000000   -0.00000762    0.01704629
     atom    5 type  1   force =    -0.00011076    0.00012454   -0.00079587
     atom    6 type  1   force =     0.00000000   -0.00014903   -0.00074949
     atom    7 type  1   force =     0.00011076    0.00012454   -0.00079587
     atom    8 type  1   force =     0.00000000   -0.00001008   -0.00059455
     atom    9 type  1   force =    -0.00000001    0.00019217   -0.00046669
     atom   10 type  1   force =     0.00001092   -0.00005090   -0.00057883
     atom   11 type  1   force =    -0.00001093   -0.00005090   -0.00057883
     atom   12 type  1   force =     0.00000001   -0.00007698   -0.00073270
     atom   13 type  1   force =     0.00000804   -0.00015254    0.00021529
     atom   14 type  1   force =     0.00000000    0.00008839    0.00005803
     atom   15 type  1   force =    -0.00000804   -0.00015254    0.00021529
     atom   16 type  1   force =    -0.00000001    0.00022857    0.00008625
     atom   17 type  1   force =    -0.00003353    0.00004313    0.00002212
     atom   18 type  1   force =     0.00000001   -0.00123922   -0.00222272
     atom   19 type  1   force =     0.00003353    0.00004313    0.00002212
     atom   20 type  1   force =    -0.00000001    0.00026266    0.00067928
     atom   21 type  1   force =     0.00860072   -0.00057936   -0.01231299
     atom   22 type  1   force =    -0.00000000    0.00177684   -0.01406042
     atom   23 type  1   force =    -0.00860072   -0.00057936   -0.01231299
     atom   24 type  1   force =    -0.00000000   -0.00145922   -0.01449265
     atom   25 type  2   force =     0.00000000    0.00000000    0.00000000
     The Hubbard contrib.    to forces
     atom    1 type  1   force =     0.00000000    0.00000000    0.00000000
     atom    2 type  1   force =     0.00000000    0.00000000    0.00000000
     atom    3 type  1   force =     0.00000000    0.00000000    0.00000000
     atom    4 type  1   force =     0.00000000    0.00000000    0.00000000
     atom    5 type  1   force =     0.00000000    0.00000000    0.00000000
     atom    6 type  1   force =     0.00000000    0.00000000    0.00000000
     atom    7 type  1   force =     0.00000000    0.00000000    0.00000000
     atom    8 type  1   force =     0.00000000    0.00000000    0.00000000
     atom    9 type  1   force =     0.00000000    0.00000000    0.00000000
     atom   10 type  1   force =     0.00000000    0.00000000    0.00000000
     atom   11 type  1   force =     0.00000000    0.00000000    0.00000000
     atom   12 type  1   force =     0.00000000    0.00000000    0.00000000
     atom   13 type  1   force =     0.00000000    0.00000000    0.00000000
     atom   14 type  1   force =     0.00000000    0.00000000    0.00000000
     atom   15 type  1   force =     0.00000000    0.00000000    0.00000000
     atom   16 type  1   force =     0.00000000    0.00000000    0.00000000
     atom   17 type  1   force =     0.00000000    0.00000000    0.00000000
     atom   18 type  1   force =     0.00000000    0.00000000    0.00000000
     atom   19 type  1   force =     0.00000000    0.00000000    0.00000000
     atom   20 type  1   force =     0.00000000    0.00000000    0.00000000
     atom   21 type  1   force =     0.00000000    0.00000000    0.00000000
     atom   22 type  1   force =     0.00000000    0.00000000    0.00000000
     atom   23 type  1   force =     0.00000000    0.00000000    0.00000000
     atom   24 type  1   force =     0.00000000    0.00000000    0.00000000
     atom   25 type  2   force =     0.00000000    0.00000000    0.00000000
     The SCF correction term to forces
     atom    1 type  1   force =     0.00000000    0.00000000    0.00000000
     atom    2 type  1   force =     0.00000000    0.00000000    0.00000000
     atom    3 type  1   force =     0.00000000    0.00000000    0.00000000
     atom    4 type  1   force =     0.00000000    0.00000000    0.00000000
     atom    5 type  1   force =     0.00000000    0.00000000    0.00000000
     atom    6 type  1   force =     0.00000000    0.00000000    0.00000000
     atom    7 type  1   force =     0.00000000    0.00000000    0.00000000
     atom    8 type  1   force =     0.00000000    0.00000000    0.00000000
     atom    9 type  1   force =     0.00000001   -0.00000016   -0.00000810
     atom   10 type  1   force =     0.00000004    0.00000015   -0.00000797
     atom   11 type  1   force =    -0.00000004    0.00000015   -0.00000798
     atom   12 type  1   force =     0.00000001   -0.00000015   -0.00000801
     atom   13 type  1   force =     0.00000002    0.00000020   -0.00000525
     atom   14 type  1   force =    -0.00000000   -0.00000015   -0.00000521
     atom   15 type  1   force =    -0.00000001    0.00000018   -0.00000524
     atom   16 type  1   force =     0.00000000   -0.00000013   -0.00000527
     atom   17 type  1   force =     0.00000009   -0.00000009   -0.00000334
     atom   18 type  1   force =    -0.00000000    0.00000012   -0.00000338
     atom   19 type  1   force =    -0.00000010   -0.00000011   -0.00000334
     atom   20 type  1   force =    -0.00000001    0.00000013   -0.00000344
     atom   21 type  1   force =    -0.00000063   -0.00000004   -0.00000137
     atom   22 type  1   force =     0.00000001   -0.00000004   -0.00000125
     atom   23 type  1   force =     0.00000062   -0.00000002   -0.00000136
     atom   24 type  1   force =     0.00000001    0.00000018   -0.00000137
     atom   25 type  2   force =     0.00000000    0.00000000    0.00000001

     DFT-D3 dispersion contribution to forces:
     atom    1 type  1   force =    -0.00000090   -0.00000187    0.02598007
     atom    2 type  1   force =     0.00000090   -0.00000187    0.02598007
     atom    3 type  1   force =     0.00000000    0.00000135    0.02597685
     atom    4 type  1   force =    -0.00000000    0.00000248    0.02597960
     atom    5 type  1   force =    -0.00001028   -0.00001245    0.00428168
     atom    6 type  1   force =     0.00000000    0.00000831    0.00433110
     atom    7 type  1   force =     0.00001028   -0.00001245    0.00428168
     atom    8 type  1   force =    -0.00000000    0.00001080    0.00431411
     atom    9 type  1   force =     0.00000000    0.00000165    0.00001451
     atom   10 type  1   force =     0.00000065    0.00000759   -0.00008777
     atom   11 type  1   force =    -0.00000065    0.00000758   -0.00008777
     atom   12 type  1   force =    -0.00000000   -0.00000032   -0.00008658
     atom   13 type  1   force =     0.00002186    0.00000643   -0.00002864
     atom   14 type  1   force =    -0.00000000   -0.00000851   -0.00019724
     atom   15 type  1   force =    -0.00002186    0.00000643   -0.00002864
     atom   16 type  1   force =     0.00000000   -0.00000950   -0.00030104
     atom   17 type  1   force =    -0.00000596   -0.00006884   -0.00373542
     atom   18 type  1   force =    -0.00000000    0.00002196   -0.00408769
     atom   19 type  1   force =     0.00000596   -0.00006884   -0.00373543
     atom   20 type  1   force =     0.00000000    0.00005495   -0.00362276
     atom   21 type  1   force =     0.00034744    0.00008217   -0.02602811
     atom   22 type  1   force =     0.00000000    0.00004244   -0.02569790
     atom   23 type  1   force =    -0.00034744    0.00008217   -0.02602811
     atom   24 type  1   force =     0.00000000   -0.00016551   -0.02533191
     atom   25 type  2   force =     0.00000000    0.00001387   -0.00205464

     Total force =     0.002362     Total SCF correction =     0.000021

     DFT-D3 dispersion Force =     0.074116


     Computing stress (Cartesian axis) and pressure


     negative rho (up, down):  7.356E-06 7.363E-06
          total   stress  (Ry/bohr**3)                   (kbar)     P=       -7.71
  -0.00008458   0.00000000   0.00000000          -12.44        0.00        0.00
   0.00000000  -0.00009270   0.00000124            0.00      -13.64        0.18
   0.00000000   0.00000124   0.00002007            0.00        0.18        2.95

     kinetic stress (kbar)  12106.54      0.00     -0.00
                                0.00  12127.43     -0.24
                               -0.00     -0.24  12275.28

     local   stress (kbar)**********     -0.00     -0.00
                               -0.00**********     -3.46
                               -0.00     -3.461525413.92

     nonloc. stress (kbar)  -4435.08     -0.00      0.00
                               -0.00  -4440.97      0.22
                                0.00      0.22  -4488.56

     hartree stress (kbar) 756603.63      0.00      0.00
                                0.00 756576.88      1.01
                                0.00      1.01-752919.87

     exc-cor stress (kbar)   9569.90      0.00      0.00
                                0.00   9569.38      0.02
                                0.00      0.02   9564.60

     corecor stress (kbar) -12753.14     -0.00      0.00
                               -0.00 -12753.82      0.01
                                0.00      0.01 -12766.43

     ewald   stress (kbar) 750884.87      0.00      0.00
                                0.00 750795.30      2.63
                                0.00      2.63-777013.84

     hubbard stress (kbar)      0.00      0.00      0.00
                                0.00      0.00      0.00
                                0.00      0.00      0.00

     DFT-D   stress (kbar)    -72.11      0.00      0.00
                                0.00    -72.13      0.01
                                0.00      0.01    -62.15

     XDM     stress (kbar)      0.00      0.00      0.00
                                0.00      0.00      0.00
                                0.00      0.00      0.00

     dft-nl  stress (kbar)      0.00      0.00      0.00
                                0.00      0.00      0.00
                                0.00      0.00      0.00

     TS-vdW  stress (kbar)      0.00      0.00      0.00
                                0.00      0.00      0.00
                                0.00      0.00      0.00

     MDB     stress (kbar)      0.00      0.00      0.00
                                0.00      0.00      0.00
                                0.00      0.00      0.00

     3D-RISM stress (kbar)      0.00      0.00      0.00
                                0.00      0.00      0.00
                                0.00      0.00      0.00


     Writing all to output data dir /tmpu/isholek_g/isholek/MIGUEL/QE/Hydrogen/111_2x2-H/SAVE/Pd_111_B1.save/ :
     XML data file, charge density, pseudopotentials, collected wavefunctions
 
     init_run     :    195.96s CPU    385.13s WALL (       1 calls)
     electrons    :  14691.09s CPU  28768.35s WALL (       1 calls)
     forces       :     17.01s CPU     34.13s WALL (       1 calls)
     force_dftd3  :      0.57s CPU      1.12s WALL (       1 calls)
     stress       :    292.63s CPU    573.16s WALL (       1 calls)
     stres_dftd3  :      1.09s CPU      1.09s WALL (       1 calls)

     Called by init_run:
     wfcinit      :    153.54s CPU    301.07s WALL (       1 calls)
     wfcinit:atom :      0.21s CPU      0.68s WALL (      33 calls)
     wfcinit:wfcr :    151.50s CPU    296.65s WALL (      33 calls)
     potinit      :      1.39s CPU      2.91s WALL (       1 calls)
     hinit0       :     40.35s CPU     79.78s WALL (       1 calls)

     Called by electrons:
     c_bands      :  12756.78s CPU  25011.56s WALL (      33 calls)
     sum_band     :   1758.91s CPU   3422.88s WALL (      33 calls)
     v_of_rho     :     18.14s CPU     35.27s WALL (      33 calls)
     v_h          :      1.22s CPU      2.34s WALL (      33 calls)
     v_xc         :     18.18s CPU     34.66s WALL (      35 calls)
     newd         :      4.68s CPU      9.26s WALL (      33 calls)
     PAW_pot      :     13.70s CPU     25.55s WALL (      33 calls)
     mix_rho      :    131.36s CPU    248.96s WALL (      33 calls)
     energy_dftd3 :      0.14s CPU      0.27s WALL (       1 calls)

     Called by c_bands:
     init_us_2    :     19.63s CPU     30.65s WALL (    2277 calls)
     init_us_2:cp :     19.61s CPU     30.63s WALL (    2277 calls)
     cegterg      :  10813.54s CPU  21230.97s WALL (    1089 calls)

     Called by sum_band:
     sum_band:wei :     19.03s CPU     35.44s WALL (      33 calls)
     sum_band:loo :   1595.26s CPU   3106.70s WALL (      33 calls)
     sum_band:buf :      4.53s CPU      8.27s WALL (    1089 calls)
     sum_band:ini :      8.84s CPU     16.37s WALL (    1089 calls)
     sum_band:cal :    118.58s CPU    228.78s WALL (    1089 calls)
     sum_band:bec :      0.55s CPU      1.06s WALL (    1089 calls)
     addusdens    :      5.54s CPU     11.35s WALL (      33 calls)
                                        0.00s GPU  (      33 calls)
     addusd:skk   :      0.04s CPU      0.07s WALL (      66 calls)
                                        0.00s GPU  (      66 calls)

     Called by *egterg:
     cdiaghg      :   1430.36s CPU   2789.19s WALL (    4704 calls)
     cegterg:over :    521.82s CPU   1015.82s WALL (    3648 calls)
     cegterg:upda :    224.02s CPU    432.41s WALL (    3648 calls)
     cegterg:last :    398.85s CPU    772.78s WALL (    2480 calls)
     cdiaghg:chol :     69.53s CPU    133.43s WALL (    4704 calls)
     cdiaghg:inve :     32.89s CPU     62.94s WALL (    4704 calls)
     cdiaghg:para :    183.86s CPU    362.07s WALL (    9408 calls)
     h_psi        :   7896.62s CPU  15540.18s WALL (    4770 calls)
     s_psi        :    276.60s CPU    543.35s WALL (    4770 calls)
     g_psi        :      9.67s CPU     16.71s WALL (    3648 calls)

     Called by h_psi:
     h_psi:calbec :    360.55s CPU    701.62s WALL (    4770 calls)
     vloc_psi     :   7248.53s CPU  14272.56s WALL (    4770 calls)
     add_vuspsi   :    279.92s CPU    538.81s WALL (    4770 calls)

     General routines
     calbec       :    544.34s CPU   1060.94s WALL (    6024 calls)
     fft          :     14.16s CPU     27.72s WALL (     865 calls)
     ffts         :     31.09s CPU     61.63s WALL (    3945 calls)
     fftw         :   8194.21s CPU  16175.49s WALL ( 1055355 calls)
     interpolate  :      1.61s CPU      2.98s WALL (      66 calls)
 
     Parallel routines

     PAW routines
     PAW_pot      :     13.70s CPU     25.55s WALL (      33 calls)
 
     PWSCF        :      4h14m CPU      8h18m WALL

 
   This run was terminated on:   3:55:19   8Nov2025            

=------------------------------------------------------------------------------=
   JOB DONE.
=------------------------------------------------------------------------------=
