
     Program PWSCF v.7.3 starts on  8May2026 at  1: 4:11 

     This program is part of the open-source Quantum ESPRESSO suite
     for quantum simulation of materials; please cite
         "P. Giannozzi et al., J. Phys.:Condens. Matter 21 395502 (2009);
         "P. Giannozzi et al., J. Phys.:Condens. Matter 29 465901 (2017);
         "P. Giannozzi et al., J. Chem. Phys. 152 154105 (2020);
          URL http://www.quantum-espresso.org", 
     in publications or presentations arising from this work. More details at
     http://www.quantum-espresso.org/quote

     Parallel version (MPI), running on   128 processors

     MPI processes distributed on     8 nodes
     59033 MiB available memory on the printing compute node when the environment starts
 
     Reading input from /tmpu/isholek_g/isholek/MIGUEL/QE/Hydrogen/111_2x2/SCF/Pd_111_H2-SCF.in

     Current dimensions of program PWSCF are:
     Max number of different atomic species (ntypx) = 10
     Max number of k-points (npk) =  40000
     Max angular momentum in pseudopotentials (lmaxx) =  4
     file Pd.upf: wavefunction(s)  5S 4D renormalized
     file H.upf: wavefunction(s)  1S renormalized

     IMPORTANT: XC functional enforced from input :
     Exchange-correlation= PBE
                           (   1   4   3   4   0   0   0)
     Any further DFT definition will be discarded
     Please, verify this is what you really want

 
     K-points division:     npool     =       8
     R & G space division:  proc/nbgrp/npool/nimage =      16
     Subspace diagonalization in iterative solution of the eigenvalue problem:
     one sub-group per band group will be used
     scalapack distributed-memory algorithm (size of sub-group:  2*  2 procs)

 
     Parallelization info
     --------------------
     sticks:   dense  smooth     PW     G-vecs:    dense   smooth      PW
     Min         216     108     31                62988    22256    3443
     Max         217     109     32                63027    22281    3474
     Sum        3463    1735    499              1008141   356271   55299
 
     Using Slab Decomposition
 

     Title: 
     Pd_111_H2-SCF                                                              


     bravais-lattice index     =            0
     lattice parameter (alat)  =      10.2412  a.u.
     unit-cell volume          =    5675.0250 (a.u.)^3
     number of atoms/cell      =           25
     number of atomic types    =            2
     number of electrons       =       241.00
     number of Kohn-Sham states=          145
     kinetic-energy cutoff     =      60.0000  Ry
     charge density cutoff     =     480.0000  Ry
     scf convergence threshold =      1.0E-10
     mixing beta               =       0.2000
     number of iterations used =           12  local-TF  mixing
     Exchange-correlation= PBE
                           (   1   4   3   4   0   0   0)

     celldm(1)=  10.241232  celldm(2)=   0.000000  celldm(3)=   0.000000
     celldm(4)=   0.000000  celldm(5)=   0.000000  celldm(6)=   0.000000

     crystal axes: (cart. coord. in units of alat)
               a(1) = (   1.000000   0.000000   0.000000 )  
               a(2) = (   0.500000   0.866025   0.000000 )  
               a(3) = (   0.000000   0.000000   6.100712 )  

     reciprocal axes: (cart. coord. in units 2 pi/alat)
               b(1) = (  1.000000 -0.577350  0.000000 )  
               b(2) = (  0.000000  1.154701  0.000000 )  
               b(3) = (  0.000000  0.000000  0.163915 )  


     PseudoPot. # 1 for Pd read from file:
     /tmpu/isholek_g/isholek/MIGUEL/PP/PAW/Pd.upf
     MD5 check sum: e9d6f14fd83b79f8105499163af174c9
     Pseudo is Projector augmented-wave + core cor, Zval = 10.0
     Generated using "atomic" code by A. Dal Corso  v.5.0.2 svn rev. 9415
     Shape of augmentation charge: PSQ
     Using radial grid of 1235 points,  6 beta functions with: 
                l(1) =   0
                l(2) =   0
                l(3) =   1
                l(4) =   1
                l(5) =   2
                l(6) =   2
     Q(r) pseudized with 0 coefficients 


     PseudoPot. # 2 for H  read from file:
     /tmpu/isholek_g/isholek/MIGUEL/PP/PAW/H.upf
     MD5 check sum: 4cbe42a24e15140179a93d5bf84f2220
     Pseudo is Projector augmented-wave, Zval =  1.0
     Generated using "atomic" code by A. Dal Corso  v.5.0.2 svn rev. 9415
     Shape of augmentation charge: PSQ
     Using radial grid of  929 points,  2 beta functions with: 
                l(1) =   0
                l(2) =   0
     Q(r) pseudized with 0 coefficients 


     atomic species   valence    mass     pseudopotential
     Pd               10.00   106.42000     Pd( 1.00)
     H                 1.00     1.00784     H ( 1.00)

     Starting magnetic structure 
     atomic species   magnetization
     Pd              0.010
     H               1.000

     No symmetry found


                                    s                        frac. trans.

      isym =  1     identity                                     

 cryst.   s( 1) = (     1          0          0      )
                  (     0          1          0      )
                  (     0          0          1      )

 cart.    s( 1) = (  1.0000000  0.0000000  0.0000000 )
                  (  0.0000000  1.0000000  0.0000000 )
                  (  0.0000000  0.0000000  1.0000000 )


   Cartesian axes

     site n.     atom                  positions (alat units)
         1        Pd     tau(   1) = (   0.7499990   0.1443381   2.0297350  )
         2        Pd     tau(   2) = (   0.2500010   0.1443381   2.0297350  )
         3        Pd     tau(   3) = (   0.5000000   0.5773491   2.0297350  )
         4        Pd     tau(   4) = (   1.0000000   0.5773503   2.0297357  )
         5        Pd     tau(   5) = (   0.7499990   0.7216884   2.4379833  )
         6        Pd     tau(   6) = (   1.0000000   0.2886740   2.4379833  )
         7        Pd     tau(   7) = (   1.2500010   0.7216884   2.4379833  )
         8        Pd     tau(   8) = (   0.5000000   0.2886751   2.4379840  )
         9        Pd     tau(   9) = (   1.0000000   0.8660253   2.8438202  )
        10        Pd     tau(  10) = (   1.2500345   0.4330327   2.8448126  )
        11        Pd     tau(  11) = (   0.7499655   0.4330327   2.8448126  )
        12        Pd     tau(  12) = (   1.0000000  -0.0000399   2.8448132  )
        13        Pd     tau(  13) = (   0.7499647   0.1443172   3.2517267  )
        14        Pd     tau(  14) = (   0.5000000   0.5773501   3.2522224  )
        15        Pd     tau(  15) = (   0.2500353   0.1443172   3.2517267  )
        16        Pd     tau(  16) = (   1.0000000   0.5773909   3.2517266  )
        17        Pd     tau(  17) = (   0.7498690   0.7216121   3.6594665  )
        18        Pd     tau(  18) = (   1.0000000   0.2886750   3.6609209  )
        19        Pd     tau(  19) = (   1.2501310   0.7216121   3.6594665  )
        20        Pd     tau(  20) = (   0.5000000   0.2888263   3.6594667  )
        21        Pd     tau(  21) = (   1.2472943   0.4314504   4.0747664  )
        22        Pd     tau(  22) = (   1.0000000   0.8660252   4.0713545  )
        23        Pd     tau(  23) = (   0.7527058   0.4314503   4.0747663  )
        24        Pd     tau(  24) = (   1.5000000   0.8691496   4.0747663  )
        25        H      tau(  25) = (   0.5000001   0.5773503   4.2381685  )

     --------------------------------------------
     DFT-D3 Dispersion Correction (3-body terms):
     --------------------------------------------
       Reference C6 values for interpolation: 

         atom   Coordination number   C6
         H          0.912             6.05
         H          0.000            15.18
         Pd         0.000          1217.01
         Pd         1.863           573.90
         Pd         5.710           531.75

       Values used:

         atom   Coordination number  R0_AB[au]  C6      C8
         Pd         6.691            3.168    531.75  48720.73
         Pd         6.691            3.168    531.75  48720.73
         Pd         6.691            3.168    531.75  48720.73
         Pd         6.691            3.168    531.75  48720.73
         Pd         8.987            3.168    531.75  48720.73
         Pd         8.981            3.168    531.75  48720.73
         Pd         8.987            3.168    531.75  48720.73
         Pd         8.987            3.168    531.75  48720.73
         Pd         9.014            3.168    531.75  48720.73
         Pd         9.011            3.168    531.75  48720.73
         Pd         9.011            3.168    531.75  48720.73
         Pd         9.011            3.168    531.75  48720.73
         Pd         8.984            3.168    531.75  48720.73
         Pd         8.999            3.168    531.75  48720.73
         Pd         8.984            3.168    531.75  48720.73
         Pd         8.984            3.168    531.75  48720.73
         Pd         8.853            3.168    531.75  48720.73
         Pd         8.882            3.168    531.75  48720.73
         Pd         8.853            3.168    531.75  48720.73
         Pd         8.853            3.168    531.75  48720.73
         Pd         7.188            3.168    531.75  48720.73
         Pd         6.629            3.168    531.75  48720.73
         Pd         7.188            3.168    531.75  48720.73
         Pd         7.188            3.168    531.75  48720.73
         H          1.860            2.062      6.05     73.18

         Molecular C6 ( Ry / a.u.^6 ) =    308987.71


   Crystallographic axes

     site n.     atom                  positions (cryst. coord.)
         1        Pd     tau(   1) = (  0.6666653  0.1666673  0.3327046  )
         2        Pd     tau(   2) = (  0.1666673  0.1666673  0.3327046  )
         3        Pd     tau(   3) = (  0.1666673  0.6666653  0.3327046  )
         4        Pd     tau(   4) = (  0.6666667  0.6666667  0.3327047  )
         5        Pd     tau(   5) = (  0.3333320  0.8333340  0.3996227  )
         6        Pd     tau(   6) = (  0.8333340  0.3333320  0.3996227  )
         7        Pd     tau(   7) = (  0.8333340  0.8333340  0.3996227  )
         8        Pd     tau(   8) = (  0.3333333  0.3333333  0.3996229  )
         9        Pd     tau(   9) = (  0.5000001  0.9999999  0.4661456  )
        10        Pd     tau(  10) = (  1.0000229  0.5000231  0.4663083  )
        11        Pd     tau(  11) = (  0.4999540  0.5000231  0.4663083  )
        12        Pd     tau(  12) = (  1.0000230 -0.0000461  0.4663084  )
        13        Pd     tau(  13) = (  0.6666432  0.1666431  0.5330077  )
        14        Pd     tau(  14) = (  0.1666667  0.6666665  0.5330890  )
        15        Pd     tau(  15) = (  0.1667137  0.1666431  0.5330077  )
        16        Pd     tau(  16) = (  0.6666432  0.6667136  0.5330077  )
        17        Pd     tau(  17) = (  0.3332461  0.8332458  0.5998425  )
        18        Pd     tau(  18) = (  0.8333334  0.3333332  0.6000809  )
        19        Pd     tau(  19) = (  0.8335081  0.8332458  0.5998425  )
        20        Pd     tau(  20) = (  0.3332461  0.3335079  0.5998425  )
        21        Pd     tau(  21) = (  0.9981963  0.4981960  0.6679165  )
        22        Pd     tau(  22) = (  0.5000001  0.9999998  0.6673573  )
        23        Pd     tau(  23) = (  0.5036078  0.4981959  0.6679165  )
        24        Pd     tau(  24) = (  0.9981962  1.0036075  0.6679165  )
        25        H      tau(  25) = (  0.1666667  0.6666667  0.6947006  )

     number of k points=   130  Marzari-Vanderbilt smearing, width (Ry)=  0.0147
                       cart. coord. in units 2pi/alat
        k(    1) = (   0.0000000   0.0000000   0.0000000), wk =   0.0039062
        k(    2) = (   0.0000000   0.0721688   0.0000000), wk =   0.0078125
        k(    3) = (   0.0000000   0.1443376   0.0000000), wk =   0.0078125
        k(    4) = (   0.0000000   0.2165064   0.0000000), wk =   0.0078125
        k(    5) = (   0.0000000   0.2886751   0.0000000), wk =   0.0078125
        k(    6) = (   0.0000000   0.3608439   0.0000000), wk =   0.0078125
        k(    7) = (   0.0000000   0.4330127   0.0000000), wk =   0.0078125
        k(    8) = (   0.0000000   0.5051815   0.0000000), wk =   0.0078125
        k(    9) = (   0.0000000  -0.5773503   0.0000000), wk =   0.0039062
        k(   10) = (   0.0625000  -0.0360844   0.0000000), wk =   0.0078125
        k(   11) = (   0.0625000   0.0360844   0.0000000), wk =   0.0078125
        k(   12) = (   0.0625000   0.1082532   0.0000000), wk =   0.0078125
        k(   13) = (   0.0625000   0.1804220   0.0000000), wk =   0.0078125
        k(   14) = (   0.0625000   0.2525907   0.0000000), wk =   0.0078125
        k(   15) = (   0.0625000   0.3247595   0.0000000), wk =   0.0078125
        k(   16) = (   0.0625000   0.3969283   0.0000000), wk =   0.0078125
        k(   17) = (   0.0625000   0.4690971   0.0000000), wk =   0.0078125
        k(   18) = (   0.0625000  -0.6134347   0.0000000), wk =   0.0078125
        k(   19) = (   0.0625000  -0.5412659   0.0000000), wk =   0.0078125
        k(   20) = (   0.0625000  -0.4690971   0.0000000), wk =   0.0078125
        k(   21) = (   0.0625000  -0.3969283   0.0000000), wk =   0.0078125
        k(   22) = (   0.0625000  -0.3247595   0.0000000), wk =   0.0078125
        k(   23) = (   0.0625000  -0.2525907   0.0000000), wk =   0.0078125
        k(   24) = (   0.0625000  -0.1804220   0.0000000), wk =   0.0078125
        k(   25) = (   0.0625000  -0.1082532   0.0000000), wk =   0.0078125
        k(   26) = (   0.1250000  -0.0721688   0.0000000), wk =   0.0078125
        k(   27) = (   0.1250000   0.0000000   0.0000000), wk =   0.0078125
        k(   28) = (   0.1250000   0.0721688   0.0000000), wk =   0.0078125
        k(   29) = (   0.1250000   0.1443376   0.0000000), wk =   0.0078125
        k(   30) = (   0.1250000   0.2165064   0.0000000), wk =   0.0078125
        k(   31) = (   0.1250000   0.2886751   0.0000000), wk =   0.0078125
        k(   32) = (   0.1250000   0.3608439   0.0000000), wk =   0.0078125
        k(   33) = (   0.1250000   0.4330127   0.0000000), wk =   0.0078125
        k(   34) = (   0.1250000  -0.6495191   0.0000000), wk =   0.0078125
        k(   35) = (   0.1250000  -0.5773503   0.0000000), wk =   0.0078125
        k(   36) = (   0.1250000  -0.5051815   0.0000000), wk =   0.0078125
        k(   37) = (   0.1250000  -0.4330127   0.0000000), wk =   0.0078125
        k(   38) = (   0.1250000  -0.3608439   0.0000000), wk =   0.0078125
        k(   39) = (   0.1250000  -0.2886751   0.0000000), wk =   0.0078125
        k(   40) = (   0.1250000  -0.2165064   0.0000000), wk =   0.0078125
        k(   41) = (   0.1250000  -0.1443376   0.0000000), wk =   0.0078125
        k(   42) = (   0.1875000  -0.1082532   0.0000000), wk =   0.0078125
        k(   43) = (   0.1875000  -0.0360844   0.0000000), wk =   0.0078125
        k(   44) = (   0.1875000   0.0360844   0.0000000), wk =   0.0078125
        k(   45) = (   0.1875000   0.1082532   0.0000000), wk =   0.0078125
        k(   46) = (   0.1875000   0.1804220   0.0000000), wk =   0.0078125
        k(   47) = (   0.1875000   0.2525907   0.0000000), wk =   0.0078125
        k(   48) = (   0.1875000   0.3247595   0.0000000), wk =   0.0078125
        k(   49) = (   0.1875000   0.3969283   0.0000000), wk =   0.0078125
        k(   50) = (   0.1875000  -0.6856034   0.0000000), wk =   0.0078125
        k(   51) = (   0.1875000  -0.6134347   0.0000000), wk =   0.0078125
        k(   52) = (   0.1875000  -0.5412659   0.0000000), wk =   0.0078125
        k(   53) = (   0.1875000  -0.4690971   0.0000000), wk =   0.0078125
        k(   54) = (   0.1875000  -0.3969283   0.0000000), wk =   0.0078125
        k(   55) = (   0.1875000  -0.3247595   0.0000000), wk =   0.0078125
        k(   56) = (   0.1875000  -0.2525907   0.0000000), wk =   0.0078125
        k(   57) = (   0.1875000  -0.1804220   0.0000000), wk =   0.0078125
        k(   58) = (   0.2500000  -0.1443376   0.0000000), wk =   0.0078125
        k(   59) = (   0.2500000  -0.0721688   0.0000000), wk =   0.0078125
        k(   60) = (   0.2500000   0.0000000   0.0000000), wk =   0.0078125
        k(   61) = (   0.2500000   0.0721688   0.0000000), wk =   0.0078125
        k(   62) = (   0.2500000   0.1443376   0.0000000), wk =   0.0078125
        k(   63) = (   0.2500000   0.2165064   0.0000000), wk =   0.0078125
        k(   64) = (   0.2500000   0.2886751   0.0000000), wk =   0.0078125
        k(   65) = (   0.2500000   0.3608439   0.0000000), wk =   0.0078125
        k(   66) = (   0.2500000  -0.7216878   0.0000000), wk =   0.0078125
        k(   67) = (   0.2500000  -0.6495191   0.0000000), wk =   0.0078125
        k(   68) = (   0.2500000  -0.5773503   0.0000000), wk =   0.0078125
        k(   69) = (   0.2500000  -0.5051815   0.0000000), wk =   0.0078125
        k(   70) = (   0.2500000  -0.4330127   0.0000000), wk =   0.0078125
        k(   71) = (   0.2500000  -0.3608439   0.0000000), wk =   0.0078125
        k(   72) = (   0.2500000  -0.2886751   0.0000000), wk =   0.0078125
        k(   73) = (   0.2500000  -0.2165064   0.0000000), wk =   0.0078125
        k(   74) = (   0.3125000  -0.1804220   0.0000000), wk =   0.0078125
        k(   75) = (   0.3125000  -0.1082532   0.0000000), wk =   0.0078125
        k(   76) = (   0.3125000  -0.0360844   0.0000000), wk =   0.0078125
        k(   77) = (   0.3125000   0.0360844   0.0000000), wk =   0.0078125
        k(   78) = (   0.3125000   0.1082532   0.0000000), wk =   0.0078125
        k(   79) = (   0.3125000   0.1804220   0.0000000), wk =   0.0078125
        k(   80) = (   0.3125000   0.2525907   0.0000000), wk =   0.0078125
        k(   81) = (   0.3125000   0.3247595   0.0000000), wk =   0.0078125
        k(   82) = (   0.3125000  -0.7577722   0.0000000), wk =   0.0078125
        k(   83) = (   0.3125000  -0.6856034   0.0000000), wk =   0.0078125
        k(   84) = (   0.3125000  -0.6134347   0.0000000), wk =   0.0078125
        k(   85) = (   0.3125000  -0.5412659   0.0000000), wk =   0.0078125
        k(   86) = (   0.3125000  -0.4690971   0.0000000), wk =   0.0078125
        k(   87) = (   0.3125000  -0.3969283   0.0000000), wk =   0.0078125
        k(   88) = (   0.3125000  -0.3247595   0.0000000), wk =   0.0078125
        k(   89) = (   0.3125000  -0.2525907   0.0000000), wk =   0.0078125
        k(   90) = (   0.3750000  -0.2165064   0.0000000), wk =   0.0078125
        k(   91) = (   0.3750000  -0.1443376   0.0000000), wk =   0.0078125
        k(   92) = (   0.3750000  -0.0721688   0.0000000), wk =   0.0078125
        k(   93) = (   0.3750000   0.0000000   0.0000000), wk =   0.0078125
        k(   94) = (   0.3750000   0.0721688   0.0000000), wk =   0.0078125
        k(   95) = (   0.3750000   0.1443376   0.0000000), wk =   0.0078125
        k(   96) = (   0.3750000   0.2165064   0.0000000), wk =   0.0078125
        k(   97) = (   0.3750000   0.2886751   0.0000000), wk =   0.0078125
        k(   98) = (   0.3750000  -0.7938566   0.0000000), wk =   0.0078125
        k(   99) = (   0.3750000  -0.7216878   0.0000000), wk =   0.0078125
        k(  100) = (   0.3750000  -0.6495191   0.0000000), wk =   0.0078125
        k(  101) = (   0.3750000  -0.5773503   0.0000000), wk =   0.0078125
        k(  102) = (   0.3750000  -0.5051815   0.0000000), wk =   0.0078125
        k(  103) = (   0.3750000  -0.4330127   0.0000000), wk =   0.0078125
        k(  104) = (   0.3750000  -0.3608439   0.0000000), wk =   0.0078125
        k(  105) = (   0.3750000  -0.2886751   0.0000000), wk =   0.0078125
        k(  106) = (   0.4375000  -0.2525907   0.0000000), wk =   0.0078125
        k(  107) = (   0.4375000  -0.1804220   0.0000000), wk =   0.0078125
        k(  108) = (   0.4375000  -0.1082532   0.0000000), wk =   0.0078125
        k(  109) = (   0.4375000  -0.0360844   0.0000000), wk =   0.0078125
        k(  110) = (   0.4375000   0.0360844   0.0000000), wk =   0.0078125
        k(  111) = (   0.4375000   0.1082532   0.0000000), wk =   0.0078125
        k(  112) = (   0.4375000   0.1804220   0.0000000), wk =   0.0078125
        k(  113) = (   0.4375000   0.2525907   0.0000000), wk =   0.0078125
        k(  114) = (   0.4375000  -0.8299410   0.0000000), wk =   0.0078125
        k(  115) = (   0.4375000  -0.7577722   0.0000000), wk =   0.0078125
        k(  116) = (   0.4375000  -0.6856034   0.0000000), wk =   0.0078125
        k(  117) = (   0.4375000  -0.6134347   0.0000000), wk =   0.0078125
        k(  118) = (   0.4375000  -0.5412659   0.0000000), wk =   0.0078125
        k(  119) = (   0.4375000  -0.4690971   0.0000000), wk =   0.0078125
        k(  120) = (   0.4375000  -0.3969283   0.0000000), wk =   0.0078125
        k(  121) = (   0.4375000  -0.3247595   0.0000000), wk =   0.0078125
        k(  122) = (  -0.5000000   0.2886751   0.0000000), wk =   0.0039062
        k(  123) = (  -0.5000000   0.3608439   0.0000000), wk =   0.0078125
        k(  124) = (  -0.5000000   0.4330127   0.0000000), wk =   0.0078125
        k(  125) = (  -0.5000000   0.5051815   0.0000000), wk =   0.0078125
        k(  126) = (  -0.5000000   0.5773503   0.0000000), wk =   0.0078125
        k(  127) = (  -0.5000000   0.6495191   0.0000000), wk =   0.0078125
        k(  128) = (  -0.5000000   0.7216878   0.0000000), wk =   0.0078125
        k(  129) = (  -0.5000000   0.7938566   0.0000000), wk =   0.0078125
        k(  130) = (  -0.5000000  -0.2886751   0.0000000), wk =   0.0039062

                       cryst. coord.
        k(    1) = (   0.0000000   0.0000000   0.0000000), wk =   0.0039062
        k(    2) = (   0.0000000   0.0625000   0.0000000), wk =   0.0078125
        k(    3) = (   0.0000000   0.1250000   0.0000000), wk =   0.0078125
        k(    4) = (   0.0000000   0.1875000   0.0000000), wk =   0.0078125
        k(    5) = (   0.0000000   0.2500000   0.0000000), wk =   0.0078125
        k(    6) = (   0.0000000   0.3125000   0.0000000), wk =   0.0078125
        k(    7) = (   0.0000000   0.3750000   0.0000000), wk =   0.0078125
        k(    8) = (   0.0000000   0.4375000   0.0000000), wk =   0.0078125
        k(    9) = (   0.0000000  -0.5000000   0.0000000), wk =   0.0039062
        k(   10) = (   0.0625000   0.0000000   0.0000000), wk =   0.0078125
        k(   11) = (   0.0625000   0.0625000   0.0000000), wk =   0.0078125
        k(   12) = (   0.0625000   0.1250000   0.0000000), wk =   0.0078125
        k(   13) = (   0.0625000   0.1875000   0.0000000), wk =   0.0078125
        k(   14) = (   0.0625000   0.2500000   0.0000000), wk =   0.0078125
        k(   15) = (   0.0625000   0.3125000   0.0000000), wk =   0.0078125
        k(   16) = (   0.0625000   0.3750000   0.0000000), wk =   0.0078125
        k(   17) = (   0.0625000   0.4375000   0.0000000), wk =   0.0078125
        k(   18) = (   0.0625000  -0.5000000   0.0000000), wk =   0.0078125
        k(   19) = (   0.0625000  -0.4375000   0.0000000), wk =   0.0078125
        k(   20) = (   0.0625000  -0.3750000   0.0000000), wk =   0.0078125
        k(   21) = (   0.0625000  -0.3125000   0.0000000), wk =   0.0078125
        k(   22) = (   0.0625000  -0.2500000   0.0000000), wk =   0.0078125
        k(   23) = (   0.0625000  -0.1875000   0.0000000), wk =   0.0078125
        k(   24) = (   0.0625000  -0.1250000   0.0000000), wk =   0.0078125
        k(   25) = (   0.0625000  -0.0625000   0.0000000), wk =   0.0078125
        k(   26) = (   0.1250000   0.0000000   0.0000000), wk =   0.0078125
        k(   27) = (   0.1250000   0.0625000   0.0000000), wk =   0.0078125
        k(   28) = (   0.1250000   0.1250000   0.0000000), wk =   0.0078125
        k(   29) = (   0.1250000   0.1875000   0.0000000), wk =   0.0078125
        k(   30) = (   0.1250000   0.2500000   0.0000000), wk =   0.0078125
        k(   31) = (   0.1250000   0.3125000   0.0000000), wk =   0.0078125
        k(   32) = (   0.1250000   0.3750000   0.0000000), wk =   0.0078125
        k(   33) = (   0.1250000   0.4375000   0.0000000), wk =   0.0078125
        k(   34) = (   0.1250000  -0.5000000   0.0000000), wk =   0.0078125
        k(   35) = (   0.1250000  -0.4375000   0.0000000), wk =   0.0078125
        k(   36) = (   0.1250000  -0.3750000   0.0000000), wk =   0.0078125
        k(   37) = (   0.1250000  -0.3125000   0.0000000), wk =   0.0078125
        k(   38) = (   0.1250000  -0.2500000   0.0000000), wk =   0.0078125
        k(   39) = (   0.1250000  -0.1875000   0.0000000), wk =   0.0078125
        k(   40) = (   0.1250000  -0.1250000   0.0000000), wk =   0.0078125
        k(   41) = (   0.1250000  -0.0625000   0.0000000), wk =   0.0078125
        k(   42) = (   0.1875000   0.0000000   0.0000000), wk =   0.0078125
        k(   43) = (   0.1875000   0.0625000   0.0000000), wk =   0.0078125
        k(   44) = (   0.1875000   0.1250000   0.0000000), wk =   0.0078125
        k(   45) = (   0.1875000   0.1875000   0.0000000), wk =   0.0078125
        k(   46) = (   0.1875000   0.2500000   0.0000000), wk =   0.0078125
        k(   47) = (   0.1875000   0.3125000   0.0000000), wk =   0.0078125
        k(   48) = (   0.1875000   0.3750000   0.0000000), wk =   0.0078125
        k(   49) = (   0.1875000   0.4375000   0.0000000), wk =   0.0078125
        k(   50) = (   0.1875000  -0.5000000   0.0000000), wk =   0.0078125
        k(   51) = (   0.1875000  -0.4375000   0.0000000), wk =   0.0078125
        k(   52) = (   0.1875000  -0.3750000   0.0000000), wk =   0.0078125
        k(   53) = (   0.1875000  -0.3125000   0.0000000), wk =   0.0078125
        k(   54) = (   0.1875000  -0.2500000   0.0000000), wk =   0.0078125
        k(   55) = (   0.1875000  -0.1875000   0.0000000), wk =   0.0078125
        k(   56) = (   0.1875000  -0.1250000   0.0000000), wk =   0.0078125
        k(   57) = (   0.1875000  -0.0625000   0.0000000), wk =   0.0078125
        k(   58) = (   0.2500000   0.0000000   0.0000000), wk =   0.0078125
        k(   59) = (   0.2500000   0.0625000   0.0000000), wk =   0.0078125
        k(   60) = (   0.2500000   0.1250000   0.0000000), wk =   0.0078125
        k(   61) = (   0.2500000   0.1875000   0.0000000), wk =   0.0078125
        k(   62) = (   0.2500000   0.2500000   0.0000000), wk =   0.0078125
        k(   63) = (   0.2500000   0.3125000   0.0000000), wk =   0.0078125
        k(   64) = (   0.2500000   0.3750000   0.0000000), wk =   0.0078125
        k(   65) = (   0.2500000   0.4375000   0.0000000), wk =   0.0078125
        k(   66) = (   0.2500000  -0.5000000   0.0000000), wk =   0.0078125
        k(   67) = (   0.2500000  -0.4375000   0.0000000), wk =   0.0078125
        k(   68) = (   0.2500000  -0.3750000   0.0000000), wk =   0.0078125
        k(   69) = (   0.2500000  -0.3125000   0.0000000), wk =   0.0078125
        k(   70) = (   0.2500000  -0.2500000   0.0000000), wk =   0.0078125
        k(   71) = (   0.2500000  -0.1875000   0.0000000), wk =   0.0078125
        k(   72) = (   0.2500000  -0.1250000   0.0000000), wk =   0.0078125
        k(   73) = (   0.2500000  -0.0625000   0.0000000), wk =   0.0078125
        k(   74) = (   0.3125000   0.0000000   0.0000000), wk =   0.0078125
        k(   75) = (   0.3125000   0.0625000   0.0000000), wk =   0.0078125
        k(   76) = (   0.3125000   0.1250000   0.0000000), wk =   0.0078125
        k(   77) = (   0.3125000   0.1875000   0.0000000), wk =   0.0078125
        k(   78) = (   0.3125000   0.2500000   0.0000000), wk =   0.0078125
        k(   79) = (   0.3125000   0.3125000   0.0000000), wk =   0.0078125
        k(   80) = (   0.3125000   0.3750000   0.0000000), wk =   0.0078125
        k(   81) = (   0.3125000   0.4375000   0.0000000), wk =   0.0078125
        k(   82) = (   0.3125000  -0.5000000   0.0000000), wk =   0.0078125
        k(   83) = (   0.3125000  -0.4375000   0.0000000), wk =   0.0078125
        k(   84) = (   0.3125000  -0.3750000   0.0000000), wk =   0.0078125
        k(   85) = (   0.3125000  -0.3125000   0.0000000), wk =   0.0078125
        k(   86) = (   0.3125000  -0.2500000   0.0000000), wk =   0.0078125
        k(   87) = (   0.3125000  -0.1875000   0.0000000), wk =   0.0078125
        k(   88) = (   0.3125000  -0.1250000   0.0000000), wk =   0.0078125
        k(   89) = (   0.3125000  -0.0625000   0.0000000), wk =   0.0078125
        k(   90) = (   0.3750000   0.0000000   0.0000000), wk =   0.0078125
        k(   91) = (   0.3750000   0.0625000   0.0000000), wk =   0.0078125
        k(   92) = (   0.3750000   0.1250000   0.0000000), wk =   0.0078125
        k(   93) = (   0.3750000   0.1875000   0.0000000), wk =   0.0078125
        k(   94) = (   0.3750000   0.2500000   0.0000000), wk =   0.0078125
        k(   95) = (   0.3750000   0.3125000   0.0000000), wk =   0.0078125
        k(   96) = (   0.3750000   0.3750000   0.0000000), wk =   0.0078125
        k(   97) = (   0.3750000   0.4375000   0.0000000), wk =   0.0078125
        k(   98) = (   0.3750000  -0.5000000   0.0000000), wk =   0.0078125
        k(   99) = (   0.3750000  -0.4375000   0.0000000), wk =   0.0078125
        k(  100) = (   0.3750000  -0.3750000   0.0000000), wk =   0.0078125
        k(  101) = (   0.3750000  -0.3125000   0.0000000), wk =   0.0078125
        k(  102) = (   0.3750000  -0.2500000   0.0000000), wk =   0.0078125
        k(  103) = (   0.3750000  -0.1875000   0.0000000), wk =   0.0078125
        k(  104) = (   0.3750000  -0.1250000   0.0000000), wk =   0.0078125
        k(  105) = (   0.3750000  -0.0625000   0.0000000), wk =   0.0078125
        k(  106) = (   0.4375000   0.0000000   0.0000000), wk =   0.0078125
        k(  107) = (   0.4375000   0.0625000   0.0000000), wk =   0.0078125
        k(  108) = (   0.4375000   0.1250000   0.0000000), wk =   0.0078125
        k(  109) = (   0.4375000   0.1875000   0.0000000), wk =   0.0078125
        k(  110) = (   0.4375000   0.2500000   0.0000000), wk =   0.0078125
        k(  111) = (   0.4375000   0.3125000   0.0000000), wk =   0.0078125
        k(  112) = (   0.4375000   0.3750000   0.0000000), wk =   0.0078125
        k(  113) = (   0.4375000   0.4375000   0.0000000), wk =   0.0078125
        k(  114) = (   0.4375000  -0.5000000   0.0000000), wk =   0.0078125
        k(  115) = (   0.4375000  -0.4375000   0.0000000), wk =   0.0078125
        k(  116) = (   0.4375000  -0.3750000   0.0000000), wk =   0.0078125
        k(  117) = (   0.4375000  -0.3125000   0.0000000), wk =   0.0078125
        k(  118) = (   0.4375000  -0.2500000   0.0000000), wk =   0.0078125
        k(  119) = (   0.4375000  -0.1875000   0.0000000), wk =   0.0078125
        k(  120) = (   0.4375000  -0.1250000   0.0000000), wk =   0.0078125
        k(  121) = (   0.4375000  -0.0625000   0.0000000), wk =   0.0078125
        k(  122) = (  -0.5000000  -0.0000000   0.0000000), wk =   0.0039062
        k(  123) = (  -0.5000000   0.0625000   0.0000000), wk =   0.0078125
        k(  124) = (  -0.5000000   0.1250000   0.0000000), wk =   0.0078125
        k(  125) = (  -0.5000000   0.1875000   0.0000000), wk =   0.0078125
        k(  126) = (  -0.5000000   0.2500000   0.0000000), wk =   0.0078125
        k(  127) = (  -0.5000000   0.3125000   0.0000000), wk =   0.0078125
        k(  128) = (  -0.5000000   0.3750000   0.0000000), wk =   0.0078125
        k(  129) = (  -0.5000000   0.4375000   0.0000000), wk =   0.0078125
        k(  130) = (  -0.5000000  -0.5000000   0.0000000), wk =   0.0039062

     Dense  grid:  1008141 G-vectors     FFT dimensions: (  72,  72, 450)

     Smooth grid:   356271 G-vectors     FFT dimensions: (  54,  54, 320)

     Dynamical RAM for                 wfc:       6.16 MB

     Dynamical RAM for     wfc (w. buffer):     209.35 MB

     Dynamical RAM for           str. fact:       1.92 MB

     Dynamical RAM for           local pot:       0.00 MB

     Dynamical RAM for          nlocal pot:      18.43 MB

     Dynamical RAM for                qrad:       3.52 MB

     Dynamical RAM for          rho,v,vnew:      12.65 MB

     Dynamical RAM for               rhoin:       4.22 MB

     Dynamical RAM for            rho*nmix:      46.15 MB

     Dynamical RAM for           G-vectors:       3.78 MB

     Dynamical RAM for          h,s,v(r/c):       0.96 MB

     Dynamical RAM for          <psi|beta>:       0.96 MB

     Dynamical RAM for                 psi:      12.31 MB

     Dynamical RAM for                hpsi:      12.31 MB

     Dynamical RAM for                spsi:      12.31 MB

     Dynamical RAM for      wfcinit/wfcrot:      19.51 MB

     Dynamical RAM for           addusdens:      27.04 MB

     Dynamical RAM for          addusforce:      31.91 MB

     Dynamical RAM for         addusstress:      25.17 MB

     Estimated static dynamical RAM per process >     263.63 MB

     Estimated max dynamical RAM per process >     348.64 MB

     Estimated total dynamical RAM >      38.53 GB
 ----2D----2D----2D----2D----2D----2D----2D----2D----2D----2D----2D----2D
  The code is running with the 2D cutoff
  Please refer to:
  Sohier, T., Calandra, M., & Mauri, F. (2017), 
  Density functional perturbation theory for gated two-dimensional heterostructu
 res:
  Theoretical developments and application to flexural phonons in graphene.
  Physical Review B, 96(7), 75448. https://doi.org/10.1103/PhysRevB.96.075448
 ----2D----2D----2D----2D----2D----2D----2D----2D----2D----2D----2D----2D

     Check: negative core charge=   -0.000002
     Generating pointlists ...
     new r_m :   0.1380 (alat units)  1.4128 (a.u.) for type    1
     new r_m :   0.1380 (alat units)  1.4128 (a.u.) for type    2

     Initial potential from superposition of free atoms

     starting charge     240.9874, renormalised to     241.0000

     negative rho (up, down):  3.633E-05 3.651E-05
     Starting wfcs are  217 randomized atomic wfcs
     Checking if some PAW data can be deallocated... 
       PAW data deallocated on    5 nodes for type:  1
       PAW data deallocated on  123 nodes for type:  2

     total cpu time spent up to now is       68.2 secs

     Self-consistent Calculation

     iteration #  1     ecut=    60.00 Ry     beta= 0.20
     Davidson diagonalization with overlap

---- Real-time Memory Report at c_bands before calling an iterative solver
           521 MiB given to the printing process from OS
             0 MiB allocation reported by mallinfo(arena+hblkhd)
         53780 MiB available memory on the node where the printing process lives
------------------
     ethr =  1.00E-02,  avg # of iterations =  6.5

     negative rho (up, down):  1.116E-03 1.166E-03

     total cpu time spent up to now is      222.9 secs

     total energy              =   -7950.53340105 Ry
     estimated scf accuracy    <       3.03945200 Ry

     total magnetization       =     1.73 Bohr mag/cell
     absolute magnetization    =     1.79 Bohr mag/cell

     iteration #  2     ecut=    60.00 Ry     beta= 0.20
     Davidson diagonalization with overlap

---- Real-time Memory Report at c_bands before calling an iterative solver
           578 MiB given to the printing process from OS
             0 MiB allocation reported by mallinfo(arena+hblkhd)
         53349 MiB available memory on the node where the printing process lives
------------------
     ethr =  1.26E-03,  avg # of iterations =  1.6

     negative rho (up, down):  6.568E-03 6.736E-03

     total cpu time spent up to now is      342.5 secs

     total energy              =   -7949.98102669 Ry
     estimated scf accuracy    <       2.02730114 Ry

     total magnetization       =     1.70 Bohr mag/cell
     absolute magnetization    =     1.75 Bohr mag/cell

     iteration #  3     ecut=    60.00 Ry     beta= 0.20
     Davidson diagonalization with overlap

---- Real-time Memory Report at c_bands before calling an iterative solver
           586 MiB given to the printing process from OS
             0 MiB allocation reported by mallinfo(arena+hblkhd)
         53253 MiB available memory on the node where the printing process lives
------------------
     ethr =  8.41E-04,  avg # of iterations =  1.9

     negative rho (up, down):  6.308E-03 6.385E-03

     total cpu time spent up to now is      464.7 secs

     total energy              =   -7950.13716007 Ry
     estimated scf accuracy    <       0.23816181 Ry

     total magnetization       =     1.58 Bohr mag/cell
     absolute magnetization    =     1.63 Bohr mag/cell

     iteration #  4     ecut=    60.00 Ry     beta= 0.20
     Davidson diagonalization with overlap

---- Real-time Memory Report at c_bands before calling an iterative solver
           589 MiB given to the printing process from OS
             0 MiB allocation reported by mallinfo(arena+hblkhd)
         53222 MiB available memory on the node where the printing process lives
------------------
     ethr =  9.88E-05,  avg # of iterations = 10.8

     negative rho (up, down):  5.596E-03 5.640E-03

     total cpu time spent up to now is      670.1 secs

     total energy              =   -7950.18780883 Ry
     estimated scf accuracy    <       0.03809277 Ry

     total magnetization       =     1.55 Bohr mag/cell
     absolute magnetization    =     1.61 Bohr mag/cell

     iteration #  5     ecut=    60.00 Ry     beta= 0.20
     Davidson diagonalization with overlap

---- Real-time Memory Report at c_bands before calling an iterative solver
           593 MiB given to the printing process from OS
             0 MiB allocation reported by mallinfo(arena+hblkhd)
         53151 MiB available memory on the node where the printing process lives
------------------
     ethr =  1.58E-05,  avg # of iterations =  7.5

     negative rho (up, down):  3.490E-03 3.507E-03

     total cpu time spent up to now is      836.8 secs

     total energy              =   -7950.20467266 Ry
     estimated scf accuracy    <       0.02558890 Ry

     total magnetization       =     1.53 Bohr mag/cell
     absolute magnetization    =     1.59 Bohr mag/cell

     iteration #  6     ecut=    60.00 Ry     beta= 0.20
     Davidson diagonalization with overlap

---- Real-time Memory Report at c_bands before calling an iterative solver
           598 MiB given to the printing process from OS
             0 MiB allocation reported by mallinfo(arena+hblkhd)
         53115 MiB available memory on the node where the printing process lives
------------------
     ethr =  1.06E-05,  avg # of iterations =  2.6

     negative rho (up, down):  1.562E-03 1.563E-03

     total cpu time spent up to now is      963.1 secs

     total energy              =   -7950.20947642 Ry
     estimated scf accuracy    <       0.01540384 Ry

     total magnetization       =     1.53 Bohr mag/cell
     absolute magnetization    =     1.59 Bohr mag/cell

     iteration #  7     ecut=    60.00 Ry     beta= 0.20
     Davidson diagonalization with overlap

---- Real-time Memory Report at c_bands before calling an iterative solver
           600 MiB given to the printing process from OS
             0 MiB allocation reported by mallinfo(arena+hblkhd)
         53110 MiB available memory on the node where the printing process lives
------------------
     c_bands:  1 eigenvalues not converged
     ethr =  6.39E-06,  avg # of iterations =  4.8

     negative rho (up, down):  9.509E-04 9.512E-04

     total cpu time spent up to now is     1111.1 secs

     total energy              =   -7950.20817077 Ry
     estimated scf accuracy    <       0.00570559 Ry

     total magnetization       =     1.53 Bohr mag/cell
     absolute magnetization    =     1.59 Bohr mag/cell

     iteration #  8     ecut=    60.00 Ry     beta= 0.20
     Davidson diagonalization with overlap

---- Real-time Memory Report at c_bands before calling an iterative solver
           601 MiB given to the printing process from OS
             0 MiB allocation reported by mallinfo(arena+hblkhd)
         53097 MiB available memory on the node where the printing process lives
------------------
     c_bands:  1 eigenvalues not converged
     c_bands:  1 eigenvalues not converged
     ethr =  2.37E-06,  avg # of iterations =  5.3

     negative rho (up, down):  6.001E-04 6.004E-04

     total cpu time spent up to now is     1279.8 secs

     total energy              =   -7950.21003487 Ry
     estimated scf accuracy    <       0.00330414 Ry

     total magnetization       =     1.53 Bohr mag/cell
     absolute magnetization    =     1.60 Bohr mag/cell

     iteration #  9     ecut=    60.00 Ry     beta= 0.20
     Davidson diagonalization with overlap

---- Real-time Memory Report at c_bands before calling an iterative solver
           603 MiB given to the printing process from OS
             0 MiB allocation reported by mallinfo(arena+hblkhd)
         53063 MiB available memory on the node where the printing process lives
------------------
     ethr =  1.37E-06,  avg # of iterations =  2.3

     negative rho (up, down):  1.238E-04 1.239E-04

     total cpu time spent up to now is     1405.6 secs

     total energy              =   -7950.21040472 Ry
     estimated scf accuracy    <       0.00237328 Ry

     total magnetization       =     1.54 Bohr mag/cell
     absolute magnetization    =     1.61 Bohr mag/cell

     iteration # 10     ecut=    60.00 Ry     beta= 0.20
     Davidson diagonalization with overlap

---- Real-time Memory Report at c_bands before calling an iterative solver
           604 MiB given to the printing process from OS
             0 MiB allocation reported by mallinfo(arena+hblkhd)
         53045 MiB available memory on the node where the printing process lives
------------------
     ethr =  9.85E-07,  avg # of iterations =  1.5

     negative rho (up, down):  3.749E-05 3.751E-05

     total cpu time spent up to now is     1520.2 secs

     total energy              =   -7950.21042931 Ry
     estimated scf accuracy    <       0.00176163 Ry

     total magnetization       =     1.56 Bohr mag/cell
     absolute magnetization    =     1.63 Bohr mag/cell

     iteration # 11     ecut=    60.00 Ry     beta= 0.20
     Davidson diagonalization with overlap

---- Real-time Memory Report at c_bands before calling an iterative solver
           606 MiB given to the printing process from OS
             0 MiB allocation reported by mallinfo(arena+hblkhd)
         53023 MiB available memory on the node where the printing process lives
------------------
     ethr =  7.31E-07,  avg # of iterations =  1.0

     total cpu time spent up to now is     1633.1 secs

     total energy              =   -7950.21009441 Ry
     estimated scf accuracy    <       0.00151909 Ry

     total magnetization       =     1.57 Bohr mag/cell
     absolute magnetization    =     1.64 Bohr mag/cell

     iteration # 12     ecut=    60.00 Ry     beta= 0.20
     Davidson diagonalization with overlap

---- Real-time Memory Report at c_bands before calling an iterative solver
           607 MiB given to the printing process from OS
             0 MiB allocation reported by mallinfo(arena+hblkhd)
         53002 MiB available memory on the node where the printing process lives
------------------
     ethr =  6.30E-07,  avg # of iterations =  1.0

     total cpu time spent up to now is     1748.6 secs

     total energy              =   -7950.21018084 Ry
     estimated scf accuracy    <       0.00029584 Ry

     total magnetization       =     1.64 Bohr mag/cell
     absolute magnetization    =     1.72 Bohr mag/cell

     iteration # 13     ecut=    60.00 Ry     beta= 0.20
     Davidson diagonalization with overlap

---- Real-time Memory Report at c_bands before calling an iterative solver
           609 MiB given to the printing process from OS
             0 MiB allocation reported by mallinfo(arena+hblkhd)
         52975 MiB available memory on the node where the printing process lives
------------------
     ethr =  1.23E-07,  avg # of iterations =  2.4

     total cpu time spent up to now is     1879.8 secs

     total energy              =   -7950.21018160 Ry
     estimated scf accuracy    <       0.00013563 Ry

     total magnetization       =     1.68 Bohr mag/cell
     absolute magnetization    =     1.76 Bohr mag/cell

     iteration # 14     ecut=    60.00 Ry     beta= 0.20
     Davidson diagonalization with overlap

---- Real-time Memory Report at c_bands before calling an iterative solver
           610 MiB given to the printing process from OS
             0 MiB allocation reported by mallinfo(arena+hblkhd)
         52946 MiB available memory on the node where the printing process lives
------------------
     ethr =  5.63E-08,  avg # of iterations =  3.2

     total cpu time spent up to now is     2047.6 secs

     total energy              =   -7950.21018946 Ry
     estimated scf accuracy    <       0.00007496 Ry

     total magnetization       =     1.70 Bohr mag/cell
     absolute magnetization    =     1.78 Bohr mag/cell

     iteration # 15     ecut=    60.00 Ry     beta= 0.20
     Davidson diagonalization with overlap

---- Real-time Memory Report at c_bands before calling an iterative solver
           612 MiB given to the printing process from OS
             0 MiB allocation reported by mallinfo(arena+hblkhd)
         52893 MiB available memory on the node where the printing process lives
------------------
     ethr =  3.11E-08,  avg # of iterations =  2.0

     total cpu time spent up to now is     2176.2 secs

     total energy              =   -7950.21018736 Ry
     estimated scf accuracy    <       0.00005766 Ry

     total magnetization       =     1.71 Bohr mag/cell
     absolute magnetization    =     1.79 Bohr mag/cell

     iteration # 16     ecut=    60.00 Ry     beta= 0.20
     Davidson diagonalization with overlap

---- Real-time Memory Report at c_bands before calling an iterative solver
           612 MiB given to the printing process from OS
             0 MiB allocation reported by mallinfo(arena+hblkhd)
         52894 MiB available memory on the node where the printing process lives
------------------
     ethr =  2.39E-08,  avg # of iterations =  1.8

     negative rho (up, down):  1.172E-05 1.169E-05

     total cpu time spent up to now is     2300.8 secs

     total energy              =   -7950.21018422 Ry
     estimated scf accuracy    <       0.00006397 Ry

     total magnetization       =     1.76 Bohr mag/cell
     absolute magnetization    =     1.84 Bohr mag/cell

     iteration # 17     ecut=    60.00 Ry     beta= 0.20
     Davidson diagonalization with overlap

---- Real-time Memory Report at c_bands before calling an iterative solver
           614 MiB given to the printing process from OS
             0 MiB allocation reported by mallinfo(arena+hblkhd)
         52884 MiB available memory on the node where the printing process lives
------------------
     ethr =  2.39E-08,  avg # of iterations =  2.0

     negative rho (up, down):  8.855E-06 8.838E-06

     total cpu time spent up to now is     2451.2 secs

     total energy              =   -7950.21019112 Ry
     estimated scf accuracy    <       0.00012897 Ry

     total magnetization       =     1.83 Bohr mag/cell
     absolute magnetization    =     1.92 Bohr mag/cell

     iteration # 18     ecut=    60.00 Ry     beta= 0.20
     Davidson diagonalization with overlap

---- Real-time Memory Report at c_bands before calling an iterative solver
           614 MiB given to the printing process from OS
             0 MiB allocation reported by mallinfo(arena+hblkhd)
         52881 MiB available memory on the node where the printing process lives
------------------
     ethr =  2.39E-08,  avg # of iterations =  1.0

     negative rho (up, down):  1.223E-04 1.223E-04

     total cpu time spent up to now is     2562.8 secs

     total energy              =   -7950.21017236 Ry
     estimated scf accuracy    <       0.00009689 Ry

     total magnetization       =     1.84 Bohr mag/cell
     absolute magnetization    =     1.93 Bohr mag/cell

     iteration # 19     ecut=    60.00 Ry     beta= 0.20
     Davidson diagonalization with overlap

---- Real-time Memory Report at c_bands before calling an iterative solver
           614 MiB given to the printing process from OS
             0 MiB allocation reported by mallinfo(arena+hblkhd)
         52877 MiB available memory on the node where the printing process lives
------------------
     ethr =  2.39E-08,  avg # of iterations =  2.0

     negative rho (up, down):  1.197E-04 1.197E-04

     total cpu time spent up to now is     2710.9 secs

     total energy              =   -7950.21018088 Ry
     estimated scf accuracy    <       0.00006731 Ry

     total magnetization       =     1.88 Bohr mag/cell
     absolute magnetization    =     1.97 Bohr mag/cell

     iteration # 20     ecut=    60.00 Ry     beta= 0.20
     Davidson diagonalization with overlap

---- Real-time Memory Report at c_bands before calling an iterative solver
           615 MiB given to the printing process from OS
             0 MiB allocation reported by mallinfo(arena+hblkhd)
         52878 MiB available memory on the node where the printing process lives
------------------
     ethr =  2.39E-08,  avg # of iterations =  1.0

     negative rho (up, down):  1.908E-05 1.904E-05

     total cpu time spent up to now is     2823.4 secs

     total energy              =   -7950.21018678 Ry
     estimated scf accuracy    <       0.00004385 Ry

     total magnetization       =     1.90 Bohr mag/cell
     absolute magnetization    =     1.99 Bohr mag/cell

     iteration # 21     ecut=    60.00 Ry     beta= 0.20
     Davidson diagonalization with overlap

---- Real-time Memory Report at c_bands before calling an iterative solver
           615 MiB given to the printing process from OS
             0 MiB allocation reported by mallinfo(arena+hblkhd)
         52875 MiB available memory on the node where the printing process lives
------------------
     ethr =  1.82E-08,  avg # of iterations =  1.4

     negative rho (up, down):  5.347E-06 5.362E-06

     total cpu time spent up to now is     2946.1 secs

     total energy              =   -7950.21019176 Ry
     estimated scf accuracy    <       0.00003088 Ry

     total magnetization       =     1.94 Bohr mag/cell
     absolute magnetization    =     2.04 Bohr mag/cell

     iteration # 22     ecut=    60.00 Ry     beta= 0.20
     Davidson diagonalization with overlap

---- Real-time Memory Report at c_bands before calling an iterative solver
           615 MiB given to the printing process from OS
             0 MiB allocation reported by mallinfo(arena+hblkhd)
         52875 MiB available memory on the node where the printing process lives
------------------
     ethr =  1.28E-08,  avg # of iterations =  1.8

     negative rho (up, down):  5.703E-05 5.705E-05

     total cpu time spent up to now is     3064.3 secs

     total energy              =   -7950.21019462 Ry
     estimated scf accuracy    <       0.00000955 Ry

     total magnetization       =     1.99 Bohr mag/cell
     absolute magnetization    =     2.09 Bohr mag/cell

     iteration # 23     ecut=    60.00 Ry     beta= 0.20
     Davidson diagonalization with overlap

---- Real-time Memory Report at c_bands before calling an iterative solver
           615 MiB given to the printing process from OS
             0 MiB allocation reported by mallinfo(arena+hblkhd)
         52875 MiB available memory on the node where the printing process lives
------------------
     ethr =  3.96E-09,  avg # of iterations =  2.0

     negative rho (up, down):  3.199E-06 3.232E-06

     total cpu time spent up to now is     3198.1 secs

     total energy              =   -7950.21019750 Ry
     estimated scf accuracy    <       0.00000286 Ry

     total magnetization       =     2.03 Bohr mag/cell
     absolute magnetization    =     2.13 Bohr mag/cell

     iteration # 24     ecut=    60.00 Ry     beta= 0.20
     Davidson diagonalization with overlap

---- Real-time Memory Report at c_bands before calling an iterative solver
           615 MiB given to the printing process from OS
             0 MiB allocation reported by mallinfo(arena+hblkhd)
         52864 MiB available memory on the node where the printing process lives
------------------
     ethr =  1.19E-09,  avg # of iterations =  2.8

     negative rho (up, down):  4.814E-06 4.840E-06

     total cpu time spent up to now is     3356.3 secs

     total energy              =   -7950.21019849 Ry
     estimated scf accuracy    <       0.00000287 Ry

     total magnetization       =     2.05 Bohr mag/cell
     absolute magnetization    =     2.15 Bohr mag/cell

     iteration # 25     ecut=    60.00 Ry     beta= 0.20
     Davidson diagonalization with overlap

---- Real-time Memory Report at c_bands before calling an iterative solver
           615 MiB given to the printing process from OS
             0 MiB allocation reported by mallinfo(arena+hblkhd)
         52863 MiB available memory on the node where the printing process lives
------------------
     ethr =  1.19E-09,  avg # of iterations =  1.0

     negative rho (up, down):  1.471E-05 1.473E-05

     total cpu time spent up to now is     3468.7 secs

     total energy              =   -7950.21019902 Ry
     estimated scf accuracy    <       0.00000186 Ry

     total magnetization       =     2.05 Bohr mag/cell
     absolute magnetization    =     2.15 Bohr mag/cell

     iteration # 26     ecut=    60.00 Ry     beta= 0.20
     Davidson diagonalization with overlap

---- Real-time Memory Report at c_bands before calling an iterative solver
           615 MiB given to the printing process from OS
             0 MiB allocation reported by mallinfo(arena+hblkhd)
         52858 MiB available memory on the node where the printing process lives
------------------
     ethr =  7.72E-10,  avg # of iterations =  1.0

     negative rho (up, down):  1.070E-05 1.071E-05

     total cpu time spent up to now is     3584.0 secs

     total energy              =   -7950.21019956 Ry
     estimated scf accuracy    <       0.00000159 Ry

     total magnetization       =     2.06 Bohr mag/cell
     absolute magnetization    =     2.16 Bohr mag/cell

     iteration # 27     ecut=    60.00 Ry     beta= 0.20
     Davidson diagonalization with overlap

---- Real-time Memory Report at c_bands before calling an iterative solver
           615 MiB given to the printing process from OS
             0 MiB allocation reported by mallinfo(arena+hblkhd)
         52858 MiB available memory on the node where the printing process lives
------------------
     ethr =  6.58E-10,  avg # of iterations =  1.0

     negative rho (up, down):  4.612E-06 4.616E-06

     total cpu time spent up to now is     3695.2 secs

     total energy              =   -7950.21020060 Ry
     estimated scf accuracy    <       0.00000160 Ry

     total magnetization       =     2.07 Bohr mag/cell
     absolute magnetization    =     2.17 Bohr mag/cell

     iteration # 28     ecut=    60.00 Ry     beta= 0.20
     Davidson diagonalization with overlap

---- Real-time Memory Report at c_bands before calling an iterative solver
           615 MiB given to the printing process from OS
             0 MiB allocation reported by mallinfo(arena+hblkhd)
         52859 MiB available memory on the node where the printing process lives
------------------
     ethr =  6.58E-10,  avg # of iterations =  1.5

     negative rho (up, down):  4.064E-06 4.067E-06

     total cpu time spent up to now is     3807.6 secs

     total energy              =   -7950.21019999 Ry
     estimated scf accuracy    <       0.00000159 Ry

     total magnetization       =     2.09 Bohr mag/cell
     absolute magnetization    =     2.19 Bohr mag/cell

     iteration # 29     ecut=    60.00 Ry     beta= 0.20
     Davidson diagonalization with overlap

---- Real-time Memory Report at c_bands before calling an iterative solver
           616 MiB given to the printing process from OS
             0 MiB allocation reported by mallinfo(arena+hblkhd)
         52854 MiB available memory on the node where the printing process lives
------------------
     ethr =  6.58E-10,  avg # of iterations =  1.0

     negative rho (up, down):  7.621E-05 7.619E-05

     total cpu time spent up to now is     3919.7 secs

     total energy              =   -7950.21018711 Ry
     estimated scf accuracy    <       0.00000169 Ry

     total magnetization       =     2.08 Bohr mag/cell
     absolute magnetization    =     2.18 Bohr mag/cell

     iteration # 30     ecut=    60.00 Ry     beta= 0.20
     Davidson diagonalization with overlap

---- Real-time Memory Report at c_bands before calling an iterative solver
           616 MiB given to the printing process from OS
             0 MiB allocation reported by mallinfo(arena+hblkhd)
         52867 MiB available memory on the node where the printing process lives
------------------
     ethr =  6.58E-10,  avg # of iterations =  3.6

     negative rho (up, down):  3.490E-05 3.490E-05

     total cpu time spent up to now is     4086.4 secs

     total energy              =   -7950.21019336 Ry
     estimated scf accuracy    <       0.00000323 Ry

     total magnetization       =     2.25 Bohr mag/cell
     absolute magnetization    =     2.37 Bohr mag/cell

     iteration # 31     ecut=    60.00 Ry     beta= 0.20
     Davidson diagonalization with overlap

---- Real-time Memory Report at c_bands before calling an iterative solver
           616 MiB given to the printing process from OS
             0 MiB allocation reported by mallinfo(arena+hblkhd)
         52868 MiB available memory on the node where the printing process lives
------------------
     ethr =  6.58E-10,  avg # of iterations =  2.8

     negative rho (up, down):  4.828E-06 4.827E-06

     total cpu time spent up to now is     4253.4 secs

     total energy              =   -7950.21020199 Ry
     estimated scf accuracy    <       0.00000344 Ry

     total magnetization       =     2.13 Bohr mag/cell
     absolute magnetization    =     2.24 Bohr mag/cell

     iteration # 32     ecut=    60.00 Ry     beta= 0.20
     Davidson diagonalization with overlap

---- Real-time Memory Report at c_bands before calling an iterative solver
           616 MiB given to the printing process from OS
             0 MiB allocation reported by mallinfo(arena+hblkhd)
         52861 MiB available memory on the node where the printing process lives
------------------
     ethr =  6.58E-10,  avg # of iterations =  2.7

     negative rho (up, down):  4.057E-05 4.057E-05

     total cpu time spent up to now is     4431.6 secs

     total energy              =   -7950.21019975 Ry
     estimated scf accuracy    <       0.00000301 Ry

     total magnetization       =     2.24 Bohr mag/cell
     absolute magnetization    =     2.35 Bohr mag/cell

     iteration # 33     ecut=    60.00 Ry     beta= 0.20
     Davidson diagonalization with overlap

---- Real-time Memory Report at c_bands before calling an iterative solver
           616 MiB given to the printing process from OS
             0 MiB allocation reported by mallinfo(arena+hblkhd)
         52857 MiB available memory on the node where the printing process lives
------------------
     ethr =  6.58E-10,  avg # of iterations =  2.0

     negative rho (up, down):  2.635E-05 2.635E-05

     total cpu time spent up to now is     4560.9 secs

     total energy              =   -7950.21018496 Ry
     estimated scf accuracy    <       0.00000207 Ry

     total magnetization       =     2.15 Bohr mag/cell
     absolute magnetization    =     2.26 Bohr mag/cell

     iteration # 34     ecut=    60.00 Ry     beta= 0.20
     Davidson diagonalization with overlap

---- Real-time Memory Report at c_bands before calling an iterative solver
           616 MiB given to the printing process from OS
             0 MiB allocation reported by mallinfo(arena+hblkhd)
         52852 MiB available memory on the node where the printing process lives
------------------
     ethr =  6.58E-10,  avg # of iterations =  4.0

     negative rho (up, down):  3.212E-05 3.212E-05

     total cpu time spent up to now is     4759.8 secs

     total energy              =   -7950.21018586 Ry
     estimated scf accuracy    <       0.00000154 Ry

     total magnetization       =     2.37 Bohr mag/cell
     absolute magnetization    =     2.48 Bohr mag/cell

     iteration # 35     ecut=    60.00 Ry     beta= 0.20
     Davidson diagonalization with overlap

---- Real-time Memory Report at c_bands before calling an iterative solver
           616 MiB given to the printing process from OS
             0 MiB allocation reported by mallinfo(arena+hblkhd)
         52851 MiB available memory on the node where the printing process lives
------------------
     ethr =  6.37E-10,  avg # of iterations =  3.2

     negative rho (up, down):  2.512E-05 2.513E-05

     total cpu time spent up to now is     4942.4 secs

     total energy              =   -7950.21003150 Ry
     estimated scf accuracy    <       0.00000205 Ry

     total magnetization       =     2.20 Bohr mag/cell
     absolute magnetization    =     2.31 Bohr mag/cell

     iteration # 36     ecut=    60.00 Ry     beta= 0.20
     Davidson diagonalization with overlap

---- Real-time Memory Report at c_bands before calling an iterative solver
           616 MiB given to the printing process from OS
             0 MiB allocation reported by mallinfo(arena+hblkhd)
         52850 MiB available memory on the node where the printing process lives
------------------
     ethr =  6.37E-10,  avg # of iterations =  6.1

     negative rho (up, down):  2.587E-05 2.587E-05

     total cpu time spent up to now is     5188.0 secs

     total energy              =   -7950.21020516 Ry
     estimated scf accuracy    <       0.00000143 Ry

     total magnetization       =     2.71 Bohr mag/cell
     absolute magnetization    =     2.85 Bohr mag/cell

     iteration # 37     ecut=    60.00 Ry     beta= 0.20
     Davidson diagonalization with overlap

---- Real-time Memory Report at c_bands before calling an iterative solver
           616 MiB given to the printing process from OS
             0 MiB allocation reported by mallinfo(arena+hblkhd)
         52847 MiB available memory on the node where the printing process lives
------------------
     ethr =  5.92E-10,  avg # of iterations =  3.7

     negative rho (up, down):  6.651E-06 6.649E-06

     total cpu time spent up to now is     5383.0 secs

     total energy              =   -7950.21020280 Ry
     estimated scf accuracy    <       0.00000544 Ry

     total magnetization       =     2.54 Bohr mag/cell
     absolute magnetization    =     2.66 Bohr mag/cell

     iteration # 38     ecut=    60.00 Ry     beta= 0.20
     Davidson diagonalization with overlap

---- Real-time Memory Report at c_bands before calling an iterative solver
           616 MiB given to the printing process from OS
             0 MiB allocation reported by mallinfo(arena+hblkhd)
         52847 MiB available memory on the node where the printing process lives
------------------
     ethr =  5.92E-10,  avg # of iterations =  5.1

     negative rho (up, down):  1.853E-05 1.853E-05

     total cpu time spent up to now is     5610.0 secs

     total energy              =   -7950.20976167 Ry
     estimated scf accuracy    <       0.00000207 Ry

     total magnetization       =     2.77 Bohr mag/cell
     absolute magnetization    =     2.91 Bohr mag/cell

     iteration # 39     ecut=    60.00 Ry     beta= 0.20
     Davidson diagonalization with overlap

---- Real-time Memory Report at c_bands before calling an iterative solver
           616 MiB given to the printing process from OS
             0 MiB allocation reported by mallinfo(arena+hblkhd)
         52844 MiB available memory on the node where the printing process lives
------------------
     ethr =  5.92E-10,  avg # of iterations =  6.9

     negative rho (up, down):  5.042E-05 5.042E-05

     total cpu time spent up to now is     5906.4 secs

     total energy              =   -7950.20975067 Ry
     estimated scf accuracy    <       0.00000193 Ry

     total magnetization       =     2.02 Bohr mag/cell
     absolute magnetization    =     2.12 Bohr mag/cell

     iteration # 40     ecut=    60.00 Ry     beta= 0.20
     Davidson diagonalization with overlap

---- Real-time Memory Report at c_bands before calling an iterative solver
           616 MiB given to the printing process from OS
             0 MiB allocation reported by mallinfo(arena+hblkhd)
         52837 MiB available memory on the node where the printing process lives
------------------
     ethr =  5.92E-10,  avg # of iterations =  7.0

     negative rho (up, down):  1.103E-05 1.103E-05

     total cpu time spent up to now is     6203.4 secs

     total energy              =   -7950.21007309 Ry
     estimated scf accuracy    <       0.00000342 Ry

     total magnetization       =     2.82 Bohr mag/cell
     absolute magnetization    =     2.96 Bohr mag/cell

     iteration # 41     ecut=    60.00 Ry     beta= 0.20
     Davidson diagonalization with overlap

---- Real-time Memory Report at c_bands before calling an iterative solver
           616 MiB given to the printing process from OS
             0 MiB allocation reported by mallinfo(arena+hblkhd)
         52838 MiB available memory on the node where the printing process lives
------------------
     ethr =  5.92E-10,  avg # of iterations =  6.0

     negative rho (up, down):  1.406E-05 1.405E-05

     total cpu time spent up to now is     6443.8 secs

     total energy              =   -7950.20980567 Ry
     estimated scf accuracy    <       0.00000331 Ry

     total magnetization       =     2.38 Bohr mag/cell
     absolute magnetization    =     2.50 Bohr mag/cell

     iteration # 42     ecut=    60.00 Ry     beta= 0.20
     Davidson diagonalization with overlap

---- Real-time Memory Report at c_bands before calling an iterative solver
           616 MiB given to the printing process from OS
             0 MiB allocation reported by mallinfo(arena+hblkhd)
         52834 MiB available memory on the node where the printing process lives
------------------
     ethr =  5.92E-10,  avg # of iterations =  6.7

     negative rho (up, down):  1.211E-05 1.210E-05

     total cpu time spent up to now is     6743.8 secs

     total energy              =   -7950.20970766 Ry
     estimated scf accuracy    <       0.00000593 Ry

     total magnetization       =     1.69 Bohr mag/cell
     absolute magnetization    =     1.78 Bohr mag/cell

     iteration # 43     ecut=    60.00 Ry     beta= 0.20
     Davidson diagonalization with overlap

---- Real-time Memory Report at c_bands before calling an iterative solver
           617 MiB given to the printing process from OS
             0 MiB allocation reported by mallinfo(arena+hblkhd)
         52835 MiB available memory on the node where the printing process lives
------------------
     ethr =  5.92E-10,  avg # of iterations =  6.9

     negative rho (up, down):  1.429E-05 1.428E-05

     total cpu time spent up to now is     7056.8 secs

     total energy              =   -7950.21019565 Ry
     estimated scf accuracy    <       0.00000618 Ry

     total magnetization       =     2.51 Bohr mag/cell
     absolute magnetization    =     2.64 Bohr mag/cell

     iteration # 44     ecut=    60.00 Ry     beta= 0.20
     Davidson diagonalization with overlap

---- Real-time Memory Report at c_bands before calling an iterative solver
           617 MiB given to the printing process from OS
             0 MiB allocation reported by mallinfo(arena+hblkhd)
         52832 MiB available memory on the node where the printing process lives
------------------
     ethr =  5.92E-10,  avg # of iterations =  3.2

     negative rho (up, down):  7.962E-06 7.953E-06

     total cpu time spent up to now is     7243.9 secs

     total energy              =   -7950.20874914 Ry
     estimated scf accuracy    <       0.00000526 Ry

     total magnetization       =     2.34 Bohr mag/cell
     absolute magnetization    =     2.46 Bohr mag/cell

     iteration # 45     ecut=    60.00 Ry     beta= 0.20
     Davidson diagonalization with overlap

---- Real-time Memory Report at c_bands before calling an iterative solver
           617 MiB given to the printing process from OS
             0 MiB allocation reported by mallinfo(arena+hblkhd)
         52833 MiB available memory on the node where the printing process lives
------------------
     ethr =  5.92E-10,  avg # of iterations =  8.1

     negative rho (up, down):  2.249E-05 2.247E-05

     total cpu time spent up to now is     7610.0 secs

     total energy              =   -7950.21015960 Ry
     estimated scf accuracy    <       0.00001775 Ry

     total magnetization       =     3.72 Bohr mag/cell
     absolute magnetization    =     3.92 Bohr mag/cell

     iteration # 46     ecut=    60.00 Ry     beta= 0.20
     Davidson diagonalization with overlap

---- Real-time Memory Report at c_bands before calling an iterative solver
           617 MiB given to the printing process from OS
             0 MiB allocation reported by mallinfo(arena+hblkhd)
         52831 MiB available memory on the node where the printing process lives
------------------
     ethr =  5.92E-10,  avg # of iterations =  5.8

     negative rho (up, down):  2.864E-05 2.862E-05

     total cpu time spent up to now is     7855.7 secs

     total energy              =   -7950.21028570 Ry
     estimated scf accuracy    <       0.00005533 Ry

     total magnetization       =     4.11 Bohr mag/cell
     absolute magnetization    =     4.33 Bohr mag/cell

     iteration # 47     ecut=    60.00 Ry     beta= 0.20
     Davidson diagonalization with overlap

---- Real-time Memory Report at c_bands before calling an iterative solver
           617 MiB given to the printing process from OS
             0 MiB allocation reported by mallinfo(arena+hblkhd)
         52833 MiB available memory on the node where the printing process lives
------------------
     ethr =  5.92E-10,  avg # of iterations =  1.0

     negative rho (up, down):  4.070E-05 4.069E-05

     total cpu time spent up to now is     7967.9 secs

     total energy              =   -7950.21028584 Ry
     estimated scf accuracy    <       0.00005181 Ry

     total magnetization       =     4.13 Bohr mag/cell
     absolute magnetization    =     4.34 Bohr mag/cell

     iteration # 48     ecut=    60.00 Ry     beta= 0.20
     Davidson diagonalization with overlap

---- Real-time Memory Report at c_bands before calling an iterative solver
           617 MiB given to the printing process from OS
             0 MiB allocation reported by mallinfo(arena+hblkhd)
         52833 MiB available memory on the node where the printing process lives
------------------
     ethr =  5.92E-10,  avg # of iterations =  1.2

     negative rho (up, down):  2.532E-06 2.534E-06

     total cpu time spent up to now is     8080.3 secs

     total energy              =   -7950.20947750 Ry
     estimated scf accuracy    <       0.00002117 Ry

     total magnetization       =     4.11 Bohr mag/cell
     absolute magnetization    =     4.32 Bohr mag/cell

     iteration # 49     ecut=    60.00 Ry     beta= 0.20
     Davidson diagonalization with overlap

---- Real-time Memory Report at c_bands before calling an iterative solver
           617 MiB given to the printing process from OS
             0 MiB allocation reported by mallinfo(arena+hblkhd)
         52832 MiB available memory on the node where the printing process lives
------------------
     ethr =  5.92E-10,  avg # of iterations =  7.0

     negative rho (up, down):  3.041E-05 3.041E-05

     total cpu time spent up to now is     8403.4 secs

     total energy              =   -7950.21017315 Ry
     estimated scf accuracy    <       0.00001762 Ry

     total magnetization       =     3.12 Bohr mag/cell
     absolute magnetization    =     3.28 Bohr mag/cell

     iteration # 50     ecut=    60.00 Ry     beta= 0.20
     Davidson diagonalization with overlap

---- Real-time Memory Report at c_bands before calling an iterative solver
           618 MiB given to the printing process from OS
             0 MiB allocation reported by mallinfo(arena+hblkhd)
         52831 MiB available memory on the node where the printing process lives
------------------
     ethr =  5.92E-10,  avg # of iterations =  5.6

     negative rho (up, down):  2.327E-05 2.328E-05

     total cpu time spent up to now is     8629.1 secs

     total energy              =   -7950.21022174 Ry
     estimated scf accuracy    <       0.00000852 Ry

     total magnetization       =     3.49 Bohr mag/cell
     absolute magnetization    =     3.67 Bohr mag/cell

     iteration # 51     ecut=    60.00 Ry     beta= 0.20
     Davidson diagonalization with overlap

---- Real-time Memory Report at c_bands before calling an iterative solver
           618 MiB given to the printing process from OS
             0 MiB allocation reported by mallinfo(arena+hblkhd)
         52831 MiB available memory on the node where the printing process lives
------------------
     ethr =  5.92E-10,  avg # of iterations =  5.0

     negative rho (up, down):  1.528E-05 1.528E-05

     total cpu time spent up to now is     8839.2 secs

     total energy              =   -7950.21020211 Ry
     estimated scf accuracy    <       0.00000060 Ry

     total magnetization       =     3.77 Bohr mag/cell
     absolute magnetization    =     3.97 Bohr mag/cell

     iteration # 52     ecut=    60.00 Ry     beta= 0.20
     Davidson diagonalization with overlap

---- Real-time Memory Report at c_bands before calling an iterative solver
           618 MiB given to the printing process from OS
             0 MiB allocation reported by mallinfo(arena+hblkhd)
         52829 MiB available memory on the node where the printing process lives
------------------
     ethr =  2.50E-10,  avg # of iterations =  6.0

     negative rho (up, down):  1.324E-05 1.324E-05

     total cpu time spent up to now is     9097.8 secs

     total energy              =   -7950.21027378 Ry
     estimated scf accuracy    <       0.00000541 Ry

     total magnetization       =     3.46 Bohr mag/cell
     absolute magnetization    =     3.64 Bohr mag/cell

     iteration # 53     ecut=    60.00 Ry     beta= 0.20
     Davidson diagonalization with overlap

---- Real-time Memory Report at c_bands before calling an iterative solver
           618 MiB given to the printing process from OS
             0 MiB allocation reported by mallinfo(arena+hblkhd)
         52828 MiB available memory on the node where the printing process lives
------------------
     ethr =  2.50E-10,  avg # of iterations =  3.9

     negative rho (up, down):  1.346E-05 1.346E-05

     total cpu time spent up to now is     9281.9 secs

     total energy              =   -7950.21016393 Ry
     estimated scf accuracy    <       0.00000633 Ry

     total magnetization       =     3.58 Bohr mag/cell
     absolute magnetization    =     3.77 Bohr mag/cell

     iteration # 54     ecut=    60.00 Ry     beta= 0.20
     Davidson diagonalization with overlap

---- Real-time Memory Report at c_bands before calling an iterative solver
           618 MiB given to the printing process from OS
             0 MiB allocation reported by mallinfo(arena+hblkhd)
         52829 MiB available memory on the node where the printing process lives
------------------
     ethr =  2.50E-10,  avg # of iterations =  6.2

     negative rho (up, down):  2.144E-05 2.144E-05

     total cpu time spent up to now is     9546.5 secs

     total energy              =   -7950.21019555 Ry
     estimated scf accuracy    <       0.00000213 Ry

     total magnetization       =     3.97 Bohr mag/cell
     absolute magnetization    =     4.18 Bohr mag/cell

     iteration # 55     ecut=    60.00 Ry     beta= 0.20
     Davidson diagonalization with overlap

---- Real-time Memory Report at c_bands before calling an iterative solver
           618 MiB given to the printing process from OS
             0 MiB allocation reported by mallinfo(arena+hblkhd)
         52826 MiB available memory on the node where the printing process lives
------------------
     ethr =  2.50E-10,  avg # of iterations =  6.1

     negative rho (up, down):  1.686E-05 1.687E-05

     total cpu time spent up to now is     9797.3 secs

     total energy              =   -7950.21023797 Ry
     estimated scf accuracy    <       0.00000325 Ry

     total magnetization       =     3.64 Bohr mag/cell
     absolute magnetization    =     3.83 Bohr mag/cell

     iteration # 56     ecut=    60.00 Ry     beta= 0.20
     Davidson diagonalization with overlap

---- Real-time Memory Report at c_bands before calling an iterative solver
           618 MiB given to the printing process from OS
             0 MiB allocation reported by mallinfo(arena+hblkhd)
         52816 MiB available memory on the node where the printing process lives
------------------
     ethr =  2.50E-10,  avg # of iterations =  5.8

     negative rho (up, down):  1.035E-05 1.036E-05

     total cpu time spent up to now is    10028.9 secs

     total energy              =   -7950.21028794 Ry
     estimated scf accuracy    <       0.00000033 Ry

     total magnetization       =     3.89 Bohr mag/cell
     absolute magnetization    =     4.09 Bohr mag/cell

     iteration # 57     ecut=    60.00 Ry     beta= 0.20
     Davidson diagonalization with overlap

---- Real-time Memory Report at c_bands before calling an iterative solver
           618 MiB given to the printing process from OS
             0 MiB allocation reported by mallinfo(arena+hblkhd)
         52815 MiB available memory on the node where the printing process lives
------------------
     ethr =  1.38E-10,  avg # of iterations =  2.1

     negative rho (up, down):  1.550E-05 1.551E-05

     total cpu time spent up to now is    10173.0 secs

     total energy              =   -7950.21028343 Ry
     estimated scf accuracy    <       0.00000005 Ry

     total magnetization       =     3.85 Bohr mag/cell
     absolute magnetization    =     4.05 Bohr mag/cell

     iteration # 58     ecut=    60.00 Ry     beta= 0.20
     Davidson diagonalization with overlap

---- Real-time Memory Report at c_bands before calling an iterative solver
           618 MiB given to the printing process from OS
             0 MiB allocation reported by mallinfo(arena+hblkhd)
         52815 MiB available memory on the node where the printing process lives
------------------
     ethr =  1.97E-11,  avg # of iterations =  6.0

     negative rho (up, down):  1.708E-05 1.709E-05

     total cpu time spent up to now is    10420.5 secs

     total energy              =   -7950.21026841 Ry
     estimated scf accuracy    <       0.00000009 Ry

     total magnetization       =     3.93 Bohr mag/cell
     absolute magnetization    =     4.14 Bohr mag/cell

     iteration # 59     ecut=    60.00 Ry     beta= 0.20
     Davidson diagonalization with overlap

---- Real-time Memory Report at c_bands before calling an iterative solver
           618 MiB given to the printing process from OS
             0 MiB allocation reported by mallinfo(arena+hblkhd)
         52817 MiB available memory on the node where the printing process lives
------------------
     ethr =  1.97E-11,  avg # of iterations =  7.0

     negative rho (up, down):  5.915E-06 5.921E-06

     total cpu time spent up to now is    10728.3 secs

     total energy              =   -7950.21026818 Ry
     estimated scf accuracy    <       0.00000099 Ry

     total magnetization       =     3.78 Bohr mag/cell
     absolute magnetization    =     3.98 Bohr mag/cell

     iteration # 60     ecut=    60.00 Ry     beta= 0.20
     Davidson diagonalization with overlap

---- Real-time Memory Report at c_bands before calling an iterative solver
           618 MiB given to the printing process from OS
             0 MiB allocation reported by mallinfo(arena+hblkhd)
         52811 MiB available memory on the node where the printing process lives
------------------
     ethr =  1.97E-11,  avg # of iterations =  7.0

     negative rho (up, down):  8.487E-06 8.494E-06

     total cpu time spent up to now is    11038.0 secs

     total energy              =   -7950.21028513 Ry
     estimated scf accuracy    <       0.00000009 Ry

     total magnetization       =     3.94 Bohr mag/cell
     absolute magnetization    =     4.15 Bohr mag/cell

     iteration # 61     ecut=    60.00 Ry     beta= 0.20
     Davidson diagonalization with overlap

---- Real-time Memory Report at c_bands before calling an iterative solver
           618 MiB given to the printing process from OS
             0 MiB allocation reported by mallinfo(arena+hblkhd)
         52810 MiB available memory on the node where the printing process lives
------------------
     ethr =  1.97E-11,  avg # of iterations =  5.7

     negative rho (up, down):  7.139E-06 7.146E-06

     total cpu time spent up to now is    11267.1 secs

     total energy              =   -7950.21028588 Ry
     estimated scf accuracy    <       0.00000018 Ry

     total magnetization       =     3.87 Bohr mag/cell
     absolute magnetization    =     4.07 Bohr mag/cell

     iteration # 62     ecut=    60.00 Ry     beta= 0.20
     Davidson diagonalization with overlap

---- Real-time Memory Report at c_bands before calling an iterative solver
           618 MiB given to the printing process from OS
             0 MiB allocation reported by mallinfo(arena+hblkhd)
         52808 MiB available memory on the node where the printing process lives
------------------
     ethr =  1.97E-11,  avg # of iterations =  5.5

     negative rho (up, down):  9.046E-06 9.054E-06

     total cpu time spent up to now is    11491.4 secs

     total energy              =   -7950.21028682 Ry
     estimated scf accuracy    <          4.7E-09 Ry

     total magnetization       =     3.93 Bohr mag/cell
     absolute magnetization    =     4.14 Bohr mag/cell

     iteration # 63     ecut=    60.00 Ry     beta= 0.20
     Davidson diagonalization with overlap

---- Real-time Memory Report at c_bands before calling an iterative solver
           619 MiB given to the printing process from OS
             0 MiB allocation reported by mallinfo(arena+hblkhd)
         52809 MiB available memory on the node where the printing process lives
------------------
     ethr =  1.96E-12,  avg # of iterations =  7.8

     negative rho (up, down):  8.028E-06 8.035E-06

     total cpu time spent up to now is    11823.3 secs

     total energy              =   -7950.21028895 Ry
     estimated scf accuracy    <       0.00000010 Ry

     total magnetization       =     3.88 Bohr mag/cell
     absolute magnetization    =     4.08 Bohr mag/cell

     iteration # 64     ecut=    60.00 Ry     beta= 0.20
     Davidson diagonalization with overlap

---- Real-time Memory Report at c_bands before calling an iterative solver
           619 MiB given to the printing process from OS
             0 MiB allocation reported by mallinfo(arena+hblkhd)
         52809 MiB available memory on the node where the printing process lives
------------------
     ethr =  1.96E-12,  avg # of iterations =  5.9

     negative rho (up, down):  8.063E-06 8.070E-06

     total cpu time spent up to now is    12062.4 secs

     total energy              =   -7950.21028877 Ry
     estimated scf accuracy    <       0.00000001 Ry

     total magnetization       =     3.90 Bohr mag/cell
     absolute magnetization    =     4.11 Bohr mag/cell

     iteration # 65     ecut=    60.00 Ry     beta= 0.20
     Davidson diagonalization with overlap

---- Real-time Memory Report at c_bands before calling an iterative solver
           619 MiB given to the printing process from OS
             0 MiB allocation reported by mallinfo(arena+hblkhd)
         52805 MiB available memory on the node where the printing process lives
------------------
     ethr =  1.96E-12,  avg # of iterations =  6.1

     negative rho (up, down):  7.491E-06 7.498E-06

     total cpu time spent up to now is    12310.7 secs

     total energy              =   -7950.21028941 Ry
     estimated scf accuracy    <          3.2E-09 Ry

     total magnetization       =     3.93 Bohr mag/cell
     absolute magnetization    =     4.14 Bohr mag/cell

     iteration # 66     ecut=    60.00 Ry     beta= 0.20
     Davidson diagonalization with overlap

---- Real-time Memory Report at c_bands before calling an iterative solver
           619 MiB given to the printing process from OS
             0 MiB allocation reported by mallinfo(arena+hblkhd)
         52806 MiB available memory on the node where the printing process lives
------------------
     ethr =  1.33E-12,  avg # of iterations =  2.9

     negative rho (up, down):  6.946E-06 6.953E-06

     total cpu time spent up to now is    12468.5 secs

     total energy              =   -7950.21028944 Ry
     estimated scf accuracy    <          6.4E-10 Ry

     total magnetization       =     3.93 Bohr mag/cell
     absolute magnetization    =     4.13 Bohr mag/cell

     iteration # 67     ecut=    60.00 Ry     beta= 0.20
     Davidson diagonalization with overlap

---- Real-time Memory Report at c_bands before calling an iterative solver
           619 MiB given to the printing process from OS
             0 MiB allocation reported by mallinfo(arena+hblkhd)
         52805 MiB available memory on the node where the printing process lives
------------------
     ethr =  2.68E-13,  avg # of iterations =  3.4

     negative rho (up, down):  7.180E-06 7.187E-06

     total cpu time spent up to now is    12627.0 secs

     total energy              =   -7950.21028936 Ry
     estimated scf accuracy    <          3.2E-09 Ry

     total magnetization       =     3.93 Bohr mag/cell
     absolute magnetization    =     4.14 Bohr mag/cell

     iteration # 68     ecut=    60.00 Ry     beta= 0.20
     Davidson diagonalization with overlap

---- Real-time Memory Report at c_bands before calling an iterative solver
           619 MiB given to the printing process from OS
             0 MiB allocation reported by mallinfo(arena+hblkhd)
         52805 MiB available memory on the node where the printing process lives
------------------
     ethr =  2.68E-13,  avg # of iterations =  6.0

     negative rho (up, down):  7.405E-06 7.412E-06
 
     Magnetic moment per site  (integrated on atomic sphere of radius R)
     atom   1 (R=0.138)  charge=  5.6111  magn=  0.1125
     atom   2 (R=0.138)  charge=  5.6111  magn=  0.1125
     atom   3 (R=0.138)  charge=  5.6108  magn=  0.1119
     atom   4 (R=0.138)  charge=  5.6111  magn=  0.1125
     atom   5 (R=0.138)  charge=  5.5963  magn=  0.1701
     atom   6 (R=0.138)  charge=  5.5962  magn=  0.1661
     atom   7 (R=0.138)  charge=  5.5963  magn=  0.1701
     atom   8 (R=0.138)  charge=  5.5963  magn=  0.1701
     atom   9 (R=0.138)  charge=  5.5953  magn=  0.1787
     atom  10 (R=0.138)  charge=  5.5955  magn=  0.1712
     atom  11 (R=0.138)  charge=  5.5955  magn=  0.1712
     atom  12 (R=0.138)  charge=  5.5955  magn=  0.1712
     atom  13 (R=0.138)  charge=  5.5961  magn=  0.1533
     atom  14 (R=0.138)  charge=  5.5952  magn=  0.1553
     atom  15 (R=0.138)  charge=  5.5961  magn=  0.1533
     atom  16 (R=0.138)  charge=  5.5961  magn=  0.1533
     atom  17 (R=0.138)  charge=  5.5970  magn=  0.1230
     atom  18 (R=0.138)  charge=  5.5999  magn=  0.1065
     atom  19 (R=0.138)  charge=  5.5970  magn=  0.1230
     atom  20 (R=0.138)  charge=  5.5970  magn=  0.1230
     atom  21 (R=0.138)  charge=  5.6069  magn=  0.0527
     atom  22 (R=0.138)  charge=  5.6142  magn=  0.0750
     atom  23 (R=0.138)  charge=  5.6069  magn=  0.0527
     atom  24 (R=0.138)  charge=  5.6069  magn=  0.0527
     atom  25 (R=0.138)  charge=  1.0159  magn= -0.0007

     total cpu time spent up to now is    12865.9 secs

     End of self-consistent calculation

 ------ SPIN UP ------------


          k = 0.0000 0.0000 0.0000 ( 44627 PWs)   bands (ev):

   -12.6451 -12.3306 -11.7200 -11.0708 -10.9937 -10.9937 -10.9911 -10.9680
   -10.8453 -10.8453 -10.8388 -10.7190 -10.7190 -10.7177 -10.6158 -10.6158
   -10.6117 -10.6037 -10.4479 -10.4258 -10.4258 -10.3562 -10.2281 -10.2281
   -10.2270 -10.1542 -10.1542 -10.0777 -10.0095 -10.0095  -9.5877  -9.4721
    -9.4721  -8.9932  -8.8538  -8.8538  -8.6413  -8.6153  -8.6153  -8.5309
    -8.5025  -8.4949  -8.4832  -8.4832  -8.4218  -8.4218  -8.3559  -8.3559
    -8.3248  -8.3248  -8.3241  -8.2360  -8.2347  -8.2347  -8.1402  -8.1402
    -7.9527  -7.9527  -7.8729  -7.8729  -7.8479  -7.8056  -7.8056  -7.7972
    -7.6056  -7.6056  -7.5952  -7.4530  -7.2761  -7.2761  -7.1523  -7.1522
    -7.1285  -6.8502  -6.7208  -6.7208  -6.6997  -6.6997  -6.6414  -6.6414
    -6.6219  -6.4546  -6.4546  -6.4197  -6.3897  -6.3897  -6.1794  -6.1794
    -6.1747  -6.0271  -6.0271  -5.8028  -5.8028  -5.7970  -5.7266  -5.7223
    -5.7223  -5.6218  -5.6218  -5.5266  -5.4791  -5.4772  -5.4772  -5.4280
    -5.4280  -5.4001  -5.4001  -5.3981  -5.3260  -5.3246  -5.3246  -5.3192
    -5.3192  -5.2509  -5.2425  -5.2425  -5.1703  -5.1537  -5.1537  -5.0640
    -5.0454  -5.0331  -5.0331  -4.9844  -4.9844  -4.9835  -4.2371  -3.8597
    -3.7540  -3.7540  -3.1846  -2.6978  -2.6978  -2.2829  -1.8424  -1.8424
    -1.6820  -1.6461  -1.6461  -1.5389  -1.3886  -1.3886  -1.3470  -1.3414
    -1.3414

     occupation numbers 
     1.0000   1.0000   1.0000   1.0000   1.0000   1.0000   1.0000   1.0000
     1.0000   1.0000   1.0000   1.0000   1.0000   1.0000   1.0000   1.0000
     1.0000   1.0000   1.0000   1.0000   1.0000   1.0000   1.0000   1.0000
     1.0000   1.0000   1.0000   1.0000   1.0000   1.0000   1.0000   1.0000
     1.0000   1.0000   1.0000   1.0000   1.0000   1.0000   1.0000   1.0000
     1.0000   1.0000   1.0000   1.0000   1.0000   1.0000   1.0000   1.0000
     1.0000   1.0000   1.0000   1.0000   1.0000   1.0000   1.0000   1.0000
     1.0000   1.0000   1.0000   1.0000   1.0000   1.0000   1.0000   1.0000
     1.0000   1.0000   1.0000   1.0000   1.0000   1.0000   1.0000   1.0000
     1.0000   1.0000   1.0000   1.0000   1.0000   1.0000   1.0000   1.0000
     1.0000   1.0000   1.0000   1.0000   1.0000   1.0000   1.0000   1.0000
     1.0000   1.0000   1.0000   1.0072   1.0072   1.0080   1.0240   1.0254
     1.0254   1.0687   1.0687   1.0731   1.0227   1.0196   1.0196   0.9123
     0.9123   0.8290   0.8290   0.8224   0.5610   0.5557   0.5557   0.5355
     0.5355   0.3016   0.2771   0.2771   0.1176   0.0933   0.0933   0.0214
     0.0150   0.0118   0.0118   0.0042   0.0042   0.0041   0.0000   0.0000
     0.0000   0.0000   0.0000   0.0000   0.0000   0.0000   0.0000   0.0000
     0.0000   0.0000   0.0000   0.0000   0.0000   0.0000   0.0000   0.0000
     0.0000

          k = 0.0000 0.0722 0.0000 ( 44605 PWs)   bands (ev):

   -12.6145 -12.3045 -11.6918 -11.0416 -10.9768 -10.9719 -10.9700 -10.9418
   -10.8353 -10.8242 -10.8192 -10.7046 -10.7022 -10.7010 -10.6010 -10.5915
   -10.5872 -10.5771 -10.4301 -10.4098 -10.4019 -10.3330 -10.2134 -10.2131
   -10.2113 -10.1383 -10.1307 -10.0576  -9.9927  -9.9844  -9.5781  -9.4638
    -9.4623  -8.9944  -8.8607  -8.8549  -8.6488  -8.6281  -8.6054  -8.5531
    -8.5383  -8.4897  -8.4737  -8.4688  -8.4407  -8.4001  -8.3420  -8.3413
    -8.3172  -8.3149  -8.3130  -8.2705  -8.2452  -8.2129  -8.1203  -8.1055
    -7.9838  -7.9333  -7.9019  -7.8616  -7.8528  -7.8229  -7.8068  -7.7959
    -7.6263  -7.6074  -7.6059  -7.5052  -7.3632  -7.3211  -7.1436  -7.1266
    -7.0837  -6.9135  -6.7625  -6.7614  -6.7307  -6.7287  -6.6706  -6.6221
    -6.6201  -6.4809  -6.4734  -6.4393  -6.3900  -6.3770  -6.3178  -6.1965
    -6.1840  -6.0268  -5.9120  -5.8508  -5.8196  -5.8070  -5.7780  -5.7505
    -5.7494  -5.7231  -5.6217  -5.5997  -5.5052  -5.4972  -5.4896  -5.4848
    -5.4840  -5.4335  -5.4269  -5.3914  -5.3630  -5.3611  -5.3518  -5.3432
    -5.3367  -5.2880  -5.2824  -5.2690  -5.2007  -5.1931  -5.1797  -5.0955
    -5.0912  -5.0653  -5.0387  -5.0383  -5.0145  -4.9006  -4.1151  -3.9300
    -3.7210  -3.6651  -3.2231  -2.8634  -2.6861  -2.4401  -2.2519  -2.0118
    -1.9283  -1.8053  -1.7629  -1.5112  -1.3469  -1.2786  -0.9567  -0.9200
    -0.5745

     occupation numbers 
     1.0000   1.0000   1.0000   1.0000   1.0000   1.0000   1.0000   1.0000
     1.0000   1.0000   1.0000   1.0000   1.0000   1.0000   1.0000   1.0000
     1.0000   1.0000   1.0000   1.0000   1.0000   1.0000   1.0000   1.0000
     1.0000   1.0000   1.0000   1.0000   1.0000   1.0000   1.0000   1.0000
     1.0000   1.0000   1.0000   1.0000   1.0000   1.0000   1.0000   1.0000
     1.0000   1.0000   1.0000   1.0000   1.0000   1.0000   1.0000   1.0000
     1.0000   1.0000   1.0000   1.0000   1.0000   1.0000   1.0000   1.0000
     1.0000   1.0000   1.0000   1.0000   1.0000   1.0000   1.0000   1.0000
     1.0000   1.0000   1.0000   1.0000   1.0000   1.0000   1.0000   1.0000
     1.0000   1.0000   1.0000   1.0000   1.0000   1.0000   1.0000   1.0000
     1.0000   1.0000   1.0000   1.0000   1.0000   1.0000   1.0000   1.0000
     1.0000   1.0000   1.0007   1.0029   1.0053   1.0067   1.0111   1.0171
     1.0174   1.0251   1.0687   1.0771   1.0562   1.0475   1.0380   1.0313
     1.0302   0.9269   0.9093   0.7999   0.6998   0.6926   0.6583   0.6257
     0.6013   0.4224   0.4027   0.3579   0.1735   0.1580   0.1332   0.0375
     0.0348   0.0219   0.0132   0.0131   0.0081   0.0005   0.0000   0.0000
     0.0000   0.0000   0.0000   0.0000   0.0000   0.0000   0.0000   0.0000
     0.0000   0.0000   0.0000   0.0000   0.0000   0.0000   0.0000   0.0000
     0.0000

          k = 0.0000 0.1443 0.0000 ( 44584 PWs)   bands (ev):

   -12.5248 -12.2273 -11.6083 -10.9563 -10.9282 -10.9085 -10.9067 -10.8648
   -10.8105 -10.7620 -10.7573 -10.6625 -10.6512 -10.6498 -10.5609 -10.5199
   -10.5151 -10.4955 -10.3954 -10.3459 -10.3316 -10.2652 -10.1702 -10.1686
   -10.1656 -10.0911 -10.0619 -10.0009  -9.9388  -9.9092  -9.5503  -9.4398
    -9.4332  -9.0018  -8.8852  -8.8566  -8.6785  -8.6602  -8.6422  -8.6134
    -8.5674  -8.4968  -8.4615  -8.4415  -8.4271  -8.3551  -8.3356  -8.3007
    -8.2993  -8.2948  -8.2904  -8.2839  -8.2758  -8.1479  -8.0704  -8.0618
    -8.0474  -7.9437  -7.9198  -7.8931  -7.8686  -7.8292  -7.7934  -7.7768
    -7.6960  -7.6551  -7.6182  -7.6033  -7.5120  -7.4159  -7.1556  -7.1347
    -7.0464  -7.0145  -6.8361  -6.8326  -6.8221  -6.8185  -6.7937  -6.6845
    -6.6095  -6.6012  -6.5928  -6.4604  -6.4478  -6.3871  -6.2828  -6.2440
    -6.2193  -6.1145  -6.0271  -5.9164  -5.9035  -5.8732  -5.8625  -5.8541
    -5.8382  -5.8258  -5.7161  -5.7124  -5.6213  -5.5730  -5.5722  -5.5321
    -5.5252  -5.5212  -5.4475  -5.4451  -5.4336  -5.4312  -5.4228  -5.4043
    -5.3828  -5.3801  -5.3483  -5.3415  -5.3213  -5.3207  -5.2482  -5.2087
    -5.1988  -5.1548  -5.1083  -5.1080  -5.0988  -4.6546  -4.3561  -3.7852
    -3.5445  -3.4687  -3.4678  -3.2130  -2.9007  -2.6642  -2.5357  -2.2127
    -2.1050  -1.9059  -1.7509  -1.2601  -1.0430  -0.9961  -0.4244  -0.3760
     0.1334

     occupation numbers 
     1.0000   1.0000   1.0000   1.0000   1.0000   1.0000   1.0000   1.0000
     1.0000   1.0000   1.0000   1.0000   1.0000   1.0000   1.0000   1.0000
     1.0000   1.0000   1.0000   1.0000   1.0000   1.0000   1.0000   1.0000
     1.0000   1.0000   1.0000   1.0000   1.0000   1.0000   1.0000   1.0000
     1.0000   1.0000   1.0000   1.0000   1.0000   1.0000   1.0000   1.0000
     1.0000   1.0000   1.0000   1.0000   1.0000   1.0000   1.0000   1.0000
     1.0000   1.0000   1.0000   1.0000   1.0000   1.0000   1.0000   1.0000
     1.0000   1.0000   1.0000   1.0000   1.0000   1.0000   1.0000   1.0000
     1.0000   1.0000   1.0000   1.0000   1.0000   1.0000   1.0000   1.0000
     1.0000   1.0000   1.0000   1.0000   1.0000   1.0000   1.0000   1.0000
     1.0000   1.0000   1.0000   1.0000   1.0000   1.0000   1.0000   1.0000
     1.0000   1.0000   1.0000   1.0007   1.0009   1.0018   1.0023   1.0027
     1.0037   1.0047   1.0275   1.0289   1.0689   1.0829   1.0830   1.0759
     1.0722   1.0697   0.9614   0.9559   0.9274   0.9210   0.8978   0.8423
     0.7706   0.7613   0.6451   0.6195   0.5434   0.5410   0.2936   0.1909
     0.1697   0.0948   0.0465   0.0462   0.0397   0.0000   0.0000   0.0000
     0.0000   0.0000   0.0000   0.0000   0.0000   0.0000   0.0000   0.0000
     0.0000   0.0000   0.0000   0.0000   0.0000   0.0000   0.0000   0.0000
     0.0000

          k = 0.0000 0.2165 0.0000 ( 44580 PWs)   bands (ev):

   -12.3819 -12.1027 -11.4740 -10.8521 -10.8213 -10.8097 -10.8077 -10.7729
   -10.7409 -10.6622 -10.6575 -10.5942 -10.5636 -10.5618 -10.4977 -10.4053
   -10.4006 -10.3668 -10.3487 -10.2354 -10.2200 -10.1609 -10.0997 -10.0989
   -10.0913 -10.0109  -9.9538  -9.9206  -9.8392  -9.7848  -9.5070  -9.4021
    -9.3860  -9.0257  -8.9323  -8.8560  -8.7765  -8.7184  -8.7030  -8.7010
    -8.5850  -8.5264  -8.4448  -8.4142  -8.3854  -8.3659  -8.3535  -8.2987
    -8.2596  -8.2512  -8.2488  -8.2320  -8.2289  -8.1142  -8.0754  -8.0417
    -8.0024  -7.9852  -7.9669  -7.9546  -7.8844  -7.8052  -7.7881  -7.7878
    -7.7431  -7.7046  -7.6940  -7.6501  -7.5999  -7.5379  -7.3038  -7.1347
    -7.1119  -7.1041  -7.0207  -6.9621  -6.9334  -6.9125  -6.9056  -6.8884
    -6.7614  -6.6539  -6.6162  -6.5917  -6.4602  -6.3821  -6.3815  -6.3248
    -6.3010  -6.2617  -6.1855  -6.1653  -6.0518  -6.0281  -6.0191  -6.0081
    -5.9017  -5.8879  -5.8832  -5.8829  -5.7137  -5.7085  -5.6808  -5.6312
    -5.6298  -5.6158  -5.6099  -5.5920  -5.5905  -5.5755  -5.5481  -5.4664
    -5.4657  -5.4558  -5.4381  -5.4352  -5.4147  -5.3533  -5.2847  -5.2771
    -5.2762  -5.2052  -5.1653  -5.1291  -5.1131  -4.9933  -4.4093  -4.1212
    -3.8447  -3.3591  -3.2589  -3.1483  -2.9326  -2.6995  -2.6449  -2.3285
    -2.1991  -1.8099  -1.5879  -1.2772  -0.7530  -0.6024   0.1381   0.2120
     0.4495

     occupation numbers 
     1.0000   1.0000   1.0000   1.0000   1.0000   1.0000   1.0000   1.0000
     1.0000   1.0000   1.0000   1.0000   1.0000   1.0000   1.0000   1.0000
     1.0000   1.0000   1.0000   1.0000   1.0000   1.0000   1.0000   1.0000
     1.0000   1.0000   1.0000   1.0000   1.0000   1.0000   1.0000   1.0000
     1.0000   1.0000   1.0000   1.0000   1.0000   1.0000   1.0000   1.0000
     1.0000   1.0000   1.0000   1.0000   1.0000   1.0000   1.0000   1.0000
     1.0000   1.0000   1.0000   1.0000   1.0000   1.0000   1.0000   1.0000
     1.0000   1.0000   1.0000   1.0000   1.0000   1.0000   1.0000   1.0000
     1.0000   1.0000   1.0000   1.0000   1.0000   1.0000   1.0000   1.0000
     1.0000   1.0000   1.0000   1.0000   1.0000   1.0000   1.0000   1.0000
     1.0000   1.0000   1.0000   1.0000   1.0000   1.0000   1.0000   1.0000
     1.0000   1.0000   1.0000   1.0000   1.0000   1.0000   1.0000   1.0001
     1.0009   1.0013   1.0014   1.0014   1.0284   1.0303   1.0416   1.0646
     1.0652   1.0712   1.0735   1.0793   1.0797   1.0826   1.0815   1.0009
     0.9995   0.9797   0.9386   0.9313   0.8744   0.6635   0.4106   0.3849
     0.3817   0.1833   0.1098   0.0647   0.0502   0.0051   0.0000   0.0000
     0.0000   0.0000   0.0000   0.0000   0.0000   0.0000   0.0000   0.0000
     0.0000   0.0000   0.0000   0.0000   0.0000   0.0000   0.0000   0.0000
     0.0000

          k = 0.0000 0.2887 0.0000 ( 44592 PWs)   bands (ev):

   -12.1989 -11.9348 -11.2967 -10.7505 -10.7371 -10.6867 -10.6854 -10.6436
   -10.5791 -10.5317 -10.5273 -10.5043 -10.4362 -10.4347 -10.4164 -10.2947
   -10.2579 -10.2527 -10.2001 -10.0924 -10.0777 -10.0372 -10.0145 -10.0000
    -9.9828  -9.8950  -9.8218  -9.8196  -9.7048  -9.6168  -9.4484  -9.3527
    -9.3226  -9.0692  -8.9941  -8.9447  -8.8479  -8.7908  -8.7595  -8.7480
    -8.6984  -8.5936  -8.4805  -8.4524  -8.3881  -8.3529  -8.3254  -8.3009
    -8.2293  -8.2178  -8.2086  -8.1696  -8.1521  -8.0959  -8.0901  -8.0835
    -8.0583  -7.9918  -7.9494  -7.9226  -7.8988  -7.8849  -7.8638  -7.8436
    -7.7414  -7.7255  -7.6489  -7.6041  -7.5923  -7.5585  -7.4715  -7.3723
    -7.3492  -7.2815  -7.1754  -7.1068  -7.0329  -6.9944  -6.9812  -6.9790
    -6.9297  -6.8824  -6.6871  -6.6354  -6.5528  -6.5446  -6.5162  -6.4843
    -6.4266  -6.4243  -6.3713  -6.3660  -6.3327  -6.3014  -6.2758  -6.0412
    -6.0090  -5.9991  -5.9896  -5.9055  -5.8976  -5.8741  -5.8693  -5.8667
    -5.8509  -5.8277  -5.8120  -5.7395  -5.7113  -5.6756  -5.6191  -5.5955
    -5.5824  -5.5189  -5.5041  -5.4878  -5.4529  -5.4527  -5.4430  -5.3980
    -5.2927  -5.2872  -5.2712  -5.1403  -5.1338  -5.0190  -4.8061  -4.5960
    -3.7225  -3.2794  -3.0970  -3.0856  -2.7633  -2.6300  -2.5127  -2.3000
    -2.1844  -1.7203  -1.4532  -1.3922  -0.4281  -0.2344   0.2728   0.7412
     0.8070

     occupation numbers 
     1.0000   1.0000   1.0000   1.0000   1.0000   1.0000   1.0000   1.0000
     1.0000   1.0000   1.0000   1.0000   1.0000   1.0000   1.0000   1.0000
     1.0000   1.0000   1.0000   1.0000   1.0000   1.0000   1.0000   1.0000
     1.0000   1.0000   1.0000   1.0000   1.0000   1.0000   1.0000   1.0000
     1.0000   1.0000   1.0000   1.0000   1.0000   1.0000   1.0000   1.0000
     1.0000   1.0000   1.0000   1.0000   1.0000   1.0000   1.0000   1.0000
     1.0000   1.0000   1.0000   1.0000   1.0000   1.0000   1.0000   1.0000
     1.0000   1.0000   1.0000   1.0000   1.0000   1.0000   1.0000   1.0000
     1.0000   1.0000   1.0000   1.0000   1.0000   1.0000   1.0000   1.0000
     1.0000   1.0000   1.0000   1.0000   1.0000   1.0000   1.0000   1.0000
     1.0000   1.0000   1.0000   1.0000   1.0000   1.0000   1.0000   1.0000
     1.0000   1.0000   1.0000   1.0000   1.0000   1.0000   1.0000   1.0000
     1.0001   1.0001   1.0001   1.0009   1.0010   1.0018   1.0019   1.0021
     1.0029   1.0046   1.0061   1.0201   1.0293   1.0440   1.0699   1.0784
     1.0816   1.0680   1.0551   1.0356   0.9735   0.9731   0.9508   0.8222
     0.4388   0.4196   0.3651   0.0767   0.0695   0.0088   0.0000   0.0000
     0.0000   0.0000   0.0000   0.0000   0.0000   0.0000   0.0000   0.0000
     0.0000   0.0000   0.0000   0.0000   0.0000   0.0000   0.0000   0.0000
     0.0000

          k = 0.0000 0.3608 0.0000 ( 44550 PWs)   bands (ev):

   -12.0010 -11.7253 -11.0906 -10.7064 -10.6320 -10.5518 -10.5501 -10.4695
   -10.4120 -10.3923 -10.3831 -10.3751 -10.3269 -10.2723 -10.2712 -10.2210
   -10.0968 -10.0928 -10.0236  -9.9371  -9.9319  -9.9250  -9.8832  -9.8682
    -9.8489  -9.7593  -9.6985  -9.6823  -9.5824  -9.4199  -9.3548  -9.2863
    -9.2476  -9.1375  -9.0875  -9.0460  -8.9096  -8.8413  -8.8234  -8.8046
    -8.8010  -8.6955  -8.6237  -8.5367  -8.4176  -8.4034  -8.3344  -8.2765
    -8.2610  -8.2537  -8.1827  -8.1540  -8.1149  -8.1078  -8.1045  -8.0708
    -8.0666  -8.0427  -7.9777  -7.9409  -7.9067  -7.8847  -7.7917  -7.7354
    -7.6971  -7.6810  -7.6746  -7.6654  -7.6519  -7.6021  -7.5618  -7.5228
    -7.4777  -7.4466  -7.4007  -7.2763  -7.2152  -7.1005  -7.0901  -7.0135
    -6.9871  -6.9864  -6.8750  -6.8682  -6.8076  -6.7534  -6.7368  -6.6796
    -6.6458  -6.5745  -6.5603  -6.5243  -6.5094  -6.3636  -6.3046  -6.2531
    -6.2077  -6.2002  -6.1983  -6.1694  -6.1651  -6.0808  -6.0459  -6.0411
    -6.0154  -5.9956  -5.9375  -5.9328  -5.9224  -5.8528  -5.7467  -5.6907
    -5.6229  -5.6132  -5.5454  -5.5258  -5.5212  -5.4766  -5.4387  -5.4366
    -5.3904  -5.3048  -5.2873  -5.2838  -5.2270  -5.1360  -5.1354  -4.3730
    -3.8249  -3.1572  -2.9614  -2.9325  -2.6610  -2.6092  -2.3376  -2.1182
    -1.9651  -1.8866  -1.3783  -1.2172  -0.2497   0.0206   0.0635   1.2131
     1.3549

     occupation numbers 
     1.0000   1.0000   1.0000   1.0000   1.0000   1.0000   1.0000   1.0000
     1.0000   1.0000   1.0000   1.0000   1.0000   1.0000   1.0000   1.0000
     1.0000   1.0000   1.0000   1.0000   1.0000   1.0000   1.0000   1.0000
     1.0000   1.0000   1.0000   1.0000   1.0000   1.0000   1.0000   1.0000
     1.0000   1.0000   1.0000   1.0000   1.0000   1.0000   1.0000   1.0000
     1.0000   1.0000   1.0000   1.0000   1.0000   1.0000   1.0000   1.0000
     1.0000   1.0000   1.0000   1.0000   1.0000   1.0000   1.0000   1.0000
     1.0000   1.0000   1.0000   1.0000   1.0000   1.0000   1.0000   1.0000
     1.0000   1.0000   1.0000   1.0000   1.0000   1.0000   1.0000   1.0000
     1.0000   1.0000   1.0000   1.0000   1.0000   1.0000   1.0000   1.0000
     1.0000   1.0000   1.0000   1.0000   1.0000   1.0000   1.0000   1.0000
     1.0000   1.0000   1.0000   1.0000   1.0000   1.0000   1.0000   1.0000
     1.0000   1.0000   1.0000   1.0000   1.0000   1.0000   1.0000   1.0000
     1.0000   1.0001   1.0004   1.0004   1.0006   1.0028   1.0181   1.0374
     1.0682   1.0722   1.0809   1.0726   1.0696   1.0187   0.9403   0.9350
     0.7966   0.4824   0.4198   0.4077   0.2352   0.0719   0.0713   0.0000
     0.0000   0.0000   0.0000   0.0000   0.0000   0.0000   0.0000   0.0000
     0.0000   0.0000   0.0000   0.0000   0.0000   0.0000   0.0000   0.0000
     0.0000

          k = 0.0000 0.4330 0.0000 ( 44520 PWs)   bands (ev):

   -11.8243 -11.4771 -10.8782 -10.7100 -10.5153 -10.4144 -10.4124 -10.3703
   -10.3323 -10.2425 -10.2418 -10.2292 -10.1923 -10.1145 -10.1025 -10.1010
    -9.9347  -9.9301  -9.8719  -9.8342  -9.8039  -9.8021  -9.7300  -9.7182
    -9.7042  -9.6311  -9.5534  -9.5490  -9.4968  -9.2992  -9.2393  -9.2201
    -9.1884  -9.1678  -9.1103  -9.0679  -9.0148  -8.9637  -8.8842  -8.8610
    -8.8597  -8.7901  -8.6708  -8.6461  -8.5460  -8.5007  -8.4497  -8.3835
    -8.3510  -8.2571  -8.1900  -8.1411  -8.1327  -8.1173  -8.1106  -8.0930
    -8.0572  -8.0082  -7.9518  -7.9472  -7.9166  -7.8846  -7.8721  -7.8404
    -7.8113  -7.7039  -7.6764  -7.6404  -7.6398  -7.6155  -7.5670  -7.5447
    -7.5104  -7.4972  -7.4677  -7.3215  -7.2402  -7.2386  -7.2153  -7.1497
    -7.1085  -7.0870  -7.0867  -7.0372  -6.9770  -6.9658  -6.9506  -6.8711
    -6.7537  -6.7011  -6.6797  -6.6602  -6.6477  -6.6279  -6.4505  -6.4442
    -6.4305  -6.3863  -6.3850  -6.3491  -6.3450  -6.3004  -6.2377  -6.1957
    -6.1771  -6.1370  -6.1326  -6.0642  -6.0138  -5.9795  -5.9688  -5.9367
    -5.8469  -5.6201  -5.5994  -5.5722  -5.5243  -5.4956  -5.4103  -5.4100
    -5.3787  -5.3231  -5.2885  -5.2865  -5.2283  -5.1377  -5.1369  -4.2306
    -3.9159  -3.0014  -2.8827  -2.8259  -2.5820  -2.4886  -2.3335  -2.1222
    -2.0494  -1.4142  -1.1954  -1.0861  -0.5577   0.1032   0.2698   1.0240
     1.5910

     occupation numbers 
     1.0000   1.0000   1.0000   1.0000   1.0000   1.0000   1.0000   1.0000
     1.0000   1.0000   1.0000   1.0000   1.0000   1.0000   1.0000   1.0000
     1.0000   1.0000   1.0000   1.0000   1.0000   1.0000   1.0000   1.0000
     1.0000   1.0000   1.0000   1.0000   1.0000   1.0000   1.0000   1.0000
     1.0000   1.0000   1.0000   1.0000   1.0000   1.0000   1.0000   1.0000
     1.0000   1.0000   1.0000   1.0000   1.0000   1.0000   1.0000   1.0000
     1.0000   1.0000   1.0000   1.0000   1.0000   1.0000   1.0000   1.0000
     1.0000   1.0000   1.0000   1.0000   1.0000   1.0000   1.0000   1.0000
     1.0000   1.0000   1.0000   1.0000   1.0000   1.0000   1.0000   1.0000
     1.0000   1.0000   1.0000   1.0000   1.0000   1.0000   1.0000   1.0000
     1.0000   1.0000   1.0000   1.0000   1.0000   1.0000   1.0000   1.0000
     1.0000   1.0000   1.0000   1.0000   1.0000   1.0000   1.0000   1.0000
     1.0000   1.0000   1.0000   1.0000   1.0000   1.0000   1.0000   1.0000
     1.0000   1.0000   1.0000   1.0000   1.0001   1.0001   1.0002   1.0004
     1.0031   1.0694   1.0772   1.0830   1.0717   1.0456   0.8611   0.8601
     0.7562   0.5502   0.4241   0.4169   0.2385   0.0737   0.0728   0.0000
     0.0000   0.0000   0.0000   0.0000   0.0000   0.0000   0.0000   0.0000
     0.0000   0.0000   0.0000   0.0000   0.0000   0.0000   0.0000   0.0000
     0.0000

          k = 0.0000 0.5052 0.0000 ( 44502 PWs)   bands (ev):

   -11.7022 -11.2101 -10.7902 -10.6856 -10.4649 -10.3500 -10.2841 -10.2828
   -10.2680 -10.1587 -10.1583 -10.1302 -10.0627  -9.9937  -9.9913  -9.9769
    -9.7996  -9.7967  -9.7870  -9.7150  -9.6932  -9.6895  -9.6263  -9.6150
    -9.5709  -9.5364  -9.4709  -9.4070  -9.3988  -9.3561  -9.2045  -9.2041
    -9.1712  -9.0957  -9.0909  -9.0752  -9.0500  -9.0090  -8.9348  -8.8906
    -8.8624  -8.8578  -8.6991  -8.6947  -8.6503  -8.6104  -8.5500  -8.4810
    -8.4641  -8.2822  -8.2595  -8.2587  -8.2289  -8.1796  -8.1226  -8.0518
    -8.0361  -8.0296  -8.0240  -7.9957  -7.9799  -7.9673  -7.8211  -7.7677
    -7.7620  -7.7319  -7.7280  -7.7026  -7.5998  -7.5716  -7.5524  -7.5408
    -7.5131  -7.5081  -7.4816  -7.4034  -7.3593  -7.3015  -7.2943  -7.2810
    -7.2094  -7.1663  -7.1418  -7.0890  -7.0438  -7.0144  -6.9933  -6.9922
    -6.8914  -6.8170  -6.7998  -6.7840  -6.7572  -6.6848  -6.6766  -6.5886
    -6.5711  -6.5637  -6.5401  -6.5396  -6.5269  -6.5038  -6.3669  -6.3326
    -6.3112  -6.2988  -6.2554  -6.1061  -6.1055  -6.0184  -5.9872  -5.9847
    -5.9468  -5.7799  -5.6233  -5.5782  -5.5237  -5.5026  -5.3784  -5.3757
    -5.3672  -5.3362  -5.2951  -5.2949  -5.1416  -5.1382  -5.0022  -4.4542
    -3.6432  -2.9835  -2.8405  -2.8217  -2.5963  -2.5592  -2.2428  -2.0020
    -1.9108  -1.2723  -1.0069  -0.9479  -0.7156   0.1839   0.3860   0.4875
     1.7675

     occupation numbers 
     1.0000   1.0000   1.0000   1.0000   1.0000   1.0000   1.0000   1.0000
     1.0000   1.0000   1.0000   1.0000   1.0000   1.0000   1.0000   1.0000
     1.0000   1.0000   1.0000   1.0000   1.0000   1.0000   1.0000   1.0000
     1.0000   1.0000   1.0000   1.0000   1.0000   1.0000   1.0000   1.0000
     1.0000   1.0000   1.0000   1.0000   1.0000   1.0000   1.0000   1.0000
     1.0000   1.0000   1.0000   1.0000   1.0000   1.0000   1.0000   1.0000
     1.0000   1.0000   1.0000   1.0000   1.0000   1.0000   1.0000   1.0000
     1.0000   1.0000   1.0000   1.0000   1.0000   1.0000   1.0000   1.0000
     1.0000   1.0000   1.0000   1.0000   1.0000   1.0000   1.0000   1.0000
     1.0000   1.0000   1.0000   1.0000   1.0000   1.0000   1.0000   1.0000
     1.0000   1.0000   1.0000   1.0000   1.0000   1.0000   1.0000   1.0000
     1.0000   1.0000   1.0000   1.0000   1.0000   1.0000   1.0000   1.0000
     1.0000   1.0000   1.0000   1.0000   1.0000   1.0000   1.0000   1.0000
     1.0000   1.0000   1.0000   1.0000   1.0000   1.0000   1.0001   1.0001
     1.0003   1.0108   1.0681   1.0823   1.0713   1.0536   0.7552   0.7455
     0.7152   0.5993   0.4473   0.4466   0.0783   0.0743   0.0062   0.0000
     0.0000   0.0000   0.0000   0.0000   0.0000   0.0000   0.0000   0.0000
     0.0000   0.0000   0.0000   0.0000   0.0000   0.0000   0.0000   0.0000
     0.0000

          k = 0.0000-0.5774 0.0000 ( 44486 PWs)   bands (ev):

   -11.6583 -10.9716 -10.9571 -10.5573 -10.5293 -10.2905 -10.2821 -10.1862
   -10.1841 -10.1811 -10.1764 -10.0863 -10.0248  -9.9624  -9.9588  -9.8431
    -9.8340  -9.7615  -9.7591  -9.6397  -9.6225  -9.5995  -9.5691  -9.5238
    -9.5185  -9.5001  -9.4660  -9.4271  -9.4245  -9.3179  -9.2518  -9.1553
    -9.1529  -9.1228  -9.1186  -9.0318  -9.0154  -9.0088  -8.9658  -8.8609
    -8.8537  -8.8533  -8.8468  -8.6701  -8.6381  -8.6074  -8.5910  -8.5410
    -8.5366  -8.3644  -8.3578  -8.2887  -8.2473  -8.1771  -8.1501  -8.0793
    -8.0758  -8.0370  -8.0322  -7.9942  -7.9912  -7.8366  -7.8023  -7.7895
    -7.7705  -7.7026  -7.7025  -7.6617  -7.6194  -7.6164  -7.6000  -7.5773
    -7.5657  -7.5623  -7.5070  -7.4260  -7.3416  -7.3124  -7.2900  -7.2793
    -7.2314  -7.2216  -7.1281  -7.1273  -7.0948  -7.0751  -6.9667  -6.9446
    -6.9387  -6.9305  -6.8125  -6.7992  -6.7766  -6.7539  -6.7190  -6.6676
    -6.6546  -6.6155  -6.6112  -6.5885  -6.5814  -6.5695  -6.4390  -6.4282
    -6.3809  -6.3536  -6.2347  -6.2195  -6.0508  -6.0171  -5.9943  -5.9753
    -5.9519  -5.8981  -5.6241  -5.5794  -5.5232  -5.5027  -5.3623  -5.3595
    -5.3554  -5.3428  -5.3063  -5.3036  -5.1402  -5.1382  -4.8292  -4.6384
    -3.4453  -3.0924  -2.8326  -2.8273  -2.6402  -2.5505  -2.2089  -1.9853
    -1.6169  -1.4207  -1.0919  -0.9805  -0.2167  -0.0839   0.2855   0.4229
     1.8218

     occupation numbers 
     1.0000   1.0000   1.0000   1.0000   1.0000   1.0000   1.0000   1.0000
     1.0000   1.0000   1.0000   1.0000   1.0000   1.0000   1.0000   1.0000
     1.0000   1.0000   1.0000   1.0000   1.0000   1.0000   1.0000   1.0000
     1.0000   1.0000   1.0000   1.0000   1.0000   1.0000   1.0000   1.0000
     1.0000   1.0000   1.0000   1.0000   1.0000   1.0000   1.0000   1.0000
     1.0000   1.0000   1.0000   1.0000   1.0000   1.0000   1.0000   1.0000
     1.0000   1.0000   1.0000   1.0000   1.0000   1.0000   1.0000   1.0000
     1.0000   1.0000   1.0000   1.0000   1.0000   1.0000   1.0000   1.0000
     1.0000   1.0000   1.0000   1.0000   1.0000   1.0000   1.0000   1.0000
     1.0000   1.0000   1.0000   1.0000   1.0000   1.0000   1.0000   1.0000
     1.0000   1.0000   1.0000   1.0000   1.0000   1.0000   1.0000   1.0000
     1.0000   1.0000   1.0000   1.0000   1.0000   1.0000   1.0000   1.0000
     1.0000   1.0000   1.0000   1.0000   1.0000   1.0000   1.0000   1.0000
     1.0000   1.0000   1.0000   1.0000   1.0000   1.0000   1.0001   1.0001
     1.0003   1.0010   1.0677   1.0821   1.0710   1.0536   0.6970   0.6869
     0.6715   0.6245   0.4879   0.4781   0.0766   0.0743   0.0001   0.0000
     0.0000   0.0000   0.0000   0.0000   0.0000   0.0000   0.0000   0.0000
     0.0000   0.0000   0.0000   0.0000   0.0000   0.0000   0.0000   0.0000
     0.0000

          k = 0.0625-0.0361 0.0000 ( 44605 PWs)   bands (ev):

   -12.6145 -12.3045 -11.6918 -11.0416 -10.9768 -10.9719 -10.9700 -10.9418
   -10.8353 -10.8242 -10.8192 -10.7046 -10.7022 -10.7010 -10.6010 -10.5915
   -10.5872 -10.5771 -10.4301 -10.4098 -10.4019 -10.3330 -10.2134 -10.2131
   -10.2113 -10.1383 -10.1307 -10.0576  -9.9927  -9.9844  -9.5781  -9.4638
    -9.4623  -8.9944  -8.8607  -8.8549  -8.6488  -8.6281  -8.6054  -8.5531
    -8.5383  -8.4897  -8.4737  -8.4688  -8.4407  -8.4001  -8.3420  -8.3413
    -8.3172  -8.3149  -8.3130  -8.2705  -8.2452  -8.2129  -8.1203  -8.1055
    -7.9838  -7.9333  -7.9019  -7.8616  -7.8528  -7.8229  -7.8068  -7.7959
    -7.6263  -7.6074  -7.6059  -7.5052  -7.3632  -7.3211  -7.1436  -7.1266
    -7.0837  -6.9135  -6.7625  -6.7614  -6.7307  -6.7287  -6.6706  -6.6221
    -6.6201  -6.4809  -6.4734  -6.4393  -6.3900  -6.3770  -6.3178  -6.1965
    -6.1840  -6.0268  -5.9120  -5.8508  -5.8196  -5.8070  -5.7780  -5.7505
    -5.7494  -5.7231  -5.6217  -5.5997  -5.5052  -5.4972  -5.4896  -5.4848
    -5.4840  -5.4335  -5.4269  -5.3914  -5.3630  -5.3611  -5.3518  -5.3432
    -5.3367  -5.2880  -5.2824  -5.2690  -5.2007  -5.1930  -5.1797  -5.0955
    -5.0912  -5.0653  -5.0387  -5.0383  -5.0145  -4.9006  -4.1151  -3.9300
    -3.7210  -3.6651  -3.2231  -2.8634  -2.6861  -2.4401  -2.2519  -2.0118
    -1.9283  -1.8053  -1.7629  -1.5112  -1.3469  -1.2786  -0.9567  -0.9200
    -0.5745

     occupation numbers 
     1.0000   1.0000   1.0000   1.0000   1.0000   1.0000   1.0000   1.0000
     1.0000   1.0000   1.0000   1.0000   1.0000   1.0000   1.0000   1.0000
     1.0000   1.0000   1.0000   1.0000   1.0000   1.0000   1.0000   1.0000
     1.0000   1.0000   1.0000   1.0000   1.0000   1.0000   1.0000   1.0000
     1.0000   1.0000   1.0000   1.0000   1.0000   1.0000   1.0000   1.0000
     1.0000   1.0000   1.0000   1.0000   1.0000   1.0000   1.0000   1.0000
     1.0000   1.0000   1.0000   1.0000   1.0000   1.0000   1.0000   1.0000
     1.0000   1.0000   1.0000   1.0000   1.0000   1.0000   1.0000   1.0000
     1.0000   1.0000   1.0000   1.0000   1.0000   1.0000   1.0000   1.0000
     1.0000   1.0000   1.0000   1.0000   1.0000   1.0000   1.0000   1.0000
     1.0000   1.0000   1.0000   1.0000   1.0000   1.0000   1.0000   1.0000
     1.0000   1.0000   1.0007   1.0029   1.0053   1.0067   1.0111   1.0171
     1.0174   1.0251   1.0687   1.0771   1.0562   1.0475   1.0380   1.0313
     1.0302   0.9269   0.9093   0.7999   0.6998   0.6926   0.6583   0.6257
     0.6013   0.4224   0.4027   0.3579   0.1735   0.1580   0.1332   0.0375
     0.0348   0.0219   0.0132   0.0131   0.0081   0.0005   0.0000   0.0000
     0.0000   0.0000   0.0000   0.0000   0.0000   0.0000   0.0000   0.0000
     0.0000   0.0000   0.0000   0.0000   0.0000   0.0000   0.0000   0.0000
     0.0000

          k = 0.0625 0.0361 0.0000 ( 44605 PWs)   bands (ev):

   -12.6145 -12.3045 -11.6918 -11.0416 -10.9768 -10.9719 -10.9700 -10.9418
   -10.8353 -10.8242 -10.8192 -10.7046 -10.7022 -10.7010 -10.6010 -10.5915
   -10.5872 -10.5771 -10.4301 -10.4098 -10.4019 -10.3330 -10.2134 -10.2131
   -10.2113 -10.1383 -10.1307 -10.0576  -9.9927  -9.9844  -9.5781  -9.4638
    -9.4623  -8.9944  -8.8607  -8.8549  -8.6488  -8.6281  -8.6054  -8.5531
    -8.5383  -8.4897  -8.4737  -8.4688  -8.4407  -8.4001  -8.3420  -8.3413
    -8.3172  -8.3149  -8.3130  -8.2705  -8.2452  -8.2129  -8.1203  -8.1055
    -7.9838  -7.9333  -7.9019  -7.8616  -7.8528  -7.8229  -7.8068  -7.7959
    -7.6263  -7.6074  -7.6059  -7.5052  -7.3632  -7.3211  -7.1436  -7.1266
    -7.0837  -6.9135  -6.7625  -6.7614  -6.7307  -6.7287  -6.6706  -6.6221
    -6.6201  -6.4809  -6.4734  -6.4393  -6.3900  -6.3770  -6.3178  -6.1965
    -6.1840  -6.0268  -5.9120  -5.8508  -5.8196  -5.8070  -5.7780  -5.7505
    -5.7494  -5.7231  -5.6217  -5.5997  -5.5052  -5.4972  -5.4896  -5.4848
    -5.4840  -5.4335  -5.4269  -5.3914  -5.3630  -5.3611  -5.3518  -5.3432
    -5.3367  -5.2880  -5.2824  -5.2690  -5.2007  -5.1930  -5.1797  -5.0955
    -5.0912  -5.0653  -5.0387  -5.0383  -5.0145  -4.9006  -4.1151  -3.9300
    -3.7210  -3.6651  -3.2231  -2.8634  -2.6861  -2.4401  -2.2519  -2.0118
    -1.9283  -1.8053  -1.7629  -1.5112  -1.3469  -1.2786  -0.9567  -0.9200
    -0.5745

     occupation numbers 
     1.0000   1.0000   1.0000   1.0000   1.0000   1.0000   1.0000   1.0000
     1.0000   1.0000   1.0000   1.0000   1.0000   1.0000   1.0000   1.0000
     1.0000   1.0000   1.0000   1.0000   1.0000   1.0000   1.0000   1.0000
     1.0000   1.0000   1.0000   1.0000   1.0000   1.0000   1.0000   1.0000
     1.0000   1.0000   1.0000   1.0000   1.0000   1.0000   1.0000   1.0000
     1.0000   1.0000   1.0000   1.0000   1.0000   1.0000   1.0000   1.0000
     1.0000   1.0000   1.0000   1.0000   1.0000   1.0000   1.0000   1.0000
     1.0000   1.0000   1.0000   1.0000   1.0000   1.0000   1.0000   1.0000
     1.0000   1.0000   1.0000   1.0000   1.0000   1.0000   1.0000   1.0000
     1.0000   1.0000   1.0000   1.0000   1.0000   1.0000   1.0000   1.0000
     1.0000   1.0000   1.0000   1.0000   1.0000   1.0000   1.0000   1.0000
     1.0000   1.0000   1.0007   1.0029   1.0053   1.0067   1.0111   1.0171
     1.0174   1.0251   1.0687   1.0771   1.0562   1.0475   1.0380   1.0313
     1.0302   0.9269   0.9093   0.7999   0.6998   0.6926   0.6583   0.6257
     0.6013   0.4224   0.4027   0.3579   0.1735   0.1580   0.1332   0.0375
     0.0348   0.0219   0.0132   0.0131   0.0081   0.0005   0.0000   0.0000
     0.0000   0.0000   0.0000   0.0000   0.0000   0.0000   0.0000   0.0000
     0.0000   0.0000   0.0000   0.0000   0.0000   0.0000   0.0000   0.0000
     0.0000

          k = 0.0625 0.1083 0.0000 ( 44583 PWs)   bands (ev):

   -12.5544 -12.2528 -11.6359 -10.9842 -10.9393 -10.9377 -10.9241 -10.8902
   -10.8080 -10.8031 -10.7678 -10.6744 -10.6733 -10.6640 -10.5651 -10.5602
   -10.5313 -10.5222 -10.3970 -10.3838 -10.3481 -10.2869 -10.1848 -10.1831
   -10.1803 -10.1067 -10.0852 -10.0178  -9.9602  -9.9325  -9.5593  -9.4470
    -9.4435  -8.9985  -8.8741  -8.8585  -8.6875  -8.6205  -8.6013  -8.6003
    -8.5943  -8.4793  -8.4685  -8.4562  -8.4379  -8.3571  -8.3462  -8.3119
    -8.3016  -8.2987  -8.2945  -8.2876  -8.2717  -8.1696  -8.0815  -8.0739
    -8.0321  -7.9338  -7.9065  -7.8914  -7.8512  -7.8271  -7.8119  -7.7948
    -7.6541  -7.6422  -7.6164  -7.5833  -7.4648  -7.3904  -7.1569  -7.1102
    -7.0547  -6.9940  -6.8168  -6.8077  -6.7922  -6.7887  -6.7541  -6.6333
    -6.6164  -6.5902  -6.5277  -6.4982  -6.4125  -6.3549  -6.3047  -6.2310
    -6.2029  -6.1132  -5.9931  -5.8625  -5.8510  -5.8470  -5.8261  -5.8150
    -5.8109  -5.7987  -5.7055  -5.6627  -5.5847  -5.5487  -5.5463  -5.5281
    -5.5208  -5.4904  -5.4361  -5.4242  -5.4217  -5.4207  -5.3950  -5.3872
    -5.3661  -5.3500  -5.3385  -5.3345  -5.2705  -5.2582  -5.2401  -5.1877
    -5.1654  -5.1473  -5.1036  -5.0881  -5.0845  -4.6769  -4.0639  -4.0176
    -3.7612  -3.3899  -3.2474  -3.1606  -2.8519  -2.6698  -2.5231  -2.3106
    -2.1634  -1.7429  -1.3906  -1.2973  -1.1480  -1.1047  -1.0670  -0.1833
    -0.1150

     occupation numbers 
     1.0000   1.0000   1.0000   1.0000   1.0000   1.0000   1.0000   1.0000
     1.0000   1.0000   1.0000   1.0000   1.0000   1.0000   1.0000   1.0000
     1.0000   1.0000   1.0000   1.0000   1.0000   1.0000   1.0000   1.0000
     1.0000   1.0000   1.0000   1.0000   1.0000   1.0000   1.0000   1.0000
     1.0000   1.0000   1.0000   1.0000   1.0000   1.0000   1.0000   1.0000
     1.0000   1.0000   1.0000   1.0000   1.0000   1.0000   1.0000   1.0000
     1.0000   1.0000   1.0000   1.0000   1.0000   1.0000   1.0000   1.0000
     1.0000   1.0000   1.0000   1.0000   1.0000   1.0000   1.0000   1.0000
     1.0000   1.0000   1.0000   1.0000   1.0000   1.0000   1.0000   1.0000
     1.0000   1.0000   1.0000   1.0000   1.0000   1.0000   1.0000   1.0000
     1.0000   1.0000   1.0000   1.0000   1.0000   1.0000   1.0000   1.0000
     1.0000   1.0000   1.0001   1.0023   1.0029   1.0031   1.0047   1.0058
     1.0063   1.0078   1.0314   1.0499   1.0811   1.0817   1.0811   1.0739
     1.0694   1.0391   0.9337   0.9017   0.8947   0.8919   0.8120   0.7858
     0.7109   0.6512   0.6083   0.5930   0.3630   0.3237   0.2704   0.1477
     0.1099   0.0850   0.0429   0.0330   0.0310   0.0000   0.0000   0.0000
     0.0000   0.0000   0.0000   0.0000   0.0000   0.0000   0.0000   0.0000
     0.0000   0.0000   0.0000   0.0000   0.0000   0.0000   0.0000   0.0000
     0.0000

          k = 0.0625 0.1804 0.0000 ( 44578 PWs)   bands (ev):

   -12.4379 -12.1519 -11.5268 -10.8783 -10.8703 -10.8581 -10.8422 -10.7905
   -10.7739 -10.7353 -10.6759 -10.6190 -10.6103 -10.5881 -10.5109 -10.4774
   -10.4302 -10.4162 -10.3530 -10.3104 -10.2488 -10.1980 -10.1276 -10.1253
   -10.1204 -10.0445  -9.9990  -9.9431  -9.8901  -9.8296  -9.5234  -9.4148
    -9.4069  -9.0141  -8.9057  -8.8629  -8.7484  -8.7148  -8.6848  -8.6236
    -8.5590  -8.5472  -8.4403  -8.4235  -8.3903  -8.3787  -8.3306  -8.3036
    -8.2708  -8.2700  -8.2664  -8.2599  -8.2534  -8.0941  -8.0824  -8.0612
    -8.0045  -7.9799  -7.9587  -7.9282  -7.8727  -7.8225  -7.8114  -7.7509
    -7.7238  -7.7000  -7.6633  -7.6341  -7.5893  -7.4873  -7.2626  -7.1166
    -7.0730  -7.0605  -6.9358  -6.9118  -6.8971  -6.8817  -6.8703  -6.8377
    -6.6857  -6.6265  -6.5878  -6.5657  -6.4631  -6.3797  -6.3057  -6.2942
    -6.2644  -6.2112  -6.1237  -6.0576  -6.0298  -5.9920  -5.9731  -5.8978
    -5.8723  -5.8544  -5.8368  -5.7826  -5.6694  -5.6530  -5.6435  -5.6416
    -5.6237  -5.5437  -5.5317  -5.5226  -5.5132  -5.4882  -5.4839  -5.4617
    -5.4433  -5.4396  -5.4338  -5.4259  -5.4055  -5.3549  -5.2804  -5.2704
    -5.2587  -5.1827  -5.1675  -5.1421  -5.1327  -4.6113  -4.3000  -3.9100
    -3.8347  -3.5577  -3.3467  -3.2216  -2.9703  -2.8793  -2.6824  -2.2925
    -2.1362  -1.6464  -1.3425  -1.1352  -0.9339  -0.8438  -0.5655   0.2701
     0.4157

     occupation numbers 
     1.0000   1.0000   1.0000   1.0000   1.0000   1.0000   1.0000   1.0000
     1.0000   1.0000   1.0000   1.0000   1.0000   1.0000   1.0000   1.0000
     1.0000   1.0000   1.0000   1.0000   1.0000   1.0000   1.0000   1.0000
     1.0000   1.0000   1.0000   1.0000   1.0000   1.0000   1.0000   1.0000
     1.0000   1.0000   1.0000   1.0000   1.0000   1.0000   1.0000   1.0000
     1.0000   1.0000   1.0000   1.0000   1.0000   1.0000   1.0000   1.0000
     1.0000   1.0000   1.0000   1.0000   1.0000   1.0000   1.0000   1.0000
     1.0000   1.0000   1.0000   1.0000   1.0000   1.0000   1.0000   1.0000
     1.0000   1.0000   1.0000   1.0000   1.0000   1.0000   1.0000   1.0000
     1.0000   1.0000   1.0000   1.0000   1.0000   1.0000   1.0000   1.0000
     1.0000   1.0000   1.0000   1.0000   1.0000   1.0000   1.0000   1.0000
     1.0000   1.0000   1.0000   1.0000   1.0000   1.0001   1.0002   1.0010
     1.0018   1.0027   1.0038   1.0103   1.0468   1.0545   1.0589   1.0598
     1.0679   1.0804   1.0758   1.0706   1.0635   1.0361   1.0300   0.9917
     0.9514   0.9425   0.9277   0.9065   0.8462   0.6697   0.3961   0.3627
     0.3251   0.1385   0.1132   0.0788   0.0684   0.0000   0.0000   0.0000
     0.0000   0.0000   0.0000   0.0000   0.0000   0.0000   0.0000   0.0000
     0.0000   0.0000   0.0000   0.0000   0.0000   0.0000   0.0000   0.0000
     0.0000

          k = 0.0625 0.2526 0.0000 ( 44582 PWs)   bands (ev):

   -12.2742 -12.0056 -11.3704 -10.7846 -10.7441 -10.7419 -10.7348 -10.7086
   -10.6474 -10.6286 -10.5516 -10.5393 -10.5126 -10.4703 -10.4376 -10.3500
   -10.3041 -10.2953 -10.2669 -10.1913 -10.1174 -10.0784 -10.0475 -10.0416
   -10.0295  -9.9488  -9.8844  -9.8449  -9.7731  -9.6833  -9.4716  -9.3708
    -9.3528  -9.0514  -8.9593  -8.8772  -8.8451  -8.8115  -8.7758  -8.6542
    -8.6475  -8.5504  -8.4722  -8.4252  -8.3783  -8.3699  -8.3299  -8.3083
    -8.2547  -8.2302  -8.2188  -8.1800  -8.1532  -8.1419  -8.0937  -8.0498
    -8.0270  -7.9762  -7.9517  -7.9334  -7.9028  -7.8912  -7.8693  -7.8000
    -7.7450  -7.7109  -7.6668  -7.6202  -7.6102  -7.5614  -7.4124  -7.2600
    -7.2411  -7.1849  -7.1388  -7.0523  -6.9896  -6.9595  -6.9521  -6.9376
    -6.8794  -6.7630  -6.6596  -6.6069  -6.5482  -6.4586  -6.4164  -6.3843
    -6.3711  -6.3571  -6.3417  -6.2893  -6.2407  -6.2243  -6.1575  -6.0403
    -5.9676  -5.9572  -5.9420  -5.8743  -5.8194  -5.7996  -5.7942  -5.7778
    -5.7628  -5.7426  -5.7120  -5.7061  -5.6582  -5.6133  -5.5910  -5.5800
    -5.5089  -5.5007  -5.4853  -5.4730  -5.4693  -5.4438  -5.4259  -5.3076
    -5.3006  -5.2548  -5.1633  -5.1563  -5.0852  -4.8714  -4.5448  -4.2892
    -3.8541  -3.6954  -3.3289  -3.1512  -2.9249  -2.7264  -2.5847  -2.2001
    -2.0036  -1.6290  -1.3858  -1.0846  -0.7268  -0.3879   0.0943   0.4200
     0.7239

     occupation numbers 
     1.0000   1.0000   1.0000   1.0000   1.0000   1.0000   1.0000   1.0000
     1.0000   1.0000   1.0000   1.0000   1.0000   1.0000   1.0000   1.0000
     1.0000   1.0000   1.0000   1.0000   1.0000   1.0000   1.0000   1.0000
     1.0000   1.0000   1.0000   1.0000   1.0000   1.0000   1.0000   1.0000
     1.0000   1.0000   1.0000   1.0000   1.0000   1.0000   1.0000   1.0000
     1.0000   1.0000   1.0000   1.0000   1.0000   1.0000   1.0000   1.0000
     1.0000   1.0000   1.0000   1.0000   1.0000   1.0000   1.0000   1.0000
     1.0000   1.0000   1.0000   1.0000   1.0000   1.0000   1.0000   1.0000
     1.0000   1.0000   1.0000   1.0000   1.0000   1.0000   1.0000   1.0000
     1.0000   1.0000   1.0000   1.0000   1.0000   1.0000   1.0000   1.0000
     1.0000   1.0000   1.0000   1.0000   1.0000   1.0000   1.0000   1.0000
     1.0000   1.0000   1.0000   1.0000   1.0000   1.0000   1.0000   1.0000
     1.0002   1.0002   1.0004   1.0018   1.0053   1.0077   1.0084   1.0111
     1.0141   1.0192   1.0290   1.0312   1.0520   1.0722   1.0796   1.0820
     1.0598   1.0515   1.0320   1.0126   1.0062   0.9528   0.9066   0.4925
     0.4671   0.3134   0.1067   0.0968   0.0314   0.0002   0.0000   0.0000
     0.0000   0.0000   0.0000   0.0000   0.0000   0.0000   0.0000   0.0000
     0.0000   0.0000   0.0000   0.0000   0.0000   0.0000   0.0000   0.0000
     0.0000

          k = 0.0625 0.3248 0.0000 ( 44578 PWs)   bands (ev):

   -12.0822 -11.8166 -11.1771 -10.7001 -10.6719 -10.6119 -10.6061 -10.5343
   -10.4968 -10.4674 -10.4431 -10.4041 -10.3782 -10.3524 -10.3117 -10.2414
   -10.1895 -10.1480 -10.0950 -10.0435  -9.9724  -9.9609  -9.9464  -9.9181
    -9.9046  -9.8191  -9.7658  -9.7182  -9.6336  -9.5106  -9.3928  -9.3149
    -9.2839  -9.1034  -9.0386  -9.0083  -8.8893  -8.8771  -8.8242  -8.7771
    -8.6882  -8.6520  -8.5578  -8.4957  -8.4135  -8.3522  -8.3246  -8.3074
    -8.2425  -8.2211  -8.1911  -8.1814  -8.1243  -8.0991  -8.0962  -8.0749
    -8.0505  -8.0350  -7.9872  -7.9581  -7.9221  -7.8927  -7.8263  -7.7946
    -7.7566  -7.7046  -7.6283  -7.5983  -7.5664  -7.5317  -7.5267  -7.4929
    -7.4508  -7.4363  -7.3664  -7.1637  -7.1091  -7.0841  -7.0281  -6.9934
    -6.9825  -6.9436  -6.7944  -6.7366  -6.7217  -6.6868  -6.6092  -6.5790
    -6.5657  -6.5242  -6.4886  -6.4684  -6.4472  -6.3592  -6.3197  -6.2136
    -6.1276  -6.1070  -6.1004  -6.0950  -6.0064  -5.9933  -5.9786  -5.9646
    -5.9390  -5.9215  -5.9153  -5.8127  -5.7842  -5.7651  -5.6900  -5.6731
    -5.5971  -5.5344  -5.5206  -5.4864  -5.4799  -5.4708  -5.4331  -5.4170
    -5.3138  -5.3041  -5.3008  -5.1680  -5.1610  -5.1353  -4.8995  -4.4758
    -3.7506  -3.6103  -3.3252  -3.1634  -2.8968  -2.4034  -2.2645  -2.0261
    -1.9183  -1.7311  -1.4966  -0.8607  -0.5475   0.0355   0.1990   0.7847
     1.0223

     occupation numbers 
     1.0000   1.0000   1.0000   1.0000   1.0000   1.0000   1.0000   1.0000
     1.0000   1.0000   1.0000   1.0000   1.0000   1.0000   1.0000   1.0000
     1.0000   1.0000   1.0000   1.0000   1.0000   1.0000   1.0000   1.0000
     1.0000   1.0000   1.0000   1.0000   1.0000   1.0000   1.0000   1.0000
     1.0000   1.0000   1.0000   1.0000   1.0000   1.0000   1.0000   1.0000
     1.0000   1.0000   1.0000   1.0000   1.0000   1.0000   1.0000   1.0000
     1.0000   1.0000   1.0000   1.0000   1.0000   1.0000   1.0000   1.0000
     1.0000   1.0000   1.0000   1.0000   1.0000   1.0000   1.0000   1.0000
     1.0000   1.0000   1.0000   1.0000   1.0000   1.0000   1.0000   1.0000
     1.0000   1.0000   1.0000   1.0000   1.0000   1.0000   1.0000   1.0000
     1.0000   1.0000   1.0000   1.0000   1.0000   1.0000   1.0000   1.0000
     1.0000   1.0000   1.0000   1.0000   1.0000   1.0000   1.0000   1.0000
     1.0000   1.0000   1.0000   1.0000   1.0001   1.0001   1.0001   1.0002
     1.0004   1.0006   1.0007   1.0060   1.0100   1.0136   1.0377   1.0451
     1.0779   1.0770   1.0692   1.0336   1.0239   1.0089   0.9259   0.8811
     0.5153   0.4796   0.4679   0.1139   0.1034   0.0712   0.0005   0.0000
     0.0000   0.0000   0.0000   0.0000   0.0000   0.0000   0.0000   0.0000
     0.0000   0.0000   0.0000   0.0000   0.0000   0.0000   0.0000   0.0000
     0.0000

          k = 0.0625 0.3969 0.0000 ( 44528 PWs)   bands (ev):

   -11.8931 -11.5859 -10.9648 -10.6812 -10.5503 -10.4799 -10.4628 -10.3721
   -10.3632 -10.3508 -10.2770 -10.2593 -10.2520 -10.2120 -10.1553 -10.1333
   -10.0189  -9.9976  -9.9277  -9.8937  -9.8709  -9.8199  -9.8155  -9.7721
    -9.7563  -9.6788  -9.6467  -9.5804  -9.5276  -9.3389  -9.2596  -9.2374
    -9.2140  -9.2015  -9.1226  -9.0549  -8.9601  -8.9451  -8.9257  -8.8528
    -8.7490  -8.7230  -8.6866  -8.6065  -8.4788  -8.4555  -8.3993  -8.3306
    -8.3143  -8.2605  -8.2091  -8.1912  -8.1510  -8.1128  -8.0818  -8.0750
    -8.0432  -8.0274  -7.9761  -7.9257  -7.9100  -7.8574  -7.8378  -7.8039
    -7.7808  -7.7621  -7.7263  -7.6503  -7.6368  -7.5880  -7.5629  -7.5562
    -7.5017  -7.4279  -7.3748  -7.3673  -7.2855  -7.1559  -7.1224  -7.0926
    -7.0343  -7.0051  -6.9859  -6.9720  -6.9555  -6.9268  -6.9185  -6.7976
    -6.7487  -6.6301  -6.6019  -6.5946  -6.5853  -6.5749  -6.4289  -6.3489
    -6.3360  -6.3287  -6.3104  -6.2876  -6.2271  -6.1954  -6.1413  -6.1236
    -6.0879  -6.0694  -6.0248  -5.9941  -5.9691  -5.8867  -5.8673  -5.7731
    -5.6564  -5.5959  -5.5695  -5.5372  -5.5122  -5.4643  -5.4444  -5.4267
    -5.3787  -5.3332  -5.3108  -5.2990  -5.2400  -5.1656  -5.1603  -4.2183
    -3.8850  -3.5641  -3.3321  -2.9947  -2.6702  -2.2746  -2.1983  -1.9301
    -1.8449  -1.5927  -1.3983  -0.6737  -0.4098  -0.2511   0.5342   1.1696
     1.3697

     occupation numbers 
     1.0000   1.0000   1.0000   1.0000   1.0000   1.0000   1.0000   1.0000
     1.0000   1.0000   1.0000   1.0000   1.0000   1.0000   1.0000   1.0000
     1.0000   1.0000   1.0000   1.0000   1.0000   1.0000   1.0000   1.0000
     1.0000   1.0000   1.0000   1.0000   1.0000   1.0000   1.0000   1.0000
     1.0000   1.0000   1.0000   1.0000   1.0000   1.0000   1.0000   1.0000
     1.0000   1.0000   1.0000   1.0000   1.0000   1.0000   1.0000   1.0000
     1.0000   1.0000   1.0000   1.0000   1.0000   1.0000   1.0000   1.0000
     1.0000   1.0000   1.0000   1.0000   1.0000   1.0000   1.0000   1.0000
     1.0000   1.0000   1.0000   1.0000   1.0000   1.0000   1.0000   1.0000
     1.0000   1.0000   1.0000   1.0000   1.0000   1.0000   1.0000   1.0000
     1.0000   1.0000   1.0000   1.0000   1.0000   1.0000   1.0000   1.0000
     1.0000   1.0000   1.0000   1.0000   1.0000   1.0000   1.0000   1.0000
     1.0000   1.0000   1.0000   1.0000   1.0000   1.0000   1.0000   1.0000
     1.0000   1.0000   1.0000   1.0001   1.0002   1.0013   1.0020   1.0120
     1.0529   1.0783   1.0832   1.0782   1.0627   0.9968   0.9541   0.9087
     0.7563   0.5881   0.5043   0.4614   0.2701   0.1102   0.1025   0.0000
     0.0000   0.0000   0.0000   0.0000   0.0000   0.0000   0.0000   0.0000
     0.0000   0.0000   0.0000   0.0000   0.0000   0.0000   0.0000   0.0000
     0.0000

          k = 0.0625 0.4691 0.0000 ( 44509 PWs)   bands (ev):

   -11.7425 -11.3234 -10.7622 -10.7131 -10.4500 -10.3471 -10.3443 -10.3276
   -10.2655 -10.2254 -10.1620 -10.1400 -10.1005 -10.0528 -10.0328 -10.0000
    -9.8589  -9.8265  -9.8056  -9.7851  -9.7552  -9.7361  -9.6932  -9.6228
    -9.6170  -9.5589  -9.5050  -9.4531  -9.4340  -9.3531  -9.2204  -9.1678
    -9.1505  -9.1375  -9.1151  -9.0952  -9.0533  -8.9972  -8.9593  -8.9235
    -8.8501  -8.7669  -8.7064  -8.6671  -8.6108  -8.5972  -8.5327  -8.4520
    -8.4065  -8.2680  -8.2521  -8.2008  -8.1808  -8.1368  -8.1266  -8.1039
    -8.0709  -8.0305  -8.0043  -7.9977  -7.9685  -7.9536  -7.8895  -7.8286
    -7.7996  -7.7452  -7.6933  -7.6731  -7.6335  -7.5809  -7.5703  -7.5520
    -7.5063  -7.4803  -7.3998  -7.3583  -7.3222  -7.2859  -7.2624  -7.2336
    -7.1977  -7.1593  -7.1110  -7.0895  -7.0479  -6.9859  -6.9635  -6.9365
    -6.8690  -6.7901  -6.7863  -6.7436  -6.7278  -6.6302  -6.5993  -6.5545
    -6.5137  -6.4982  -6.4794  -6.4206  -6.3935  -6.3511  -6.3116  -6.2684
    -6.2332  -6.2014  -6.1785  -6.0995  -6.0410  -5.9760  -5.9466  -5.9181
    -5.8548  -5.6811  -5.6393  -5.5632  -5.5372  -5.5019  -5.4327  -5.4063
    -5.4044  -5.3546  -5.3209  -5.3056  -5.1698  -5.1632  -5.0721  -4.2968
    -3.7724  -3.4953  -3.3004  -2.9281  -2.5836  -2.2537  -2.1692  -1.8892
    -1.7849  -1.3641  -1.0133  -0.7776  -0.4276  -0.2933   0.7149   0.8858
     1.3258

     occupation numbers 
     1.0000   1.0000   1.0000   1.0000   1.0000   1.0000   1.0000   1.0000
     1.0000   1.0000   1.0000   1.0000   1.0000   1.0000   1.0000   1.0000
     1.0000   1.0000   1.0000   1.0000   1.0000   1.0000   1.0000   1.0000
     1.0000   1.0000   1.0000   1.0000   1.0000   1.0000   1.0000   1.0000
     1.0000   1.0000   1.0000   1.0000   1.0000   1.0000   1.0000   1.0000
     1.0000   1.0000   1.0000   1.0000   1.0000   1.0000   1.0000   1.0000
     1.0000   1.0000   1.0000   1.0000   1.0000   1.0000   1.0000   1.0000
     1.0000   1.0000   1.0000   1.0000   1.0000   1.0000   1.0000   1.0000
     1.0000   1.0000   1.0000   1.0000   1.0000   1.0000   1.0000   1.0000
     1.0000   1.0000   1.0000   1.0000   1.0000   1.0000   1.0000   1.0000
     1.0000   1.0000   1.0000   1.0000   1.0000   1.0000   1.0000   1.0000
     1.0000   1.0000   1.0000   1.0000   1.0000   1.0000   1.0000   1.0000
     1.0000   1.0000   1.0000   1.0000   1.0000   1.0000   1.0000   1.0000
     1.0000   1.0000   1.0000   1.0000   1.0000   1.0001   1.0003   1.0006
     1.0027   1.0415   1.0609   1.0833   1.0782   1.0528   0.9249   0.8488
     0.8427   0.6686   0.5420   0.4853   0.1167   0.1066   0.0248   0.0000
     0.0000   0.0000   0.0000   0.0000   0.0000   0.0000   0.0000   0.0000
     0.0000   0.0000   0.0000   0.0000   0.0000   0.0000   0.0000   0.0000
     0.0000

          k = 0.0625-0.6134 0.0000 ( 44516 PWs)   bands (ev):

   -11.6583 -11.0602 -10.8430 -10.5902 -10.4730 -10.2933 -10.2436 -10.2187
   -10.2168 -10.1706 -10.1294 -10.0809 -10.0168  -9.9688  -9.9406  -9.8934
    -9.7871  -9.7830  -9.7340  -9.6660  -9.6485  -9.6096  -9.5770  -9.5536
    -9.5360  -9.5063  -9.4567  -9.3948  -9.3700  -9.3228  -9.2260  -9.2190
    -9.2039  -9.1387  -9.0772  -9.0601  -9.0364  -8.9937  -8.9657  -8.9200
    -8.8964  -8.8082  -8.7735  -8.6907  -8.6740  -8.6131  -8.5778  -8.5463
    -8.4981  -8.3784  -8.3683  -8.2901  -8.2585  -8.2013  -8.1423  -8.0975
    -8.0591  -8.0476  -8.0363  -8.0023  -7.9774  -7.9279  -7.8252  -7.7855
    -7.7757  -7.7424  -7.7253  -7.6912  -7.6686  -7.6359  -7.6017  -7.5961
    -7.5504  -7.5319  -7.4936  -7.4153  -7.3684  -7.3220  -7.3103  -7.2946
    -7.2327  -7.1672  -7.1492  -7.1087  -7.0618  -7.0369  -7.0014  -6.9818
    -6.8764  -6.8604  -6.8114  -6.7830  -6.7557  -6.7420  -6.7073  -6.6757
    -6.6574  -6.6070  -6.5793  -6.5439  -6.5309  -6.4654  -6.4247  -6.3428
    -6.3125  -6.3014  -6.2438  -6.1251  -6.1041  -6.0454  -5.9881  -5.9577
    -5.9173  -5.8190  -5.6376  -5.5876  -5.5372  -5.5058  -5.4040  -5.3924
    -5.3730  -5.3676  -5.3358  -5.3216  -5.1683  -5.1618  -4.8563  -4.5378
    -3.5449  -3.4470  -3.2347  -3.0010  -2.7597  -2.1784  -2.0332  -1.7822
    -1.6477  -1.3387  -1.1720  -0.5056  -0.3061  -0.2387   0.1992   0.9785
     1.3701

     occupation numbers 
     1.0000   1.0000   1.0000   1.0000   1.0000   1.0000   1.0000   1.0000
     1.0000   1.0000   1.0000   1.0000   1.0000   1.0000   1.0000   1.0000
     1.0000   1.0000   1.0000   1.0000   1.0000   1.0000   1.0000   1.0000
     1.0000   1.0000   1.0000   1.0000   1.0000   1.0000   1.0000   1.0000
     1.0000   1.0000   1.0000   1.0000   1.0000   1.0000   1.0000   1.0000
     1.0000   1.0000   1.0000   1.0000   1.0000   1.0000   1.0000   1.0000
     1.0000   1.0000   1.0000   1.0000   1.0000   1.0000   1.0000   1.0000
     1.0000   1.0000   1.0000   1.0000   1.0000   1.0000   1.0000   1.0000
     1.0000   1.0000   1.0000   1.0000   1.0000   1.0000   1.0000   1.0000
     1.0000   1.0000   1.0000   1.0000   1.0000   1.0000   1.0000   1.0000
     1.0000   1.0000   1.0000   1.0000   1.0000   1.0000   1.0000   1.0000
     1.0000   1.0000   1.0000   1.0000   1.0000   1.0000   1.0000   1.0000
     1.0000   1.0000   1.0000   1.0000   1.0000   1.0000   1.0000   1.0000
     1.0000   1.0000   1.0000   1.0000   1.0000   1.0000   1.0001   1.0002
     1.0007   1.0054   1.0617   1.0805   1.0782   1.0568   0.8414   0.8036
     0.7359   0.7164   0.5978   0.5446   0.1144   0.1046   0.0002   0.0000
     0.0000   0.0000   0.0000   0.0000   0.0000   0.0000   0.0000   0.0000
     0.0000   0.0000   0.0000   0.0000   0.0000   0.0000   0.0000   0.0000
     0.0000

          k = 0.0625-0.5413 0.0000 ( 44516 PWs)   bands (ev):

   -11.6583 -11.0602 -10.8430 -10.5902 -10.4730 -10.2933 -10.2436 -10.2187
   -10.2168 -10.1706 -10.1294 -10.0809 -10.0168  -9.9688  -9.9406  -9.8934
    -9.7871  -9.7830  -9.7340  -9.6660  -9.6485  -9.6096  -9.5770  -9.5536
    -9.5360  -9.5063  -9.4567  -9.3948  -9.3700  -9.3228  -9.2260  -9.2190
    -9.2039  -9.1387  -9.0772  -9.0601  -9.0364  -8.9937  -8.9657  -8.9200
    -8.8964  -8.8082  -8.7735  -8.6907  -8.6740  -8.6131  -8.5778  -8.5463
    -8.4981  -8.3784  -8.3683  -8.2901  -8.2585  -8.2013  -8.1423  -8.0975
    -8.0591  -8.0476  -8.0363  -8.0023  -7.9774  -7.9279  -7.8252  -7.7855
    -7.7757  -7.7424  -7.7253  -7.6912  -7.6686  -7.6359  -7.6017  -7.5961
    -7.5504  -7.5319  -7.4936  -7.4153  -7.3684  -7.3220  -7.3103  -7.2946
    -7.2327  -7.1672  -7.1492  -7.1087  -7.0618  -7.0369  -7.0014  -6.9818
    -6.8764  -6.8604  -6.8114  -6.7830  -6.7557  -6.7420  -6.7073  -6.6757
    -6.6574  -6.6070  -6.5793  -6.5439  -6.5309  -6.4654  -6.4247  -6.3428
    -6.3125  -6.3014  -6.2438  -6.1251  -6.1041  -6.0454  -5.9881  -5.9577
    -5.9173  -5.8190  -5.6376  -5.5876  -5.5372  -5.5058  -5.4040  -5.3924
    -5.3730  -5.3676  -5.3358  -5.3216  -5.1683  -5.1618  -4.8563  -4.5378
    -3.5449  -3.4470  -3.2347  -3.0010  -2.7597  -2.1784  -2.0332  -1.7822
    -1.6477  -1.3387  -1.1720  -0.5056  -0.3061  -0.2387   0.1992   0.9785
     1.3701

     occupation numbers 
     1.0000   1.0000   1.0000   1.0000   1.0000   1.0000   1.0000   1.0000
     1.0000   1.0000   1.0000   1.0000   1.0000   1.0000   1.0000   1.0000
     1.0000   1.0000   1.0000   1.0000   1.0000   1.0000   1.0000   1.0000
     1.0000   1.0000   1.0000   1.0000   1.0000   1.0000   1.0000   1.0000
     1.0000   1.0000   1.0000   1.0000   1.0000   1.0000   1.0000   1.0000
     1.0000   1.0000   1.0000   1.0000   1.0000   1.0000   1.0000   1.0000
     1.0000   1.0000   1.0000   1.0000   1.0000   1.0000   1.0000   1.0000
     1.0000   1.0000   1.0000   1.0000   1.0000   1.0000   1.0000   1.0000
     1.0000   1.0000   1.0000   1.0000   1.0000   1.0000   1.0000   1.0000
     1.0000   1.0000   1.0000   1.0000   1.0000   1.0000   1.0000   1.0000
     1.0000   1.0000   1.0000   1.0000   1.0000   1.0000   1.0000   1.0000
     1.0000   1.0000   1.0000   1.0000   1.0000   1.0000   1.0000   1.0000
     1.0000   1.0000   1.0000   1.0000   1.0000   1.0000   1.0000   1.0000
     1.0000   1.0000   1.0000   1.0000   1.0000   1.0000   1.0001   1.0002
     1.0007   1.0054   1.0617   1.0805   1.0782   1.0568   0.8414   0.8036
     0.7359   0.7164   0.5978   0.5446   0.1144   0.1046   0.0002   0.0000
     0.0000   0.0000   0.0000   0.0000   0.0000   0.0000   0.0000   0.0000
     0.0000   0.0000   0.0000   0.0000   0.0000   0.0000   0.0000   0.0000
     0.0000

          k = 0.0625-0.4691 0.0000 ( 44509 PWs)   bands (ev):

   -11.7425 -11.3234 -10.7622 -10.7131 -10.4500 -10.3471 -10.3443 -10.3276
   -10.2655 -10.2254 -10.1620 -10.1400 -10.1005 -10.0528 -10.0328 -10.0000
    -9.8589  -9.8265  -9.8056  -9.7851  -9.7552  -9.7361  -9.6932  -9.6228
    -9.6170  -9.5589  -9.5050  -9.4531  -9.4340  -9.3531  -9.2204  -9.1678
    -9.1505  -9.1375  -9.1151  -9.0952  -9.0533  -8.9972  -8.9593  -8.9235
    -8.8501  -8.7669  -8.7064  -8.6671  -8.6108  -8.5972  -8.5327  -8.4520
    -8.4065  -8.2680  -8.2521  -8.2008  -8.1808  -8.1368  -8.1266  -8.1039
    -8.0709  -8.0305  -8.0043  -7.9977  -7.9685  -7.9536  -7.8895  -7.8286
    -7.7996  -7.7452  -7.6933  -7.6731  -7.6335  -7.5809  -7.5703  -7.5520
    -7.5063  -7.4803  -7.3998  -7.3583  -7.3222  -7.2859  -7.2624  -7.2336
    -7.1977  -7.1593  -7.1110  -7.0895  -7.0479  -6.9859  -6.9635  -6.9365
    -6.8690  -6.7901  -6.7863  -6.7436  -6.7278  -6.6302  -6.5993  -6.5545
    -6.5137  -6.4982  -6.4794  -6.4206  -6.3935  -6.3511  -6.3116  -6.2684
    -6.2332  -6.2014  -6.1785  -6.0995  -6.0410  -5.9760  -5.9466  -5.9181
    -5.8548  -5.6811  -5.6393  -5.5632  -5.5372  -5.5019  -5.4327  -5.4063
    -5.4044  -5.3546  -5.3209  -5.3056  -5.1698  -5.1632  -5.0721  -4.2968
    -3.7724  -3.4953  -3.3004  -2.9281  -2.5836  -2.2537  -2.1692  -1.8892
    -1.7849  -1.3641  -1.0133  -0.7776  -0.4276  -0.2933   0.7149   0.8858
     1.3258

     occupation numbers 
     1.0000   1.0000   1.0000   1.0000   1.0000   1.0000   1.0000   1.0000
     1.0000   1.0000   1.0000   1.0000   1.0000   1.0000   1.0000   1.0000
     1.0000   1.0000   1.0000   1.0000   1.0000   1.0000   1.0000   1.0000
     1.0000   1.0000   1.0000   1.0000   1.0000   1.0000   1.0000   1.0000
     1.0000   1.0000   1.0000   1.0000   1.0000   1.0000   1.0000   1.0000
     1.0000   1.0000   1.0000   1.0000   1.0000   1.0000   1.0000   1.0000
     1.0000   1.0000   1.0000   1.0000   1.0000   1.0000   1.0000   1.0000
     1.0000   1.0000   1.0000   1.0000   1.0000   1.0000   1.0000   1.0000
     1.0000   1.0000   1.0000   1.0000   1.0000   1.0000   1.0000   1.0000
     1.0000   1.0000   1.0000   1.0000   1.0000   1.0000   1.0000   1.0000
     1.0000   1.0000   1.0000   1.0000   1.0000   1.0000   1.0000   1.0000
     1.0000   1.0000   1.0000   1.0000   1.0000   1.0000   1.0000   1.0000
     1.0000   1.0000   1.0000   1.0000   1.0000   1.0000   1.0000   1.0000
     1.0000   1.0000   1.0000   1.0000   1.0000   1.0001   1.0003   1.0006
     1.0027   1.0415   1.0609   1.0833   1.0782   1.0528   0.9249   0.8488
     0.8427   0.6686   0.5420   0.4853   0.1167   0.1066   0.0248   0.0000
     0.0000   0.0000   0.0000   0.0000   0.0000   0.0000   0.0000   0.0000
     0.0000   0.0000   0.0000   0.0000   0.0000   0.0000   0.0000   0.0000
     0.0000

          k = 0.0625-0.3969 0.0000 ( 44528 PWs)   bands (ev):

   -11.8931 -11.5859 -10.9648 -10.6812 -10.5503 -10.4799 -10.4628 -10.3721
   -10.3632 -10.3508 -10.2770 -10.2593 -10.2520 -10.2120 -10.1553 -10.1333
   -10.0189  -9.9976  -9.9277  -9.8937  -9.8709  -9.8199  -9.8155  -9.7721
    -9.7563  -9.6788  -9.6467  -9.5804  -9.5276  -9.3389  -9.2596  -9.2374
    -9.2140  -9.2015  -9.1226  -9.0549  -8.9601  -8.9451  -8.9257  -8.8528
    -8.7490  -8.7230  -8.6866  -8.6065  -8.4788  -8.4555  -8.3993  -8.3306
    -8.3143  -8.2605  -8.2091  -8.1912  -8.1510  -8.1128  -8.0818  -8.0750
    -8.0432  -8.0274  -7.9761  -7.9257  -7.9100  -7.8574  -7.8378  -7.8039
    -7.7808  -7.7621  -7.7263  -7.6503  -7.6368  -7.5880  -7.5629  -7.5562
    -7.5017  -7.4279  -7.3748  -7.3673  -7.2855  -7.1559  -7.1224  -7.0926
    -7.0343  -7.0051  -6.9859  -6.9720  -6.9555  -6.9268  -6.9185  -6.7976
    -6.7487  -6.6301  -6.6019  -6.5946  -6.5853  -6.5749  -6.4289  -6.3489
    -6.3360  -6.3287  -6.3104  -6.2876  -6.2271  -6.1954  -6.1413  -6.1236
    -6.0879  -6.0694  -6.0248  -5.9941  -5.9691  -5.8867  -5.8673  -5.7731
    -5.6564  -5.5959  -5.5695  -5.5372  -5.5122  -5.4643  -5.4444  -5.4267
    -5.3787  -5.3332  -5.3108  -5.2990  -5.2400  -5.1656  -5.1603  -4.2183
    -3.8850  -3.5641  -3.3321  -2.9947  -2.6702  -2.2746  -2.1983  -1.9301
    -1.8449  -1.5927  -1.3983  -0.6737  -0.4098  -0.2511   0.5342   1.1696
     1.3697

     occupation numbers 
     1.0000   1.0000   1.0000   1.0000   1.0000   1.0000   1.0000   1.0000
     1.0000   1.0000   1.0000   1.0000   1.0000   1.0000   1.0000   1.0000
     1.0000   1.0000   1.0000   1.0000   1.0000   1.0000   1.0000   1.0000
     1.0000   1.0000   1.0000   1.0000   1.0000   1.0000   1.0000   1.0000
     1.0000   1.0000   1.0000   1.0000   1.0000   1.0000   1.0000   1.0000
     1.0000   1.0000   1.0000   1.0000   1.0000   1.0000   1.0000   1.0000
     1.0000   1.0000   1.0000   1.0000   1.0000   1.0000   1.0000   1.0000
     1.0000   1.0000   1.0000   1.0000   1.0000   1.0000   1.0000   1.0000
     1.0000   1.0000   1.0000   1.0000   1.0000   1.0000   1.0000   1.0000
     1.0000   1.0000   1.0000   1.0000   1.0000   1.0000   1.0000   1.0000
     1.0000   1.0000   1.0000   1.0000   1.0000   1.0000   1.0000   1.0000
     1.0000   1.0000   1.0000   1.0000   1.0000   1.0000   1.0000   1.0000
     1.0000   1.0000   1.0000   1.0000   1.0000   1.0000   1.0000   1.0000
     1.0000   1.0000   1.0000   1.0001   1.0002   1.0013   1.0020   1.0120
     1.0529   1.0783   1.0832   1.0782   1.0627   0.9968   0.9541   0.9087
     0.7563   0.5881   0.5043   0.4614   0.2701   0.1102   0.1025   0.0000
     0.0000   0.0000   0.0000   0.0000   0.0000   0.0000   0.0000   0.0000
     0.0000   0.0000   0.0000   0.0000   0.0000   0.0000   0.0000   0.0000
     0.0000

          k = 0.0625-0.3248 0.0000 ( 44578 PWs)   bands (ev):

   -12.0822 -11.8166 -11.1771 -10.7001 -10.6719 -10.6119 -10.6061 -10.5343
   -10.4968 -10.4674 -10.4431 -10.4041 -10.3782 -10.3524 -10.3117 -10.2414
   -10.1895 -10.1480 -10.0950 -10.0435  -9.9724  -9.9609  -9.9464  -9.9181
    -9.9046  -9.8191  -9.7658  -9.7182  -9.6336  -9.5106  -9.3928  -9.3149
    -9.2839  -9.1034  -9.0386  -9.0083  -8.8893  -8.8771  -8.8242  -8.7771
    -8.6882  -8.6520  -8.5578  -8.4957  -8.4135  -8.3522  -8.3246  -8.3074
    -8.2425  -8.2211  -8.1911  -8.1814  -8.1243  -8.0991  -8.0962  -8.0749
    -8.0505  -8.0350  -7.9872  -7.9581  -7.9221  -7.8927  -7.8263  -7.7946
    -7.7566  -7.7046  -7.6283  -7.5983  -7.5664  -7.5317  -7.5267  -7.4929
    -7.4508  -7.4363  -7.3664  -7.1637  -7.1091  -7.0841  -7.0281  -6.9934
    -6.9825  -6.9436  -6.7944  -6.7366  -6.7217  -6.6868  -6.6092  -6.5790
    -6.5657  -6.5242  -6.4886  -6.4684  -6.4472  -6.3592  -6.3197  -6.2136
    -6.1276  -6.1070  -6.1004  -6.0950  -6.0064  -5.9933  -5.9786  -5.9646
    -5.9390  -5.9215  -5.9153  -5.8127  -5.7842  -5.7651  -5.6900  -5.6731
    -5.5971  -5.5344  -5.5206  -5.4864  -5.4799  -5.4708  -5.4331  -5.4170
    -5.3138  -5.3041  -5.3008  -5.1680  -5.1610  -5.1353  -4.8995  -4.4758
    -3.7506  -3.6103  -3.3252  -3.1634  -2.8968  -2.4034  -2.2645  -2.0261
    -1.9183  -1.7311  -1.4966  -0.8607  -0.5475   0.0355   0.1990   0.7847
     1.0223

     occupation numbers 
     1.0000   1.0000   1.0000   1.0000   1.0000   1.0000   1.0000   1.0000
     1.0000   1.0000   1.0000   1.0000   1.0000   1.0000   1.0000   1.0000
     1.0000   1.0000   1.0000   1.0000   1.0000   1.0000   1.0000   1.0000
     1.0000   1.0000   1.0000   1.0000   1.0000   1.0000   1.0000   1.0000
     1.0000   1.0000   1.0000   1.0000   1.0000   1.0000   1.0000   1.0000
     1.0000   1.0000   1.0000   1.0000   1.0000   1.0000   1.0000   1.0000
     1.0000   1.0000   1.0000   1.0000   1.0000   1.0000   1.0000   1.0000
     1.0000   1.0000   1.0000   1.0000   1.0000   1.0000   1.0000   1.0000
     1.0000   1.0000   1.0000   1.0000   1.0000   1.0000   1.0000   1.0000
     1.0000   1.0000   1.0000   1.0000   1.0000   1.0000   1.0000   1.0000
     1.0000   1.0000   1.0000   1.0000   1.0000   1.0000   1.0000   1.0000
     1.0000   1.0000   1.0000   1.0000   1.0000   1.0000   1.0000   1.0000
     1.0000   1.0000   1.0000   1.0000   1.0001   1.0001   1.0001   1.0002
     1.0004   1.0006   1.0007   1.0060   1.0100   1.0136   1.0377   1.0451
     1.0779   1.0770   1.0692   1.0336   1.0239   1.0089   0.9259   0.8811
     0.5153   0.4796   0.4679   0.1139   0.1034   0.0712   0.0005   0.0000
     0.0000   0.0000   0.0000   0.0000   0.0000   0.0000   0.0000   0.0000
     0.0000   0.0000   0.0000   0.0000   0.0000   0.0000   0.0000   0.0000
     0.0000

          k = 0.0625-0.2526 0.0000 ( 44582 PWs)   bands (ev):

   -12.2742 -12.0056 -11.3704 -10.7846 -10.7441 -10.7419 -10.7348 -10.7086
   -10.6474 -10.6286 -10.5516 -10.5393 -10.5126 -10.4703 -10.4376 -10.3500
   -10.3041 -10.2953 -10.2669 -10.1913 -10.1174 -10.0784 -10.0475 -10.0416
   -10.0295  -9.9488  -9.8844  -9.8449  -9.7731  -9.6833  -9.4716  -9.3708
    -9.3528  -9.0514  -8.9593  -8.8772  -8.8451  -8.8115  -8.7758  -8.6542
    -8.6475  -8.5504  -8.4722  -8.4252  -8.3783  -8.3699  -8.3299  -8.3083
    -8.2547  -8.2302  -8.2188  -8.1800  -8.1532  -8.1419  -8.0937  -8.0498
    -8.0270  -7.9762  -7.9517  -7.9334  -7.9028  -7.8912  -7.8693  -7.8000
    -7.7450  -7.7109  -7.6668  -7.6202  -7.6102  -7.5614  -7.4124  -7.2600
    -7.2411  -7.1849  -7.1388  -7.0523  -6.9896  -6.9595  -6.9521  -6.9376
    -6.8794  -6.7630  -6.6596  -6.6069  -6.5482  -6.4586  -6.4164  -6.3843
    -6.3711  -6.3571  -6.3417  -6.2893  -6.2407  -6.2243  -6.1575  -6.0403
    -5.9676  -5.9572  -5.9420  -5.8743  -5.8194  -5.7996  -5.7942  -5.7778
    -5.7628  -5.7426  -5.7120  -5.7061  -5.6582  -5.6133  -5.5910  -5.5800
    -5.5089  -5.5007  -5.4853  -5.4730  -5.4693  -5.4438  -5.4259  -5.3076
    -5.3006  -5.2548  -5.1633  -5.1563  -5.0852  -4.8714  -4.5448  -4.2892
    -3.8541  -3.6954  -3.3289  -3.1512  -2.9249  -2.7264  -2.5847  -2.2001
    -2.0036  -1.6290  -1.3858  -1.0846  -0.7268  -0.3879   0.0943   0.4200
     0.7239

     occupation numbers 
     1.0000   1.0000   1.0000   1.0000   1.0000   1.0000   1.0000   1.0000
     1.0000   1.0000   1.0000   1.0000   1.0000   1.0000   1.0000   1.0000
     1.0000   1.0000   1.0000   1.0000   1.0000   1.0000   1.0000   1.0000
     1.0000   1.0000   1.0000   1.0000   1.0000   1.0000   1.0000   1.0000
     1.0000   1.0000   1.0000   1.0000   1.0000   1.0000   1.0000   1.0000
     1.0000   1.0000   1.0000   1.0000   1.0000   1.0000   1.0000   1.0000
     1.0000   1.0000   1.0000   1.0000   1.0000   1.0000   1.0000   1.0000
     1.0000   1.0000   1.0000   1.0000   1.0000   1.0000   1.0000   1.0000
     1.0000   1.0000   1.0000   1.0000   1.0000   1.0000   1.0000   1.0000
     1.0000   1.0000   1.0000   1.0000   1.0000   1.0000   1.0000   1.0000
     1.0000   1.0000   1.0000   1.0000   1.0000   1.0000   1.0000   1.0000
     1.0000   1.0000   1.0000   1.0000   1.0000   1.0000   1.0000   1.0000
     1.0002   1.0002   1.0004   1.0018   1.0053   1.0077   1.0084   1.0111
     1.0141   1.0192   1.0290   1.0312   1.0520   1.0722   1.0796   1.0820
     1.0598   1.0515   1.0320   1.0126   1.0062   0.9528   0.9066   0.4925
     0.4671   0.3134   0.1067   0.0968   0.0314   0.0002   0.0000   0.0000
     0.0000   0.0000   0.0000   0.0000   0.0000   0.0000   0.0000   0.0000
     0.0000   0.0000   0.0000   0.0000   0.0000   0.0000   0.0000   0.0000
     0.0000

          k = 0.0625-0.1804 0.0000 ( 44578 PWs)   bands (ev):

   -12.4379 -12.1519 -11.5268 -10.8783 -10.8703 -10.8581 -10.8422 -10.7905
   -10.7739 -10.7353 -10.6759 -10.6190 -10.6103 -10.5881 -10.5109 -10.4774
   -10.4302 -10.4162 -10.3530 -10.3104 -10.2488 -10.1980 -10.1276 -10.1253
   -10.1204 -10.0445  -9.9990  -9.9431  -9.8901  -9.8296  -9.5234  -9.4148
    -9.4069  -9.0141  -8.9057  -8.8629  -8.7484  -8.7148  -8.6848  -8.6236
    -8.5590  -8.5472  -8.4403  -8.4235  -8.3903  -8.3787  -8.3306  -8.3036
    -8.2708  -8.2700  -8.2664  -8.2599  -8.2534  -8.0941  -8.0824  -8.0612
    -8.0045  -7.9799  -7.9587  -7.9282  -7.8727  -7.8225  -7.8114  -7.7509
    -7.7238  -7.7000  -7.6633  -7.6341  -7.5893  -7.4873  -7.2626  -7.1166
    -7.0730  -7.0605  -6.9358  -6.9118  -6.8971  -6.8817  -6.8703  -6.8377
    -6.6857  -6.6265  -6.5878  -6.5657  -6.4631  -6.3797  -6.3057  -6.2942
    -6.2644  -6.2112  -6.1237  -6.0576  -6.0298  -5.9920  -5.9731  -5.8978
    -5.8723  -5.8544  -5.8368  -5.7826  -5.6694  -5.6530  -5.6435  -5.6416
    -5.6237  -5.5437  -5.5317  -5.5226  -5.5132  -5.4882  -5.4839  -5.4617
    -5.4433  -5.4396  -5.4338  -5.4259  -5.4055  -5.3549  -5.2804  -5.2704
    -5.2587  -5.1827  -5.1675  -5.1421  -5.1327  -4.6113  -4.3000  -3.9100
    -3.8347  -3.5577  -3.3467  -3.2216  -2.9703  -2.8793  -2.6824  -2.2925
    -2.1362  -1.6464  -1.3425  -1.1352  -0.9339  -0.8438  -0.5655   0.2701
     0.4157

     occupation numbers 
     1.0000   1.0000   1.0000   1.0000   1.0000   1.0000   1.0000   1.0000
     1.0000   1.0000   1.0000   1.0000   1.0000   1.0000   1.0000   1.0000
     1.0000   1.0000   1.0000   1.0000   1.0000   1.0000   1.0000   1.0000
     1.0000   1.0000   1.0000   1.0000   1.0000   1.0000   1.0000   1.0000
     1.0000   1.0000   1.0000   1.0000   1.0000   1.0000   1.0000   1.0000
     1.0000   1.0000   1.0000   1.0000   1.0000   1.0000   1.0000   1.0000
     1.0000   1.0000   1.0000   1.0000   1.0000   1.0000   1.0000   1.0000
     1.0000   1.0000   1.0000   1.0000   1.0000   1.0000   1.0000   1.0000
     1.0000   1.0000   1.0000   1.0000   1.0000   1.0000   1.0000   1.0000
     1.0000   1.0000   1.0000   1.0000   1.0000   1.0000   1.0000   1.0000
     1.0000   1.0000   1.0000   1.0000   1.0000   1.0000   1.0000   1.0000
     1.0000   1.0000   1.0000   1.0000   1.0000   1.0001   1.0002   1.0010
     1.0018   1.0027   1.0038   1.0103   1.0468   1.0545   1.0589   1.0598
     1.0679   1.0804   1.0758   1.0706   1.0635   1.0361   1.0300   0.9917
     0.9514   0.9425   0.9277   0.9065   0.8462   0.6697   0.3961   0.3627
     0.3251   0.1385   0.1132   0.0788   0.0684   0.0000   0.0000   0.0000
     0.0000   0.0000   0.0000   0.0000   0.0000   0.0000   0.0000   0.0000
     0.0000   0.0000   0.0000   0.0000   0.0000   0.0000   0.0000   0.0000
     0.0000

          k = 0.0625-0.1083 0.0000 ( 44583 PWs)   bands (ev):

   -12.5544 -12.2528 -11.6359 -10.9842 -10.9393 -10.9377 -10.9241 -10.8902
   -10.8080 -10.8031 -10.7678 -10.6744 -10.6733 -10.6640 -10.5651 -10.5602
   -10.5313 -10.5222 -10.3970 -10.3838 -10.3481 -10.2869 -10.1848 -10.1831
   -10.1803 -10.1067 -10.0852 -10.0178  -9.9602  -9.9325  -9.5593  -9.4470
    -9.4435  -8.9985  -8.8741  -8.8585  -8.6875  -8.6205  -8.6013  -8.6003
    -8.5943  -8.4793  -8.4685  -8.4562  -8.4379  -8.3571  -8.3462  -8.3119
    -8.3016  -8.2987  -8.2945  -8.2876  -8.2717  -8.1696  -8.0815  -8.0739
    -8.0321  -7.9338  -7.9065  -7.8914  -7.8512  -7.8271  -7.8119  -7.7948
    -7.6541  -7.6422  -7.6164  -7.5833  -7.4648  -7.3904  -7.1569  -7.1102
    -7.0547  -6.9940  -6.8168  -6.8077  -6.7922  -6.7887  -6.7541  -6.6333
    -6.6164  -6.5902  -6.5277  -6.4982  -6.4125  -6.3549  -6.3047  -6.2310
    -6.2029  -6.1132  -5.9931  -5.8625  -5.8510  -5.8470  -5.8261  -5.8150
    -5.8109  -5.7987  -5.7055  -5.6627  -5.5847  -5.5487  -5.5463  -5.5281
    -5.5208  -5.4904  -5.4361  -5.4242  -5.4217  -5.4207  -5.3950  -5.3872
    -5.3661  -5.3500  -5.3385  -5.3345  -5.2705  -5.2582  -5.2401  -5.1877
    -5.1654  -5.1473  -5.1036  -5.0881  -5.0845  -4.6769  -4.0639  -4.0176
    -3.7612  -3.3899  -3.2474  -3.1606  -2.8519  -2.6698  -2.5231  -2.3106
    -2.1634  -1.7429  -1.3906  -1.2973  -1.1480  -1.1047  -1.0670  -0.1833
    -0.1150

     occupation numbers 
     1.0000   1.0000   1.0000   1.0000   1.0000   1.0000   1.0000   1.0000
     1.0000   1.0000   1.0000   1.0000   1.0000   1.0000   1.0000   1.0000
     1.0000   1.0000   1.0000   1.0000   1.0000   1.0000   1.0000   1.0000
     1.0000   1.0000   1.0000   1.0000   1.0000   1.0000   1.0000   1.0000
     1.0000   1.0000   1.0000   1.0000   1.0000   1.0000   1.0000   1.0000
     1.0000   1.0000   1.0000   1.0000   1.0000   1.0000   1.0000   1.0000
     1.0000   1.0000   1.0000   1.0000   1.0000   1.0000   1.0000   1.0000
     1.0000   1.0000   1.0000   1.0000   1.0000   1.0000   1.0000   1.0000
     1.0000   1.0000   1.0000   1.0000   1.0000   1.0000   1.0000   1.0000
     1.0000   1.0000   1.0000   1.0000   1.0000   1.0000   1.0000   1.0000
     1.0000   1.0000   1.0000   1.0000   1.0000   1.0000   1.0000   1.0000
     1.0000   1.0000   1.0001   1.0023   1.0029   1.0031   1.0047   1.0058
     1.0063   1.0078   1.0314   1.0499   1.0811   1.0817   1.0811   1.0739
     1.0694   1.0391   0.9337   0.9017   0.8947   0.8919   0.8120   0.7858
     0.7109   0.6512   0.6083   0.5930   0.3630   0.3237   0.2704   0.1477
     0.1099   0.0850   0.0429   0.0330   0.0310   0.0000   0.0000   0.0000
     0.0000   0.0000   0.0000   0.0000   0.0000   0.0000   0.0000   0.0000
     0.0000   0.0000   0.0000   0.0000   0.0000   0.0000   0.0000   0.0000
     0.0000

          k = 0.1250-0.0722 0.0000 ( 44584 PWs)   bands (ev):

   -12.5248 -12.2273 -11.6083 -10.9563 -10.9282 -10.9085 -10.9067 -10.8648
   -10.8105 -10.7620 -10.7573 -10.6625 -10.6512 -10.6498 -10.5609 -10.5199
   -10.5151 -10.4955 -10.3954 -10.3459 -10.3316 -10.2652 -10.1702 -10.1686
   -10.1656 -10.0911 -10.0619 -10.0009  -9.9388  -9.9092  -9.5503  -9.4398
    -9.4332  -9.0018  -8.8852  -8.8566  -8.6785  -8.6602  -8.6422  -8.6134
    -8.5674  -8.4968  -8.4615  -8.4415  -8.4271  -8.3551  -8.3356  -8.3007
    -8.2993  -8.2948  -8.2904  -8.2839  -8.2758  -8.1479  -8.0704  -8.0618
    -8.0474  -7.9437  -7.9198  -7.8931  -7.8686  -7.8292  -7.7934  -7.7768
    -7.6960  -7.6551  -7.6182  -7.6033  -7.5120  -7.4159  -7.1556  -7.1347
    -7.0464  -7.0145  -6.8361  -6.8326  -6.8221  -6.8185  -6.7937  -6.6845
    -6.6095  -6.6012  -6.5928  -6.4604  -6.4478  -6.3871  -6.2828  -6.2440
    -6.2193  -6.1145  -6.0271  -5.9164  -5.9035  -5.8732  -5.8625  -5.8541
    -5.8383  -5.8258  -5.7161  -5.7124  -5.6213  -5.5730  -5.5722  -5.5321
    -5.5252  -5.5212  -5.4475  -5.4451  -5.4336  -5.4312  -5.4228  -5.4043
    -5.3828  -5.3801  -5.3483  -5.3415  -5.3213  -5.3207  -5.2482  -5.2087
    -5.1988  -5.1548  -5.1083  -5.1080  -5.0988  -4.6546  -4.3561  -3.7852
    -3.5445  -3.4687  -3.4678  -3.2130  -2.9007  -2.6642  -2.5357  -2.2127
    -2.1050  -1.9059  -1.7509  -1.2601  -1.0430  -0.9961  -0.4244  -0.3760
     0.1334

     occupation numbers 
     1.0000   1.0000   1.0000   1.0000   1.0000   1.0000   1.0000   1.0000
     1.0000   1.0000   1.0000   1.0000   1.0000   1.0000   1.0000   1.0000
     1.0000   1.0000   1.0000   1.0000   1.0000   1.0000   1.0000   1.0000
     1.0000   1.0000   1.0000   1.0000   1.0000   1.0000   1.0000   1.0000
     1.0000   1.0000   1.0000   1.0000   1.0000   1.0000   1.0000   1.0000
     1.0000   1.0000   1.0000   1.0000   1.0000   1.0000   1.0000   1.0000
     1.0000   1.0000   1.0000   1.0000   1.0000   1.0000   1.0000   1.0000
     1.0000   1.0000   1.0000   1.0000   1.0000   1.0000   1.0000   1.0000
     1.0000   1.0000   1.0000   1.0000   1.0000   1.0000   1.0000   1.0000
     1.0000   1.0000   1.0000   1.0000   1.0000   1.0000   1.0000   1.0000
     1.0000   1.0000   1.0000   1.0000   1.0000   1.0000   1.0000   1.0000
     1.0000   1.0000   1.0000   1.0007   1.0009   1.0018   1.0023   1.0027
     1.0037   1.0047   1.0275   1.0289   1.0689   1.0829   1.0830   1.0759
     1.0722   1.0697   0.9614   0.9559   0.9274   0.9210   0.8978   0.8423
     0.7706   0.7613   0.6451   0.6195   0.5434   0.5410   0.2936   0.1909
     0.1697   0.0948   0.0465   0.0462   0.0397   0.0000   0.0000   0.0000
     0.0000   0.0000   0.0000   0.0000   0.0000   0.0000   0.0000   0.0000
     0.0000   0.0000   0.0000   0.0000   0.0000   0.0000   0.0000   0.0000
     0.0000

          k = 0.1250 0.0000 0.0000 ( 44583 PWs)   bands (ev):

   -12.5544 -12.2528 -11.6359 -10.9842 -10.9393 -10.9377 -10.9241 -10.8902
   -10.8080 -10.8031 -10.7678 -10.6744 -10.6733 -10.6640 -10.5651 -10.5602
   -10.5313 -10.5222 -10.3970 -10.3838 -10.3481 -10.2869 -10.1848 -10.1831
   -10.1803 -10.1067 -10.0852 -10.0178  -9.9602  -9.9325  -9.5593  -9.4470
    -9.4435  -8.9985  -8.8741  -8.8585  -8.6875  -8.6205  -8.6013  -8.6003
    -8.5943  -8.4793  -8.4685  -8.4562  -8.4379  -8.3571  -8.3462  -8.3119
    -8.3016  -8.2987  -8.2945  -8.2876  -8.2717  -8.1696  -8.0815  -8.0739
    -8.0321  -7.9338  -7.9065  -7.8914  -7.8512  -7.8271  -7.8119  -7.7948
    -7.6541  -7.6422  -7.6164  -7.5833  -7.4648  -7.3904  -7.1569  -7.1102
    -7.0547  -6.9940  -6.8168  -6.8077  -6.7922  -6.7887  -6.7541  -6.6333
    -6.6164  -6.5902  -6.5277  -6.4982  -6.4125  -6.3549  -6.3047  -6.2310
    -6.2029  -6.1132  -5.9931  -5.8625  -5.8510  -5.8470  -5.8261  -5.8150
    -5.8109  -5.7987  -5.7055  -5.6627  -5.5847  -5.5487  -5.5463  -5.5281
    -5.5208  -5.4904  -5.4361  -5.4242  -5.4217  -5.4207  -5.3950  -5.3872
    -5.3661  -5.3500  -5.3385  -5.3345  -5.2705  -5.2582  -5.2401  -5.1877
    -5.1654  -5.1473  -5.1036  -5.0881  -5.0845  -4.6769  -4.0639  -4.0176
    -3.7612  -3.3899  -3.2474  -3.1606  -2.8519  -2.6698  -2.5231  -2.3106
    -2.1634  -1.7429  -1.3906  -1.2973  -1.1480  -1.1047  -1.0670  -0.1833
    -0.1150

     occupation numbers 
     1.0000   1.0000   1.0000   1.0000   1.0000   1.0000   1.0000   1.0000
     1.0000   1.0000   1.0000   1.0000   1.0000   1.0000   1.0000   1.0000
     1.0000   1.0000   1.0000   1.0000   1.0000   1.0000   1.0000   1.0000
     1.0000   1.0000   1.0000   1.0000   1.0000   1.0000   1.0000   1.0000
     1.0000   1.0000   1.0000   1.0000   1.0000   1.0000   1.0000   1.0000
     1.0000   1.0000   1.0000   1.0000   1.0000   1.0000   1.0000   1.0000
     1.0000   1.0000   1.0000   1.0000   1.0000   1.0000   1.0000   1.0000
     1.0000   1.0000   1.0000   1.0000   1.0000   1.0000   1.0000   1.0000
     1.0000   1.0000   1.0000   1.0000   1.0000   1.0000   1.0000   1.0000
     1.0000   1.0000   1.0000   1.0000   1.0000   1.0000   1.0000   1.0000
     1.0000   1.0000   1.0000   1.0000   1.0000   1.0000   1.0000   1.0000
     1.0000   1.0000   1.0001   1.0023   1.0029   1.0031   1.0047   1.0058
     1.0063   1.0078   1.0314   1.0499   1.0811   1.0817   1.0811   1.0739
     1.0693   1.0391   0.9337   0.9017   0.8947   0.8919   0.8120   0.7858
     0.7109   0.6512   0.6083   0.5930   0.3630   0.3237   0.2704   0.1477
     0.1099   0.0850   0.0429   0.0330   0.0310   0.0000   0.0000   0.0000
     0.0000   0.0000   0.0000   0.0000   0.0000   0.0000   0.0000   0.0000
     0.0000   0.0000   0.0000   0.0000   0.0000   0.0000   0.0000   0.0000
     0.0000

          k = 0.1250 0.0722 0.0000 ( 44584 PWs)   bands (ev):

   -12.5248 -12.2273 -11.6083 -10.9563 -10.9282 -10.9085 -10.9067 -10.8648
   -10.8105 -10.7620 -10.7573 -10.6625 -10.6512 -10.6498 -10.5609 -10.5199
   -10.5151 -10.4955 -10.3954 -10.3459 -10.3316 -10.2652 -10.1702 -10.1686
   -10.1656 -10.0911 -10.0619 -10.0009  -9.9388  -9.9092  -9.5503  -9.4398
    -9.4332  -9.0018  -8.8852  -8.8566  -8.6785  -8.6602  -8.6422  -8.6134
    -8.5674  -8.4968  -8.4615  -8.4415  -8.4271  -8.3551  -8.3356  -8.3007
    -8.2993  -8.2948  -8.2904  -8.2839  -8.2758  -8.1479  -8.0704  -8.0618
    -8.0474  -7.9437  -7.9198  -7.8931  -7.8686  -7.8292  -7.7934  -7.7768
    -7.6960  -7.6551  -7.6182  -7.6033  -7.5120  -7.4159  -7.1556  -7.1347
    -7.0464  -7.0145  -6.8361  -6.8326  -6.8221  -6.8185  -6.7937  -6.6845
    -6.6095  -6.6012  -6.5928  -6.4604  -6.4478  -6.3871  -6.2828  -6.2440
    -6.2193  -6.1145  -6.0271  -5.9164  -5.9035  -5.8732  -5.8625  -5.8541
    -5.8383  -5.8258  -5.7161  -5.7124  -5.6213  -5.5730  -5.5722  -5.5321
    -5.5252  -5.5212  -5.4475  -5.4451  -5.4336  -5.4312  -5.4228  -5.4043
    -5.3828  -5.3801  -5.3483  -5.3415  -5.3213  -5.3207  -5.2482  -5.2087
    -5.1988  -5.1548  -5.1083  -5.1080  -5.0988  -4.6546  -4.3561  -3.7852
    -3.5445  -3.4687  -3.4678  -3.2130  -2.9007  -2.6642  -2.5357  -2.2127
    -2.1050  -1.9059  -1.7509  -1.2601  -1.0430  -0.9961  -0.4244  -0.3760
     0.1334

     occupation numbers 
     1.0000   1.0000   1.0000   1.0000   1.0000   1.0000   1.0000   1.0000
     1.0000   1.0000   1.0000   1.0000   1.0000   1.0000   1.0000   1.0000
     1.0000   1.0000   1.0000   1.0000   1.0000   1.0000   1.0000   1.0000
     1.0000   1.0000   1.0000   1.0000   1.0000   1.0000   1.0000   1.0000
     1.0000   1.0000   1.0000   1.0000   1.0000   1.0000   1.0000   1.0000
     1.0000   1.0000   1.0000   1.0000   1.0000   1.0000   1.0000   1.0000
     1.0000   1.0000   1.0000   1.0000   1.0000   1.0000   1.0000   1.0000
     1.0000   1.0000   1.0000   1.0000   1.0000   1.0000   1.0000   1.0000
     1.0000   1.0000   1.0000   1.0000   1.0000   1.0000   1.0000   1.0000
     1.0000   1.0000   1.0000   1.0000   1.0000   1.0000   1.0000   1.0000
     1.0000   1.0000   1.0000   1.0000   1.0000   1.0000   1.0000   1.0000
     1.0000   1.0000   1.0000   1.0007   1.0009   1.0018   1.0023   1.0027
     1.0037   1.0047   1.0275   1.0289   1.0689   1.0829   1.0830   1.0759
     1.0722   1.0697   0.9614   0.9559   0.9274   0.9210   0.8978   0.8423
     0.7706   0.7613   0.6451   0.6195   0.5434   0.5410   0.2936   0.1909
     0.1697   0.0948   0.0465   0.0462   0.0397   0.0000   0.0000   0.0000
     0.0000   0.0000   0.0000   0.0000   0.0000   0.0000   0.0000   0.0000
     0.0000   0.0000   0.0000   0.0000   0.0000   0.0000   0.0000   0.0000
     0.0000

          k = 0.1250 0.1443 0.0000 ( 44578 PWs)   bands (ev):

   -12.4379 -12.1519 -11.5268 -10.8783 -10.8703 -10.8581 -10.8422 -10.7905
   -10.7739 -10.7353 -10.6759 -10.6190 -10.6103 -10.5881 -10.5109 -10.4774
   -10.4302 -10.4162 -10.3530 -10.3104 -10.2488 -10.1980 -10.1276 -10.1253
   -10.1204 -10.0445  -9.9990  -9.9431  -9.8901  -9.8296  -9.5234  -9.4148
    -9.4069  -9.0141  -8.9057  -8.8629  -8.7484  -8.7148  -8.6848  -8.6236
    -8.5590  -8.5472  -8.4403  -8.4235  -8.3903  -8.3787  -8.3306  -8.3036
    -8.2708  -8.2700  -8.2664  -8.2599  -8.2534  -8.0941  -8.0824  -8.0612
    -8.0045  -7.9799  -7.9587  -7.9282  -7.8727  -7.8225  -7.8114  -7.7509
    -7.7238  -7.7000  -7.6633  -7.6341  -7.5894  -7.4873  -7.2626  -7.1166
    -7.0730  -7.0605  -6.9358  -6.9118  -6.8971  -6.8817  -6.8703  -6.8377
    -6.6857  -6.6265  -6.5878  -6.5657  -6.4631  -6.3797  -6.3057  -6.2942
    -6.2644  -6.2112  -6.1237  -6.0576  -6.0298  -5.9920  -5.9731  -5.8978
    -5.8723  -5.8544  -5.8368  -5.7826  -5.6694  -5.6530  -5.6435  -5.6416
    -5.6237  -5.5437  -5.5317  -5.5226  -5.5132  -5.4882  -5.4839  -5.4617
    -5.4433  -5.4396  -5.4338  -5.4259  -5.4055  -5.3549  -5.2804  -5.2704
    -5.2587  -5.1827  -5.1675  -5.1421  -5.1327  -4.6113  -4.3000  -3.9100
    -3.8347  -3.5577  -3.3467  -3.2216  -2.9703  -2.8793  -2.6824  -2.2925
    -2.1362  -1.6464  -1.3425  -1.1352  -0.9339  -0.8438  -0.5655   0.2701
     0.4157

     occupation numbers 
     1.0000   1.0000   1.0000   1.0000   1.0000   1.0000   1.0000   1.0000
     1.0000   1.0000   1.0000   1.0000   1.0000   1.0000   1.0000   1.0000
     1.0000   1.0000   1.0000   1.0000   1.0000   1.0000   1.0000   1.0000
     1.0000   1.0000   1.0000   1.0000   1.0000   1.0000   1.0000   1.0000
     1.0000   1.0000   1.0000   1.0000   1.0000   1.0000   1.0000   1.0000
     1.0000   1.0000   1.0000   1.0000   1.0000   1.0000   1.0000   1.0000
     1.0000   1.0000   1.0000   1.0000   1.0000   1.0000   1.0000   1.0000
     1.0000   1.0000   1.0000   1.0000   1.0000   1.0000   1.0000   1.0000
     1.0000   1.0000   1.0000   1.0000   1.0000   1.0000   1.0000   1.0000
     1.0000   1.0000   1.0000   1.0000   1.0000   1.0000   1.0000   1.0000
     1.0000   1.0000   1.0000   1.0000   1.0000   1.0000   1.0000   1.0000
     1.0000   1.0000   1.0000   1.0000   1.0000   1.0001   1.0002   1.0010
     1.0018   1.0027   1.0038   1.0103   1.0468   1.0545   1.0589   1.0598
     1.0679   1.0804   1.0758   1.0706   1.0635   1.0361   1.0300   0.9917
     0.9514   0.9425   0.9277   0.9065   0.8462   0.6697   0.3961   0.3627
     0.3251   0.1385   0.1132   0.0788   0.0684   0.0000   0.0000   0.0000
     0.0000   0.0000   0.0000   0.0000   0.0000   0.0000   0.0000   0.0000
     0.0000   0.0000   0.0000   0.0000   0.0000   0.0000   0.0000   0.0000
     0.0000

          k = 0.1250 0.2165 0.0000 ( 44571 PWs)   bands (ev):

   -12.3001 -12.0292 -11.3952 -10.7808 -10.7792 -10.7513 -10.7418 -10.7030
   -10.6935 -10.6684 -10.5593 -10.5457 -10.5435 -10.4820 -10.4169 -10.4107
   -10.3102 -10.2925 -10.2697 -10.2619 -10.1310 -10.0887 -10.0579 -10.0542
   -10.0442  -9.9711  -9.9041  -9.8423  -9.8130  -9.7025  -9.4781  -9.3717
    -9.3685  -9.0449  -8.9358  -8.8769  -8.8347  -8.8120  -8.7913  -8.6385
    -8.5934  -8.5436  -8.4885  -8.4129  -8.3823  -8.3678  -8.3365  -8.3098
    -8.2727  -8.2329  -8.2241  -8.1865  -8.1643  -8.1332  -8.0974  -8.0369
    -7.9902  -7.9825  -7.9630  -7.9616  -7.9113  -7.8927  -7.8662  -7.7732
    -7.7412  -7.7157  -7.6584  -7.6242  -7.6232  -7.5362  -7.4028  -7.2226
    -7.1952  -7.1792  -7.1209  -7.0170  -6.9917  -6.9494  -6.9423  -6.9126
    -6.8533  -6.6852  -6.6684  -6.6113  -6.5620  -6.4463  -6.3758  -6.3624
    -6.3448  -6.3303  -6.3034  -6.2624  -6.2102  -6.1955  -6.1134  -6.0109
    -5.9921  -5.9547  -5.9386  -5.9185  -5.7937  -5.7853  -5.7600  -5.7178
    -5.6930  -5.6770  -5.6706  -5.6459  -5.6309  -5.6087  -5.5916  -5.5722
    -5.5672  -5.5246  -5.4850  -5.4802  -5.4653  -5.4588  -5.3604  -5.3528
    -5.3112  -5.2198  -5.2100  -5.1867  -4.9234  -4.5017  -4.4430  -4.1548
    -3.9345  -3.8154  -3.5705  -3.5380  -2.9480  -2.6882  -2.5595  -2.3570
    -1.7871  -1.3655  -1.0724  -1.0002  -0.7841  -0.5706  -0.4569   0.4991
     0.6665

     occupation numbers 
     1.0000   1.0000   1.0000   1.0000   1.0000   1.0000   1.0000   1.0000
     1.0000   1.0000   1.0000   1.0000   1.0000   1.0000   1.0000   1.0000
     1.0000   1.0000   1.0000   1.0000   1.0000   1.0000   1.0000   1.0000
     1.0000   1.0000   1.0000   1.0000   1.0000   1.0000   1.0000   1.0000
     1.0000   1.0000   1.0000   1.0000   1.0000   1.0000   1.0000   1.0000
     1.0000   1.0000   1.0000   1.0000   1.0000   1.0000   1.0000   1.0000
     1.0000   1.0000   1.0000   1.0000   1.0000   1.0000   1.0000   1.0000
     1.0000   1.0000   1.0000   1.0000   1.0000   1.0000   1.0000   1.0000
     1.0000   1.0000   1.0000   1.0000   1.0000   1.0000   1.0000   1.0000
     1.0000   1.0000   1.0000   1.0000   1.0000   1.0000   1.0000   1.0000
     1.0000   1.0000   1.0000   1.0000   1.0000   1.0000   1.0000   1.0000
     1.0000   1.0000   1.0000   1.0000   1.0000   1.0000   1.0000   1.0001
     1.0001   1.0003   1.0004   1.0006   1.0085   1.0098   1.0148   1.0269
     1.0364   1.0433   1.0463   1.0578   1.0647   1.0740   1.0795   1.0830
     1.0833   1.0718   1.0316   1.0244   0.9987   0.9860   0.6902   0.6619
     0.5057   0.2171   0.1939   0.1459   0.0010   0.0000   0.0000   0.0000
     0.0000   0.0000   0.0000   0.0000   0.0000   0.0000   0.0000   0.0000
     0.0000   0.0000   0.0000   0.0000   0.0000   0.0000   0.0000   0.0000
     0.0000

          k = 0.1250 0.2887 0.0000 ( 44582 PWs)   bands (ev):

   -12.1255 -11.8618 -11.2210 -10.6752 -10.6613 -10.6489 -10.6428 -10.5951
   -10.5594 -10.5109 -10.4574 -10.4403 -10.4155 -10.3342 -10.3301 -10.2743
   -10.2139 -10.1753 -10.1463 -10.1286  -9.9959  -9.9738  -9.9702  -9.9383
    -9.9304  -9.8688  -9.7864  -9.7248  -9.6887  -9.5534  -9.4049  -9.3232
    -9.3096  -9.1006  -8.9942  -8.9494  -8.9174  -8.8936  -8.8628  -8.7506
    -8.6576  -8.5608  -8.5153  -8.4833  -8.4365  -8.3379  -8.3292  -8.3214
    -8.2516  -8.2197  -8.2060  -8.1845  -8.1389  -8.1089  -8.0890  -8.0595
    -8.0480  -8.0336  -7.9843  -7.9621  -7.9402  -7.8910  -7.8493  -7.8228
    -7.7771  -7.7124  -7.6345  -7.5677  -7.5413  -7.5189  -7.4938  -7.4397
    -7.4260  -7.3947  -7.3538  -7.1105  -7.0814  -7.0434  -6.9958  -6.9813
    -6.9591  -6.8675  -6.7895  -6.7477  -6.6586  -6.6247  -6.5633  -6.5257
    -6.5078  -6.4784  -6.4440  -6.4309  -6.4187  -6.3867  -6.2948  -6.2281
    -6.0768  -6.0688  -6.0628  -6.0462  -6.0366  -5.9901  -5.9662  -5.9152
    -5.8792  -5.8384  -5.7964  -5.7618  -5.7113  -5.7032  -5.6876  -5.5794
    -5.5678  -5.5501  -5.5264  -5.5110  -5.5006  -5.4842  -5.4656  -5.3729
    -5.3354  -5.2922  -5.2290  -5.2181  -4.9506  -4.6987  -4.5295  -4.3295
    -4.2763  -3.9868  -3.7053  -3.3333  -3.0682  -2.6298  -2.3009  -1.9239
    -1.5877  -1.3571  -1.0778  -0.9174  -0.5427  -0.1136   0.1649   0.3931
     0.7256

     occupation numbers 
     1.0000   1.0000   1.0000   1.0000   1.0000   1.0000   1.0000   1.0000
     1.0000   1.0000   1.0000   1.0000   1.0000   1.0000   1.0000   1.0000
     1.0000   1.0000   1.0000   1.0000   1.0000   1.0000   1.0000   1.0000
     1.0000   1.0000   1.0000   1.0000   1.0000   1.0000   1.0000   1.0000
     1.0000   1.0000   1.0000   1.0000   1.0000   1.0000   1.0000   1.0000
     1.0000   1.0000   1.0000   1.0000   1.0000   1.0000   1.0000   1.0000
     1.0000   1.0000   1.0000   1.0000   1.0000   1.0000   1.0000   1.0000
     1.0000   1.0000   1.0000   1.0000   1.0000   1.0000   1.0000   1.0000
     1.0000   1.0000   1.0000   1.0000   1.0000   1.0000   1.0000   1.0000
     1.0000   1.0000   1.0000   1.0000   1.0000   1.0000   1.0000   1.0000
     1.0000   1.0000   1.0000   1.0000   1.0000   1.0000   1.0000   1.0000
     1.0000   1.0000   1.0000   1.0000   1.0000   1.0000   1.0000   1.0000
     1.0000   1.0000   1.0000   1.0000   1.0000   1.0001   1.0002   1.0007
     1.0016   1.0037   1.0081   1.0144   1.0293   1.0323   1.0387   1.0821
     1.0833   1.0820   1.0729   1.0617   1.0514   1.0304   0.9992   0.7355
     0.5964   0.4370   0.2402   0.2128   0.0019   0.0000   0.0000   0.0000
     0.0000   0.0000   0.0000   0.0000   0.0000   0.0000   0.0000   0.0000
     0.0000   0.0000   0.0000   0.0000   0.0000   0.0000   0.0000   0.0000
     0.0000

          k = 0.1250 0.3608 0.0000 ( 44558 PWs)   bands (ev):

   -11.9391 -11.6499 -11.0174 -10.6280 -10.5518 -10.5213 -10.4988 -10.4586
   -10.3831 -10.3575 -10.3224 -10.3016 -10.2610 -10.2500 -10.1527 -10.1457
   -10.1024 -10.0422 -10.0008  -9.9601  -9.8881  -9.8710  -9.8316  -9.8061
    -9.7824  -9.7384  -9.6668  -9.5948  -9.5503  -9.4191  -9.2835  -9.2591
    -9.2335  -9.1582  -9.1240  -9.0334  -8.9918  -8.9578  -8.8863  -8.8632
    -8.7490  -8.6749  -8.5856  -8.5777  -8.4430  -8.4255  -8.3964  -8.3111
    -8.2940  -8.2896  -8.2585  -8.2247  -8.1777  -8.1122  -8.0717  -8.0509
    -8.0446  -8.0397  -8.0002  -7.9512  -7.9186  -7.9012  -7.8158  -7.8044
    -7.7829  -7.7641  -7.6729  -7.6631  -7.6487  -7.6026  -7.5668  -7.5100
    -7.4739  -7.3796  -7.3399  -7.3077  -7.2829  -7.1437  -7.0727  -7.0283
    -7.0146  -6.9796  -6.9740  -6.9275  -6.8962  -6.8427  -6.8229  -6.7890
    -6.7613  -6.6481  -6.5672  -6.5578  -6.5448  -6.5177  -6.3988  -6.3768
    -6.3165  -6.2870  -6.2658  -6.2346  -6.2025  -6.1031  -6.0770  -6.0432
    -5.9881  -5.9763  -5.9542  -5.9347  -5.8324  -5.7797  -5.7298  -5.6900
    -5.5954  -5.5741  -5.5456  -5.5388  -5.5179  -5.4836  -5.3827  -5.3615
    -5.3557  -5.3369  -5.2965  -5.2341  -5.2312  -5.1060  -4.8712  -4.2881
    -4.1798  -3.9563  -3.6955  -3.4904  -2.8829  -2.5259  -1.9386  -1.7252
    -1.6262  -1.2715  -1.0190  -0.7846  -0.2364   0.0312   0.4547   0.7696
     0.8928

     occupation numbers 
     1.0000   1.0000   1.0000   1.0000   1.0000   1.0000   1.0000   1.0000
     1.0000   1.0000   1.0000   1.0000   1.0000   1.0000   1.0000   1.0000
     1.0000   1.0000   1.0000   1.0000   1.0000   1.0000   1.0000   1.0000
     1.0000   1.0000   1.0000   1.0000   1.0000   1.0000   1.0000   1.0000
     1.0000   1.0000   1.0000   1.0000   1.0000   1.0000   1.0000   1.0000
     1.0000   1.0000   1.0000   1.0000   1.0000   1.0000   1.0000   1.0000
     1.0000   1.0000   1.0000   1.0000   1.0000   1.0000   1.0000   1.0000
     1.0000   1.0000   1.0000   1.0000   1.0000   1.0000   1.0000   1.0000
     1.0000   1.0000   1.0000   1.0000   1.0000   1.0000   1.0000   1.0000
     1.0000   1.0000   1.0000   1.0000   1.0000   1.0000   1.0000   1.0000
     1.0000   1.0000   1.0000   1.0000   1.0000   1.0000   1.0000   1.0000
     1.0000   1.0000   1.0000   1.0000   1.0000   1.0000   1.0000   1.0000
     1.0000   1.0000   1.0000   1.0000   1.0000   1.0000   1.0000   1.0000
     1.0001   1.0001   1.0003   1.0004   1.0042   1.0108   1.0229   1.0377
     1.0784   1.0828   1.0809   1.0788   1.0673   1.0295   0.7702   0.6943
     0.6727   0.6020   0.4522   0.2539   0.2461   0.0447   0.0002   0.0000
     0.0000   0.0000   0.0000   0.0000   0.0000   0.0000   0.0000   0.0000
     0.0000   0.0000   0.0000   0.0000   0.0000   0.0000   0.0000   0.0000
     0.0000

          k = 0.1250 0.4330 0.0000 ( 44545 PWs)   bands (ev):

   -11.7735 -11.3982 -10.8062 -10.6275 -10.4291 -10.3898 -10.3540 -10.3182
   -10.2934 -10.2394 -10.1764 -10.1338 -10.1295 -10.1202 -10.0467  -9.9923
    -9.9277  -9.8796  -9.8638  -9.8174  -9.7875  -9.7537  -9.7450  -9.6638
    -9.6259  -9.6055  -9.5581  -9.4617  -9.4473  -9.2963  -9.2632  -9.2130
    -9.1918  -9.1563  -9.1290  -9.0619  -9.0365  -9.0195  -8.9995  -8.9167
    -8.8379  -8.7322  -8.6922  -8.6428  -8.5697  -8.5623  -8.5161  -8.4222
    -8.3859  -8.3140  -8.2783  -8.2518  -8.1878  -8.1421  -8.1292  -8.1029
    -8.0557  -8.0216  -8.0136  -7.9854  -7.9707  -7.9419  -7.9181  -7.8791
    -7.8727  -7.8082  -7.7723  -7.6282  -7.6046  -7.6006  -7.5696  -7.5164
    -7.4644  -7.4598  -7.3818  -7.3296  -7.2974  -7.2183  -7.2040  -7.1829
    -7.1659  -7.1385  -7.1299  -7.0676  -7.0399  -7.0096  -6.9425  -6.9134
    -6.8751  -6.8019  -6.7187  -6.6881  -6.6818  -6.6708  -6.5682  -6.4915
    -6.4431  -6.4337  -6.4118  -6.3293  -6.2943  -6.2816  -6.2403  -6.1635
    -6.1375  -6.0935  -6.0784  -6.0152  -5.9134  -5.8569  -5.8375  -5.7315
    -5.7138  -5.5948  -5.5667  -5.5397  -5.5282  -5.5170  -5.4978  -5.4779
    -5.3964  -5.3742  -5.3709  -5.3091  -5.2398  -5.2323  -5.0728  -4.1802
    -4.0853  -3.8943  -3.7860  -3.5164  -2.6711  -2.3157  -2.2065  -1.5175
    -1.3132  -1.1173  -0.9511  -0.6575  -0.4205   0.1368   0.7656   1.0250
     1.1706

     occupation numbers 
     1.0000   1.0000   1.0000   1.0000   1.0000   1.0000   1.0000   1.0000
     1.0000   1.0000   1.0000   1.0000   1.0000   1.0000   1.0000   1.0000
     1.0000   1.0000   1.0000   1.0000   1.0000   1.0000   1.0000   1.0000
     1.0000   1.0000   1.0000   1.0000   1.0000   1.0000   1.0000   1.0000
     1.0000   1.0000   1.0000   1.0000   1.0000   1.0000   1.0000   1.0000
     1.0000   1.0000   1.0000   1.0000   1.0000   1.0000   1.0000   1.0000
     1.0000   1.0000   1.0000   1.0000   1.0000   1.0000   1.0000   1.0000
     1.0000   1.0000   1.0000   1.0000   1.0000   1.0000   1.0000   1.0000
     1.0000   1.0000   1.0000   1.0000   1.0000   1.0000   1.0000   1.0000
     1.0000   1.0000   1.0000   1.0000   1.0000   1.0000   1.0000   1.0000
     1.0000   1.0000   1.0000   1.0000   1.0000   1.0000   1.0000   1.0000
     1.0000   1.0000   1.0000   1.0000   1.0000   1.0000   1.0000   1.0000
     1.0000   1.0000   1.0000   1.0000   1.0000   1.0000   1.0000   1.0000
     1.0000   1.0000   1.0000   1.0000   1.0007   1.0025   1.0038   1.0224
     1.0284   1.0786   1.0833   1.0791   1.0739   1.0666   1.0483   1.0207
     0.8168   0.7403   0.7284   0.4981   0.2694   0.2489   0.0251   0.0000
     0.0000   0.0000   0.0000   0.0000   0.0000   0.0000   0.0000   0.0000
     0.0000   0.0000   0.0000   0.0000   0.0000   0.0000   0.0000   0.0000
     0.0000

          k = 0.1250-0.6495 0.0000 ( 44477 PWs)   bands (ev):

   -11.6584 -11.1279 -10.7034 -10.6141 -10.3847 -10.2625 -10.2548 -10.2360
   -10.2061 -10.1700 -10.0752 -10.0650  -9.9984  -9.9845  -9.9204  -9.9090
    -9.8127  -9.7448  -9.7235  -9.7159  -9.7021  -9.6726  -9.6380  -9.5391
    -9.5235  -9.4939  -9.4398  -9.4140  -9.3401  -9.3191  -9.2512  -9.2281
    -9.1938  -9.1825  -9.1276  -9.0983  -9.0166  -9.0011  -8.9744  -8.9478
    -8.9099  -8.7852  -8.7786  -8.7035  -8.6756  -8.6585  -8.5760  -8.5087
    -8.4428  -8.4018  -8.3961  -8.3140  -8.2689  -8.2332  -8.1593  -8.1149
    -8.1111  -8.0862  -8.0598  -8.0197  -7.9940  -7.9620  -7.9048  -7.8581
    -7.8268  -7.7928  -7.7453  -7.7361  -7.7058  -7.6652  -7.6245  -7.5926
    -7.5540  -7.4723  -7.4442  -7.4012  -7.3880  -7.3282  -7.3041  -7.2692
    -7.2590  -7.1900  -7.1188  -7.0603  -7.0490  -7.0211  -6.9895  -6.9320
    -6.9249  -6.8336  -6.8012  -6.7830  -6.7601  -6.7199  -6.6516  -6.6151
    -6.5824  -6.5134  -6.4884  -6.4679  -6.4229  -6.3530  -6.2801  -6.2338
    -6.2229  -6.1942  -6.1810  -6.1096  -6.0715  -5.9068  -5.8823  -5.8654
    -5.8415  -5.7237  -5.6855  -5.5669  -5.5529  -5.5166  -5.4920  -5.4641
    -5.4554  -5.4234  -5.3995  -5.3846  -5.2426  -5.2326  -4.8735  -4.3346
    -4.0619  -3.9282  -3.6069  -3.3861  -2.7564  -2.4300  -1.9162  -1.4665
    -1.2193  -0.9953  -0.8331  -0.6115  -0.4880   0.3194   0.5833   0.8282
     1.4835

     occupation numbers 
     1.0000   1.0000   1.0000   1.0000   1.0000   1.0000   1.0000   1.0000
     1.0000   1.0000   1.0000   1.0000   1.0000   1.0000   1.0000   1.0000
     1.0000   1.0000   1.0000   1.0000   1.0000   1.0000   1.0000   1.0000
     1.0000   1.0000   1.0000   1.0000   1.0000   1.0000   1.0000   1.0000
     1.0000   1.0000   1.0000   1.0000   1.0000   1.0000   1.0000   1.0000
     1.0000   1.0000   1.0000   1.0000   1.0000   1.0000   1.0000   1.0000
     1.0000   1.0000   1.0000   1.0000   1.0000   1.0000   1.0000   1.0000
     1.0000   1.0000   1.0000   1.0000   1.0000   1.0000   1.0000   1.0000
     1.0000   1.0000   1.0000   1.0000   1.0000   1.0000   1.0000   1.0000
     1.0000   1.0000   1.0000   1.0000   1.0000   1.0000   1.0000   1.0000
     1.0000   1.0000   1.0000   1.0000   1.0000   1.0000   1.0000   1.0000
     1.0000   1.0000   1.0000   1.0000   1.0000   1.0000   1.0000   1.0000
     1.0000   1.0000   1.0000   1.0000   1.0000   1.0000   1.0000   1.0000
     1.0000   1.0000   1.0000   1.0000   1.0000   1.0008   1.0015   1.0021
     1.0035   1.0249   1.0396   1.0833   1.0824   1.0663   1.0411   0.9965
     0.9788   0.8997   0.8269   0.7770   0.2774   0.2498   0.0003   0.0000
     0.0000   0.0000   0.0000   0.0000   0.0000   0.0000   0.0000   0.0000
     0.0000   0.0000   0.0000   0.0000   0.0000   0.0000   0.0000   0.0000
     0.0000

          k = 0.1250-0.5774 0.0000 ( 44554 PWs)   bands (ev):

   -11.6168 -10.8843 -10.8731 -10.4829 -10.4581 -10.1932 -10.1866 -10.1757
   -10.1715 -10.1389 -10.1252 -10.0185  -9.9667  -9.9324  -9.8790  -9.7966
    -9.7943  -9.7700  -9.7195  -9.6649  -9.5940  -9.5647  -9.5543  -9.5292
    -9.4397  -9.4354  -9.4252  -9.4202  -9.4094  -9.2917  -9.2393  -9.2327
    -9.1962  -9.1886  -9.1136  -9.0755  -9.0589  -9.0259  -8.9496  -8.9459
    -8.9203  -8.9140  -8.7697  -8.6973  -8.6966  -8.6181  -8.5900  -8.5590
    -8.5167  -8.5059  -8.4971  -8.2814  -8.2582  -8.2250  -8.2057  -8.1849
    -8.0865  -8.0804  -8.0675  -8.0110  -7.9951  -7.9368  -7.9196  -7.8447
    -7.8144  -7.7786  -7.7687  -7.7459  -7.7372  -7.7310  -7.6773  -7.6502
    -7.6371  -7.5708  -7.5499  -7.5440  -7.3345  -7.3265  -7.2919  -7.1852
    -7.1818  -7.1671  -7.1496  -7.1154  -7.1143  -7.0445  -6.9881  -6.9667
    -6.8580  -6.8269  -6.8079  -6.7976  -6.7379  -6.7217  -6.7176  -6.6423
    -6.6219  -6.5616  -6.5111  -6.5091  -6.4490  -6.4195  -6.3331  -6.2968
    -6.2918  -6.2174  -6.1273  -6.0939  -6.0819  -6.0626  -6.0422  -5.8913
    -5.8470  -5.7823  -5.6645  -5.6078  -5.5665  -5.5261  -5.4689  -5.4562
    -5.4411  -5.4220  -5.4191  -5.4070  -5.2425  -5.2315  -4.7088  -4.5136
    -4.0437  -3.9275  -3.5588  -3.1696  -2.9890  -2.4449  -1.6525  -1.4342
    -1.3151  -1.0842  -0.8973  -0.5119  -0.0743   0.0429   0.4381   0.8245
     1.6577

     occupation numbers 
     1.0000   1.0000   1.0000   1.0000   1.0000   1.0000   1.0000   1.0000
     1.0000   1.0000   1.0000   1.0000   1.0000   1.0000   1.0000   1.0000
     1.0000   1.0000   1.0000   1.0000   1.0000   1.0000   1.0000   1.0000
     1.0000   1.0000   1.0000   1.0000   1.0000   1.0000   1.0000   1.0000
     1.0000   1.0000   1.0000   1.0000   1.0000   1.0000   1.0000   1.0000
     1.0000   1.0000   1.0000   1.0000   1.0000   1.0000   1.0000   1.0000
     1.0000   1.0000   1.0000   1.0000   1.0000   1.0000   1.0000   1.0000
     1.0000   1.0000   1.0000   1.0000   1.0000   1.0000   1.0000   1.0000
     1.0000   1.0000   1.0000   1.0000   1.0000   1.0000   1.0000   1.0000
     1.0000   1.0000   1.0000   1.0000   1.0000   1.0000   1.0000   1.0000
     1.0000   1.0000   1.0000   1.0000   1.0000   1.0000   1.0000   1.0000
     1.0000   1.0000   1.0000   1.0000   1.0000   1.0000   1.0000   1.0000
     1.0000   1.0000   1.0000   1.0000   1.0000   1.0000   1.0000   1.0000
     1.0000   1.0000   1.0000   1.0000   1.0000   1.0000   1.0000   1.0012
     1.0031   1.0103   1.0491   1.0743   1.0833   1.0728   1.0054   0.9804
     0.9462   0.8955   0.8873   0.8508   0.2770   0.2470   0.0000   0.0000
     0.0000   0.0000   0.0000   0.0000   0.0000   0.0000   0.0000   0.0000
     0.0000   0.0000   0.0000   0.0000   0.0000   0.0000   0.0000   0.0000
     0.0000

          k = 0.1250-0.5052 0.0000 ( 44477 PWs)   bands (ev):

   -11.6584 -11.1279 -10.7034 -10.6141 -10.3847 -10.2625 -10.2548 -10.2360
   -10.2061 -10.1700 -10.0752 -10.0650  -9.9984  -9.9845  -9.9204  -9.9090
    -9.8127  -9.7448  -9.7235  -9.7159  -9.7021  -9.6726  -9.6380  -9.5391
    -9.5235  -9.4939  -9.4398  -9.4140  -9.3401  -9.3191  -9.2512  -9.2281
    -9.1938  -9.1825  -9.1276  -9.0983  -9.0166  -9.0011  -8.9744  -8.9478
    -8.9099  -8.7852  -8.7786  -8.7035  -8.6756  -8.6585  -8.5760  -8.5087
    -8.4428  -8.4018  -8.3961  -8.3140  -8.2689  -8.2332  -8.1593  -8.1149
    -8.1111  -8.0862  -8.0598  -8.0197  -7.9940  -7.9620  -7.9048  -7.8581
    -7.8268  -7.7928  -7.7453  -7.7361  -7.7058  -7.6652  -7.6245  -7.5926
    -7.5540  -7.4723  -7.4442  -7.4012  -7.3880  -7.3282  -7.3041  -7.2692
    -7.2590  -7.1900  -7.1188  -7.0603  -7.0490  -7.0211  -6.9895  -6.9320
    -6.9249  -6.8336  -6.8012  -6.7830  -6.7601  -6.7199  -6.6516  -6.6151
    -6.5824  -6.5134  -6.4884  -6.4679  -6.4229  -6.3530  -6.2801  -6.2338
    -6.2229  -6.1942  -6.1810  -6.1096  -6.0715  -5.9068  -5.8823  -5.8654
    -5.8415  -5.7237  -5.6855  -5.5669  -5.5529  -5.5166  -5.4920  -5.4641
    -5.4554  -5.4234  -5.3995  -5.3846  -5.2426  -5.2326  -4.8735  -4.3346
    -4.0619  -3.9282  -3.6069  -3.3861  -2.7564  -2.4300  -1.9162  -1.4665
    -1.2193  -0.9953  -0.8331  -0.6115  -0.4880   0.3194   0.5833   0.8282
     1.4835

     occupation numbers 
     1.0000   1.0000   1.0000   1.0000   1.0000   1.0000   1.0000   1.0000
     1.0000   1.0000   1.0000   1.0000   1.0000   1.0000   1.0000   1.0000
     1.0000   1.0000   1.0000   1.0000   1.0000   1.0000   1.0000   1.0000
     1.0000   1.0000   1.0000   1.0000   1.0000   1.0000   1.0000   1.0000
     1.0000   1.0000   1.0000   1.0000   1.0000   1.0000   1.0000   1.0000
     1.0000   1.0000   1.0000   1.0000   1.0000   1.0000   1.0000   1.0000
     1.0000   1.0000   1.0000   1.0000   1.0000   1.0000   1.0000   1.0000
     1.0000   1.0000   1.0000   1.0000   1.0000   1.0000   1.0000   1.0000
     1.0000   1.0000   1.0000   1.0000   1.0000   1.0000   1.0000   1.0000
     1.0000   1.0000   1.0000   1.0000   1.0000   1.0000   1.0000   1.0000
     1.0000   1.0000   1.0000   1.0000   1.0000   1.0000   1.0000   1.0000
     1.0000   1.0000   1.0000   1.0000   1.0000   1.0000   1.0000   1.0000
     1.0000   1.0000   1.0000   1.0000   1.0000   1.0000   1.0000   1.0000
     1.0000   1.0000   1.0000   1.0000   1.0000   1.0008   1.0015   1.0021
     1.0035   1.0249   1.0396   1.0833   1.0824   1.0663   1.0411   0.9965
     0.9788   0.8997   0.8269   0.7770   0.2774   0.2498   0.0003   0.0000
     0.0000   0.0000   0.0000   0.0000   0.0000   0.0000   0.0000   0.0000
     0.0000   0.0000   0.0000   0.0000   0.0000   0.0000   0.0000   0.0000
     0.0000

          k = 0.1250-0.4330 0.0000 ( 44545 PWs)   bands (ev):

   -11.7735 -11.3982 -10.8062 -10.6275 -10.4291 -10.3898 -10.3540 -10.3182
   -10.2934 -10.2394 -10.1764 -10.1338 -10.1295 -10.1202 -10.0467  -9.9923
    -9.9277  -9.8796  -9.8638  -9.8174  -9.7875  -9.7537  -9.7450  -9.6638
    -9.6259  -9.6055  -9.5581  -9.4617  -9.4473  -9.2963  -9.2632  -9.2130
    -9.1918  -9.1563  -9.1290  -9.0619  -9.0365  -9.0195  -8.9995  -8.9167
    -8.8379  -8.7322  -8.6922  -8.6428  -8.5697  -8.5623  -8.5161  -8.4222
    -8.3859  -8.3140  -8.2783  -8.2518  -8.1878  -8.1421  -8.1292  -8.1029
    -8.0557  -8.0216  -8.0136  -7.9854  -7.9707  -7.9419  -7.9181  -7.8791
    -7.8727  -7.8082  -7.7723  -7.6282  -7.6046  -7.6006  -7.5696  -7.5164
    -7.4644  -7.4598  -7.3818  -7.3296  -7.2974  -7.2183  -7.2040  -7.1829
    -7.1659  -7.1385  -7.1299  -7.0676  -7.0399  -7.0096  -6.9425  -6.9134
    -6.8751  -6.8019  -6.7187  -6.6881  -6.6818  -6.6708  -6.5682  -6.4915
    -6.4431  -6.4337  -6.4118  -6.3293  -6.2943  -6.2816  -6.2403  -6.1635
    -6.1375  -6.0935  -6.0784  -6.0152  -5.9134  -5.8569  -5.8375  -5.7315
    -5.7138  -5.5948  -5.5667  -5.5397  -5.5282  -5.5170  -5.4978  -5.4779
    -5.3964  -5.3742  -5.3709  -5.3091  -5.2398  -5.2323  -5.0728  -4.1802
    -4.0853  -3.8943  -3.7860  -3.5164  -2.6711  -2.3157  -2.2065  -1.5175
    -1.3132  -1.1173  -0.9511  -0.6575  -0.4205   0.1368   0.7656   1.0250
     1.1706

     occupation numbers 
     1.0000   1.0000   1.0000   1.0000   1.0000   1.0000   1.0000   1.0000
     1.0000   1.0000   1.0000   1.0000   1.0000   1.0000   1.0000   1.0000
     1.0000   1.0000   1.0000   1.0000   1.0000   1.0000   1.0000   1.0000
     1.0000   1.0000   1.0000   1.0000   1.0000   1.0000   1.0000   1.0000
     1.0000   1.0000   1.0000   1.0000   1.0000   1.0000   1.0000   1.0000
     1.0000   1.0000   1.0000   1.0000   1.0000   1.0000   1.0000   1.0000
     1.0000   1.0000   1.0000   1.0000   1.0000   1.0000   1.0000   1.0000
     1.0000   1.0000   1.0000   1.0000   1.0000   1.0000   1.0000   1.0000
     1.0000   1.0000   1.0000   1.0000   1.0000   1.0000   1.0000   1.0000
     1.0000   1.0000   1.0000   1.0000   1.0000   1.0000   1.0000   1.0000
     1.0000   1.0000   1.0000   1.0000   1.0000   1.0000   1.0000   1.0000
     1.0000   1.0000   1.0000   1.0000   1.0000   1.0000   1.0000   1.0000
     1.0000   1.0000   1.0000   1.0000   1.0000   1.0000   1.0000   1.0000
     1.0000   1.0000   1.0000   1.0000   1.0007   1.0025   1.0038   1.0224
     1.0284   1.0786   1.0833   1.0791   1.0739   1.0666   1.0483   1.0207
     0.8168   0.7403   0.7284   0.4981   0.2694   0.2489   0.0251   0.0000
     0.0000   0.0000   0.0000   0.0000   0.0000   0.0000   0.0000   0.0000
     0.0000   0.0000   0.0000   0.0000   0.0000   0.0000   0.0000   0.0000
     0.0000

          k = 0.1250-0.3608 0.0000 ( 44558 PWs)   bands (ev):

   -11.9391 -11.6499 -11.0174 -10.6280 -10.5518 -10.5213 -10.4988 -10.4586
   -10.3831 -10.3575 -10.3224 -10.3016 -10.2610 -10.2500 -10.1527 -10.1457
   -10.1024 -10.0422 -10.0008  -9.9601  -9.8881  -9.8710  -9.8316  -9.8061
    -9.7824  -9.7384  -9.6668  -9.5948  -9.5503  -9.4191  -9.2835  -9.2591
    -9.2335  -9.1582  -9.1240  -9.0334  -8.9918  -8.9578  -8.8863  -8.8632
    -8.7490  -8.6749  -8.5856  -8.5777  -8.4430  -8.4255  -8.3964  -8.3111
    -8.2940  -8.2896  -8.2585  -8.2247  -8.1777  -8.1122  -8.0717  -8.0509
    -8.0446  -8.0397  -8.0002  -7.9512  -7.9186  -7.9012  -7.8158  -7.8044
    -7.7829  -7.7641  -7.6729  -7.6631  -7.6487  -7.6026  -7.5668  -7.5100
    -7.4739  -7.3796  -7.3399  -7.3077  -7.2829  -7.1437  -7.0727  -7.0283
    -7.0146  -6.9796  -6.9740  -6.9275  -6.8962  -6.8427  -6.8229  -6.7890
    -6.7613  -6.6481  -6.5672  -6.5578  -6.5448  -6.5177  -6.3988  -6.3768
    -6.3165  -6.2870  -6.2658  -6.2346  -6.2025  -6.1031  -6.0770  -6.0432
    -5.9881  -5.9763  -5.9542  -5.9347  -5.8324  -5.7797  -5.7298  -5.6900
    -5.5954  -5.5741  -5.5456  -5.5388  -5.5179  -5.4836  -5.3827  -5.3615
    -5.3557  -5.3369  -5.2965  -5.2341  -5.2312  -5.1060  -4.8712  -4.2881
    -4.1798  -3.9563  -3.6955  -3.4904  -2.8829  -2.5259  -1.9386  -1.7252
    -1.6262  -1.2715  -1.0190  -0.7846  -0.2364   0.0312   0.4547   0.7696
     0.8928

     occupation numbers 
     1.0000   1.0000   1.0000   1.0000   1.0000   1.0000   1.0000   1.0000
     1.0000   1.0000   1.0000   1.0000   1.0000   1.0000   1.0000   1.0000
     1.0000   1.0000   1.0000   1.0000   1.0000   1.0000   1.0000   1.0000
     1.0000   1.0000   1.0000   1.0000   1.0000   1.0000   1.0000   1.0000
     1.0000   1.0000   1.0000   1.0000   1.0000   1.0000   1.0000   1.0000
     1.0000   1.0000   1.0000   1.0000   1.0000   1.0000   1.0000   1.0000
     1.0000   1.0000   1.0000   1.0000   1.0000   1.0000   1.0000   1.0000
     1.0000   1.0000   1.0000   1.0000   1.0000   1.0000   1.0000   1.0000
     1.0000   1.0000   1.0000   1.0000   1.0000   1.0000   1.0000   1.0000
     1.0000   1.0000   1.0000   1.0000   1.0000   1.0000   1.0000   1.0000
     1.0000   1.0000   1.0000   1.0000   1.0000   1.0000   1.0000   1.0000
     1.0000   1.0000   1.0000   1.0000   1.0000   1.0000   1.0000   1.0000
     1.0000   1.0000   1.0000   1.0000   1.0000   1.0000   1.0000   1.0000
     1.0001   1.0001   1.0003   1.0004   1.0042   1.0108   1.0229   1.0377
     1.0784   1.0828   1.0809   1.0788   1.0673   1.0295   0.7702   0.6943
     0.6727   0.6020   0.4522   0.2539   0.2461   0.0447   0.0002   0.0000
     0.0000   0.0000   0.0000   0.0000   0.0000   0.0000   0.0000   0.0000
     0.0000   0.0000   0.0000   0.0000   0.0000   0.0000   0.0000   0.0000
     0.0000

          k = 0.1250-0.2887 0.0000 ( 44582 PWs)   bands (ev):

   -12.1255 -11.8618 -11.2210 -10.6752 -10.6613 -10.6489 -10.6428 -10.5951
   -10.5594 -10.5109 -10.4574 -10.4403 -10.4155 -10.3342 -10.3301 -10.2743
   -10.2139 -10.1753 -10.1463 -10.1286  -9.9959  -9.9738  -9.9702  -9.9383
    -9.9304  -9.8688  -9.7864  -9.7248  -9.6887  -9.5534  -9.4049  -9.3232
    -9.3096  -9.1006  -8.9942  -8.9494  -8.9174  -8.8936  -8.8628  -8.7506
    -8.6576  -8.5608  -8.5153  -8.4833  -8.4365  -8.3379  -8.3292  -8.3214
    -8.2516  -8.2197  -8.2060  -8.1845  -8.1389  -8.1089  -8.0890  -8.0595
    -8.0480  -8.0336  -7.9843  -7.9621  -7.9402  -7.8910  -7.8493  -7.8228
    -7.7771  -7.7124  -7.6345  -7.5677  -7.5413  -7.5189  -7.4938  -7.4397
    -7.4260  -7.3947  -7.3538  -7.1105  -7.0814  -7.0434  -6.9958  -6.9813
    -6.9591  -6.8675  -6.7895  -6.7477  -6.6586  -6.6247  -6.5633  -6.5257
    -6.5078  -6.4784  -6.4440  -6.4309  -6.4187  -6.3867  -6.2948  -6.2281
    -6.0768  -6.0688  -6.0628  -6.0462  -6.0366  -5.9901  -5.9662  -5.9152
    -5.8792  -5.8384  -5.7964  -5.7618  -5.7113  -5.7032  -5.6876  -5.5794
    -5.5678  -5.5501  -5.5264  -5.5110  -5.5006  -5.4842  -5.4656  -5.3729
    -5.3354  -5.2922  -5.2290  -5.2181  -4.9506  -4.6987  -4.5295  -4.3295
    -4.2763  -3.9868  -3.7053  -3.3333  -3.0682  -2.6298  -2.3009  -1.9239
    -1.5877  -1.3571  -1.0778  -0.9174  -0.5427  -0.1136   0.1649   0.3931
     0.7256

     occupation numbers 
     1.0000   1.0000   1.0000   1.0000   1.0000   1.0000   1.0000   1.0000
     1.0000   1.0000   1.0000   1.0000   1.0000   1.0000   1.0000   1.0000
     1.0000   1.0000   1.0000   1.0000   1.0000   1.0000   1.0000   1.0000
     1.0000   1.0000   1.0000   1.0000   1.0000   1.0000   1.0000   1.0000
     1.0000   1.0000   1.0000   1.0000   1.0000   1.0000   1.0000   1.0000
     1.0000   1.0000   1.0000   1.0000   1.0000   1.0000   1.0000   1.0000
     1.0000   1.0000   1.0000   1.0000   1.0000   1.0000   1.0000   1.0000
     1.0000   1.0000   1.0000   1.0000   1.0000   1.0000   1.0000   1.0000
     1.0000   1.0000   1.0000   1.0000   1.0000   1.0000   1.0000   1.0000
     1.0000   1.0000   1.0000   1.0000   1.0000   1.0000   1.0000   1.0000
     1.0000   1.0000   1.0000   1.0000   1.0000   1.0000   1.0000   1.0000
     1.0000   1.0000   1.0000   1.0000   1.0000   1.0000   1.0000   1.0000
     1.0000   1.0000   1.0000   1.0000   1.0000   1.0001   1.0002   1.0007
     1.0016   1.0037   1.0081   1.0144   1.0293   1.0323   1.0387   1.0821
     1.0833   1.0820   1.0729   1.0617   1.0514   1.0304   0.9992   0.7355
     0.5964   0.4370   0.2402   0.2128   0.0019   0.0000   0.0000   0.0000
     0.0000   0.0000   0.0000   0.0000   0.0000   0.0000   0.0000   0.0000
     0.0000   0.0000   0.0000   0.0000   0.0000   0.0000   0.0000   0.0000
     0.0000

          k = 0.1250-0.2165 0.0000 ( 44571 PWs)   bands (ev):

   -12.3001 -12.0292 -11.3952 -10.7808 -10.7792 -10.7513 -10.7418 -10.7030
   -10.6935 -10.6684 -10.5593 -10.5457 -10.5435 -10.4820 -10.4169 -10.4107
   -10.3102 -10.2925 -10.2697 -10.2619 -10.1310 -10.0887 -10.0579 -10.0542
   -10.0442  -9.9711  -9.9041  -9.8423  -9.8130  -9.7025  -9.4781  -9.3717
    -9.3685  -9.0449  -8.9358  -8.8769  -8.8347  -8.8120  -8.7913  -8.6385
    -8.5934  -8.5436  -8.4885  -8.4129  -8.3823  -8.3678  -8.3365  -8.3098
    -8.2727  -8.2329  -8.2241  -8.1865  -8.1643  -8.1332  -8.0974  -8.0369
    -7.9902  -7.9825  -7.9630  -7.9616  -7.9113  -7.8927  -7.8662  -7.7732
    -7.7412  -7.7157  -7.6584  -7.6242  -7.6232  -7.5362  -7.4028  -7.2226
    -7.1952  -7.1792  -7.1209  -7.0170  -6.9917  -6.9494  -6.9423  -6.9126
    -6.8533  -6.6852  -6.6684  -6.6113  -6.5620  -6.4463  -6.3758  -6.3624
    -6.3448  -6.3303  -6.3034  -6.2624  -6.2102  -6.1955  -6.1134  -6.0109
    -5.9921  -5.9547  -5.9386  -5.9185  -5.7937  -5.7853  -5.7600  -5.7178
    -5.6930  -5.6770  -5.6706  -5.6459  -5.6309  -5.6087  -5.5916  -5.5722
    -5.5672  -5.5246  -5.4850  -5.4802  -5.4653  -5.4588  -5.3604  -5.3528
    -5.3112  -5.2198  -5.2100  -5.1867  -4.9234  -4.5017  -4.4430  -4.1548
    -3.9345  -3.8154  -3.5705  -3.5380  -2.9480  -2.6882  -2.5595  -2.3570
    -1.7871  -1.3655  -1.0724  -1.0002  -0.7841  -0.5706  -0.4569   0.4991
     0.6665

     occupation numbers 
     1.0000   1.0000   1.0000   1.0000   1.0000   1.0000   1.0000   1.0000
     1.0000   1.0000   1.0000   1.0000   1.0000   1.0000   1.0000   1.0000
     1.0000   1.0000   1.0000   1.0000   1.0000   1.0000   1.0000   1.0000
     1.0000   1.0000   1.0000   1.0000   1.0000   1.0000   1.0000   1.0000
     1.0000   1.0000   1.0000   1.0000   1.0000   1.0000   1.0000   1.0000
     1.0000   1.0000   1.0000   1.0000   1.0000   1.0000   1.0000   1.0000
     1.0000   1.0000   1.0000   1.0000   1.0000   1.0000   1.0000   1.0000
     1.0000   1.0000   1.0000   1.0000   1.0000   1.0000   1.0000   1.0000
     1.0000   1.0000   1.0000   1.0000   1.0000   1.0000   1.0000   1.0000
     1.0000   1.0000   1.0000   1.0000   1.0000   1.0000   1.0000   1.0000
     1.0000   1.0000   1.0000   1.0000   1.0000   1.0000   1.0000   1.0000
     1.0000   1.0000   1.0000   1.0000   1.0000   1.0000   1.0000   1.0001
     1.0001   1.0003   1.0004   1.0006   1.0085   1.0098   1.0148   1.0269
     1.0364   1.0433   1.0463   1.0578   1.0647   1.0740   1.0795   1.0830
     1.0833   1.0718   1.0316   1.0244   0.9987   0.9860   0.6902   0.6619
     0.5057   0.2171   0.1939   0.1459   0.0010   0.0000   0.0000   0.0000
     0.0000   0.0000   0.0000   0.0000   0.0000   0.0000   0.0000   0.0000
     0.0000   0.0000   0.0000   0.0000   0.0000   0.0000   0.0000   0.0000
     0.0000

          k = 0.1250-0.1443 0.0000 ( 44578 PWs)   bands (ev):

   -12.4379 -12.1519 -11.5268 -10.8783 -10.8703 -10.8581 -10.8422 -10.7905
   -10.7739 -10.7353 -10.6759 -10.6190 -10.6103 -10.5881 -10.5109 -10.4774
   -10.4302 -10.4162 -10.3530 -10.3104 -10.2488 -10.1980 -10.1276 -10.1253
   -10.1204 -10.0445  -9.9990  -9.9431  -9.8901  -9.8296  -9.5234  -9.4148
    -9.4069  -9.0141  -8.9057  -8.8629  -8.7484  -8.7148  -8.6848  -8.6236
    -8.5590  -8.5472  -8.4403  -8.4235  -8.3903  -8.3787  -8.3306  -8.3036
    -8.2708  -8.2700  -8.2664  -8.2599  -8.2534  -8.0941  -8.0824  -8.0612
    -8.0045  -7.9799  -7.9587  -7.9282  -7.8727  -7.8225  -7.8114  -7.7509
    -7.7238  -7.7000  -7.6633  -7.6341  -7.5894  -7.4873  -7.2626  -7.1166
    -7.0730  -7.0605  -6.9358  -6.9118  -6.8971  -6.8817  -6.8703  -6.8377
    -6.6857  -6.6265  -6.5878  -6.5657  -6.4631  -6.3797  -6.3057  -6.2942
    -6.2644  -6.2112  -6.1237  -6.0576  -6.0298  -5.9920  -5.9731  -5.8978
    -5.8723  -5.8544  -5.8368  -5.7826  -5.6694  -5.6530  -5.6435  -5.6416
    -5.6237  -5.5437  -5.5317  -5.5226  -5.5132  -5.4882  -5.4839  -5.4617
    -5.4433  -5.4396  -5.4338  -5.4259  -5.4055  -5.3549  -5.2804  -5.2704
    -5.2587  -5.1827  -5.1675  -5.1421  -5.1327  -4.6113  -4.3000  -3.9100
    -3.8347  -3.5577  -3.3467  -3.2216  -2.9703  -2.8793  -2.6824  -2.2925
    -2.1362  -1.6464  -1.3425  -1.1352  -0.9339  -0.8438  -0.5655   0.2701
     0.4157

     occupation numbers 
     1.0000   1.0000   1.0000   1.0000   1.0000   1.0000   1.0000   1.0000
     1.0000   1.0000   1.0000   1.0000   1.0000   1.0000   1.0000   1.0000
     1.0000   1.0000   1.0000   1.0000   1.0000   1.0000   1.0000   1.0000
     1.0000   1.0000   1.0000   1.0000   1.0000   1.0000   1.0000   1.0000
     1.0000   1.0000   1.0000   1.0000   1.0000   1.0000   1.0000   1.0000
     1.0000   1.0000   1.0000   1.0000   1.0000   1.0000   1.0000   1.0000
     1.0000   1.0000   1.0000   1.0000   1.0000   1.0000   1.0000   1.0000
     1.0000   1.0000   1.0000   1.0000   1.0000   1.0000   1.0000   1.0000
     1.0000   1.0000   1.0000   1.0000   1.0000   1.0000   1.0000   1.0000
     1.0000   1.0000   1.0000   1.0000   1.0000   1.0000   1.0000   1.0000
     1.0000   1.0000   1.0000   1.0000   1.0000   1.0000   1.0000   1.0000
     1.0000   1.0000   1.0000   1.0000   1.0000   1.0001   1.0002   1.0010
     1.0018   1.0027   1.0038   1.0103   1.0468   1.0545   1.0589   1.0598
     1.0679   1.0804   1.0758   1.0706   1.0635   1.0361   1.0300   0.9917
     0.9514   0.9425   0.9277   0.9065   0.8462   0.6697   0.3961   0.3627
     0.3251   0.1385   0.1132   0.0788   0.0684   0.0000   0.0000   0.0000
     0.0000   0.0000   0.0000   0.0000   0.0000   0.0000   0.0000   0.0000
     0.0000   0.0000   0.0000   0.0000   0.0000   0.0000   0.0000   0.0000
     0.0000

          k = 0.1875-0.1083 0.0000 ( 44580 PWs)   bands (ev):

   -12.3819 -12.1027 -11.4740 -10.8521 -10.8213 -10.8097 -10.8077 -10.7729
   -10.7409 -10.6622 -10.6575 -10.5942 -10.5636 -10.5618 -10.4977 -10.4053
   -10.4006 -10.3668 -10.3487 -10.2354 -10.2200 -10.1609 -10.0997 -10.0989
   -10.0913 -10.0109  -9.9538  -9.9206  -9.8392  -9.7848  -9.5070  -9.4021
    -9.3860  -9.0257  -8.9323  -8.8560  -8.7765  -8.7184  -8.7030  -8.7010
    -8.5850  -8.5264  -8.4448  -8.4142  -8.3854  -8.3659  -8.3535  -8.2987
    -8.2596  -8.2511  -8.2488  -8.2320  -8.2289  -8.1142  -8.0754  -8.0417
    -8.0024  -7.9852  -7.9669  -7.9546  -7.8844  -7.8052  -7.7881  -7.7878
    -7.7431  -7.7046  -7.6940  -7.6501  -7.5999  -7.5379  -7.3038  -7.1347
    -7.1119  -7.1041  -7.0207  -6.9621  -6.9334  -6.9125  -6.9056  -6.8884
    -6.7614  -6.6539  -6.6162  -6.5917  -6.4602  -6.3821  -6.3815  -6.3248
    -6.3010  -6.2617  -6.1855  -6.1653  -6.0518  -6.0281  -6.0191  -6.0081
    -5.9017  -5.8879  -5.8832  -5.8829  -5.7137  -5.7085  -5.6808  -5.6312
    -5.6298  -5.6158  -5.6099  -5.5920  -5.5905  -5.5755  -5.5481  -5.4664
    -5.4657  -5.4558  -5.4381  -5.4352  -5.4147  -5.3533  -5.2847  -5.2771
    -5.2762  -5.2052  -5.1653  -5.1291  -5.1131  -4.9933  -4.4093  -4.1212
    -3.8447  -3.3591  -3.2589  -3.1483  -2.9326  -2.6995  -2.6449  -2.3285
    -2.1991  -1.8099  -1.5879  -1.2772  -0.7530  -0.6024   0.1381   0.2120
     0.4495

     occupation numbers 
     1.0000   1.0000   1.0000   1.0000   1.0000   1.0000   1.0000   1.0000
     1.0000   1.0000   1.0000   1.0000   1.0000   1.0000   1.0000   1.0000
     1.0000   1.0000   1.0000   1.0000   1.0000   1.0000   1.0000   1.0000
     1.0000   1.0000   1.0000   1.0000   1.0000   1.0000   1.0000   1.0000
     1.0000   1.0000   1.0000   1.0000   1.0000   1.0000   1.0000   1.0000
     1.0000   1.0000   1.0000   1.0000   1.0000   1.0000   1.0000   1.0000
     1.0000   1.0000   1.0000   1.0000   1.0000   1.0000   1.0000   1.0000
     1.0000   1.0000   1.0000   1.0000   1.0000   1.0000   1.0000   1.0000
     1.0000   1.0000   1.0000   1.0000   1.0000   1.0000   1.0000   1.0000
     1.0000   1.0000   1.0000   1.0000   1.0000   1.0000   1.0000   1.0000
     1.0000   1.0000   1.0000   1.0000   1.0000   1.0000   1.0000   1.0000
     1.0000   1.0000   1.0000   1.0000   1.0000   1.0000   1.0000   1.0001
     1.0009   1.0013   1.0014   1.0014   1.0284   1.0303   1.0416   1.0646
     1.0652   1.0712   1.0735   1.0793   1.0797   1.0826   1.0815   1.0009
     0.9995   0.9797   0.9386   0.9313   0.8744   0.6635   0.4106   0.3849
     0.3817   0.1833   0.1098   0.0647   0.0502   0.0051   0.0000   0.0000
     0.0000   0.0000   0.0000   0.0000   0.0000   0.0000   0.0000   0.0000
     0.0000   0.0000   0.0000   0.0000   0.0000   0.0000   0.0000   0.0000
     0.0000

          k = 0.1875-0.0361 0.0000 ( 44578 PWs)   bands (ev):

   -12.4379 -12.1519 -11.5268 -10.8783 -10.8703 -10.8581 -10.8422 -10.7905
   -10.7739 -10.7353 -10.6759 -10.6190 -10.6103 -10.5881 -10.5109 -10.4774
   -10.4302 -10.4162 -10.3530 -10.3104 -10.2488 -10.1980 -10.1276 -10.1253
   -10.1204 -10.0445  -9.9990  -9.9431  -9.8901  -9.8296  -9.5234  -9.4148
    -9.4069  -9.0141  -8.9057  -8.8629  -8.7484  -8.7148  -8.6848  -8.6236
    -8.5590  -8.5472  -8.4403  -8.4235  -8.3903  -8.3787  -8.3306  -8.3036
    -8.2708  -8.2700  -8.2664  -8.2599  -8.2534  -8.0941  -8.0824  -8.0612
    -8.0045  -7.9799  -7.9587  -7.9282  -7.8727  -7.8225  -7.8114  -7.7509
    -7.7238  -7.7000  -7.6633  -7.6341  -7.5894  -7.4873  -7.2626  -7.1166
    -7.0730  -7.0605  -6.9358  -6.9118  -6.8971  -6.8817  -6.8703  -6.8377
    -6.6857  -6.6265  -6.5878  -6.5657  -6.4631  -6.3797  -6.3057  -6.2942
    -6.2644  -6.2112  -6.1237  -6.0576  -6.0298  -5.9920  -5.9731  -5.8978
    -5.8723  -5.8544  -5.8368  -5.7826  -5.6694  -5.6530  -5.6435  -5.6416
    -5.6237  -5.5437  -5.5317  -5.5226  -5.5132  -5.4882  -5.4839  -5.4617
    -5.4433  -5.4396  -5.4338  -5.4259  -5.4055  -5.3549  -5.2804  -5.2704
    -5.2586  -5.1827  -5.1675  -5.1421  -5.1327  -4.6113  -4.3000  -3.9100
    -3.8347  -3.5577  -3.3467  -3.2216  -2.9703  -2.8793  -2.6824  -2.2925
    -2.1362  -1.6464  -1.3425  -1.1352  -0.9339  -0.8438  -0.5655   0.2701
     0.4157

     occupation numbers 
     1.0000   1.0000   1.0000   1.0000   1.0000   1.0000   1.0000   1.0000
     1.0000   1.0000   1.0000   1.0000   1.0000   1.0000   1.0000   1.0000
     1.0000   1.0000   1.0000   1.0000   1.0000   1.0000   1.0000   1.0000
     1.0000   1.0000   1.0000   1.0000   1.0000   1.0000   1.0000   1.0000
     1.0000   1.0000   1.0000   1.0000   1.0000   1.0000   1.0000   1.0000
     1.0000   1.0000   1.0000   1.0000   1.0000   1.0000   1.0000   1.0000
     1.0000   1.0000   1.0000   1.0000   1.0000   1.0000   1.0000   1.0000
     1.0000   1.0000   1.0000   1.0000   1.0000   1.0000   1.0000   1.0000
     1.0000   1.0000   1.0000   1.0000   1.0000   1.0000   1.0000   1.0000
     1.0000   1.0000   1.0000   1.0000   1.0000   1.0000   1.0000   1.0000
     1.0000   1.0000   1.0000   1.0000   1.0000   1.0000   1.0000   1.0000
     1.0000   1.0000   1.0000   1.0000   1.0000   1.0001   1.0002   1.0010
     1.0018   1.0027   1.0038   1.0103   1.0468   1.0545   1.0589   1.0598
     1.0679   1.0804   1.0758   1.0706   1.0635   1.0361   1.0300   0.9917
     0.9514   0.9425   0.9277   0.9065   0.8462   0.6697   0.3961   0.3627
     0.3251   0.1385   0.1132   0.0788   0.0684   0.0000   0.0000   0.0000
     0.0000   0.0000   0.0000   0.0000   0.0000   0.0000   0.0000   0.0000
     0.0000   0.0000   0.0000   0.0000   0.0000   0.0000   0.0000   0.0000
     0.0000

          k = 0.1875 0.0361 0.0000 ( 44578 PWs)   bands (ev):

   -12.4379 -12.1519 -11.5268 -10.8783 -10.8703 -10.8581 -10.8422 -10.7905
   -10.7739 -10.7353 -10.6759 -10.6190 -10.6103 -10.5881 -10.5109 -10.4774
   -10.4302 -10.4162 -10.3530 -10.3104 -10.2488 -10.1980 -10.1276 -10.1253
   -10.1204 -10.0445  -9.9990  -9.9431  -9.8901  -9.8296  -9.5234  -9.4148
    -9.4069  -9.0141  -8.9057  -8.8629  -8.7484  -8.7148  -8.6848  -8.6236
    -8.5590  -8.5472  -8.4403  -8.4235  -8.3903  -8.3787  -8.3306  -8.3036
    -8.2708  -8.2700  -8.2664  -8.2599  -8.2534  -8.0941  -8.0824  -8.0612
    -8.0045  -7.9799  -7.9587  -7.9282  -7.8727  -7.8225  -7.8114  -7.7509
    -7.7238  -7.7000  -7.6633  -7.6341  -7.5894  -7.4873  -7.2626  -7.1166
    -7.0730  -7.0605  -6.9358  -6.9118  -6.8971  -6.8817  -6.8703  -6.8377
    -6.6857  -6.6265  -6.5878  -6.5657  -6.4631  -6.3797  -6.3057  -6.2942
    -6.2644  -6.2112  -6.1237  -6.0576  -6.0298  -5.9920  -5.9731  -5.8978
    -5.8723  -5.8544  -5.8368  -5.7826  -5.6694  -5.6530  -5.6435  -5.6416
    -5.6237  -5.5437  -5.5317  -5.5226  -5.5132  -5.4882  -5.4839  -5.4617
    -5.4433  -5.4396  -5.4338  -5.4259  -5.4055  -5.3549  -5.2804  -5.2704
    -5.2586  -5.1827  -5.1675  -5.1421  -5.1327  -4.6113  -4.3000  -3.9100
    -3.8347  -3.5577  -3.3467  -3.2216  -2.9703  -2.8793  -2.6824  -2.2925
    -2.1362  -1.6464  -1.3425  -1.1352  -0.9339  -0.8438  -0.5655   0.2701
     0.4157

     occupation numbers 
     1.0000   1.0000   1.0000   1.0000   1.0000   1.0000   1.0000   1.0000
     1.0000   1.0000   1.0000   1.0000   1.0000   1.0000   1.0000   1.0000
     1.0000   1.0000   1.0000   1.0000   1.0000   1.0000   1.0000   1.0000
     1.0000   1.0000   1.0000   1.0000   1.0000   1.0000   1.0000   1.0000
     1.0000   1.0000   1.0000   1.0000   1.0000   1.0000   1.0000   1.0000
     1.0000   1.0000   1.0000   1.0000   1.0000   1.0000   1.0000   1.0000
     1.0000   1.0000   1.0000   1.0000   1.0000   1.0000   1.0000   1.0000
     1.0000   1.0000   1.0000   1.0000   1.0000   1.0000   1.0000   1.0000
     1.0000   1.0000   1.0000   1.0000   1.0000   1.0000   1.0000   1.0000
     1.0000   1.0000   1.0000   1.0000   1.0000   1.0000   1.0000   1.0000
     1.0000   1.0000   1.0000   1.0000   1.0000   1.0000   1.0000   1.0000
     1.0000   1.0000   1.0000   1.0000   1.0000   1.0001   1.0002   1.0010
     1.0018   1.0027   1.0038   1.0103   1.0468   1.0545   1.0589   1.0598
     1.0679   1.0804   1.0758   1.0706   1.0635   1.0361   1.0300   0.9917
     0.9514   0.9425   0.9277   0.9065   0.8462   0.6697   0.3961   0.3627
     0.3251   0.1385   0.1132   0.0788   0.0684   0.0000   0.0000   0.0000
     0.0000   0.0000   0.0000   0.0000   0.0000   0.0000   0.0000   0.0000
     0.0000   0.0000   0.0000   0.0000   0.0000   0.0000   0.0000   0.0000
     0.0000

          k = 0.1875 0.1083 0.0000 ( 44580 PWs)   bands (ev):

   -12.3819 -12.1027 -11.4740 -10.8521 -10.8213 -10.8097 -10.8077 -10.7729
   -10.7409 -10.6622 -10.6575 -10.5942 -10.5636 -10.5618 -10.4977 -10.4053
   -10.4006 -10.3668 -10.3487 -10.2354 -10.2200 -10.1609 -10.0997 -10.0989
   -10.0913 -10.0109  -9.9538  -9.9206  -9.8392  -9.7848  -9.5070  -9.4021
    -9.3860  -9.0257  -8.9323  -8.8560  -8.7765  -8.7184  -8.7030  -8.7010
    -8.5850  -8.5264  -8.4448  -8.4142  -8.3854  -8.3659  -8.3535  -8.2987
    -8.2596  -8.2511  -8.2488  -8.2320  -8.2289  -8.1142  -8.0754  -8.0417
    -8.0024  -7.9852  -7.9669  -7.9546  -7.8844  -7.8052  -7.7881  -7.7878
    -7.7431  -7.7046  -7.6940  -7.6501  -7.5999  -7.5379  -7.3038  -7.1347
    -7.1119  -7.1041  -7.0207  -6.9621  -6.9334  -6.9125  -6.9056  -6.8884
    -6.7614  -6.6539  -6.6162  -6.5917  -6.4602  -6.3821  -6.3815  -6.3248
    -6.3010  -6.2617  -6.1855  -6.1653  -6.0518  -6.0281  -6.0191  -6.0081
    -5.9017  -5.8879  -5.8832  -5.8829  -5.7137  -5.7085  -5.6808  -5.6312
    -5.6298  -5.6158  -5.6099  -5.5920  -5.5905  -5.5755  -5.5481  -5.4664
    -5.4657  -5.4558  -5.4381  -5.4352  -5.4147  -5.3533  -5.2847  -5.2771
    -5.2762  -5.2052  -5.1653  -5.1291  -5.1131  -4.9933  -4.4093  -4.1212
    -3.8447  -3.3591  -3.2589  -3.1483  -2.9326  -2.6995  -2.6449  -2.3285
    -2.1991  -1.8099  -1.5879  -1.2772  -0.7530  -0.6024   0.1381   0.2120
     0.4495

     occupation numbers 
     1.0000   1.0000   1.0000   1.0000   1.0000   1.0000   1.0000   1.0000
     1.0000   1.0000   1.0000   1.0000   1.0000   1.0000   1.0000   1.0000
     1.0000   1.0000   1.0000   1.0000   1.0000   1.0000   1.0000   1.0000
     1.0000   1.0000   1.0000   1.0000   1.0000   1.0000   1.0000   1.0000
     1.0000   1.0000   1.0000   1.0000   1.0000   1.0000   1.0000   1.0000
     1.0000   1.0000   1.0000   1.0000   1.0000   1.0000   1.0000   1.0000
     1.0000   1.0000   1.0000   1.0000   1.0000   1.0000   1.0000   1.0000
     1.0000   1.0000   1.0000   1.0000   1.0000   1.0000   1.0000   1.0000
     1.0000   1.0000   1.0000   1.0000   1.0000   1.0000   1.0000   1.0000
     1.0000   1.0000   1.0000   1.0000   1.0000   1.0000   1.0000   1.0000
     1.0000   1.0000   1.0000   1.0000   1.0000   1.0000   1.0000   1.0000
     1.0000   1.0000   1.0000   1.0000   1.0000   1.0000   1.0000   1.0001
     1.0009   1.0013   1.0014   1.0014   1.0284   1.0303   1.0416   1.0646
     1.0652   1.0712   1.0735   1.0793   1.0797   1.0826   1.0815   1.0009
     0.9995   0.9797   0.9386   0.9313   0.8744   0.6635   0.4106   0.3849
     0.3817   0.1833   0.1098   0.0647   0.0502   0.0051   0.0000   0.0000
     0.0000   0.0000   0.0000   0.0000   0.0000   0.0000   0.0000   0.0000
     0.0000   0.0000   0.0000   0.0000   0.0000   0.0000   0.0000   0.0000
     0.0000

          k = 0.1875 0.1804 0.0000 ( 44582 PWs)   bands (ev):

   -12.2742 -12.0056 -11.3704 -10.7846 -10.7441 -10.7419 -10.7348 -10.7086
   -10.6474 -10.6286 -10.5516 -10.5393 -10.5126 -10.4703 -10.4376 -10.3500
   -10.3041 -10.2953 -10.2669 -10.1913 -10.1174 -10.0784 -10.0475 -10.0416
   -10.0295  -9.9488  -9.8844  -9.8449  -9.7731  -9.6833  -9.4716  -9.3708
    -9.3528  -9.0514  -8.9593  -8.8772  -8.8451  -8.8115  -8.7758  -8.6542
    -8.6475  -8.5504  -8.4722  -8.4252  -8.3783  -8.3699  -8.3299  -8.3083
    -8.2547  -8.2302  -8.2188  -8.1800  -8.1532  -8.1419  -8.0937  -8.0498
    -8.0270  -7.9762  -7.9517  -7.9334  -7.9028  -7.8912  -7.8693  -7.8000
    -7.7450  -7.7109  -7.6668  -7.6202  -7.6102  -7.5614  -7.4124  -7.2600
    -7.2411  -7.1849  -7.1388  -7.0523  -6.9896  -6.9595  -6.9521  -6.9376
    -6.8794  -6.7630  -6.6596  -6.6069  -6.5482  -6.4586  -6.4164  -6.3843
    -6.3711  -6.3571  -6.3417  -6.2893  -6.2407  -6.2243  -6.1575  -6.0403
    -5.9676  -5.9572  -5.9420  -5.8743  -5.8194  -5.7996  -5.7942  -5.7778
    -5.7628  -5.7426  -5.7120  -5.7061  -5.6582  -5.6133  -5.5910  -5.5800
    -5.5089  -5.5007  -5.4853  -5.4730  -5.4693  -5.4438  -5.4259  -5.3076
    -5.3006  -5.2548  -5.1633  -5.1563  -5.0852  -4.8714  -4.5448  -4.2892
    -3.8541  -3.6954  -3.3289  -3.1512  -2.9249  -2.7264  -2.5847  -2.2001
    -2.0036  -1.6290  -1.3858  -1.0846  -0.7268  -0.3879   0.0943   0.4200
     0.7239

     occupation numbers 
     1.0000   1.0000   1.0000   1.0000   1.0000   1.0000   1.0000   1.0000
     1.0000   1.0000   1.0000   1.0000   1.0000   1.0000   1.0000   1.0000
     1.0000   1.0000   1.0000   1.0000   1.0000   1.0000   1.0000   1.0000
     1.0000   1.0000   1.0000   1.0000   1.0000   1.0000   1.0000   1.0000
     1.0000   1.0000   1.0000   1.0000   1.0000   1.0000   1.0000   1.0000
     1.0000   1.0000   1.0000   1.0000   1.0000   1.0000   1.0000   1.0000
     1.0000   1.0000   1.0000   1.0000   1.0000   1.0000   1.0000   1.0000
     1.0000   1.0000   1.0000   1.0000   1.0000   1.0000   1.0000   1.0000
     1.0000   1.0000   1.0000   1.0000   1.0000   1.0000   1.0000   1.0000
     1.0000   1.0000   1.0000   1.0000   1.0000   1.0000   1.0000   1.0000
     1.0000   1.0000   1.0000   1.0000   1.0000   1.0000   1.0000   1.0000
     1.0000   1.0000   1.0000   1.0000   1.0000   1.0000   1.0000   1.0000
     1.0002   1.0002   1.0004   1.0018   1.0053   1.0077   1.0084   1.0111
     1.0141   1.0192   1.0290   1.0312   1.0520   1.0722   1.0796   1.0820
     1.0598   1.0515   1.0320   1.0126   1.0062   0.9528   0.9066   0.4925
     0.4671   0.3134   0.1067   0.0968   0.0314   0.0002   0.0000   0.0000
     0.0000   0.0000   0.0000   0.0000   0.0000   0.0000   0.0000   0.0000
     0.0000   0.0000   0.0000   0.0000   0.0000   0.0000   0.0000   0.0000
     0.0000

          k = 0.1875 0.2526 0.0000 ( 44582 PWs)   bands (ev):

   -12.1255 -11.8618 -11.2210 -10.6752 -10.6613 -10.6489 -10.6428 -10.5951
   -10.5594 -10.5109 -10.4574 -10.4403 -10.4155 -10.3342 -10.3301 -10.2743
   -10.2139 -10.1753 -10.1463 -10.1286  -9.9959  -9.9738  -9.9702  -9.9383
    -9.9304  -9.8688  -9.7864  -9.7248  -9.6887  -9.5534  -9.4049  -9.3232
    -9.3096  -9.1006  -8.9942  -8.9494  -8.9174  -8.8936  -8.8628  -8.7506
    -8.6576  -8.5608  -8.5153  -8.4834  -8.4365  -8.3379  -8.3292  -8.3214
    -8.2516  -8.2197  -8.2060  -8.1845  -8.1389  -8.1089  -8.0890  -8.0595
    -8.0480  -8.0336  -7.9843  -7.9621  -7.9402  -7.8910  -7.8493  -7.8228
    -7.7771  -7.7124  -7.6345  -7.5677  -7.5413  -7.5189  -7.4938  -7.4397
    -7.4260  -7.3947  -7.3538  -7.1105  -7.0814  -7.0434  -6.9958  -6.9813
    -6.9591  -6.8675  -6.7895  -6.7477  -6.6586  -6.6247  -6.5633  -6.5257
    -6.5078  -6.4784  -6.4440  -6.4309  -6.4187  -6.3867  -6.2948  -6.2281
    -6.0768  -6.0688  -6.0628  -6.0462  -6.0366  -5.9901  -5.9662  -5.9152
    -5.8792  -5.8383  -5.7964  -5.7618  -5.7113  -5.7032  -5.6876  -5.5794
    -5.5678  -5.5501  -5.5264  -5.5110  -5.5006  -5.4842  -5.4656  -5.3729
    -5.3354  -5.2922  -5.2290  -5.2181  -4.9506  -4.6987  -4.5295  -4.3295
    -4.2763  -3.9868  -3.7053  -3.3333  -3.0682  -2.6298  -2.3009  -1.9239
    -1.5877  -1.3571  -1.0778  -0.9174  -0.5427  -0.1136   0.1649   0.3931
     0.7256

     occupation numbers 
     1.0000   1.0000   1.0000   1.0000   1.0000   1.0000   1.0000   1.0000
     1.0000   1.0000   1.0000   1.0000   1.0000   1.0000   1.0000   1.0000
     1.0000   1.0000   1.0000   1.0000   1.0000   1.0000   1.0000   1.0000
     1.0000   1.0000   1.0000   1.0000   1.0000   1.0000   1.0000   1.0000
     1.0000   1.0000   1.0000   1.0000   1.0000   1.0000   1.0000   1.0000
     1.0000   1.0000   1.0000   1.0000   1.0000   1.0000   1.0000   1.0000
     1.0000   1.0000   1.0000   1.0000   1.0000   1.0000   1.0000   1.0000
     1.0000   1.0000   1.0000   1.0000   1.0000   1.0000   1.0000   1.0000
     1.0000   1.0000   1.0000   1.0000   1.0000   1.0000   1.0000   1.0000
     1.0000   1.0000   1.0000   1.0000   1.0000   1.0000   1.0000   1.0000
     1.0000   1.0000   1.0000   1.0000   1.0000   1.0000   1.0000   1.0000
     1.0000   1.0000   1.0000   1.0000   1.0000   1.0000   1.0000   1.0000
     1.0000   1.0000   1.0000   1.0000   1.0000   1.0001   1.0002   1.0007
     1.0016   1.0037   1.0081   1.0144   1.0293   1.0323   1.0387   1.0821
     1.0833   1.0820   1.0729   1.0617   1.0514   1.0304   0.9992   0.7355
     0.5964   0.4370   0.2402   0.2128   0.0019   0.0000   0.0000   0.0000
     0.0000   0.0000   0.0000   0.0000   0.0000   0.0000   0.0000   0.0000
     0.0000   0.0000   0.0000   0.0000   0.0000   0.0000   0.0000   0.0000
     0.0000

          k = 0.1875 0.3248 0.0000 ( 44577 PWs)   bands (ev):

   -11.9552 -11.6710 -11.0350 -10.5542 -10.5513 -10.5352 -10.5302 -10.5283
   -10.3821 -10.3492 -10.3485 -10.3438 -10.2631 -10.1891 -10.1836 -10.1543
   -10.1012 -10.0833 -10.0581  -9.9742  -9.8917  -9.8863  -9.8382  -9.8096
    -9.7895  -9.7733  -9.6599  -9.5933  -9.5726  -9.4454  -9.2826  -9.2779
    -9.2388  -9.1727  -9.0703  -9.0465  -9.0067  -8.9492  -8.8918  -8.8686
    -8.7547  -8.6531  -8.5789  -8.4866  -8.4641  -8.4119  -8.3742  -8.3719
    -8.3075  -8.2777  -8.2615  -8.2352  -8.1872  -8.1127  -8.0815  -8.0431
    -8.0416  -8.0400  -7.9851  -7.9638  -7.9587  -7.9199  -7.8198  -7.7987
    -7.7754  -7.7101  -7.7059  -7.6714  -7.6421  -7.6075  -7.5626  -7.4879
    -7.4637  -7.3779  -7.3199  -7.3027  -7.2285  -7.1708  -7.0331  -7.0144
    -7.0021  -6.9962  -6.9738  -6.9021  -6.8594  -6.8055  -6.7934  -6.7725
    -6.7378  -6.7191  -6.5522  -6.5439  -6.5290  -6.4828  -6.4563  -6.3300
    -6.3124  -6.2649  -6.2544  -6.2157  -6.1954  -6.0906  -6.0636  -6.0351
    -6.0046  -5.9191  -5.9120  -5.8051  -5.7500  -5.7255  -5.6898  -5.6807
    -5.6297  -5.5750  -5.5542  -5.5400  -5.5226  -5.5083  -5.4988  -5.3665
    -5.3381  -5.3145  -5.2938  -5.2859  -4.8425  -4.7971  -4.6355  -4.5425
    -4.4065  -4.1825  -4.1329  -3.3204  -3.0115  -2.8082  -1.8945  -1.5799
    -1.3654  -1.2916  -0.8928  -0.5329  -0.1736   0.1924   0.3456   0.4551
     0.5926

     occupation numbers 
     1.0000   1.0000   1.0000   1.0000   1.0000   1.0000   1.0000   1.0000
     1.0000   1.0000   1.0000   1.0000   1.0000   1.0000   1.0000   1.0000
     1.0000   1.0000   1.0000   1.0000   1.0000   1.0000   1.0000   1.0000
     1.0000   1.0000   1.0000   1.0000   1.0000   1.0000   1.0000   1.0000
     1.0000   1.0000   1.0000   1.0000   1.0000   1.0000   1.0000   1.0000
     1.0000   1.0000   1.0000   1.0000   1.0000   1.0000   1.0000   1.0000
     1.0000   1.0000   1.0000   1.0000   1.0000   1.0000   1.0000   1.0000
     1.0000   1.0000   1.0000   1.0000   1.0000   1.0000   1.0000   1.0000
     1.0000   1.0000   1.0000   1.0000   1.0000   1.0000   1.0000   1.0000
     1.0000   1.0000   1.0000   1.0000   1.0000   1.0000   1.0000   1.0000
     1.0000   1.0000   1.0000   1.0000   1.0000   1.0000   1.0000   1.0000
     1.0000   1.0000   1.0000   1.0000   1.0000   1.0000   1.0000   1.0000
     1.0000   1.0000   1.0000   1.0000   1.0000   1.0000   1.0000   1.0000
     1.0001   1.0006   1.0007   1.0069   1.0172   1.0243   1.0378   1.0417
     1.0653   1.0827   1.0826   1.0792   1.0705   1.0592   1.0494   0.7125
     0.6067   0.5181   0.4427   0.4148   0.0001   0.0000   0.0000   0.0000
     0.0000   0.0000   0.0000   0.0000   0.0000   0.0000   0.0000   0.0000
     0.0000   0.0000   0.0000   0.0000   0.0000   0.0000   0.0000   0.0000
     0.0000

          k = 0.1875 0.3969 0.0000 ( 44536 PWs)   bands (ev):

   -11.7905 -11.4351 -10.8286 -10.5279 -10.4225 -10.4131 -10.3972 -10.3711
   -10.2515 -10.2101 -10.2030 -10.1554 -10.1234 -10.1096 -10.0229 -10.0134
    -9.9692  -9.9528  -9.9297  -9.8273  -9.8011  -9.7906  -9.7447  -9.6824
    -9.6591  -9.6252  -9.5455  -9.4723  -9.4308  -9.3444  -9.2493  -9.2347
    -9.2077  -9.1656  -9.1121  -9.0935  -9.0679  -9.0058  -8.9846  -8.8968
    -8.8450  -8.7816  -8.6657  -8.5633  -8.5563  -8.5195  -8.4973  -8.4123
    -8.3923  -8.3702  -8.3269  -8.2981  -8.2551  -8.1440  -8.0922  -8.0724
    -8.0398  -8.0203  -8.0102  -7.9958  -7.9756  -7.9461  -7.9182  -7.9117
    -7.8837  -7.8702  -7.8255  -7.6281  -7.6172  -7.5835  -7.5385  -7.4849
    -7.4400  -7.4137  -7.3844  -7.3611  -7.2444  -7.2048  -7.1845  -7.1680
    -7.1384  -7.1100  -7.0821  -7.0751  -7.0511  -7.0258  -6.9379  -6.9015
    -6.8813  -6.7861  -6.7124  -6.7007  -6.6459  -6.6197  -6.5717  -6.4513
    -6.4224  -6.4025  -6.3924  -6.3685  -6.2411  -6.2224  -6.1672  -6.1182
    -6.0410  -6.0289  -5.9304  -5.9029  -5.8201  -5.7859  -5.7591  -5.6766
    -5.6499  -5.6362  -5.6138  -5.5924  -5.5622  -5.5382  -5.4979  -5.4023
    -5.3972  -5.3357  -5.3304  -5.2348  -5.1348  -5.0457  -4.8127  -4.6956
    -4.5304  -4.2386  -3.8884  -3.5686  -3.0895  -2.4670  -1.9412  -1.4965
    -1.2674  -0.8919  -0.5952  -0.2734  -0.0427   0.2369   0.3818   0.7522
     1.2043

     occupation numbers 
     1.0000   1.0000   1.0000   1.0000   1.0000   1.0000   1.0000   1.0000
     1.0000   1.0000   1.0000   1.0000   1.0000   1.0000   1.0000   1.0000
     1.0000   1.0000   1.0000   1.0000   1.0000   1.0000   1.0000   1.0000
     1.0000   1.0000   1.0000   1.0000   1.0000   1.0000   1.0000   1.0000
     1.0000   1.0000   1.0000   1.0000   1.0000   1.0000   1.0000   1.0000
     1.0000   1.0000   1.0000   1.0000   1.0000   1.0000   1.0000   1.0000
     1.0000   1.0000   1.0000   1.0000   1.0000   1.0000   1.0000   1.0000
     1.0000   1.0000   1.0000   1.0000   1.0000   1.0000   1.0000   1.0000
     1.0000   1.0000   1.0000   1.0000   1.0000   1.0000   1.0000   1.0000
     1.0000   1.0000   1.0000   1.0000   1.0000   1.0000   1.0000   1.0000
     1.0000   1.0000   1.0000   1.0000   1.0000   1.0000   1.0000   1.0000
     1.0000   1.0000   1.0000   1.0000   1.0000   1.0000   1.0000   1.0000
     1.0000   1.0000   1.0000   1.0000   1.0000   1.0000   1.0000   1.0000
     1.0000   1.0000   1.0005   1.0009   1.0053   1.0097   1.0150   1.0435
     1.0559   1.0623   1.0720   1.0793   1.0833   1.0786   1.0484   0.8360
     0.8194   0.5977   0.5775   0.2558   0.0706   0.0151   0.0000   0.0000
     0.0000   0.0000   0.0000   0.0000   0.0000   0.0000   0.0000   0.0000
     0.0000   0.0000   0.0000   0.0000   0.0000   0.0000   0.0000   0.0000
     0.0000

          k = 0.1875-0.6856 0.0000 ( 44502 PWs)   bands (ev):

   -11.6586 -11.1678 -10.6277 -10.5524 -10.2959 -10.2906 -10.2802 -10.2402
   -10.1933 -10.0840 -10.0685 -10.0378 -10.0022  -9.9782  -9.9066  -9.8852
    -9.8706  -9.7970  -9.7326  -9.7265  -9.7118  -9.7096  -9.6933  -9.5499
    -9.5352  -9.5159  -9.4761  -9.3615  -9.3359  -9.3031  -9.2683  -9.2241
    -9.1876  -9.1751  -9.1631  -9.1266  -9.0957  -8.9699  -8.9641  -8.9510
    -8.9189  -8.7959  -8.7720  -8.7439  -8.7156  -8.6100  -8.5613  -8.4489
    -8.4429  -8.4278  -8.4196  -8.3538  -8.3318  -8.3108  -8.2115  -8.1615
    -8.1304  -8.0925  -8.0520  -8.0223  -8.0146  -7.9729  -7.9465  -7.8979
    -7.8684  -7.8404  -7.8109  -7.7574  -7.7334  -7.6746  -7.6024  -7.5680
    -7.5176  -7.4832  -7.4289  -7.4188  -7.3712  -7.3135  -7.2952  -7.2704
    -7.2431  -7.1819  -7.0931  -7.0537  -7.0140  -7.0017  -6.9973  -6.9515
    -6.9222  -6.9093  -6.7763  -6.7447  -6.7245  -6.7074  -6.6225  -6.5404
    -6.5255  -6.4605  -6.4210  -6.4012  -6.3025  -6.2679  -6.2167  -6.2065
    -6.1833  -6.1341  -6.0248  -6.0044  -5.8377  -5.8274  -5.8075  -5.7762
    -5.7156  -5.6144  -5.6086  -5.5947  -5.5797  -5.5634  -5.5382  -5.5020
    -5.4848  -5.4538  -5.4515  -5.3446  -5.3362  -5.2500  -4.8699  -4.6237
    -4.5122  -4.2097  -3.9523  -3.5286  -3.0560  -2.3954  -1.9923  -1.4787
    -0.8398  -0.7233  -0.5683  -0.3671   0.0776   0.3221   0.7330   1.0099
     1.3042

     occupation numbers 
     1.0000   1.0000   1.0000   1.0000   1.0000   1.0000   1.0000   1.0000
     1.0000   1.0000   1.0000   1.0000   1.0000   1.0000   1.0000   1.0000
     1.0000   1.0000   1.0000   1.0000   1.0000   1.0000   1.0000   1.0000
     1.0000   1.0000   1.0000   1.0000   1.0000   1.0000   1.0000   1.0000
     1.0000   1.0000   1.0000   1.0000   1.0000   1.0000   1.0000   1.0000
     1.0000   1.0000   1.0000   1.0000   1.0000   1.0000   1.0000   1.0000
     1.0000   1.0000   1.0000   1.0000   1.0000   1.0000   1.0000   1.0000
     1.0000   1.0000   1.0000   1.0000   1.0000   1.0000   1.0000   1.0000
     1.0000   1.0000   1.0000   1.0000   1.0000   1.0000   1.0000   1.0000
     1.0000   1.0000   1.0000   1.0000   1.0000   1.0000   1.0000   1.0000
     1.0000   1.0000   1.0000   1.0000   1.0000   1.0000   1.0000   1.0000
     1.0000   1.0000   1.0000   1.0000   1.0000   1.0000   1.0000   1.0000
     1.0000   1.0000   1.0000   1.0000   1.0000   1.0000   1.0000   1.0000
     1.0000   1.0000   1.0000   1.0001   1.0037   1.0046   1.0066   1.0114
     1.0277   1.0718   1.0740   1.0786   1.0820   1.0833   1.0786   1.0529
     1.0313   0.9755   0.9703   0.6312   0.5996   0.2987   0.0002   0.0000
     0.0000   0.0000   0.0000   0.0000   0.0000   0.0000   0.0000   0.0000
     0.0000   0.0000   0.0000   0.0000   0.0000   0.0000   0.0000   0.0000
     0.0000

          k = 0.1875-0.6134 0.0000 ( 44484 PWs)   bands (ev):

   -11.5840 -10.8990 -10.6765 -10.4598 -10.3409 -10.1924 -10.1697 -10.1451
   -10.1104 -10.0515 -10.0284  -9.9795  -9.9179  -9.9071  -9.8162  -9.8099
    -9.7775  -9.7165  -9.6953  -9.6565  -9.6250  -9.5945  -9.5575  -9.4933
    -9.4761  -9.4173  -9.3915  -9.3768  -9.3085  -9.2901  -9.2830  -9.2727
    -9.2496  -9.2175  -9.1194  -9.0977  -9.0753  -9.0460  -8.9767  -8.9655
    -8.9328  -8.8913  -8.8548  -8.7700  -8.7072  -8.6748  -8.6509  -8.5591
    -8.5312  -8.4632  -8.4492  -8.3632  -8.2987  -8.2738  -8.2441  -8.2166
    -8.1739  -8.1298  -8.1116  -8.0900  -8.0521  -8.0064  -7.9650  -7.9440
    -7.9041  -7.8817  -7.8180  -7.8083  -7.7840  -7.7554  -7.7033  -7.6813
    -7.6575  -7.5863  -7.5742  -7.5423  -7.3488  -7.2937  -7.2633  -7.2237
    -7.1573  -7.1496  -7.1481  -7.1303  -7.0871  -7.0395  -6.9863  -6.9662
    -6.8928  -6.8343  -6.8150  -6.7317  -6.7156  -6.6510  -6.6417  -6.5581
    -6.5497  -6.4962  -6.4688  -6.4263  -6.3531  -6.3262  -6.2607  -6.2283
    -6.1742  -6.1073  -6.0829  -6.0603  -6.0444  -5.8634  -5.8499  -5.8318
    -5.7971  -5.7606  -5.6908  -5.6038  -5.5807  -5.5640  -5.5558  -5.5393
    -5.5191  -5.5115  -5.5049  -5.4900  -5.3454  -5.3343  -4.6835  -4.5791
    -4.4832  -4.3160  -4.1025  -3.2643  -2.9853  -2.7322  -1.6922  -1.3932
    -1.0481  -0.7136  -0.3736  -0.1599   0.1773   0.3521   0.4643   1.0934
     1.8423

     occupation numbers 
     1.0000   1.0000   1.0000   1.0000   1.0000   1.0000   1.0000   1.0000
     1.0000   1.0000   1.0000   1.0000   1.0000   1.0000   1.0000   1.0000
     1.0000   1.0000   1.0000   1.0000   1.0000   1.0000   1.0000   1.0000
     1.0000   1.0000   1.0000   1.0000   1.0000   1.0000   1.0000   1.0000
     1.0000   1.0000   1.0000   1.0000   1.0000   1.0000   1.0000   1.0000
     1.0000   1.0000   1.0000   1.0000   1.0000   1.0000   1.0000   1.0000
     1.0000   1.0000   1.0000   1.0000   1.0000   1.0000   1.0000   1.0000
     1.0000   1.0000   1.0000   1.0000   1.0000   1.0000   1.0000   1.0000
     1.0000   1.0000   1.0000   1.0000   1.0000   1.0000   1.0000   1.0000
     1.0000   1.0000   1.0000   1.0000   1.0000   1.0000   1.0000   1.0000
     1.0000   1.0000   1.0000   1.0000   1.0000   1.0000   1.0000   1.0000
     1.0000   1.0000   1.0000   1.0000   1.0000   1.0000   1.0000   1.0000
     1.0000   1.0000   1.0000   1.0000   1.0000   1.0000   1.0000   1.0000
     1.0000   1.0000   1.0000   1.0000   1.0000   1.0022   1.0029   1.0042
     1.0080   1.0146   1.0374   1.0757   1.0819   1.0833   1.0828   1.0790
     1.0682   1.0621   1.0559   1.0385   0.6341   0.5925   0.0000   0.0000
     0.0000   0.0000   0.0000   0.0000   0.0000   0.0000   0.0000   0.0000
     0.0000   0.0000   0.0000   0.0000   0.0000   0.0000   0.0000   0.0000
     0.0000

          k = 0.1875-0.5413 0.0000 ( 44484 PWs)   bands (ev):

   -11.5840 -10.8990 -10.6765 -10.4598 -10.3409 -10.1924 -10.1697 -10.1451
   -10.1104 -10.0515 -10.0284  -9.9795  -9.9179  -9.9071  -9.8162  -9.8099
    -9.7775  -9.7165  -9.6953  -9.6565  -9.6250  -9.5945  -9.5575  -9.4933
    -9.4761  -9.4173  -9.3915  -9.3768  -9.3085  -9.2901  -9.2830  -9.2727
    -9.2496  -9.2175  -9.1194  -9.0977  -9.0753  -9.0460  -8.9767  -8.9655
    -8.9328  -8.8913  -8.8548  -8.7700  -8.7072  -8.6748  -8.6509  -8.5591
    -8.5312  -8.4632  -8.4492  -8.3632  -8.2987  -8.2738  -8.2441  -8.2166
    -8.1739  -8.1298  -8.1116  -8.0900  -8.0521  -8.0064  -7.9650  -7.9440
    -7.9041  -7.8817  -7.8180  -7.8083  -7.7840  -7.7554  -7.7033  -7.6813
    -7.6575  -7.5863  -7.5742  -7.5423  -7.3488  -7.2937  -7.2633  -7.2237
    -7.1573  -7.1496  -7.1481  -7.1303  -7.0871  -7.0395  -6.9863  -6.9662
    -6.8928  -6.8343  -6.8150  -6.7317  -6.7156  -6.6510  -6.6417  -6.5581
    -6.5497  -6.4962  -6.4688  -6.4263  -6.3531  -6.3262  -6.2607  -6.2283
    -6.1742  -6.1073  -6.0829  -6.0603  -6.0444  -5.8634  -5.8499  -5.8318
    -5.7971  -5.7606  -5.6908  -5.6038  -5.5807  -5.5640  -5.5558  -5.5393
    -5.5191  -5.5115  -5.5049  -5.4900  -5.3454  -5.3343  -4.6835  -4.5791
    -4.4832  -4.3160  -4.1025  -3.2643  -2.9853  -2.7322  -1.6922  -1.3932
    -1.0481  -0.7136  -0.3736  -0.1599   0.1773   0.3521   0.4643   1.0934
     1.8423

     occupation numbers 
     1.0000   1.0000   1.0000   1.0000   1.0000   1.0000   1.0000   1.0000
     1.0000   1.0000   1.0000   1.0000   1.0000   1.0000   1.0000   1.0000
     1.0000   1.0000   1.0000   1.0000   1.0000   1.0000   1.0000   1.0000
     1.0000   1.0000   1.0000   1.0000   1.0000   1.0000   1.0000   1.0000
     1.0000   1.0000   1.0000   1.0000   1.0000   1.0000   1.0000   1.0000
     1.0000   1.0000   1.0000   1.0000   1.0000   1.0000   1.0000   1.0000
     1.0000   1.0000   1.0000   1.0000   1.0000   1.0000   1.0000   1.0000
     1.0000   1.0000   1.0000   1.0000   1.0000   1.0000   1.0000   1.0000
     1.0000   1.0000   1.0000   1.0000   1.0000   1.0000   1.0000   1.0000
     1.0000   1.0000   1.0000   1.0000   1.0000   1.0000   1.0000   1.0000
     1.0000   1.0000   1.0000   1.0000   1.0000   1.0000   1.0000   1.0000
     1.0000   1.0000   1.0000   1.0000   1.0000   1.0000   1.0000   1.0000
     1.0000   1.0000   1.0000   1.0000   1.0000   1.0000   1.0000   1.0000
     1.0000   1.0000   1.0000   1.0000   1.0000   1.0022   1.0029   1.0042
     1.0080   1.0146   1.0374   1.0757   1.0819   1.0833   1.0828   1.0790
     1.0682   1.0621   1.0559   1.0385   0.6341   0.5925   0.0000   0.0000
     0.0000   0.0000   0.0000   0.0000   0.0000   0.0000   0.0000   0.0000
     0.0000   0.0000   0.0000   0.0000   0.0000   0.0000   0.0000   0.0000
     0.0000

          k = 0.1875-0.4691 0.0000 ( 44502 PWs)   bands (ev):

   -11.6586 -11.1678 -10.6277 -10.5524 -10.2959 -10.2906 -10.2802 -10.2402
   -10.1933 -10.0840 -10.0685 -10.0378 -10.0022  -9.9782  -9.9066  -9.8852
    -9.8706  -9.7970  -9.7326  -9.7265  -9.7118  -9.7096  -9.6933  -9.5499
    -9.5352  -9.5159  -9.4761  -9.3615  -9.3359  -9.3031  -9.2683  -9.2241
    -9.1876  -9.1751  -9.1631  -9.1266  -9.0957  -8.9699  -8.9641  -8.9510
    -8.9189  -8.7959  -8.7720  -8.7439  -8.7156  -8.6100  -8.5613  -8.4489
    -8.4429  -8.4278  -8.4196  -8.3538  -8.3318  -8.3108  -8.2115  -8.1615
    -8.1304  -8.0925  -8.0520  -8.0223  -8.0146  -7.9729  -7.9465  -7.8979
    -7.8684  -7.8404  -7.8109  -7.7574  -7.7334  -7.6746  -7.6024  -7.5680
    -7.5176  -7.4832  -7.4289  -7.4188  -7.3712  -7.3135  -7.2952  -7.2704
    -7.2431  -7.1819  -7.0931  -7.0537  -7.0140  -7.0017  -6.9973  -6.9515
    -6.9222  -6.9093  -6.7763  -6.7447  -6.7245  -6.7074  -6.6225  -6.5404
    -6.5255  -6.4605  -6.4210  -6.4012  -6.3025  -6.2679  -6.2167  -6.2065
    -6.1833  -6.1341  -6.0248  -6.0044  -5.8377  -5.8274  -5.8075  -5.7762
    -5.7156  -5.6144  -5.6086  -5.5947  -5.5797  -5.5634  -5.5382  -5.5020
    -5.4848  -5.4538  -5.4515  -5.3446  -5.3362  -5.2500  -4.8699  -4.6237
    -4.5122  -4.2097  -3.9523  -3.5286  -3.0560  -2.3954  -1.9923  -1.4787
    -0.8398  -0.7233  -0.5683  -0.3671   0.0776   0.3221   0.7330   1.0099
     1.3042

     occupation numbers 
     1.0000   1.0000   1.0000   1.0000   1.0000   1.0000   1.0000   1.0000
     1.0000   1.0000   1.0000   1.0000   1.0000   1.0000   1.0000   1.0000
     1.0000   1.0000   1.0000   1.0000   1.0000   1.0000   1.0000   1.0000
     1.0000   1.0000   1.0000   1.0000   1.0000   1.0000   1.0000   1.0000
     1.0000   1.0000   1.0000   1.0000   1.0000   1.0000   1.0000   1.0000
     1.0000   1.0000   1.0000   1.0000   1.0000   1.0000   1.0000   1.0000
     1.0000   1.0000   1.0000   1.0000   1.0000   1.0000   1.0000   1.0000
     1.0000   1.0000   1.0000   1.0000   1.0000   1.0000   1.0000   1.0000
     1.0000   1.0000   1.0000   1.0000   1.0000   1.0000   1.0000   1.0000
     1.0000   1.0000   1.0000   1.0000   1.0000   1.0000   1.0000   1.0000
     1.0000   1.0000   1.0000   1.0000   1.0000   1.0000   1.0000   1.0000
     1.0000   1.0000   1.0000   1.0000   1.0000   1.0000   1.0000   1.0000
     1.0000   1.0000   1.0000   1.0000   1.0000   1.0000   1.0000   1.0000
     1.0000   1.0000   1.0000   1.0001   1.0037   1.0046   1.0066   1.0114
     1.0277   1.0718   1.0740   1.0786   1.0820   1.0833   1.0786   1.0529
     1.0313   0.9755   0.9703   0.6312   0.5996   0.2987   0.0002   0.0000
     0.0000   0.0000   0.0000   0.0000   0.0000   0.0000   0.0000   0.0000
     0.0000   0.0000   0.0000   0.0000   0.0000   0.0000   0.0000   0.0000
     0.0000

          k = 0.1875-0.3969 0.0000 ( 44536 PWs)   bands (ev):

   -11.7905 -11.4351 -10.8286 -10.5279 -10.4225 -10.4131 -10.3972 -10.3711
   -10.2515 -10.2101 -10.2030 -10.1554 -10.1234 -10.1096 -10.0229 -10.0134
    -9.9692  -9.9528  -9.9297  -9.8273  -9.8011  -9.7906  -9.7447  -9.6824
    -9.6591  -9.6252  -9.5455  -9.4723  -9.4308  -9.3444  -9.2493  -9.2347
    -9.2077  -9.1656  -9.1121  -9.0935  -9.0679  -9.0058  -8.9846  -8.8968
    -8.8450  -8.7816  -8.6657  -8.5633  -8.5563  -8.5195  -8.4973  -8.4123
    -8.3923  -8.3702  -8.3269  -8.2981  -8.2551  -8.1440  -8.0922  -8.0724
    -8.0398  -8.0203  -8.0102  -7.9958  -7.9756  -7.9461  -7.9182  -7.9117
    -7.8837  -7.8702  -7.8255  -7.6281  -7.6172  -7.5835  -7.5385  -7.4849
    -7.4400  -7.4137  -7.3844  -7.3611  -7.2444  -7.2048  -7.1845  -7.1680
    -7.1384  -7.1100  -7.0821  -7.0751  -7.0511  -7.0258  -6.9379  -6.9015
    -6.8813  -6.7861  -6.7124  -6.7007  -6.6459  -6.6197  -6.5717  -6.4513
    -6.4224  -6.4025  -6.3924  -6.3685  -6.2411  -6.2224  -6.1672  -6.1182
    -6.0410  -6.0289  -5.9304  -5.9029  -5.8201  -5.7859  -5.7591  -5.6766
    -5.6499  -5.6362  -5.6138  -5.5924  -5.5622  -5.5382  -5.4979  -5.4023
    -5.3972  -5.3357  -5.3304  -5.2348  -5.1348  -5.0457  -4.8127  -4.6956
    -4.5304  -4.2386  -3.8884  -3.5686  -3.0895  -2.4670  -1.9412  -1.4965
    -1.2674  -0.8919  -0.5952  -0.2734  -0.0427   0.2369   0.3818   0.7522
     1.2043

     occupation numbers 
     1.0000   1.0000   1.0000   1.0000   1.0000   1.0000   1.0000   1.0000
     1.0000   1.0000   1.0000   1.0000   1.0000   1.0000   1.0000   1.0000
     1.0000   1.0000   1.0000   1.0000   1.0000   1.0000   1.0000   1.0000
     1.0000   1.0000   1.0000   1.0000   1.0000   1.0000   1.0000   1.0000
     1.0000   1.0000   1.0000   1.0000   1.0000   1.0000   1.0000   1.0000
     1.0000   1.0000   1.0000   1.0000   1.0000   1.0000   1.0000   1.0000
     1.0000   1.0000   1.0000   1.0000   1.0000   1.0000   1.0000   1.0000
     1.0000   1.0000   1.0000   1.0000   1.0000   1.0000   1.0000   1.0000
     1.0000   1.0000   1.0000   1.0000   1.0000   1.0000   1.0000   1.0000
     1.0000   1.0000   1.0000   1.0000   1.0000   1.0000   1.0000   1.0000
     1.0000   1.0000   1.0000   1.0000   1.0000   1.0000   1.0000   1.0000
     1.0000   1.0000   1.0000   1.0000   1.0000   1.0000   1.0000   1.0000
     1.0000   1.0000   1.0000   1.0000   1.0000   1.0000   1.0000   1.0000
     1.0000   1.0000   1.0005   1.0009   1.0053   1.0097   1.0150   1.0435
     1.0559   1.0623   1.0720   1.0793   1.0833   1.0786   1.0484   0.8360
     0.8194   0.5977   0.5775   0.2558   0.0706   0.0151   0.0000   0.0000
     0.0000   0.0000   0.0000   0.0000   0.0000   0.0000   0.0000   0.0000
     0.0000   0.0000   0.0000   0.0000   0.0000   0.0000   0.0000   0.0000
     0.0000

          k = 0.1875-0.3248 0.0000 ( 44577 PWs)   bands (ev):

   -11.9552 -11.6710 -11.0350 -10.5542 -10.5513 -10.5352 -10.5302 -10.5283
   -10.3821 -10.3492 -10.3485 -10.3438 -10.2631 -10.1891 -10.1836 -10.1543
   -10.1012 -10.0833 -10.0581  -9.9742  -9.8917  -9.8863  -9.8382  -9.8096
    -9.7895  -9.7733  -9.6599  -9.5933  -9.5726  -9.4454  -9.2826  -9.2779
    -9.2388  -9.1727  -9.0703  -9.0465  -9.0067  -8.9492  -8.8918  -8.8686
    -8.7547  -8.6531  -8.5789  -8.4866  -8.4641  -8.4119  -8.3742  -8.3719
    -8.3075  -8.2777  -8.2615  -8.2352  -8.1872  -8.1127  -8.0815  -8.0431
    -8.0416  -8.0400  -7.9851  -7.9638  -7.9587  -7.9199  -7.8198  -7.7987
    -7.7754  -7.7101  -7.7059  -7.6714  -7.6421  -7.6075  -7.5626  -7.4879
    -7.4637  -7.3779  -7.3199  -7.3027  -7.2285  -7.1708  -7.0331  -7.0144
    -7.0021  -6.9962  -6.9738  -6.9021  -6.8594  -6.8055  -6.7934  -6.7725
    -6.7378  -6.7191  -6.5522  -6.5439  -6.5290  -6.4828  -6.4563  -6.3300
    -6.3124  -6.2649  -6.2544  -6.2157  -6.1954  -6.0906  -6.0636  -6.0351
    -6.0046  -5.9191  -5.9120  -5.8051  -5.7500  -5.7255  -5.6898  -5.6807
    -5.6297  -5.5750  -5.5542  -5.5400  -5.5226  -5.5083  -5.4988  -5.3665
    -5.3381  -5.3145  -5.2938  -5.2859  -4.8425  -4.7971  -4.6355  -4.5425
    -4.4065  -4.1825  -4.1329  -3.3204  -3.0115  -2.8082  -1.8945  -1.5799
    -1.3654  -1.2916  -0.8928  -0.5329  -0.1736   0.1924   0.3456   0.4551
     0.5926

     occupation numbers 
     1.0000   1.0000   1.0000   1.0000   1.0000   1.0000   1.0000   1.0000
     1.0000   1.0000   1.0000   1.0000   1.0000   1.0000   1.0000   1.0000
     1.0000   1.0000   1.0000   1.0000   1.0000   1.0000   1.0000   1.0000
     1.0000   1.0000   1.0000   1.0000   1.0000   1.0000   1.0000   1.0000
     1.0000   1.0000   1.0000   1.0000   1.0000   1.0000   1.0000   1.0000
     1.0000   1.0000   1.0000   1.0000   1.0000   1.0000   1.0000   1.0000
     1.0000   1.0000   1.0000   1.0000   1.0000   1.0000   1.0000   1.0000
     1.0000   1.0000   1.0000   1.0000   1.0000   1.0000   1.0000   1.0000
     1.0000   1.0000   1.0000   1.0000   1.0000   1.0000   1.0000   1.0000
     1.0000   1.0000   1.0000   1.0000   1.0000   1.0000   1.0000   1.0000
     1.0000   1.0000   1.0000   1.0000   1.0000   1.0000   1.0000   1.0000
     1.0000   1.0000   1.0000   1.0000   1.0000   1.0000   1.0000   1.0000
     1.0000   1.0000   1.0000   1.0000   1.0000   1.0000   1.0000   1.0000
     1.0001   1.0006   1.0007   1.0069   1.0172   1.0243   1.0378   1.0417
     1.0653   1.0827   1.0826   1.0792   1.0705   1.0592   1.0494   0.7125
     0.6067   0.5181   0.4427   0.4148   0.0001   0.0000   0.0000   0.0000
     0.0000   0.0000   0.0000   0.0000   0.0000   0.0000   0.0000   0.0000
     0.0000   0.0000   0.0000   0.0000   0.0000   0.0000   0.0000   0.0000
     0.0000

          k = 0.1875-0.2526 0.0000 ( 44582 PWs)   bands (ev):

   -12.1255 -11.8618 -11.2210 -10.6752 -10.6613 -10.6489 -10.6428 -10.5951
   -10.5594 -10.5109 -10.4574 -10.4403 -10.4155 -10.3342 -10.3301 -10.2743
   -10.2139 -10.1753 -10.1463 -10.1286  -9.9959  -9.9738  -9.9702  -9.9383
    -9.9304  -9.8688  -9.7864  -9.7248  -9.6887  -9.5534  -9.4049  -9.3232
    -9.3096  -9.1006  -8.9942  -8.9494  -8.9174  -8.8936  -8.8628  -8.7506
    -8.6576  -8.5608  -8.5153  -8.4834  -8.4365  -8.3379  -8.3292  -8.3214
    -8.2516  -8.2197  -8.2060  -8.1845  -8.1389  -8.1089  -8.0890  -8.0595
    -8.0480  -8.0336  -7.9843  -7.9621  -7.9402  -7.8910  -7.8493  -7.8228
    -7.7771  -7.7124  -7.6345  -7.5677  -7.5413  -7.5189  -7.4938  -7.4397
    -7.4260  -7.3947  -7.3538  -7.1105  -7.0814  -7.0434  -6.9958  -6.9813
    -6.9591  -6.8675  -6.7895  -6.7477  -6.6586  -6.6247  -6.5633  -6.5257
    -6.5078  -6.4784  -6.4440  -6.4309  -6.4187  -6.3867  -6.2948  -6.2281
    -6.0768  -6.0688  -6.0628  -6.0462  -6.0366  -5.9901  -5.9662  -5.9152
    -5.8792  -5.8383  -5.7964  -5.7618  -5.7113  -5.7032  -5.6876  -5.5794
    -5.5678  -5.5501  -5.5264  -5.5110  -5.5006  -5.4842  -5.4656  -5.3729
    -5.3354  -5.2922  -5.2290  -5.2181  -4.9506  -4.6987  -4.5295  -4.3295
    -4.2763  -3.9868  -3.7053  -3.3333  -3.0682  -2.6298  -2.3009  -1.9239
    -1.5877  -1.3571  -1.0778  -0.9174  -0.5427  -0.1136   0.1649   0.3931
     0.7256

     occupation numbers 
     1.0000   1.0000   1.0000   1.0000   1.0000   1.0000   1.0000   1.0000
     1.0000   1.0000   1.0000   1.0000   1.0000   1.0000   1.0000   1.0000
     1.0000   1.0000   1.0000   1.0000   1.0000   1.0000   1.0000   1.0000
     1.0000   1.0000   1.0000   1.0000   1.0000   1.0000   1.0000   1.0000
     1.0000   1.0000   1.0000   1.0000   1.0000   1.0000   1.0000   1.0000
     1.0000   1.0000   1.0000   1.0000   1.0000   1.0000   1.0000   1.0000
     1.0000   1.0000   1.0000   1.0000   1.0000   1.0000   1.0000   1.0000
     1.0000   1.0000   1.0000   1.0000   1.0000   1.0000   1.0000   1.0000
     1.0000   1.0000   1.0000   1.0000   1.0000   1.0000   1.0000   1.0000
     1.0000   1.0000   1.0000   1.0000   1.0000   1.0000   1.0000   1.0000
     1.0000   1.0000   1.0000   1.0000   1.0000   1.0000   1.0000   1.0000
     1.0000   1.0000   1.0000   1.0000   1.0000   1.0000   1.0000   1.0000
     1.0000   1.0000   1.0000   1.0000   1.0000   1.0001   1.0002   1.0007
     1.0016   1.0037   1.0081   1.0144   1.0293   1.0323   1.0387   1.0821
     1.0833   1.0820   1.0729   1.0617   1.0514   1.0304   0.9992   0.7355
     0.5964   0.4370   0.2402   0.2128   0.0019   0.0000   0.0000   0.0000
     0.0000   0.0000   0.0000   0.0000   0.0000   0.0000   0.0000   0.0000
     0.0000   0.0000   0.0000   0.0000   0.0000   0.0000   0.0000   0.0000
     0.0000

          k = 0.1875-0.1804 0.0000 ( 44582 PWs)   bands (ev):

   -12.2742 -12.0056 -11.3704 -10.7846 -10.7441 -10.7419 -10.7348 -10.7086
   -10.6474 -10.6286 -10.5516 -10.5393 -10.5126 -10.4703 -10.4376 -10.3500
   -10.3041 -10.2953 -10.2669 -10.1913 -10.1174 -10.0784 -10.0475 -10.0416
   -10.0295  -9.9488  -9.8844  -9.8449  -9.7731  -9.6833  -9.4716  -9.3708
    -9.3528  -9.0514  -8.9593  -8.8772  -8.8451  -8.8115  -8.7758  -8.6542
    -8.6475  -8.5504  -8.4722  -8.4252  -8.3783  -8.3699  -8.3299  -8.3083
    -8.2547  -8.2302  -8.2188  -8.1800  -8.1532  -8.1419  -8.0937  -8.0498
    -8.0270  -7.9762  -7.9517  -7.9334  -7.9028  -7.8912  -7.8693  -7.8000
    -7.7450  -7.7109  -7.6668  -7.6202  -7.6102  -7.5614  -7.4124  -7.2600
    -7.2411  -7.1849  -7.1388  -7.0523  -6.9896  -6.9595  -6.9521  -6.9376
    -6.8794  -6.7630  -6.6596  -6.6069  -6.5482  -6.4586  -6.4164  -6.3843
    -6.3711  -6.3571  -6.3417  -6.2893  -6.2407  -6.2243  -6.1575  -6.0403
    -5.9676  -5.9572  -5.9420  -5.8743  -5.8194  -5.7996  -5.7942  -5.7778
    -5.7628  -5.7426  -5.7120  -5.7061  -5.6582  -5.6133  -5.5910  -5.5800
    -5.5089  -5.5007  -5.4853  -5.4730  -5.4693  -5.4438  -5.4259  -5.3076
    -5.3006  -5.2548  -5.1633  -5.1563  -5.0852  -4.8714  -4.5448  -4.2892
    -3.8541  -3.6954  -3.3289  -3.1512  -2.9249  -2.7264  -2.5847  -2.2001
    -2.0036  -1.6290  -1.3858  -1.0846  -0.7268  -0.3879   0.0943   0.4200
     0.7239

     occupation numbers 
     1.0000   1.0000   1.0000   1.0000   1.0000   1.0000   1.0000   1.0000
     1.0000   1.0000   1.0000   1.0000   1.0000   1.0000   1.0000   1.0000
     1.0000   1.0000   1.0000   1.0000   1.0000   1.0000   1.0000   1.0000
     1.0000   1.0000   1.0000   1.0000   1.0000   1.0000   1.0000   1.0000
     1.0000   1.0000   1.0000   1.0000   1.0000   1.0000   1.0000   1.0000
     1.0000   1.0000   1.0000   1.0000   1.0000   1.0000   1.0000   1.0000
     1.0000   1.0000   1.0000   1.0000   1.0000   1.0000   1.0000   1.0000
     1.0000   1.0000   1.0000   1.0000   1.0000   1.0000   1.0000   1.0000
     1.0000   1.0000   1.0000   1.0000   1.0000   1.0000   1.0000   1.0000
     1.0000   1.0000   1.0000   1.0000   1.0000   1.0000   1.0000   1.0000
     1.0000   1.0000   1.0000   1.0000   1.0000   1.0000   1.0000   1.0000
     1.0000   1.0000   1.0000   1.0000   1.0000   1.0000   1.0000   1.0000
     1.0002   1.0002   1.0004   1.0018   1.0053   1.0077   1.0084   1.0111
     1.0141   1.0192   1.0290   1.0312   1.0520   1.0722   1.0796   1.0820
     1.0598   1.0515   1.0320   1.0126   1.0062   0.9528   0.9066   0.4925
     0.4671   0.3134   0.1067   0.0968   0.0314   0.0002   0.0000   0.0000
     0.0000   0.0000   0.0000   0.0000   0.0000   0.0000   0.0000   0.0000
     0.0000   0.0000   0.0000   0.0000   0.0000   0.0000   0.0000   0.0000
     0.0000

          k = 0.2500-0.1443 0.0000 ( 44592 PWs)   bands (ev):

   -12.1989 -11.9348 -11.2967 -10.7505 -10.7371 -10.6867 -10.6854 -10.6436
   -10.5791 -10.5317 -10.5273 -10.5043 -10.4362 -10.4347 -10.4164 -10.2947
   -10.2579 -10.2527 -10.2001 -10.0924 -10.0777 -10.0372 -10.0145 -10.0000
    -9.9828  -9.8950  -9.8218  -9.8196  -9.7048  -9.6168  -9.4484  -9.3527
    -9.3226  -9.0692  -8.9941  -8.9447  -8.8479  -8.7908  -8.7595  -8.7480
    -8.6984  -8.5936  -8.4805  -8.4524  -8.3881  -8.3529  -8.3255  -8.3009
    -8.2293  -8.2178  -8.2086  -8.1696  -8.1521  -8.0959  -8.0901  -8.0835
    -8.0583  -7.9918  -7.9494  -7.9226  -7.8988  -7.8849  -7.8638  -7.8436
    -7.7414  -7.7255  -7.6489  -7.6041  -7.5923  -7.5585  -7.4715  -7.3723
    -7.3492  -7.2815  -7.1754  -7.1068  -7.0329  -6.9944  -6.9812  -6.9790
    -6.9297  -6.8824  -6.6871  -6.6354  -6.5528  -6.5445  -6.5162  -6.4843
    -6.4266  -6.4243  -6.3713  -6.3660  -6.3327  -6.3014  -6.2758  -6.0412
    -6.0090  -5.9991  -5.9896  -5.9055  -5.8976  -5.8741  -5.8693  -5.8667
    -5.8509  -5.8277  -5.8120  -5.7395  -5.7113  -5.6756  -5.6191  -5.5955
    -5.5824  -5.5189  -5.5041  -5.4878  -5.4529  -5.4527  -5.4430  -5.3981
    -5.2927  -5.2872  -5.2712  -5.1403  -5.1338  -5.0190  -4.8061  -4.5960
    -3.7225  -3.2794  -3.0970  -3.0856  -2.7633  -2.6300  -2.5127  -2.3000
    -2.1844  -1.7203  -1.4532  -1.3922  -0.4281  -0.2344   0.2728   0.7412
     0.8070

     occupation numbers 
     1.0000   1.0000   1.0000   1.0000   1.0000   1.0000   1.0000   1.0000
     1.0000   1.0000   1.0000   1.0000   1.0000   1.0000   1.0000   1.0000
     1.0000   1.0000   1.0000   1.0000   1.0000   1.0000   1.0000   1.0000
     1.0000   1.0000   1.0000   1.0000   1.0000   1.0000   1.0000   1.0000
     1.0000   1.0000   1.0000   1.0000   1.0000   1.0000   1.0000   1.0000
     1.0000   1.0000   1.0000   1.0000   1.0000   1.0000   1.0000   1.0000
     1.0000   1.0000   1.0000   1.0000   1.0000   1.0000   1.0000   1.0000
     1.0000   1.0000   1.0000   1.0000   1.0000   1.0000   1.0000   1.0000
     1.0000   1.0000   1.0000   1.0000   1.0000   1.0000   1.0000   1.0000
     1.0000   1.0000   1.0000   1.0000   1.0000   1.0000   1.0000   1.0000
     1.0000   1.0000   1.0000   1.0000   1.0000   1.0000   1.0000   1.0000
     1.0000   1.0000   1.0000   1.0000   1.0000   1.0000   1.0000   1.0000
     1.0001   1.0001   1.0001   1.0009   1.0010   1.0018   1.0019   1.0021
     1.0029   1.0046   1.0061   1.0201   1.0293   1.0440   1.0699   1.0784
     1.0816   1.0680   1.0551   1.0356   0.9735   0.9731   0.9508   0.8222
     0.4388   0.4196   0.3651   0.0767   0.0695   0.0088   0.0000   0.0000
     0.0000   0.0000   0.0000   0.0000   0.0000   0.0000   0.0000   0.0000
     0.0000   0.0000   0.0000   0.0000   0.0000   0.0000   0.0000   0.0000
     0.0000

          k = 0.2500-0.0722 0.0000 ( 44582 PWs)   bands (ev):

   -12.2742 -12.0056 -11.3704 -10.7846 -10.7441 -10.7419 -10.7348 -10.7086
   -10.6474 -10.6286 -10.5516 -10.5393 -10.5126 -10.4703 -10.4376 -10.3500
   -10.3041 -10.2953 -10.2669 -10.1913 -10.1174 -10.0784 -10.0475 -10.0416
   -10.0295  -9.9488  -9.8844  -9.8449  -9.7731  -9.6833  -9.4716  -9.3708
    -9.3528  -9.0514  -8.9593  -8.8772  -8.8451  -8.8115  -8.7758  -8.6542
    -8.6475  -8.5504  -8.4722  -8.4252  -8.3783  -8.3699  -8.3299  -8.3083
    -8.2548  -8.2302  -8.2188  -8.1800  -8.1532  -8.1419  -8.0937  -8.0498
    -8.0270  -7.9762  -7.9517  -7.9334  -7.9028  -7.8912  -7.8693  -7.8000
    -7.7450  -7.7109  -7.6668  -7.6202  -7.6102  -7.5614  -7.4124  -7.2600
    -7.2411  -7.1849  -7.1388  -7.0523  -6.9896  -6.9595  -6.9521  -6.9376
    -6.8794  -6.7630  -6.6596  -6.6069  -6.5482  -6.4586  -6.4164  -6.3843
    -6.3711  -6.3571  -6.3417  -6.2893  -6.2407  -6.2243  -6.1575  -6.0403
    -5.9676  -5.9572  -5.9420  -5.8743  -5.8194  -5.7996  -5.7942  -5.7778
    -5.7628  -5.7426  -5.7120  -5.7061  -5.6582  -5.6133  -5.5910  -5.5800
    -5.5089  -5.5007  -5.4853  -5.4730  -5.4693  -5.4438  -5.4259  -5.3076
    -5.3006  -5.2548  -5.1633  -5.1563  -5.0852  -4.8714  -4.5448  -4.2892
    -3.8541  -3.6954  -3.3289  -3.1512  -2.9249  -2.7264  -2.5847  -2.2001
    -2.0036  -1.6290  -1.3858  -1.0846  -0.7268  -0.3879   0.0943   0.4200
     0.7239

     occupation numbers 
     1.0000   1.0000   1.0000   1.0000   1.0000   1.0000   1.0000   1.0000
     1.0000   1.0000   1.0000   1.0000   1.0000   1.0000   1.0000   1.0000
     1.0000   1.0000   1.0000   1.0000   1.0000   1.0000   1.0000   1.0000
     1.0000   1.0000   1.0000   1.0000   1.0000   1.0000   1.0000   1.0000
     1.0000   1.0000   1.0000   1.0000   1.0000   1.0000   1.0000   1.0000
     1.0000   1.0000   1.0000   1.0000   1.0000   1.0000   1.0000   1.0000
     1.0000   1.0000   1.0000   1.0000   1.0000   1.0000   1.0000   1.0000
     1.0000   1.0000   1.0000   1.0000   1.0000   1.0000   1.0000   1.0000
     1.0000   1.0000   1.0000   1.0000   1.0000   1.0000   1.0000   1.0000
     1.0000   1.0000   1.0000   1.0000   1.0000   1.0000   1.0000   1.0000
     1.0000   1.0000   1.0000   1.0000   1.0000   1.0000   1.0000   1.0000
     1.0000   1.0000   1.0000   1.0000   1.0000   1.0000   1.0000   1.0000
     1.0002   1.0002   1.0004   1.0018   1.0053   1.0077   1.0084   1.0111
     1.0141   1.0192   1.0290   1.0312   1.0520   1.0722   1.0796   1.0820
     1.0598   1.0515   1.0320   1.0126   1.0062   0.9528   0.9066   0.4925
     0.4671   0.3134   0.1067   0.0968   0.0314   0.0002   0.0000   0.0000
     0.0000   0.0000   0.0000   0.0000   0.0000   0.0000   0.0000   0.0000
     0.0000   0.0000   0.0000   0.0000   0.0000   0.0000   0.0000   0.0000
     0.0000

          k = 0.2500 0.0000 0.0000 ( 44571 PWs)   bands (ev):

   -12.3001 -12.0292 -11.3952 -10.7808 -10.7792 -10.7513 -10.7418 -10.7030
   -10.6935 -10.6684 -10.5593 -10.5457 -10.5435 -10.4820 -10.4169 -10.4106
   -10.3102 -10.2925 -10.2697 -10.2619 -10.1310 -10.0887 -10.0579 -10.0542
   -10.0442  -9.9711  -9.9041  -9.8423  -9.8130  -9.7025  -9.4781  -9.3717
    -9.3685  -9.0449  -8.9358  -8.8769  -8.8347  -8.8120  -8.7913  -8.6385
    -8.5934  -8.5436  -8.4885  -8.4129  -8.3823  -8.3678  -8.3365  -8.3098
    -8.2727  -8.2329  -8.2241  -8.1865  -8.1643  -8.1332  -8.0974  -8.0369
    -7.9902  -7.9825  -7.9630  -7.9616  -7.9113  -7.8927  -7.8662  -7.7732
    -7.7412  -7.7157  -7.6584  -7.6242  -7.6232  -7.5362  -7.4028  -7.2226
    -7.1952  -7.1792  -7.1209  -7.0170  -6.9917  -6.9494  -6.9423  -6.9126
    -6.8533  -6.6852  -6.6684  -6.6113  -6.5620  -6.4463  -6.3758  -6.3624
    -6.3448  -6.3303  -6.3034  -6.2624  -6.2102  -6.1955  -6.1134  -6.0109
    -5.9921  -5.9547  -5.9386  -5.9185  -5.7937  -5.7853  -5.7600  -5.7178
    -5.6930  -5.6770  -5.6706  -5.6459  -5.6309  -5.6087  -5.5916  -5.5722
    -5.5672  -5.5246  -5.4850  -5.4802  -5.4653  -5.4588  -5.3604  -5.3528
    -5.3112  -5.2198  -5.2100  -5.1867  -4.9234  -4.5017  -4.4430  -4.1548
    -3.9345  -3.8154  -3.5705  -3.5380  -2.9480  -2.6882  -2.5595  -2.3570
    -1.7871  -1.3655  -1.0724  -1.0002  -0.7841  -0.5706  -0.4569   0.4991
     0.6665

     occupation numbers 
     1.0000   1.0000   1.0000   1.0000   1.0000   1.0000   1.0000   1.0000
     1.0000   1.0000   1.0000   1.0000   1.0000   1.0000   1.0000   1.0000
     1.0000   1.0000   1.0000   1.0000   1.0000   1.0000   1.0000   1.0000
     1.0000   1.0000   1.0000   1.0000   1.0000   1.0000   1.0000   1.0000
     1.0000   1.0000   1.0000   1.0000   1.0000   1.0000   1.0000   1.0000
     1.0000   1.0000   1.0000   1.0000   1.0000   1.0000   1.0000   1.0000
     1.0000   1.0000   1.0000   1.0000   1.0000   1.0000   1.0000   1.0000
     1.0000   1.0000   1.0000   1.0000   1.0000   1.0000   1.0000   1.0000
     1.0000   1.0000   1.0000   1.0000   1.0000   1.0000   1.0000   1.0000
     1.0000   1.0000   1.0000   1.0000   1.0000   1.0000   1.0000   1.0000
     1.0000   1.0000   1.0000   1.0000   1.0000   1.0000   1.0000   1.0000
     1.0000   1.0000   1.0000   1.0000   1.0000   1.0000   1.0000   1.0001
     1.0001   1.0003   1.0004   1.0006   1.0085   1.0098   1.0148   1.0269
     1.0364   1.0433   1.0463   1.0578   1.0647   1.0740   1.0795   1.0830
     1.0833   1.0718   1.0316   1.0244   0.9987   0.9860   0.6902   0.6619
     0.5057   0.2171   0.1939   0.1459   0.0010   0.0000   0.0000   0.0000
     0.0000   0.0000   0.0000   0.0000   0.0000   0.0000   0.0000   0.0000
     0.0000   0.0000   0.0000   0.0000   0.0000   0.0000   0.0000   0.0000
     0.0000

          k = 0.2500 0.0722 0.0000 ( 44582 PWs)   bands (ev):

   -12.2742 -12.0056 -11.3704 -10.7846 -10.7441 -10.7419 -10.7348 -10.7086
   -10.6474 -10.6286 -10.5516 -10.5393 -10.5126 -10.4703 -10.4376 -10.3500
   -10.3041 -10.2953 -10.2669 -10.1913 -10.1174 -10.0784 -10.0475 -10.0416
   -10.0295  -9.9488  -9.8844  -9.8449  -9.7731  -9.6833  -9.4716  -9.3708
    -9.3528  -9.0514  -8.9593  -8.8772  -8.8451  -8.8115  -8.7758  -8.6542
    -8.6475  -8.5504  -8.4722  -8.4252  -8.3783  -8.3699  -8.3299  -8.3083
    -8.2548  -8.2302  -8.2188  -8.1800  -8.1532  -8.1419  -8.0937  -8.0498
    -8.0270  -7.9762  -7.9517  -7.9334  -7.9028  -7.8912  -7.8693  -7.8000
    -7.7450  -7.7109  -7.6668  -7.6202  -7.6102  -7.5614  -7.4124  -7.2600
    -7.2411  -7.1849  -7.1388  -7.0523  -6.9896  -6.9595  -6.9521  -6.9376
    -6.8794  -6.7630  -6.6596  -6.6069  -6.5482  -6.4586  -6.4164  -6.3843
    -6.3711  -6.3571  -6.3417  -6.2893  -6.2407  -6.2243  -6.1575  -6.0403
    -5.9676  -5.9572  -5.9420  -5.8743  -5.8194  -5.7996  -5.7942  -5.7778
    -5.7628  -5.7426  -5.7120  -5.7061  -5.6582  -5.6133  -5.5910  -5.5800
    -5.5089  -5.5007  -5.4853  -5.4730  -5.4693  -5.4438  -5.4259  -5.3076
    -5.3006  -5.2548  -5.1633  -5.1563  -5.0852  -4.8714  -4.5448  -4.2892
    -3.8541  -3.6954  -3.3289  -3.1512  -2.9249  -2.7264  -2.5847  -2.2001
    -2.0036  -1.6290  -1.3858  -1.0846  -0.7268  -0.3879   0.0943   0.4200
     0.7239

     occupation numbers 
     1.0000   1.0000   1.0000   1.0000   1.0000   1.0000   1.0000   1.0000
     1.0000   1.0000   1.0000   1.0000   1.0000   1.0000   1.0000   1.0000
     1.0000   1.0000   1.0000   1.0000   1.0000   1.0000   1.0000   1.0000
     1.0000   1.0000   1.0000   1.0000   1.0000   1.0000   1.0000   1.0000
     1.0000   1.0000   1.0000   1.0000   1.0000   1.0000   1.0000   1.0000
     1.0000   1.0000   1.0000   1.0000   1.0000   1.0000   1.0000   1.0000
     1.0000   1.0000   1.0000   1.0000   1.0000   1.0000   1.0000   1.0000
     1.0000   1.0000   1.0000   1.0000   1.0000   1.0000   1.0000   1.0000
     1.0000   1.0000   1.0000   1.0000   1.0000   1.0000   1.0000   1.0000
     1.0000   1.0000   1.0000   1.0000   1.0000   1.0000   1.0000   1.0000
     1.0000   1.0000   1.0000   1.0000   1.0000   1.0000   1.0000   1.0000
     1.0000   1.0000   1.0000   1.0000   1.0000   1.0000   1.0000   1.0000
     1.0002   1.0002   1.0004   1.0018   1.0053   1.0077   1.0084   1.0111
     1.0141   1.0192   1.0290   1.0312   1.0520   1.0722   1.0796   1.0820
     1.0598   1.0515   1.0320   1.0126   1.0062   0.9528   0.9066   0.4925
     0.4671   0.3134   0.1067   0.0968   0.0314   0.0002   0.0000   0.0000
     0.0000   0.0000   0.0000   0.0000   0.0000   0.0000   0.0000   0.0000
     0.0000   0.0000   0.0000   0.0000   0.0000   0.0000   0.0000   0.0000
     0.0000

          k = 0.2500 0.1443 0.0000 ( 44592 PWs)   bands (ev):

   -12.1989 -11.9348 -11.2967 -10.7505 -10.7371 -10.6867 -10.6854 -10.6436
   -10.5791 -10.5317 -10.5273 -10.5043 -10.4362 -10.4347 -10.4164 -10.2947
   -10.2579 -10.2527 -10.2001 -10.0924 -10.0777 -10.0372 -10.0145 -10.0000
    -9.9828  -9.8950  -9.8218  -9.8196  -9.7048  -9.6168  -9.4484  -9.3527
    -9.3226  -9.0692  -8.9941  -8.9447  -8.8479  -8.7908  -8.7595  -8.7480
    -8.6984  -8.5936  -8.4805  -8.4524  -8.3881  -8.3529  -8.3255  -8.3009
    -8.2293  -8.2178  -8.2086  -8.1696  -8.1521  -8.0959  -8.0901  -8.0835
    -8.0583  -7.9918  -7.9494  -7.9226  -7.8988  -7.8849  -7.8638  -7.8436
    -7.7414  -7.7255  -7.6489  -7.6041  -7.5923  -7.5585  -7.4715  -7.3723
    -7.3492  -7.2815  -7.1754  -7.1068  -7.0329  -6.9944  -6.9812  -6.9790
    -6.9297  -6.8824  -6.6871  -6.6354  -6.5528  -6.5445  -6.5162  -6.4843
    -6.4266  -6.4243  -6.3713  -6.3660  -6.3327  -6.3014  -6.2758  -6.0412
    -6.0090  -5.9991  -5.9896  -5.9055  -5.8976  -5.8741  -5.8693  -5.8667
    -5.8509  -5.8277  -5.8120  -5.7395  -5.7113  -5.6756  -5.6191  -5.5955
    -5.5824  -5.5189  -5.5041  -5.4878  -5.4529  -5.4527  -5.4430  -5.3981
    -5.2927  -5.2872  -5.2712  -5.1403  -5.1338  -5.0190  -4.8061  -4.5960
    -3.7225  -3.2794  -3.0970  -3.0856  -2.7633  -2.6300  -2.5127  -2.3000
    -2.1844  -1.7203  -1.4532  -1.3922  -0.4281  -0.2344   0.2728   0.7412
     0.8070

     occupation numbers 
     1.0000   1.0000   1.0000   1.0000   1.0000   1.0000   1.0000   1.0000
     1.0000   1.0000   1.0000   1.0000   1.0000   1.0000   1.0000   1.0000
     1.0000   1.0000   1.0000   1.0000   1.0000   1.0000   1.0000   1.0000
     1.0000   1.0000   1.0000   1.0000   1.0000   1.0000   1.0000   1.0000
     1.0000   1.0000   1.0000   1.0000   1.0000   1.0000   1.0000   1.0000
     1.0000   1.0000   1.0000   1.0000   1.0000   1.0000   1.0000   1.0000
     1.0000   1.0000   1.0000   1.0000   1.0000   1.0000   1.0000   1.0000
     1.0000   1.0000   1.0000   1.0000   1.0000   1.0000   1.0000   1.0000
     1.0000   1.0000   1.0000   1.0000   1.0000   1.0000   1.0000   1.0000
     1.0000   1.0000   1.0000   1.0000   1.0000   1.0000   1.0000   1.0000
     1.0000   1.0000   1.0000   1.0000   1.0000   1.0000   1.0000   1.0000
     1.0000   1.0000   1.0000   1.0000   1.0000   1.0000   1.0000   1.0000
     1.0001   1.0001   1.0001   1.0009   1.0010   1.0018   1.0019   1.0021
     1.0029   1.0046   1.0061   1.0201   1.0293   1.0440   1.0699   1.0784
     1.0816   1.0680   1.0551   1.0356   0.9735   0.9731   0.9508   0.8222
     0.4388   0.4196   0.3651   0.0767   0.0695   0.0088   0.0000   0.0000
     0.0000   0.0000   0.0000   0.0000   0.0000   0.0000   0.0000   0.0000
     0.0000   0.0000   0.0000   0.0000   0.0000   0.0000   0.0000   0.0000
     0.0000

          k = 0.2500 0.2165 0.0000 ( 44578 PWs)   bands (ev):

   -12.0822 -11.8166 -11.1771 -10.7001 -10.6719 -10.6119 -10.6061 -10.5343
   -10.4968 -10.4674 -10.4431 -10.4041 -10.3782 -10.3524 -10.3117 -10.2414
   -10.1895 -10.1480 -10.0950 -10.0435  -9.9724  -9.9609  -9.9464  -9.9181
    -9.9046  -9.8191  -9.7658  -9.7182  -9.6336  -9.5106  -9.3928  -9.3149
    -9.2839  -9.1034  -9.0386  -9.0083  -8.8893  -8.8771  -8.8242  -8.7771
    -8.6882  -8.6520  -8.5578  -8.4957  -8.4135  -8.3522  -8.3246  -8.3074
    -8.2425  -8.2211  -8.1911  -8.1814  -8.1243  -8.0991  -8.0962  -8.0749
    -8.0505  -8.0350  -7.9872  -7.9581  -7.9221  -7.8927  -7.8263  -7.7946
    -7.7566  -7.7046  -7.6283  -7.5983  -7.5664  -7.5317  -7.5267  -7.4929
    -7.4508  -7.4363  -7.3664  -7.1637  -7.1091  -7.0841  -7.0281  -6.9934
    -6.9825  -6.9436  -6.7944  -6.7366  -6.7217  -6.6868  -6.6092  -6.5790
    -6.5657  -6.5242  -6.4886  -6.4684  -6.4472  -6.3592  -6.3197  -6.2136
    -6.1276  -6.1070  -6.1004  -6.0950  -6.0064  -5.9933  -5.9786  -5.9646
    -5.9390  -5.9215  -5.9153  -5.8127  -5.7842  -5.7651  -5.6900  -5.6731
    -5.5971  -5.5344  -5.5206  -5.4864  -5.4799  -5.4708  -5.4331  -5.4170
    -5.3138  -5.3041  -5.3008  -5.1680  -5.1610  -5.1353  -4.8995  -4.4758
    -3.7506  -3.6103  -3.3252  -3.1634  -2.8968  -2.4034  -2.2645  -2.0261
    -1.9183  -1.7311  -1.4966  -0.8607  -0.5475   0.0355   0.1990   0.7847
     1.0223

     occupation numbers 
     1.0000   1.0000   1.0000   1.0000   1.0000   1.0000   1.0000   1.0000
     1.0000   1.0000   1.0000   1.0000   1.0000   1.0000   1.0000   1.0000
     1.0000   1.0000   1.0000   1.0000   1.0000   1.0000   1.0000   1.0000
     1.0000   1.0000   1.0000   1.0000   1.0000   1.0000   1.0000   1.0000
     1.0000   1.0000   1.0000   1.0000   1.0000   1.0000   1.0000   1.0000
     1.0000   1.0000   1.0000   1.0000   1.0000   1.0000   1.0000   1.0000
     1.0000   1.0000   1.0000   1.0000   1.0000   1.0000   1.0000   1.0000
     1.0000   1.0000   1.0000   1.0000   1.0000   1.0000   1.0000   1.0000
     1.0000   1.0000   1.0000   1.0000   1.0000   1.0000   1.0000   1.0000
     1.0000   1.0000   1.0000   1.0000   1.0000   1.0000   1.0000   1.0000
     1.0000   1.0000   1.0000   1.0000   1.0000   1.0000   1.0000   1.0000
     1.0000   1.0000   1.0000   1.0000   1.0000   1.0000   1.0000   1.0000
     1.0000   1.0000   1.0000   1.0000   1.0001   1.0001   1.0001   1.0002
     1.0004   1.0006   1.0007   1.0060   1.0100   1.0136   1.0377   1.0451
     1.0779   1.0770   1.0692   1.0336   1.0239   1.0089   0.9259   0.8811
     0.5153   0.4796   0.4679   0.1139   0.1034   0.0712   0.0005   0.0000
     0.0000   0.0000   0.0000   0.0000   0.0000   0.0000   0.0000   0.0000
     0.0000   0.0000   0.0000   0.0000   0.0000   0.0000   0.0000   0.0000
     0.0000

          k = 0.2500 0.2887 0.0000 ( 44558 PWs)   bands (ev):

   -11.9391 -11.6499 -11.0174 -10.6280 -10.5518 -10.5213 -10.4988 -10.4586
   -10.3831 -10.3575 -10.3224 -10.3016 -10.2610 -10.2500 -10.1527 -10.1457
   -10.1024 -10.0422 -10.0008  -9.9601  -9.8881  -9.8710  -9.8316  -9.8061
    -9.7824  -9.7384  -9.6668  -9.5948  -9.5503  -9.4191  -9.2835  -9.2591
    -9.2335  -9.1582  -9.1240  -9.0334  -8.9918  -8.9578  -8.8863  -8.8632
    -8.7490  -8.6749  -8.5856  -8.5777  -8.4430  -8.4255  -8.3964  -8.3111
    -8.2940  -8.2896  -8.2585  -8.2247  -8.1777  -8.1122  -8.0717  -8.0509
    -8.0446  -8.0397  -8.0002  -7.9512  -7.9186  -7.9012  -7.8158  -7.8044
    -7.7829  -7.7641  -7.6729  -7.6631  -7.6487  -7.6026  -7.5668  -7.5100
    -7.4739  -7.3796  -7.3399  -7.3077  -7.2829  -7.1437  -7.0727  -7.0283
    -7.0146  -6.9796  -6.9740  -6.9275  -6.8962  -6.8427  -6.8229  -6.7890
    -6.7613  -6.6481  -6.5672  -6.5578  -6.5448  -6.5177  -6.3988  -6.3768
    -6.3165  -6.2870  -6.2658  -6.2346  -6.2025  -6.1031  -6.0770  -6.0432
    -5.9881  -5.9763  -5.9542  -5.9347  -5.8324  -5.7797  -5.7298  -5.6900
    -5.5954  -5.5741  -5.5456  -5.5388  -5.5179  -5.4836  -5.3827  -5.3615
    -5.3557  -5.3369  -5.2965  -5.2341  -5.2312  -5.1060  -4.8712  -4.2881
    -4.1798  -3.9563  -3.6955  -3.4904  -2.8829  -2.5259  -1.9386  -1.7252
    -1.6262  -1.2715  -1.0190  -0.7846  -0.2364   0.0312   0.4547   0.7696
     0.8928

     occupation numbers 
     1.0000   1.0000   1.0000   1.0000   1.0000   1.0000   1.0000   1.0000
     1.0000   1.0000   1.0000   1.0000   1.0000   1.0000   1.0000   1.0000
     1.0000   1.0000   1.0000   1.0000   1.0000   1.0000   1.0000   1.0000
     1.0000   1.0000   1.0000   1.0000   1.0000   1.0000   1.0000   1.0000
     1.0000   1.0000   1.0000   1.0000   1.0000   1.0000   1.0000   1.0000
     1.0000   1.0000   1.0000   1.0000   1.0000   1.0000   1.0000   1.0000
     1.0000   1.0000   1.0000   1.0000   1.0000   1.0000   1.0000   1.0000
     1.0000   1.0000   1.0000   1.0000   1.0000   1.0000   1.0000   1.0000
     1.0000   1.0000   1.0000   1.0000   1.0000   1.0000   1.0000   1.0000
     1.0000   1.0000   1.0000   1.0000   1.0000   1.0000   1.0000   1.0000
     1.0000   1.0000   1.0000   1.0000   1.0000   1.0000   1.0000   1.0000
     1.0000   1.0000   1.0000   1.0000   1.0000   1.0000   1.0000   1.0000
     1.0000   1.0000   1.0000   1.0000   1.0000   1.0000   1.0000   1.0000
     1.0001   1.0001   1.0003   1.0004   1.0042   1.0108   1.0229   1.0377
     1.0784   1.0828   1.0809   1.0788   1.0673   1.0295   0.7702   0.6943
     0.6727   0.6020   0.4522   0.2539   0.2461   0.0447   0.0002   0.0000
     0.0000   0.0000   0.0000   0.0000   0.0000   0.0000   0.0000   0.0000
     0.0000   0.0000   0.0000   0.0000   0.0000   0.0000   0.0000   0.0000
     0.0000

          k = 0.2500 0.3608 0.0000 ( 44536 PWs)   bands (ev):

   -11.7905 -11.4351 -10.8286 -10.5279 -10.4225 -10.4131 -10.3972 -10.3711
   -10.2515 -10.2101 -10.2030 -10.1554 -10.1234 -10.1096 -10.0229 -10.0134
    -9.9692  -9.9528  -9.9297  -9.8273  -9.8011  -9.7906  -9.7447  -9.6824
    -9.6591  -9.6252  -9.5455  -9.4723  -9.4308  -9.3444  -9.2493  -9.2347
    -9.2077  -9.1656  -9.1121  -9.0935  -9.0679  -9.0058  -8.9846  -8.8968
    -8.8450  -8.7816  -8.6657  -8.5633  -8.5563  -8.5195  -8.4973  -8.4123
    -8.3923  -8.3702  -8.3269  -8.2981  -8.2551  -8.1440  -8.0922  -8.0724
    -8.0398  -8.0203  -8.0102  -7.9958  -7.9756  -7.9461  -7.9182  -7.9117
    -7.8837  -7.8702  -7.8255  -7.6281  -7.6172  -7.5835  -7.5385  -7.4849
    -7.4400  -7.4137  -7.3844  -7.3611  -7.2444  -7.2048  -7.1845  -7.1680
    -7.1384  -7.1100  -7.0821  -7.0751  -7.0511  -7.0258  -6.9379  -6.9015
    -6.8813  -6.7861  -6.7124  -6.7007  -6.6459  -6.6197  -6.5717  -6.4513
    -6.4224  -6.4025  -6.3924  -6.3685  -6.2411  -6.2224  -6.1672  -6.1182
    -6.0410  -6.0289  -5.9304  -5.9029  -5.8201  -5.7859  -5.7591  -5.6766
    -5.6499  -5.6362  -5.6138  -5.5924  -5.5622  -5.5382  -5.4979  -5.4023
    -5.3972  -5.3357  -5.3304  -5.2348  -5.1348  -5.0457  -4.8127  -4.6956
    -4.5304  -4.2386  -3.8884  -3.5686  -3.0895  -2.4670  -1.9412  -1.4965
    -1.2674  -0.8919  -0.5952  -0.2734  -0.0427   0.2369   0.3818   0.7522
     1.2043

     occupation numbers 
     1.0000   1.0000   1.0000   1.0000   1.0000   1.0000   1.0000   1.0000
     1.0000   1.0000   1.0000   1.0000   1.0000   1.0000   1.0000   1.0000
     1.0000   1.0000   1.0000   1.0000   1.0000   1.0000   1.0000   1.0000
     1.0000   1.0000   1.0000   1.0000   1.0000   1.0000   1.0000   1.0000
     1.0000   1.0000   1.0000   1.0000   1.0000   1.0000   1.0000   1.0000
     1.0000   1.0000   1.0000   1.0000   1.0000   1.0000   1.0000   1.0000
     1.0000   1.0000   1.0000   1.0000   1.0000   1.0000   1.0000   1.0000
     1.0000   1.0000   1.0000   1.0000   1.0000   1.0000   1.0000   1.0000
     1.0000   1.0000   1.0000   1.0000   1.0000   1.0000   1.0000   1.0000
     1.0000   1.0000   1.0000   1.0000   1.0000   1.0000   1.0000   1.0000
     1.0000   1.0000   1.0000   1.0000   1.0000   1.0000   1.0000   1.0000
     1.0000   1.0000   1.0000   1.0000   1.0000   1.0000   1.0000   1.0000
     1.0000   1.0000   1.0000   1.0000   1.0000   1.0000   1.0000   1.0000
     1.0000   1.0000   1.0005   1.0009   1.0053   1.0097   1.0150   1.0435
     1.0559   1.0623   1.0720   1.0793   1.0833   1.0786   1.0484   0.8360
     0.8194   0.5977   0.5775   0.2558   0.0706   0.0151   0.0000   0.0000
     0.0000   0.0000   0.0000   0.0000   0.0000   0.0000   0.0000   0.0000
     0.0000   0.0000   0.0000   0.0000   0.0000   0.0000   0.0000   0.0000
     0.0000

          k = 0.2500-0.7217 0.0000 ( 44491 PWs)   bands (ev):

   -11.6586 -11.1809 -10.6300 -10.4127 -10.4086 -10.2893 -10.2489 -10.2464
   -10.1135 -10.1122 -10.0213 -10.0109 -10.0031  -9.9819  -9.9711  -9.8644
    -9.8456  -9.8428  -9.7534  -9.7392  -9.7304  -9.7164  -9.7047  -9.5686
    -9.5570  -9.5075  -9.4626  -9.3825  -9.2916  -9.2759  -9.2591  -9.2393
    -9.2240  -9.2078  -9.1564  -9.1298  -9.0923  -8.9759  -8.9648  -8.9587
    -8.8896  -8.8501  -8.7481  -8.7440  -8.7082  -8.5791  -8.5322  -8.5249
    -8.4590  -8.4297  -8.4108  -8.3878  -8.3822  -8.2761  -8.2420  -8.2076
    -8.1090  -8.0811  -8.0711  -8.0227  -8.0118  -7.9722  -7.9434  -7.9120
    -7.8869  -7.8789  -7.8390  -7.7571  -7.7337  -7.6881  -7.5677  -7.5569
    -7.5315  -7.4756  -7.4453  -7.4261  -7.3439  -7.3162  -7.2970  -7.2558
    -7.2426  -7.1810  -7.0773  -7.0497  -7.0103  -6.9919  -6.9822  -6.9564
    -6.9429  -6.9368  -6.7694  -6.7312  -6.7087  -6.6990  -6.6049  -6.5151
    -6.4867  -6.4457  -6.4245  -6.3890  -6.2713  -6.2587  -6.2014  -6.1760
    -6.1228  -6.1125  -5.9000  -5.8562  -5.8339  -5.7953  -5.7810  -5.7667
    -5.6823  -5.6625  -5.6592  -5.6407  -5.6305  -5.6187  -5.5732  -5.4404
    -5.4355  -5.4249  -5.4241  -5.1712  -5.1310  -5.0710  -5.0181  -4.9127
    -4.7431  -4.6711  -3.7673  -3.4622  -3.4551  -2.2337  -1.8913  -1.8409
    -0.8213  -0.3544  -0.1890  -0.0715   0.0239   0.2631   0.6236   1.1275
     1.3910

     occupation numbers 
     1.0000   1.0000   1.0000   1.0000   1.0000   1.0000   1.0000   1.0000
     1.0000   1.0000   1.0000   1.0000   1.0000   1.0000   1.0000   1.0000
     1.0000   1.0000   1.0000   1.0000   1.0000   1.0000   1.0000   1.0000
     1.0000   1.0000   1.0000   1.0000   1.0000   1.0000   1.0000   1.0000
     1.0000   1.0000   1.0000   1.0000   1.0000   1.0000   1.0000   1.0000
     1.0000   1.0000   1.0000   1.0000   1.0000   1.0000   1.0000   1.0000
     1.0000   1.0000   1.0000   1.0000   1.0000   1.0000   1.0000   1.0000
     1.0000   1.0000   1.0000   1.0000   1.0000   1.0000   1.0000   1.0000
     1.0000   1.0000   1.0000   1.0000   1.0000   1.0000   1.0000   1.0000
     1.0000   1.0000   1.0000   1.0000   1.0000   1.0000   1.0000   1.0000
     1.0000   1.0000   1.0000   1.0000   1.0000   1.0000   1.0000   1.0000
     1.0000   1.0000   1.0000   1.0000   1.0000   1.0000   1.0000   1.0000
     1.0000   1.0000   1.0000   1.0000   1.0000   1.0000   1.0000   1.0000
     1.0000   1.0000   1.0010   1.0026   1.0040   1.0083   1.0106   1.0133
     1.0410   1.0500   1.0515   1.0602   1.0649   1.0700   1.0829   0.9445
     0.9322   0.9037   0.9016   0.1190   0.0666   0.0244   0.0087   0.0007
     0.0000   0.0000   0.0000   0.0000   0.0000   0.0000   0.0000   0.0000
     0.0000   0.0000   0.0000   0.0000   0.0000   0.0000   0.0000   0.0000
     0.0000

          k = 0.2500-0.6495 0.0000 ( 44485 PWs)   bands (ev):

   -11.5657 -10.9078 -10.4725 -10.4494 -10.2963 -10.2283 -10.1744 -10.1537
   -10.0248  -9.9675  -9.9550  -9.9208  -9.9153  -9.8924  -9.8494  -9.7746
    -9.7336  -9.7260  -9.6884  -9.6648  -9.6499  -9.6175  -9.5607  -9.4895
    -9.4673  -9.4559  -9.4432  -9.3672  -9.3350  -9.2826  -9.2527  -9.2397
    -9.2293  -9.2203  -9.1610  -9.1522  -9.1331  -9.0091  -8.9524  -8.9456
    -8.9357  -8.8801  -8.8407  -8.8052  -8.7729  -8.6975  -8.6699  -8.5537
    -8.5410  -8.4713  -8.4267  -8.3992  -8.3847  -8.3306  -8.3000  -8.2310
    -8.1968  -8.1780  -8.1617  -8.1327  -8.0865  -8.0575  -8.0087  -7.9794
    -7.9232  -7.9052  -7.8671  -7.8220  -7.8009  -7.7780  -7.7413  -7.6911
    -7.6376  -7.5977  -7.5585  -7.5286  -7.3658  -7.3098  -7.2551  -7.2415
    -7.1704  -7.1442  -7.1212  -7.1052  -7.0847  -7.0522  -7.0395  -6.9578
    -6.8345  -6.8067  -6.7965  -6.7411  -6.7272  -6.6342  -6.5710  -6.5355
    -6.4711  -6.4514  -6.4266  -6.3467  -6.3149  -6.2753  -6.2569  -6.2093
    -6.0908  -6.0555  -5.9856  -5.9434  -5.8447  -5.8238  -5.8003  -5.7747
    -5.7473  -5.7009  -5.6828  -5.6606  -5.6406  -5.6205  -5.5812  -5.5333
    -5.5264  -5.4934  -5.4596  -5.4461  -5.4403  -5.2205  -5.0752  -5.0148
    -4.7449  -4.5695  -3.9901  -3.5549  -3.1765  -2.4328  -1.9763  -1.5756
    -0.7208  -0.2960  -0.1366   0.0343   0.3640   0.6820   0.9048   1.0810
     1.4102

     occupation numbers 
     1.0000   1.0000   1.0000   1.0000   1.0000   1.0000   1.0000   1.0000
     1.0000   1.0000   1.0000   1.0000   1.0000   1.0000   1.0000   1.0000
     1.0000   1.0000   1.0000   1.0000   1.0000   1.0000   1.0000   1.0000
     1.0000   1.0000   1.0000   1.0000   1.0000   1.0000   1.0000   1.0000
     1.0000   1.0000   1.0000   1.0000   1.0000   1.0000   1.0000   1.0000
     1.0000   1.0000   1.0000   1.0000   1.0000   1.0000   1.0000   1.0000
     1.0000   1.0000   1.0000   1.0000   1.0000   1.0000   1.0000   1.0000
     1.0000   1.0000   1.0000   1.0000   1.0000   1.0000   1.0000   1.0000
     1.0000   1.0000   1.0000   1.0000   1.0000   1.0000   1.0000   1.0000
     1.0000   1.0000   1.0000   1.0000   1.0000   1.0000   1.0000   1.0000
     1.0000   1.0000   1.0000   1.0000   1.0000   1.0000   1.0000   1.0000
     1.0000   1.0000   1.0000   1.0000   1.0000   1.0000   1.0000   1.0000
     1.0000   1.0000   1.0000   1.0000   1.0000   1.0000   1.0000   1.0000
     1.0000   1.0000   1.0001   1.0003   1.0033   1.0049   1.0076   1.0117
     1.0179   1.0332   1.0408   1.0509   1.0603   1.0693   1.0818   1.0765
     1.0729   1.0429   0.9876   0.9581   0.9441   0.2188   0.0263   0.0081
     0.0000   0.0000   0.0000   0.0000   0.0000   0.0000   0.0000   0.0000
     0.0000   0.0000   0.0000   0.0000   0.0000   0.0000   0.0000   0.0000
     0.0000

          k = 0.2500-0.5774 0.0000 ( 44432 PWs)   bands (ev):

   -11.5318 -10.6526 -10.6503 -10.3233 -10.3077 -10.2307 -10.1725 -10.0257
   -10.0084  -9.9510  -9.9278  -9.9208  -9.8793  -9.8643  -9.7644  -9.7421
    -9.6936  -9.6729  -9.6088  -9.6028  -9.5790  -9.5481  -9.5237  -9.5168
    -9.4367  -9.4299  -9.4176  -9.3854  -9.3443  -9.3236  -9.2937  -9.2782
    -9.2324  -9.1982  -9.1871  -9.1504  -9.1377  -9.1021  -8.9592  -8.9493
    -8.9316  -8.9094  -8.8881  -8.8589  -8.7507  -8.6894  -8.6516  -8.6242
    -8.4724  -8.4462  -8.4383  -8.4049  -8.3859  -8.3363  -8.2733  -8.2497
    -8.2338  -8.2241  -8.2015  -8.1614  -8.1290  -8.1035  -8.0939  -8.0594
    -8.0504  -8.0392  -7.9152  -7.8193  -7.7981  -7.7488  -7.7366  -7.6695
    -7.6397  -7.6353  -7.5948  -7.5793  -7.4100  -7.3417  -7.3292  -7.2226
    -7.1947  -7.1227  -7.1093  -7.0817  -7.0657  -7.0382  -6.9777  -6.9403
    -6.9323  -6.8326  -6.7342  -6.6928  -6.6437  -6.6067  -6.5897  -6.5354
    -6.5090  -6.4670  -6.4090  -6.3687  -6.3144  -6.2639  -6.2218  -6.1996
    -6.0412  -6.0217  -5.9729  -5.8809  -5.8549  -5.8241  -5.8114  -5.8078
    -5.7907  -5.7860  -5.7243  -5.7079  -5.6570  -5.6446  -5.6070  -5.5927
    -5.5824  -5.5656  -5.5236  -5.4657  -5.4520  -5.4368  -5.0511  -5.0228
    -4.7263  -4.3749  -4.2349  -3.5551  -2.9148  -2.7100  -1.9871  -1.2701
    -1.0189  -0.2585   0.0498   0.2308   0.3967   0.4952   0.9941   1.3762
     1.5247

     occupation numbers 
     1.0000   1.0000   1.0000   1.0000   1.0000   1.0000   1.0000   1.0000
     1.0000   1.0000   1.0000   1.0000   1.0000   1.0000   1.0000   1.0000
     1.0000   1.0000   1.0000   1.0000   1.0000   1.0000   1.0000   1.0000
     1.0000   1.0000   1.0000   1.0000   1.0000   1.0000   1.0000   1.0000
     1.0000   1.0000   1.0000   1.0000   1.0000   1.0000   1.0000   1.0000
     1.0000   1.0000   1.0000   1.0000   1.0000   1.0000   1.0000   1.0000
     1.0000   1.0000   1.0000   1.0000   1.0000   1.0000   1.0000   1.0000
     1.0000   1.0000   1.0000   1.0000   1.0000   1.0000   1.0000   1.0000
     1.0000   1.0000   1.0000   1.0000   1.0000   1.0000   1.0000   1.0000
     1.0000   1.0000   1.0000   1.0000   1.0000   1.0000   1.0000   1.0000
     1.0000   1.0000   1.0000   1.0000   1.0000   1.0000   1.0000   1.0000
     1.0000   1.0000   1.0000   1.0000   1.0000   1.0000   1.0000   1.0000
     1.0000   1.0000   1.0000   1.0000   1.0000   1.0000   1.0000   1.0000
     1.0000   1.0000   1.0002   1.0015   1.0026   1.0049   1.0062   1.0066
     1.0089   1.0097   1.0247   1.0305   1.0526   1.0584   1.0746   1.0792
     1.0816   1.0833   1.0712   0.9994   0.9715   0.9356   0.0168   0.0096
     0.0000   0.0000   0.0000   0.0000   0.0000   0.0000   0.0000   0.0000
     0.0000   0.0000   0.0000   0.0000   0.0000   0.0000   0.0000   0.0000
     0.0000

          k = 0.2500-0.5052 0.0000 ( 44485 PWs)   bands (ev):

   -11.5657 -10.9078 -10.4725 -10.4494 -10.2963 -10.2283 -10.1744 -10.1537
   -10.0248  -9.9675  -9.9550  -9.9208  -9.9153  -9.8924  -9.8494  -9.7746
    -9.7336  -9.7260  -9.6884  -9.6648  -9.6499  -9.6175  -9.5607  -9.4895
    -9.4673  -9.4559  -9.4432  -9.3672  -9.3350  -9.2826  -9.2527  -9.2397
    -9.2293  -9.2203  -9.1610  -9.1522  -9.1331  -9.0091  -8.9524  -8.9456
    -8.9357  -8.8801  -8.8407  -8.8052  -8.7729  -8.6975  -8.6699  -8.5537
    -8.5410  -8.4713  -8.4267  -8.3992  -8.3847  -8.3306  -8.3000  -8.2310
    -8.1968  -8.1780  -8.1617  -8.1327  -8.0865  -8.0575  -8.0087  -7.9794
    -7.9232  -7.9052  -7.8671  -7.8220  -7.8009  -7.7780  -7.7413  -7.6911
    -7.6376  -7.5977  -7.5585  -7.5286  -7.3658  -7.3098  -7.2551  -7.2415
    -7.1704  -7.1442  -7.1212  -7.1052  -7.0847  -7.0522  -7.0395  -6.9578
    -6.8345  -6.8067  -6.7965  -6.7411  -6.7272  -6.6342  -6.5710  -6.5355
    -6.4711  -6.4514  -6.4266  -6.3467  -6.3149  -6.2753  -6.2569  -6.2093
    -6.0908  -6.0555  -5.9856  -5.9434  -5.8447  -5.8238  -5.8003  -5.7747
    -5.7473  -5.7009  -5.6828  -5.6606  -5.6406  -5.6205  -5.5812  -5.5333
    -5.5264  -5.4934  -5.4596  -5.4461  -5.4403  -5.2205  -5.0752  -5.0148
    -4.7449  -4.5695  -3.9901  -3.5549  -3.1765  -2.4328  -1.9763  -1.5756
    -0.7208  -0.2960  -0.1366   0.0343   0.3640   0.6820   0.9048   1.0810
     1.4102

     occupation numbers 
     1.0000   1.0000   1.0000   1.0000   1.0000   1.0000   1.0000   1.0000
     1.0000   1.0000   1.0000   1.0000   1.0000   1.0000   1.0000   1.0000
     1.0000   1.0000   1.0000   1.0000   1.0000   1.0000   1.0000   1.0000
     1.0000   1.0000   1.0000   1.0000   1.0000   1.0000   1.0000   1.0000
     1.0000   1.0000   1.0000   1.0000   1.0000   1.0000   1.0000   1.0000
     1.0000   1.0000   1.0000   1.0000   1.0000   1.0000   1.0000   1.0000
     1.0000   1.0000   1.0000   1.0000   1.0000   1.0000   1.0000   1.0000
     1.0000   1.0000   1.0000   1.0000   1.0000   1.0000   1.0000   1.0000
     1.0000   1.0000   1.0000   1.0000   1.0000   1.0000   1.0000   1.0000
     1.0000   1.0000   1.0000   1.0000   1.0000   1.0000   1.0000   1.0000
     1.0000   1.0000   1.0000   1.0000   1.0000   1.0000   1.0000   1.0000
     1.0000   1.0000   1.0000   1.0000   1.0000   1.0000   1.0000   1.0000
     1.0000   1.0000   1.0000   1.0000   1.0000   1.0000   1.0000   1.0000
     1.0000   1.0000   1.0001   1.0003   1.0033   1.0049   1.0076   1.0117
     1.0179   1.0332   1.0408   1.0509   1.0603   1.0693   1.0818   1.0765
     1.0729   1.0429   0.9876   0.9581   0.9441   0.2188   0.0263   0.0081
     0.0000   0.0000   0.0000   0.0000   0.0000   0.0000   0.0000   0.0000
     0.0000   0.0000   0.0000   0.0000   0.0000   0.0000   0.0000   0.0000
     0.0000

          k = 0.2500-0.4330 0.0000 ( 44491 PWs)   bands (ev):

   -11.6586 -11.1809 -10.6300 -10.4127 -10.4086 -10.2893 -10.2489 -10.2464
   -10.1135 -10.1122 -10.0213 -10.0109 -10.0031  -9.9819  -9.9711  -9.8644
    -9.8456  -9.8428  -9.7534  -9.7392  -9.7304  -9.7164  -9.7047  -9.5686
    -9.5570  -9.5075  -9.4626  -9.3825  -9.2916  -9.2759  -9.2591  -9.2393
    -9.2240  -9.2078  -9.1564  -9.1298  -9.0923  -8.9759  -8.9648  -8.9587
    -8.8896  -8.8501  -8.7481  -8.7440  -8.7082  -8.5791  -8.5322  -8.5249
    -8.4590  -8.4297  -8.4108  -8.3878  -8.3822  -8.2761  -8.2420  -8.2076
    -8.1090  -8.0811  -8.0711  -8.0227  -8.0118  -7.9722  -7.9434  -7.9120
    -7.8869  -7.8789  -7.8390  -7.7571  -7.7337  -7.6881  -7.5677  -7.5569
    -7.5315  -7.4756  -7.4453  -7.4261  -7.3439  -7.3162  -7.2970  -7.2558
    -7.2426  -7.1810  -7.0773  -7.0497  -7.0103  -6.9919  -6.9822  -6.9564
    -6.9429  -6.9368  -6.7694  -6.7312  -6.7087  -6.6990  -6.6049  -6.5151
    -6.4867  -6.4457  -6.4245  -6.3890  -6.2713  -6.2587  -6.2014  -6.1760
    -6.1228  -6.1125  -5.9000  -5.8562  -5.8339  -5.7953  -5.7810  -5.7667
    -5.6823  -5.6625  -5.6592  -5.6407  -5.6305  -5.6187  -5.5732  -5.4404
    -5.4355  -5.4249  -5.4241  -5.1712  -5.1310  -5.0710  -5.0181  -4.9127
    -4.7431  -4.6711  -3.7673  -3.4622  -3.4551  -2.2337  -1.8913  -1.8409
    -0.8213  -0.3544  -0.1890  -0.0715   0.0239   0.2631   0.6236   1.1275
     1.3911

     occupation numbers 
     1.0000   1.0000   1.0000   1.0000   1.0000   1.0000   1.0000   1.0000
     1.0000   1.0000   1.0000   1.0000   1.0000   1.0000   1.0000   1.0000
     1.0000   1.0000   1.0000   1.0000   1.0000   1.0000   1.0000   1.0000
     1.0000   1.0000   1.0000   1.0000   1.0000   1.0000   1.0000   1.0000
     1.0000   1.0000   1.0000   1.0000   1.0000   1.0000   1.0000   1.0000
     1.0000   1.0000   1.0000   1.0000   1.0000   1.0000   1.0000   1.0000
     1.0000   1.0000   1.0000   1.0000   1.0000   1.0000   1.0000   1.0000
     1.0000   1.0000   1.0000   1.0000   1.0000   1.0000   1.0000   1.0000
     1.0000   1.0000   1.0000   1.0000   1.0000   1.0000   1.0000   1.0000
     1.0000   1.0000   1.0000   1.0000   1.0000   1.0000   1.0000   1.0000
     1.0000   1.0000   1.0000   1.0000   1.0000   1.0000   1.0000   1.0000
     1.0000   1.0000   1.0000   1.0000   1.0000   1.0000   1.0000   1.0000
     1.0000   1.0000   1.0000   1.0000   1.0000   1.0000   1.0000   1.0000
     1.0000   1.0000   1.0010   1.0026   1.0040   1.0083   1.0106   1.0133
     1.0410   1.0500   1.0515   1.0602   1.0649   1.0700   1.0829   0.9445
     0.9322   0.9037   0.9016   0.1190   0.0666   0.0244   0.0087   0.0007
     0.0000   0.0000   0.0000   0.0000   0.0000   0.0000   0.0000   0.0000
     0.0000   0.0000   0.0000   0.0000   0.0000   0.0000   0.0000   0.0000
     0.0000

          k = 0.2500-0.3608 0.0000 ( 44536 PWs)   bands (ev):

   -11.7905 -11.4351 -10.8286 -10.5279 -10.4225 -10.4131 -10.3972 -10.3711
   -10.2515 -10.2101 -10.2030 -10.1554 -10.1234 -10.1096 -10.0229 -10.0134
    -9.9692  -9.9528  -9.9297  -9.8273  -9.8011  -9.7906  -9.7447  -9.6824
    -9.6591  -9.6252  -9.5455  -9.4723  -9.4308  -9.3444  -9.2493  -9.2347
    -9.2077  -9.1656  -9.1121  -9.0935  -9.0679  -9.0058  -8.9846  -8.8968
    -8.8450  -8.7816  -8.6657  -8.5633  -8.5563  -8.5195  -8.4973  -8.4123
    -8.3923  -8.3702  -8.3269  -8.2981  -8.2551  -8.1440  -8.0922  -8.0724
    -8.0398  -8.0203  -8.0102  -7.9958  -7.9756  -7.9461  -7.9182  -7.9117
    -7.8837  -7.8702  -7.8255  -7.6281  -7.6172  -7.5835  -7.5385  -7.4849
    -7.4400  -7.4137  -7.3844  -7.3611  -7.2444  -7.2048  -7.1845  -7.1680
    -7.1384  -7.1100  -7.0821  -7.0751  -7.0511  -7.0258  -6.9379  -6.9015
    -6.8813  -6.7861  -6.7124  -6.7007  -6.6459  -6.6197  -6.5717  -6.4513
    -6.4224  -6.4025  -6.3924  -6.3685  -6.2411  -6.2224  -6.1672  -6.1182
    -6.0410  -6.0289  -5.9304  -5.9029  -5.8201  -5.7859  -5.7591  -5.6766
    -5.6499  -5.6362  -5.6138  -5.5924  -5.5622  -5.5382  -5.4979  -5.4023
    -5.3972  -5.3357  -5.3304  -5.2348  -5.1348  -5.0457  -4.8127  -4.6956
    -4.5303  -4.2386  -3.8884  -3.5686  -3.0895  -2.4670  -1.9412  -1.4965
    -1.2674  -0.8919  -0.5952  -0.2734  -0.0427   0.2369   0.3818   0.7522
     1.2043

     occupation numbers 
     1.0000   1.0000   1.0000   1.0000   1.0000   1.0000   1.0000   1.0000
     1.0000   1.0000   1.0000   1.0000   1.0000   1.0000   1.0000   1.0000
     1.0000   1.0000   1.0000   1.0000   1.0000   1.0000   1.0000   1.0000
     1.0000   1.0000   1.0000   1.0000   1.0000   1.0000   1.0000   1.0000
     1.0000   1.0000   1.0000   1.0000   1.0000   1.0000   1.0000   1.0000
     1.0000   1.0000   1.0000   1.0000   1.0000   1.0000   1.0000   1.0000
     1.0000   1.0000   1.0000   1.0000   1.0000   1.0000   1.0000   1.0000
     1.0000   1.0000   1.0000   1.0000   1.0000   1.0000   1.0000   1.0000
     1.0000   1.0000   1.0000   1.0000   1.0000   1.0000   1.0000   1.0000
     1.0000   1.0000   1.0000   1.0000   1.0000   1.0000   1.0000   1.0000
     1.0000   1.0000   1.0000   1.0000   1.0000   1.0000   1.0000   1.0000
     1.0000   1.0000   1.0000   1.0000   1.0000   1.0000   1.0000   1.0000
     1.0000   1.0000   1.0000   1.0000   1.0000   1.0000   1.0000   1.0000
     1.0000   1.0000   1.0005   1.0009   1.0053   1.0097   1.0150   1.0435
     1.0559   1.0623   1.0720   1.0793   1.0833   1.0786   1.0484   0.8360
     0.8194   0.5977   0.5775   0.2558   0.0706   0.0151   0.0000   0.0000
     0.0000   0.0000   0.0000   0.0000   0.0000   0.0000   0.0000   0.0000
     0.0000   0.0000   0.0000   0.0000   0.0000   0.0000   0.0000   0.0000
     0.0000

          k = 0.2500-0.2887 0.0000 ( 44558 PWs)   bands (ev):

   -11.9391 -11.6499 -11.0174 -10.6280 -10.5518 -10.5213 -10.4988 -10.4586
   -10.3831 -10.3575 -10.3224 -10.3016 -10.2610 -10.2500 -10.1527 -10.1457
   -10.1024 -10.0422 -10.0008  -9.9601  -9.8881  -9.8710  -9.8316  -9.8061
    -9.7824  -9.7384  -9.6668  -9.5948  -9.5503  -9.4191  -9.2835  -9.2591
    -9.2335  -9.1582  -9.1240  -9.0334  -8.9918  -8.9578  -8.8863  -8.8632
    -8.7490  -8.6749  -8.5856  -8.5777  -8.4430  -8.4255  -8.3964  -8.3111
    -8.2940  -8.2896  -8.2585  -8.2247  -8.1777  -8.1122  -8.0717  -8.0509
    -8.0446  -8.0397  -8.0002  -7.9512  -7.9186  -7.9012  -7.8158  -7.8044
    -7.7829  -7.7641  -7.6729  -7.6631  -7.6487  -7.6026  -7.5668  -7.5100
    -7.4739  -7.3796  -7.3399  -7.3077  -7.2829  -7.1437  -7.0727  -7.0283
    -7.0146  -6.9796  -6.9740  -6.9275  -6.8962  -6.8427  -6.8229  -6.7890
    -6.7613  -6.6481  -6.5672  -6.5578  -6.5448  -6.5177  -6.3988  -6.3768
    -6.3165  -6.2870  -6.2658  -6.2346  -6.2025  -6.1031  -6.0770  -6.0432
    -5.9881  -5.9763  -5.9542  -5.9347  -5.8324  -5.7797  -5.7298  -5.6900
    -5.5954  -5.5741  -5.5456  -5.5388  -5.5179  -5.4836  -5.3827  -5.3615
    -5.3557  -5.3369  -5.2965  -5.2341  -5.2312  -5.1060  -4.8712  -4.2881
    -4.1798  -3.9563  -3.6955  -3.4904  -2.8829  -2.5259  -1.9386  -1.7252
    -1.6262  -1.2715  -1.0190  -0.7846  -0.2364   0.0312   0.4547   0.7696
     0.8928

     occupation numbers 
     1.0000   1.0000   1.0000   1.0000   1.0000   1.0000   1.0000   1.0000
     1.0000   1.0000   1.0000   1.0000   1.0000   1.0000   1.0000   1.0000
     1.0000   1.0000   1.0000   1.0000   1.0000   1.0000   1.0000   1.0000
     1.0000   1.0000   1.0000   1.0000   1.0000   1.0000   1.0000   1.0000
     1.0000   1.0000   1.0000   1.0000   1.0000   1.0000   1.0000   1.0000
     1.0000   1.0000   1.0000   1.0000   1.0000   1.0000   1.0000   1.0000
     1.0000   1.0000   1.0000   1.0000   1.0000   1.0000   1.0000   1.0000
     1.0000   1.0000   1.0000   1.0000   1.0000   1.0000   1.0000   1.0000
     1.0000   1.0000   1.0000   1.0000   1.0000   1.0000   1.0000   1.0000
     1.0000   1.0000   1.0000   1.0000   1.0000   1.0000   1.0000   1.0000
     1.0000   1.0000   1.0000   1.0000   1.0000   1.0000   1.0000   1.0000
     1.0000   1.0000   1.0000   1.0000   1.0000   1.0000   1.0000   1.0000
     1.0000   1.0000   1.0000   1.0000   1.0000   1.0000   1.0000   1.0000
     1.0001   1.0001   1.0003   1.0004   1.0042   1.0108   1.0229   1.0377
     1.0784   1.0828   1.0809   1.0788   1.0673   1.0295   0.7702   0.6943
     0.6727   0.6020   0.4522   0.2539   0.2461   0.0447   0.0002   0.0000
     0.0000   0.0000   0.0000   0.0000   0.0000   0.0000   0.0000   0.0000
     0.0000   0.0000   0.0000   0.0000   0.0000   0.0000   0.0000   0.0000
     0.0000

          k = 0.2500-0.2165 0.0000 ( 44578 PWs)   bands (ev):

   -12.0822 -11.8166 -11.1771 -10.7001 -10.6719 -10.6119 -10.6061 -10.5343
   -10.4968 -10.4674 -10.4431 -10.4041 -10.3782 -10.3524 -10.3117 -10.2414
   -10.1895 -10.1480 -10.0950 -10.0435  -9.9724  -9.9609  -9.9464  -9.9181
    -9.9046  -9.8191  -9.7658  -9.7182  -9.6336  -9.5106  -9.3928  -9.3149
    -9.2839  -9.1034  -9.0386  -9.0083  -8.8893  -8.8771  -8.8242  -8.7771
    -8.6882  -8.6520  -8.5578  -8.4957  -8.4135  -8.3522  -8.3246  -8.3074
    -8.2425  -8.2211  -8.1911  -8.1814  -8.1243  -8.0991  -8.0962  -8.0749
    -8.0505  -8.0350  -7.9872  -7.9581  -7.9221  -7.8927  -7.8263  -7.7946
    -7.7566  -7.7046  -7.6283  -7.5983  -7.5664  -7.5317  -7.5267  -7.4929
    -7.4508  -7.4363  -7.3664  -7.1637  -7.1091  -7.0841  -7.0281  -6.9934
    -6.9825  -6.9436  -6.7944  -6.7366  -6.7217  -6.6868  -6.6092  -6.5790
    -6.5657  -6.5242  -6.4886  -6.4684  -6.4472  -6.3592  -6.3197  -6.2136
    -6.1276  -6.1070  -6.1004  -6.0950  -6.0064  -5.9933  -5.9786  -5.9646
    -5.9390  -5.9215  -5.9153  -5.8127  -5.7842  -5.7651  -5.6900  -5.6731
    -5.5971  -5.5344  -5.5206  -5.4864  -5.4799  -5.4708  -5.4331  -5.4170
    -5.3138  -5.3041  -5.3008  -5.1680  -5.1610  -5.1353  -4.8995  -4.4758
    -3.7506  -3.6103  -3.3252  -3.1634  -2.8968  -2.4034  -2.2645  -2.0261
    -1.9183  -1.7311  -1.4966  -0.8607  -0.5475   0.0355   0.1990   0.7847
     1.0223

     occupation numbers 
     1.0000   1.0000   1.0000   1.0000   1.0000   1.0000   1.0000   1.0000
     1.0000   1.0000   1.0000   1.0000   1.0000   1.0000   1.0000   1.0000
     1.0000   1.0000   1.0000   1.0000   1.0000   1.0000   1.0000   1.0000
     1.0000   1.0000   1.0000   1.0000   1.0000   1.0000   1.0000   1.0000
     1.0000   1.0000   1.0000   1.0000   1.0000   1.0000   1.0000   1.0000
     1.0000   1.0000   1.0000   1.0000   1.0000   1.0000   1.0000   1.0000
     1.0000   1.0000   1.0000   1.0000   1.0000   1.0000   1.0000   1.0000
     1.0000   1.0000   1.0000   1.0000   1.0000   1.0000   1.0000   1.0000
     1.0000   1.0000   1.0000   1.0000   1.0000   1.0000   1.0000   1.0000
     1.0000   1.0000   1.0000   1.0000   1.0000   1.0000   1.0000   1.0000
     1.0000   1.0000   1.0000   1.0000   1.0000   1.0000   1.0000   1.0000
     1.0000   1.0000   1.0000   1.0000   1.0000   1.0000   1.0000   1.0000
     1.0000   1.0000   1.0000   1.0000   1.0001   1.0001   1.0001   1.0002
     1.0004   1.0006   1.0007   1.0060   1.0100   1.0136   1.0377   1.0451
     1.0779   1.0770   1.0692   1.0336   1.0239   1.0089   0.9259   0.8811
     0.5153   0.4796   0.4679   0.1139   0.1034   0.0712   0.0005   0.0000
     0.0000   0.0000   0.0000   0.0000   0.0000   0.0000   0.0000   0.0000
     0.0000   0.0000   0.0000   0.0000   0.0000   0.0000   0.0000   0.0000
     0.0000

          k = 0.3125-0.1804 0.0000 ( 44550 PWs)   bands (ev):

   -12.0010 -11.7253 -11.0906 -10.7064 -10.6320 -10.5518 -10.5501 -10.4695
   -10.4120 -10.3923 -10.3831 -10.3751 -10.3269 -10.2723 -10.2712 -10.2210
   -10.0968 -10.0929 -10.0236  -9.9371  -9.9319  -9.9250  -9.8831  -9.8682
    -9.8489  -9.7593  -9.6985  -9.6823  -9.5824  -9.4199  -9.3548  -9.2863
    -9.2476  -9.1375  -9.0875  -9.0460  -8.9096  -8.8413  -8.8234  -8.8046
    -8.8010  -8.6955  -8.6237  -8.5367  -8.4176  -8.4034  -8.3344  -8.2765
    -8.2610  -8.2537  -8.1827  -8.1540  -8.1149  -8.1078  -8.1045  -8.0708
    -8.0666  -8.0427  -7.9777  -7.9409  -7.9067  -7.8847  -7.7917  -7.7354
    -7.6971  -7.6810  -7.6746  -7.6654  -7.6519  -7.6021  -7.5618  -7.5228
    -7.4777  -7.4466  -7.4007  -7.2763  -7.2152  -7.1005  -7.0901  -7.0135
    -6.9871  -6.9864  -6.8750  -6.8682  -6.8076  -6.7534  -6.7368  -6.6796
    -6.6458  -6.5745  -6.5603  -6.5243  -6.5094  -6.3636  -6.3046  -6.2531
    -6.2077  -6.2002  -6.1983  -6.1694  -6.1651  -6.0808  -6.0459  -6.0411
    -6.0154  -5.9956  -5.9375  -5.9328  -5.9224  -5.8528  -5.7467  -5.6907
    -5.6229  -5.6132  -5.5454  -5.5258  -5.5212  -5.4766  -5.4387  -5.4366
    -5.3904  -5.3048  -5.2873  -5.2838  -5.2270  -5.1360  -5.1354  -4.3730
    -3.8249  -3.1572  -2.9614  -2.9325  -2.6610  -2.6092  -2.3376  -2.1182
    -1.9651  -1.8866  -1.3783  -1.2172  -0.2497   0.0206   0.0635   1.2131
     1.3549

     occupation numbers 
     1.0000   1.0000   1.0000   1.0000   1.0000   1.0000   1.0000   1.0000
     1.0000   1.0000   1.0000   1.0000   1.0000   1.0000   1.0000   1.0000
     1.0000   1.0000   1.0000   1.0000   1.0000   1.0000   1.0000   1.0000
     1.0000   1.0000   1.0000   1.0000   1.0000   1.0000   1.0000   1.0000
     1.0000   1.0000   1.0000   1.0000   1.0000   1.0000   1.0000   1.0000
     1.0000   1.0000   1.0000   1.0000   1.0000   1.0000   1.0000   1.0000
     1.0000   1.0000   1.0000   1.0000   1.0000   1.0000   1.0000   1.0000
     1.0000   1.0000   1.0000   1.0000   1.0000   1.0000   1.0000   1.0000
     1.0000   1.0000   1.0000   1.0000   1.0000   1.0000   1.0000   1.0000
     1.0000   1.0000   1.0000   1.0000   1.0000   1.0000   1.0000   1.0000
     1.0000   1.0000   1.0000   1.0000   1.0000   1.0000   1.0000   1.0000
     1.0000   1.0000   1.0000   1.0000   1.0000   1.0000   1.0000   1.0000
     1.0000   1.0000   1.0000   1.0000   1.0000   1.0000   1.0000   1.0000
     1.0000   1.0001   1.0004   1.0004   1.0006   1.0028   1.0181   1.0374
     1.0682   1.0722   1.0809   1.0726   1.0696   1.0187   0.9403   0.9349
     0.7966   0.4824   0.4198   0.4077   0.2352   0.0719   0.0713   0.0000
     0.0000   0.0000   0.0000   0.0000   0.0000   0.0000   0.0000   0.0000
     0.0000   0.0000   0.0000   0.0000   0.0000   0.0000   0.0000   0.0000
     0.0000

          k = 0.3125-0.1083 0.0000 ( 44578 PWs)   bands (ev):

   -12.0822 -11.8166 -11.1771 -10.7001 -10.6719 -10.6119 -10.6061 -10.5343
   -10.4968 -10.4674 -10.4431 -10.4041 -10.3782 -10.3524 -10.3117 -10.2414
   -10.1895 -10.1480 -10.0950 -10.0435  -9.9724  -9.9609  -9.9464  -9.9181
    -9.9046  -9.8191  -9.7658  -9.7182  -9.6336  -9.5106  -9.3928  -9.3149
    -9.2839  -9.1034  -9.0386  -9.0083  -8.8893  -8.8771  -8.8242  -8.7771
    -8.6882  -8.6520  -8.5578  -8.4957  -8.4135  -8.3522  -8.3246  -8.3074
    -8.2425  -8.2211  -8.1911  -8.1814  -8.1243  -8.0991  -8.0962  -8.0749
    -8.0505  -8.0350  -7.9872  -7.9581  -7.9221  -7.8927  -7.8263  -7.7946
    -7.7566  -7.7046  -7.6283  -7.5983  -7.5664  -7.5317  -7.5267  -7.4929
    -7.4508  -7.4363  -7.3664  -7.1637  -7.1091  -7.0841  -7.0281  -6.9934
    -6.9825  -6.9436  -6.7944  -6.7366  -6.7217  -6.6868  -6.6092  -6.5790
    -6.5657  -6.5242  -6.4886  -6.4684  -6.4472  -6.3592  -6.3197  -6.2136
    -6.1276  -6.1070  -6.1004  -6.0950  -6.0064  -5.9933  -5.9786  -5.9646
    -5.9390  -5.9215  -5.9153  -5.8127  -5.7842  -5.7651  -5.6900  -5.6731
    -5.5971  -5.5344  -5.5206  -5.4864  -5.4799  -5.4708  -5.4331  -5.4170
    -5.3138  -5.3041  -5.3008  -5.1680  -5.1610  -5.1353  -4.8995  -4.4758
    -3.7506  -3.6103  -3.3252  -3.1634  -2.8968  -2.4034  -2.2645  -2.0261
    -1.9183  -1.7311  -1.4966  -0.8607  -0.5475   0.0355   0.1990   0.7847
     1.0223

     occupation numbers 
     1.0000   1.0000   1.0000   1.0000   1.0000   1.0000   1.0000   1.0000
     1.0000   1.0000   1.0000   1.0000   1.0000   1.0000   1.0000   1.0000
     1.0000   1.0000   1.0000   1.0000   1.0000   1.0000   1.0000   1.0000
     1.0000   1.0000   1.0000   1.0000   1.0000   1.0000   1.0000   1.0000
     1.0000   1.0000   1.0000   1.0000   1.0000   1.0000   1.0000   1.0000
     1.0000   1.0000   1.0000   1.0000   1.0000   1.0000   1.0000   1.0000
     1.0000   1.0000   1.0000   1.0000   1.0000   1.0000   1.0000   1.0000
     1.0000   1.0000   1.0000   1.0000   1.0000   1.0000   1.0000   1.0000
     1.0000   1.0000   1.0000   1.0000   1.0000   1.0000   1.0000   1.0000
     1.0000   1.0000   1.0000   1.0000   1.0000   1.0000   1.0000   1.0000
     1.0000   1.0000   1.0000   1.0000   1.0000   1.0000   1.0000   1.0000
     1.0000   1.0000   1.0000   1.0000   1.0000   1.0000   1.0000   1.0000
     1.0000   1.0000   1.0000   1.0000   1.0001   1.0001   1.0001   1.0002
     1.0004   1.0006   1.0007   1.0060   1.0100   1.0136   1.0377   1.0451
     1.0779   1.0770   1.0692   1.0336   1.0239   1.0089   0.9259   0.8811
     0.5153   0.4796   0.4679   0.1139   0.1034   0.0712   0.0005   0.0000
     0.0000   0.0000   0.0000   0.0000   0.0000   0.0000   0.0000   0.0000
     0.0000   0.0000   0.0000   0.0000   0.0000   0.0000   0.0000   0.0000
     0.0000

          k = 0.3125-0.0361 0.0000 ( 44582 PWs)   bands (ev):

   -12.1255 -11.8618 -11.2210 -10.6752 -10.6613 -10.6489 -10.6428 -10.5951
   -10.5594 -10.5109 -10.4574 -10.4403 -10.4155 -10.3342 -10.3301 -10.2743
   -10.2139 -10.1753 -10.1463 -10.1286  -9.9959  -9.9738  -9.9702  -9.9383
    -9.9304  -9.8688  -9.7864  -9.7248  -9.6887  -9.5534  -9.4049  -9.3232
    -9.3096  -9.1006  -8.9942  -8.9494  -8.9174  -8.8936  -8.8628  -8.7506
    -8.6576  -8.5608  -8.5153  -8.4833  -8.4365  -8.3379  -8.3292  -8.3214
    -8.2516  -8.2197  -8.2060  -8.1845  -8.1389  -8.1089  -8.0890  -8.0595
    -8.0480  -8.0336  -7.9843  -7.9621  -7.9402  -7.8910  -7.8493  -7.8228
    -7.7771  -7.7124  -7.6345  -7.5677  -7.5413  -7.5189  -7.4938  -7.4397
    -7.4260  -7.3947  -7.3538  -7.1105  -7.0814  -7.0434  -6.9958  -6.9813
    -6.9591  -6.8675  -6.7895  -6.7477  -6.6586  -6.6247  -6.5633  -6.5257
    -6.5078  -6.4784  -6.4440  -6.4309  -6.4187  -6.3867  -6.2948  -6.2281
    -6.0768  -6.0688  -6.0628  -6.0462  -6.0366  -5.9901  -5.9662  -5.9152
    -5.8792  -5.8383  -5.7964  -5.7618  -5.7113  -5.7032  -5.6876  -5.5794
    -5.5678  -5.5501  -5.5264  -5.5110  -5.5006  -5.4842  -5.4656  -5.3729
    -5.3354  -5.2922  -5.2290  -5.2181  -4.9506  -4.6987  -4.5295  -4.3295
    -4.2763  -3.9868  -3.7053  -3.3333  -3.0682  -2.6298  -2.3009  -1.9239
    -1.5877  -1.3571  -1.0778  -0.9174  -0.5427  -0.1136   0.1650   0.3931
     0.7256

     occupation numbers 
     1.0000   1.0000   1.0000   1.0000   1.0000   1.0000   1.0000   1.0000
     1.0000   1.0000   1.0000   1.0000   1.0000   1.0000   1.0000   1.0000
     1.0000   1.0000   1.0000   1.0000   1.0000   1.0000   1.0000   1.0000
     1.0000   1.0000   1.0000   1.0000   1.0000   1.0000   1.0000   1.0000
     1.0000   1.0000   1.0000   1.0000   1.0000   1.0000   1.0000   1.0000
     1.0000   1.0000   1.0000   1.0000   1.0000   1.0000   1.0000   1.0000
     1.0000   1.0000   1.0000   1.0000   1.0000   1.0000   1.0000   1.0000
     1.0000   1.0000   1.0000   1.0000   1.0000   1.0000   1.0000   1.0000
     1.0000   1.0000   1.0000   1.0000   1.0000   1.0000   1.0000   1.0000
     1.0000   1.0000   1.0000   1.0000   1.0000   1.0000   1.0000   1.0000
     1.0000   1.0000   1.0000   1.0000   1.0000   1.0000   1.0000   1.0000
     1.0000   1.0000   1.0000   1.0000   1.0000   1.0000   1.0000   1.0000
     1.0000   1.0000   1.0000   1.0000   1.0000   1.0001   1.0002   1.0007
     1.0016   1.0037   1.0081   1.0144   1.0293   1.0323   1.0387   1.0821
     1.0833   1.0820   1.0729   1.0617   1.0514   1.0304   0.9992   0.7355
     0.5964   0.4370   0.2402   0.2128   0.0019   0.0000   0.0000   0.0000
     0.0000   0.0000   0.0000   0.0000   0.0000   0.0000   0.0000   0.0000
     0.0000   0.0000   0.0000   0.0000   0.0000   0.0000   0.0000   0.0000
     0.0000

          k = 0.3125 0.0361 0.0000 ( 44582 PWs)   bands (ev):

   -12.1255 -11.8618 -11.2210 -10.6752 -10.6613 -10.6489 -10.6428 -10.5951
   -10.5594 -10.5109 -10.4574 -10.4403 -10.4155 -10.3342 -10.3301 -10.2743
   -10.2139 -10.1753 -10.1463 -10.1286  -9.9959  -9.9738  -9.9702  -9.9383
    -9.9304  -9.8688  -9.7864  -9.7248  -9.6887  -9.5534  -9.4049  -9.3232
    -9.3096  -9.1006  -8.9942  -8.9494  -8.9174  -8.8936  -8.8628  -8.7506
    -8.6576  -8.5608  -8.5153  -8.4833  -8.4365  -8.3379  -8.3292  -8.3214
    -8.2516  -8.2197  -8.2060  -8.1845  -8.1389  -8.1089  -8.0890  -8.0595
    -8.0480  -8.0336  -7.9843  -7.9621  -7.9402  -7.8910  -7.8493  -7.8228
    -7.7771  -7.7124  -7.6345  -7.5677  -7.5413  -7.5189  -7.4938  -7.4397
    -7.4260  -7.3947  -7.3538  -7.1105  -7.0814  -7.0434  -6.9958  -6.9813
    -6.9591  -6.8675  -6.7895  -6.7477  -6.6586  -6.6247  -6.5633  -6.5257
    -6.5078  -6.4784  -6.4440  -6.4309  -6.4187  -6.3867  -6.2948  -6.2281
    -6.0768  -6.0688  -6.0628  -6.0462  -6.0366  -5.9901  -5.9662  -5.9152
    -5.8792  -5.8383  -5.7964  -5.7618  -5.7113  -5.7032  -5.6876  -5.5794
    -5.5678  -5.5501  -5.5264  -5.5110  -5.5006  -5.4842  -5.4656  -5.3729
    -5.3354  -5.2922  -5.2290  -5.2181  -4.9506  -4.6987  -4.5295  -4.3295
    -4.2763  -3.9868  -3.7053  -3.3333  -3.0682  -2.6298  -2.3009  -1.9239
    -1.5877  -1.3571  -1.0778  -0.9174  -0.5427  -0.1136   0.1650   0.3931
     0.7256

     occupation numbers 
     1.0000   1.0000   1.0000   1.0000   1.0000   1.0000   1.0000   1.0000
     1.0000   1.0000   1.0000   1.0000   1.0000   1.0000   1.0000   1.0000
     1.0000   1.0000   1.0000   1.0000   1.0000   1.0000   1.0000   1.0000
     1.0000   1.0000   1.0000   1.0000   1.0000   1.0000   1.0000   1.0000
     1.0000   1.0000   1.0000   1.0000   1.0000   1.0000   1.0000   1.0000
     1.0000   1.0000   1.0000   1.0000   1.0000   1.0000   1.0000   1.0000
     1.0000   1.0000   1.0000   1.0000   1.0000   1.0000   1.0000   1.0000
     1.0000   1.0000   1.0000   1.0000   1.0000   1.0000   1.0000   1.0000
     1.0000   1.0000   1.0000   1.0000   1.0000   1.0000   1.0000   1.0000
     1.0000   1.0000   1.0000   1.0000   1.0000   1.0000   1.0000   1.0000
     1.0000   1.0000   1.0000   1.0000   1.0000   1.0000   1.0000   1.0000
     1.0000   1.0000   1.0000   1.0000   1.0000   1.0000   1.0000   1.0000
     1.0000   1.0000   1.0000   1.0000   1.0000   1.0001   1.0002   1.0007
     1.0016   1.0037   1.0081   1.0144   1.0293   1.0323   1.0387   1.0821
     1.0833   1.0820   1.0729   1.0617   1.0514   1.0304   0.9992   0.7355
     0.5964   0.4370   0.2402   0.2128   0.0019   0.0000   0.0000   0.0000
     0.0000   0.0000   0.0000   0.0000   0.0000   0.0000   0.0000   0.0000
     0.0000   0.0000   0.0000   0.0000   0.0000   0.0000   0.0000   0.0000
     0.0000

          k = 0.3125 0.1083 0.0000 ( 44578 PWs)   bands (ev):

   -12.0822 -11.8166 -11.1771 -10.7001 -10.6719 -10.6119 -10.6061 -10.5343
   -10.4968 -10.4674 -10.4431 -10.4041 -10.3782 -10.3524 -10.3117 -10.2414
   -10.1895 -10.1480 -10.0950 -10.0435  -9.9724  -9.9609  -9.9464  -9.9181
    -9.9046  -9.8191  -9.7658  -9.7182  -9.6336  -9.5106  -9.3928  -9.3149
    -9.2839  -9.1034  -9.0386  -9.0083  -8.8893  -8.8771  -8.8242  -8.7771
    -8.6882  -8.6520  -8.5578  -8.4957  -8.4135  -8.3522  -8.3246  -8.3074
    -8.2425  -8.2211  -8.1911  -8.1814  -8.1243  -8.0991  -8.0962  -8.0749
    -8.0505  -8.0350  -7.9872  -7.9581  -7.9221  -7.8927  -7.8263  -7.7946
    -7.7566  -7.7046  -7.6283  -7.5983  -7.5664  -7.5317  -7.5267  -7.4929
    -7.4508  -7.4363  -7.3664  -7.1637  -7.1091  -7.0841  -7.0281  -6.9934
    -6.9825  -6.9436  -6.7944  -6.7366  -6.7217  -6.6868  -6.6092  -6.5790
    -6.5657  -6.5242  -6.4886  -6.4684  -6.4472  -6.3592  -6.3197  -6.2136
    -6.1276  -6.1070  -6.1004  -6.0950  -6.0064  -5.9933  -5.9786  -5.9646
    -5.9390  -5.9215  -5.9153  -5.8127  -5.7842  -5.7651  -5.6900  -5.6731
    -5.5971  -5.5344  -5.5206  -5.4864  -5.4799  -5.4708  -5.4331  -5.4170
    -5.3138  -5.3041  -5.3008  -5.1680  -5.1610  -5.1353  -4.8995  -4.4758
    -3.7506  -3.6103  -3.3252  -3.1634  -2.8968  -2.4034  -2.2645  -2.0261
    -1.9183  -1.7311  -1.4966  -0.8607  -0.5475   0.0355   0.1990   0.7847
     1.0223

     occupation numbers 
     1.0000   1.0000   1.0000   1.0000   1.0000   1.0000   1.0000   1.0000
     1.0000   1.0000   1.0000   1.0000   1.0000   1.0000   1.0000   1.0000
     1.0000   1.0000   1.0000   1.0000   1.0000   1.0000   1.0000   1.0000
     1.0000   1.0000   1.0000   1.0000   1.0000   1.0000   1.0000   1.0000
     1.0000   1.0000   1.0000   1.0000   1.0000   1.0000   1.0000   1.0000
     1.0000   1.0000   1.0000   1.0000   1.0000   1.0000   1.0000   1.0000
     1.0000   1.0000   1.0000   1.0000   1.0000   1.0000   1.0000   1.0000
     1.0000   1.0000   1.0000   1.0000   1.0000   1.0000   1.0000   1.0000
     1.0000   1.0000   1.0000   1.0000   1.0000   1.0000   1.0000   1.0000
     1.0000   1.0000   1.0000   1.0000   1.0000   1.0000   1.0000   1.0000
     1.0000   1.0000   1.0000   1.0000   1.0000   1.0000   1.0000   1.0000
     1.0000   1.0000   1.0000   1.0000   1.0000   1.0000   1.0000   1.0000
     1.0000   1.0000   1.0000   1.0000   1.0001   1.0001   1.0001   1.0002
     1.0004   1.0006   1.0007   1.0060   1.0100   1.0136   1.0377   1.0451
     1.0779   1.0770   1.0692   1.0336   1.0239   1.0089   0.9259   0.8811
     0.5153   0.4796   0.4679   0.1139   0.1034   0.0712   0.0005   0.0000
     0.0000   0.0000   0.0000   0.0000   0.0000   0.0000   0.0000   0.0000
     0.0000   0.0000   0.0000   0.0000   0.0000   0.0000   0.0000   0.0000
     0.0000

          k = 0.3125 0.1804 0.0000 ( 44550 PWs)   bands (ev):

   -12.0010 -11.7253 -11.0906 -10.7064 -10.6320 -10.5518 -10.5501 -10.4695
   -10.4120 -10.3923 -10.3831 -10.3751 -10.3269 -10.2723 -10.2712 -10.2210
   -10.0968 -10.0929 -10.0236  -9.9371  -9.9319  -9.9250  -9.8831  -9.8682
    -9.8489  -9.7593  -9.6985  -9.6823  -9.5824  -9.4199  -9.3548  -9.2863
    -9.2476  -9.1375  -9.0875  -9.0460  -8.9096  -8.8413  -8.8234  -8.8046
    -8.8010  -8.6955  -8.6237  -8.5367  -8.4176  -8.4034  -8.3344  -8.2765
    -8.2610  -8.2537  -8.1827  -8.1540  -8.1149  -8.1078  -8.1045  -8.0708
    -8.0666  -8.0427  -7.9777  -7.9409  -7.9067  -7.8847  -7.7917  -7.7354
    -7.6971  -7.6810  -7.6746  -7.6654  -7.6519  -7.6021  -7.5618  -7.5228
    -7.4777  -7.4466  -7.4007  -7.2763  -7.2152  -7.1005  -7.0901  -7.0135
    -6.9871  -6.9864  -6.8750  -6.8682  -6.8076  -6.7534  -6.7368  -6.6796
    -6.6458  -6.5745  -6.5603  -6.5243  -6.5094  -6.3636  -6.3046  -6.2531
    -6.2077  -6.2002  -6.1983  -6.1694  -6.1651  -6.0808  -6.0459  -6.0411
    -6.0154  -5.9956  -5.9375  -5.9328  -5.9224  -5.8528  -5.7467  -5.6907
    -5.6229  -5.6132  -5.5454  -5.5258  -5.5212  -5.4766  -5.4387  -5.4366
    -5.3904  -5.3048  -5.2873  -5.2838  -5.2270  -5.1360  -5.1354  -4.3730
    -3.8249  -3.1572  -2.9614  -2.9325  -2.6610  -2.6092  -2.3376  -2.1182
    -1.9651  -1.8866  -1.3783  -1.2172  -0.2497   0.0206   0.0635   1.2131
     1.3549

     occupation numbers 
     1.0000   1.0000   1.0000   1.0000   1.0000   1.0000   1.0000   1.0000
     1.0000   1.0000   1.0000   1.0000   1.0000   1.0000   1.0000   1.0000
     1.0000   1.0000   1.0000   1.0000   1.0000   1.0000   1.0000   1.0000
     1.0000   1.0000   1.0000   1.0000   1.0000   1.0000   1.0000   1.0000
     1.0000   1.0000   1.0000   1.0000   1.0000   1.0000   1.0000   1.0000
     1.0000   1.0000   1.0000   1.0000   1.0000   1.0000   1.0000   1.0000
     1.0000   1.0000   1.0000   1.0000   1.0000   1.0000   1.0000   1.0000
     1.0000   1.0000   1.0000   1.0000   1.0000   1.0000   1.0000   1.0000
     1.0000   1.0000   1.0000   1.0000   1.0000   1.0000   1.0000   1.0000
     1.0000   1.0000   1.0000   1.0000   1.0000   1.0000   1.0000   1.0000
     1.0000   1.0000   1.0000   1.0000   1.0000   1.0000   1.0000   1.0000
     1.0000   1.0000   1.0000   1.0000   1.0000   1.0000   1.0000   1.0000
     1.0000   1.0000   1.0000   1.0000   1.0000   1.0000   1.0000   1.0000
     1.0000   1.0001   1.0004   1.0004   1.0006   1.0028   1.0181   1.0374
     1.0682   1.0722   1.0809   1.0726   1.0696   1.0187   0.9403   0.9349
     0.7966   0.4824   0.4198   0.4077   0.2352   0.0719   0.0713   0.0000
     0.0000   0.0000   0.0000   0.0000   0.0000   0.0000   0.0000   0.0000
     0.0000   0.0000   0.0000   0.0000   0.0000   0.0000   0.0000   0.0000
     0.0000

          k = 0.3125 0.2526 0.0000 ( 44528 PWs)   bands (ev):

   -11.8931 -11.5859 -10.9648 -10.6812 -10.5503 -10.4799 -10.4628 -10.3721
   -10.3632 -10.3508 -10.2770 -10.2593 -10.2520 -10.2120 -10.1553 -10.1333
   -10.0189  -9.9976  -9.9277  -9.8937  -9.8709  -9.8199  -9.8155  -9.7721
    -9.7563  -9.6788  -9.6467  -9.5804  -9.5276  -9.3389  -9.2596  -9.2374
    -9.2140  -9.2015  -9.1226  -9.0549  -8.9601  -8.9451  -8.9257  -8.8528
    -8.7490  -8.7230  -8.6866  -8.6065  -8.4788  -8.4555  -8.3993  -8.3306
    -8.3143  -8.2605  -8.2091  -8.1912  -8.1510  -8.1128  -8.0818  -8.0750
    -8.0432  -8.0274  -7.9761  -7.9257  -7.9100  -7.8574  -7.8378  -7.8039
    -7.7808  -7.7621  -7.7263  -7.6503  -7.6368  -7.5880  -7.5629  -7.5562
    -7.5017  -7.4279  -7.3748  -7.3673  -7.2855  -7.1559  -7.1224  -7.0926
    -7.0343  -7.0051  -6.9860  -6.9720  -6.9555  -6.9268  -6.9185  -6.7976
    -6.7487  -6.6301  -6.6019  -6.5946  -6.5853  -6.5749  -6.4289  -6.3489
    -6.3360  -6.3287  -6.3104  -6.2876  -6.2271  -6.1954  -6.1413  -6.1236
    -6.0879  -6.0694  -6.0248  -5.9941  -5.9691  -5.8867  -5.8673  -5.7731
    -5.6564  -5.5959  -5.5695  -5.5372  -5.5122  -5.4643  -5.4444  -5.4267
    -5.3787  -5.3332  -5.3108  -5.2990  -5.2400  -5.1656  -5.1603  -4.2183
    -3.8850  -3.5641  -3.3321  -2.9947  -2.6702  -2.2746  -2.1983  -1.9301
    -1.8449  -1.5926  -1.3983  -0.6737  -0.4098  -0.2511   0.5342   1.1696
     1.3697

     occupation numbers 
     1.0000   1.0000   1.0000   1.0000   1.0000   1.0000   1.0000   1.0000
     1.0000   1.0000   1.0000   1.0000   1.0000   1.0000   1.0000   1.0000
     1.0000   1.0000   1.0000   1.0000   1.0000   1.0000   1.0000   1.0000
     1.0000   1.0000   1.0000   1.0000   1.0000   1.0000   1.0000   1.0000
     1.0000   1.0000   1.0000   1.0000   1.0000   1.0000   1.0000   1.0000
     1.0000   1.0000   1.0000   1.0000   1.0000   1.0000   1.0000   1.0000
     1.0000   1.0000   1.0000   1.0000   1.0000   1.0000   1.0000   1.0000
     1.0000   1.0000   1.0000   1.0000   1.0000   1.0000   1.0000   1.0000
     1.0000   1.0000   1.0000   1.0000   1.0000   1.0000   1.0000   1.0000
     1.0000   1.0000   1.0000   1.0000   1.0000   1.0000   1.0000   1.0000
     1.0000   1.0000   1.0000   1.0000   1.0000   1.0000   1.0000   1.0000
     1.0000   1.0000   1.0000   1.0000   1.0000   1.0000   1.0000   1.0000
     1.0000   1.0000   1.0000   1.0000   1.0000   1.0000   1.0000   1.0000
     1.0000   1.0000   1.0000   1.0001   1.0002   1.0013   1.0020   1.0120
     1.0529   1.0783   1.0832   1.0782   1.0627   0.9968   0.9541   0.9087
     0.7563   0.5881   0.5043   0.4614   0.2701   0.1102   0.1025   0.0000
     0.0000   0.0000   0.0000   0.0000   0.0000   0.0000   0.0000   0.0000
     0.0000   0.0000   0.0000   0.0000   0.0000   0.0000   0.0000   0.0000
     0.0000

          k = 0.3125 0.3248 0.0000 ( 44545 PWs)   bands (ev):

   -11.7735 -11.3982 -10.8062 -10.6275 -10.4291 -10.3898 -10.3540 -10.3182
   -10.2934 -10.2394 -10.1764 -10.1338 -10.1295 -10.1202 -10.0467  -9.9923
    -9.9277  -9.8796  -9.8638  -9.8174  -9.7875  -9.7537  -9.7450  -9.6638
    -9.6259  -9.6055  -9.5581  -9.4617  -9.4473  -9.2963  -9.2632  -9.2130
    -9.1918  -9.1564  -9.1290  -9.0619  -9.0365  -9.0195  -8.9995  -8.9167
    -8.8379  -8.7322  -8.6922  -8.6428  -8.5697  -8.5623  -8.5161  -8.4222
    -8.3859  -8.3140  -8.2782  -8.2518  -8.1878  -8.1421  -8.1292  -8.1029
    -8.0557  -8.0216  -8.0136  -7.9854  -7.9707  -7.9419  -7.9181  -7.8791
    -7.8727  -7.8082  -7.7723  -7.6282  -7.6046  -7.6006  -7.5696  -7.5164
    -7.4644  -7.4598  -7.3818  -7.3296  -7.2974  -7.2183  -7.2040  -7.1829
    -7.1659  -7.1385  -7.1299  -7.0676  -7.0399  -7.0096  -6.9425  -6.9134
    -6.8751  -6.8019  -6.7187  -6.6881  -6.6818  -6.6708  -6.5682  -6.4915
    -6.4431  -6.4337  -6.4118  -6.3293  -6.2943  -6.2816  -6.2403  -6.1635
    -6.1375  -6.0935  -6.0784  -6.0152  -5.9134  -5.8569  -5.8375  -5.7315
    -5.7138  -5.5948  -5.5667  -5.5397  -5.5282  -5.5170  -5.4978  -5.4779
    -5.3964  -5.3742  -5.3709  -5.3091  -5.2398  -5.2323  -5.0728  -4.1802
    -4.0853  -3.8943  -3.7860  -3.5164  -2.6711  -2.3157  -2.2065  -1.5175
    -1.3132  -1.1173  -0.9511  -0.6575  -0.4205   0.1368   0.7656   1.0250
     1.1706

     occupation numbers 
     1.0000   1.0000   1.0000   1.0000   1.0000   1.0000   1.0000   1.0000
     1.0000   1.0000   1.0000   1.0000   1.0000   1.0000   1.0000   1.0000
     1.0000   1.0000   1.0000   1.0000   1.0000   1.0000   1.0000   1.0000
     1.0000   1.0000   1.0000   1.0000   1.0000   1.0000   1.0000   1.0000
     1.0000   1.0000   1.0000   1.0000   1.0000   1.0000   1.0000   1.0000
     1.0000   1.0000   1.0000   1.0000   1.0000   1.0000   1.0000   1.0000
     1.0000   1.0000   1.0000   1.0000   1.0000   1.0000   1.0000   1.0000
     1.0000   1.0000   1.0000   1.0000   1.0000   1.0000   1.0000   1.0000
     1.0000   1.0000   1.0000   1.0000   1.0000   1.0000   1.0000   1.0000
     1.0000   1.0000   1.0000   1.0000   1.0000   1.0000   1.0000   1.0000
     1.0000   1.0000   1.0000   1.0000   1.0000   1.0000   1.0000   1.0000
     1.0000   1.0000   1.0000   1.0000   1.0000   1.0000   1.0000   1.0000
     1.0000   1.0000   1.0000   1.0000   1.0000   1.0000   1.0000   1.0000
     1.0000   1.0000   1.0000   1.0000   1.0007   1.0025   1.0038   1.0224
     1.0284   1.0786   1.0833   1.0791   1.0739   1.0666   1.0483   1.0207
     0.8168   0.7403   0.7284   0.4981   0.2694   0.2489   0.0251   0.0000
     0.0000   0.0000   0.0000   0.0000   0.0000   0.0000   0.0000   0.0000
     0.0000   0.0000   0.0000   0.0000   0.0000   0.0000   0.0000   0.0000
     0.0000

          k = 0.3125-0.7578 0.0000 ( 44502 PWs)   bands (ev):

   -11.6586 -11.1678 -10.6277 -10.5524 -10.2959 -10.2906 -10.2802 -10.2402
   -10.1933 -10.0840 -10.0685 -10.0378 -10.0022  -9.9782  -9.9066  -9.8852
    -9.8706  -9.7970  -9.7326  -9.7265  -9.7118  -9.7096  -9.6933  -9.5499
    -9.5352  -9.5159  -9.4761  -9.3615  -9.3360  -9.3031  -9.2683  -9.2241
    -9.1876  -9.1751  -9.1631  -9.1266  -9.0957  -8.9699  -8.9641  -8.9510
    -8.9189  -8.7959  -8.7720  -8.7439  -8.7156  -8.6100  -8.5613  -8.4489
    -8.4429  -8.4278  -8.4196  -8.3538  -8.3318  -8.3108  -8.2115  -8.1615
    -8.1304  -8.0925  -8.0520  -8.0223  -8.0146  -7.9729  -7.9465  -7.8979
    -7.8684  -7.8404  -7.8109  -7.7574  -7.7334  -7.6746  -7.6024  -7.5680
    -7.5176  -7.4832  -7.4289  -7.4188  -7.3712  -7.3135  -7.2952  -7.2704
    -7.2431  -7.1819  -7.0931  -7.0537  -7.0140  -7.0017  -6.9973  -6.9515
    -6.9222  -6.9093  -6.7763  -6.7447  -6.7245  -6.7074  -6.6225  -6.5404
    -6.5255  -6.4605  -6.4210  -6.4012  -6.3025  -6.2679  -6.2167  -6.2065
    -6.1833  -6.1341  -6.0248  -6.0044  -5.8377  -5.8274  -5.8075  -5.7762
    -5.7156  -5.6144  -5.6086  -5.5947  -5.5797  -5.5634  -5.5382  -5.5020
    -5.4848  -5.4538  -5.4515  -5.3446  -5.3362  -5.2500  -4.8699  -4.6237
    -4.5122  -4.2097  -3.9523  -3.5286  -3.0560  -2.3954  -1.9923  -1.4787
    -0.8398  -0.7233  -0.5683  -0.3671   0.0776   0.3221   0.7330   1.0099
     1.3042

     occupation numbers 
     1.0000   1.0000   1.0000   1.0000   1.0000   1.0000   1.0000   1.0000
     1.0000   1.0000   1.0000   1.0000   1.0000   1.0000   1.0000   1.0000
     1.0000   1.0000   1.0000   1.0000   1.0000   1.0000   1.0000   1.0000
     1.0000   1.0000   1.0000   1.0000   1.0000   1.0000   1.0000   1.0000
     1.0000   1.0000   1.0000   1.0000   1.0000   1.0000   1.0000   1.0000
     1.0000   1.0000   1.0000   1.0000   1.0000   1.0000   1.0000   1.0000
     1.0000   1.0000   1.0000   1.0000   1.0000   1.0000   1.0000   1.0000
     1.0000   1.0000   1.0000   1.0000   1.0000   1.0000   1.0000   1.0000
     1.0000   1.0000   1.0000   1.0000   1.0000   1.0000   1.0000   1.0000
     1.0000   1.0000   1.0000   1.0000   1.0000   1.0000   1.0000   1.0000
     1.0000   1.0000   1.0000   1.0000   1.0000   1.0000   1.0000   1.0000
     1.0000   1.0000   1.0000   1.0000   1.0000   1.0000   1.0000   1.0000
     1.0000   1.0000   1.0000   1.0000   1.0000   1.0000   1.0000   1.0000
     1.0000   1.0000   1.0000   1.0001   1.0037   1.0046   1.0066   1.0114
     1.0277   1.0718   1.0740   1.0786   1.0820   1.0833   1.0786   1.0529
     1.0313   0.9755   0.9703   0.6312   0.5996   0.2987   0.0002   0.0000
     0.0000   0.0000   0.0000   0.0000   0.0000   0.0000   0.0000   0.0000
     0.0000   0.0000   0.0000   0.0000   0.0000   0.0000   0.0000   0.0000
     0.0000

          k = 0.3125-0.6856 0.0000 ( 44485 PWs)   bands (ev):

   -11.5657 -10.9078 -10.4725 -10.4494 -10.2963 -10.2283 -10.1744 -10.1537
   -10.0248  -9.9675  -9.9550  -9.9208  -9.9153  -9.8924  -9.8494  -9.7746
    -9.7336  -9.7260  -9.6884  -9.6648  -9.6499  -9.6175  -9.5607  -9.4895
    -9.4673  -9.4559  -9.4432  -9.3672  -9.3350  -9.2825  -9.2527  -9.2397
    -9.2293  -9.2203  -9.1610  -9.1522  -9.1331  -9.0091  -8.9524  -8.9456
    -8.9357  -8.8801  -8.8407  -8.8052  -8.7729  -8.6975  -8.6699  -8.5537
    -8.5410  -8.4713  -8.4267  -8.3992  -8.3847  -8.3306  -8.3000  -8.2310
    -8.1968  -8.1780  -8.1617  -8.1327  -8.0865  -8.0575  -8.0087  -7.9794
    -7.9232  -7.9052  -7.8671  -7.8220  -7.8009  -7.7780  -7.7413  -7.6911
    -7.6376  -7.5977  -7.5585  -7.5286  -7.3658  -7.3098  -7.2551  -7.2415
    -7.1704  -7.1442  -7.1212  -7.1052  -7.0847  -7.0522  -7.0395  -6.9578
    -6.8345  -6.8067  -6.7965  -6.7411  -6.7272  -6.6342  -6.5710  -6.5355
    -6.4711  -6.4514  -6.4266  -6.3467  -6.3149  -6.2753  -6.2569  -6.2093
    -6.0908  -6.0555  -5.9856  -5.9434  -5.8447  -5.8238  -5.8003  -5.7747
    -5.7473  -5.7009  -5.6828  -5.6606  -5.6406  -5.6205  -5.5812  -5.5333
    -5.5264  -5.4934  -5.4596  -5.4461  -5.4403  -5.2205  -5.0752  -5.0148
    -4.7449  -4.5695  -3.9901  -3.5549  -3.1765  -2.4328  -1.9763  -1.5756
    -0.7208  -0.2960  -0.1366   0.0343   0.3640   0.6820   0.9048   1.0810
     1.4102

     occupation numbers 
     1.0000   1.0000   1.0000   1.0000   1.0000   1.0000   1.0000   1.0000
     1.0000   1.0000   1.0000   1.0000   1.0000   1.0000   1.0000   1.0000
     1.0000   1.0000   1.0000   1.0000   1.0000   1.0000   1.0000   1.0000
     1.0000   1.0000   1.0000   1.0000   1.0000   1.0000   1.0000   1.0000
     1.0000   1.0000   1.0000   1.0000   1.0000   1.0000   1.0000   1.0000
     1.0000   1.0000   1.0000   1.0000   1.0000   1.0000   1.0000   1.0000
     1.0000   1.0000   1.0000   1.0000   1.0000   1.0000   1.0000   1.0000
     1.0000   1.0000   1.0000   1.0000   1.0000   1.0000   1.0000   1.0000
     1.0000   1.0000   1.0000   1.0000   1.0000   1.0000   1.0000   1.0000
     1.0000   1.0000   1.0000   1.0000   1.0000   1.0000   1.0000   1.0000
     1.0000   1.0000   1.0000   1.0000   1.0000   1.0000   1.0000   1.0000
     1.0000   1.0000   1.0000   1.0000   1.0000   1.0000   1.0000   1.0000
     1.0000   1.0000   1.0000   1.0000   1.0000   1.0000   1.0000   1.0000
     1.0000   1.0000   1.0001   1.0003   1.0033   1.0049   1.0076   1.0117
     1.0179   1.0332   1.0408   1.0509   1.0603   1.0693   1.0818   1.0765
     1.0729   1.0429   0.9876   0.9581   0.9441   0.2188   0.0263   0.0081
     0.0000   0.0000   0.0000   0.0000   0.0000   0.0000   0.0000   0.0000
     0.0000   0.0000   0.0000   0.0000   0.0000   0.0000   0.0000   0.0000
     0.0000

          k = 0.3125-0.6134 0.0000 ( 44465 PWs)   bands (ev):

   -11.5129 -10.6410 -10.4132 -10.4078 -10.3075 -10.2200 -10.2098 -10.0152
    -9.9395  -9.9194  -9.8856  -9.8772  -9.8697  -9.7714  -9.7678  -9.6941
    -9.6474  -9.6238  -9.6032  -9.5985  -9.5720  -9.5490  -9.5093  -9.4819
    -9.4761  -9.4567  -9.4519  -9.4059  -9.3819  -9.3280  -9.3181  -9.2883
    -9.2517  -9.1983  -9.1786  -9.1627  -9.1474  -9.0806  -9.0546  -9.0460
    -8.9390  -8.8512  -8.8109  -8.7876  -8.7088  -8.6788  -8.6485  -8.6316
    -8.5382  -8.4941  -8.4695  -8.4564  -8.3716  -8.3457  -8.3145  -8.2663
    -8.2568  -8.2220  -8.2127  -8.1992  -8.1804  -8.1579  -8.1447  -8.1177
    -8.1091  -8.0970  -7.9337  -7.8239  -7.7945  -7.7198  -7.7002  -7.6905
    -7.6784  -7.6211  -7.6048  -7.5665  -7.4239  -7.3960  -7.3845  -7.2293
    -7.1699  -7.1556  -7.0992  -7.0883  -7.0611  -7.0156  -6.9485  -6.9195
    -6.8722  -6.8100  -6.8086  -6.7023  -6.6257  -6.6097  -6.5432  -6.4812
    -6.4583  -6.4202  -6.3761  -6.3554  -6.3396  -6.3302  -6.2160  -6.0335
    -5.9824  -5.9535  -5.8870  -5.8569  -5.8435  -5.8352  -5.8162  -5.7994
    -5.7845  -5.7786  -5.7771  -5.7129  -5.6178  -5.5980  -5.5806  -5.5654
    -5.5299  -5.5179  -5.5142  -5.4752  -5.4652  -5.4536  -5.4402  -5.2220
    -5.1093  -4.3516  -4.0202  -3.8772  -2.8801  -2.4810  -2.3119  -1.2281
    -0.7732  -0.5823   0.2593   0.7036   0.8049   0.8723   0.9130   1.1104
     1.3956

     occupation numbers 
     1.0000   1.0000   1.0000   1.0000   1.0000   1.0000   1.0000   1.0000
     1.0000   1.0000   1.0000   1.0000   1.0000   1.0000   1.0000   1.0000
     1.0000   1.0000   1.0000   1.0000   1.0000   1.0000   1.0000   1.0000
     1.0000   1.0000   1.0000   1.0000   1.0000   1.0000   1.0000   1.0000
     1.0000   1.0000   1.0000   1.0000   1.0000   1.0000   1.0000   1.0000
     1.0000   1.0000   1.0000   1.0000   1.0000   1.0000   1.0000   1.0000
     1.0000   1.0000   1.0000   1.0000   1.0000   1.0000   1.0000   1.0000
     1.0000   1.0000   1.0000   1.0000   1.0000   1.0000   1.0000   1.0000
     1.0000   1.0000   1.0000   1.0000   1.0000   1.0000   1.0000   1.0000
     1.0000   1.0000   1.0000   1.0000   1.0000   1.0000   1.0000   1.0000
     1.0000   1.0000   1.0000   1.0000   1.0000   1.0000   1.0000   1.0000
     1.0000   1.0000   1.0000   1.0000   1.0000   1.0000   1.0000   1.0000
     1.0000   1.0000   1.0000   1.0000   1.0000   1.0000   1.0000   1.0000
     1.0001   1.0003   1.0013   1.0025   1.0033   1.0039   1.0057   1.0077
     1.0099   1.0110   1.0112   1.0287   1.0704   1.0776   1.0819   1.0833
     1.0748   1.0672   1.0644   1.0163   0.9985   0.9751   0.9440   0.2226
     0.0472   0.0000   0.0000   0.0000   0.0000   0.0000   0.0000   0.0000
     0.0000   0.0000   0.0000   0.0000   0.0000   0.0000   0.0000   0.0000
     0.0000

          k = 0.3125-0.5413 0.0000 ( 44465 PWs)   bands (ev):

   -11.5129 -10.6410 -10.4132 -10.4078 -10.3075 -10.2200 -10.2098 -10.0152
    -9.9395  -9.9194  -9.8856  -9.8772  -9.8697  -9.7714  -9.7678  -9.6941
    -9.6474  -9.6238  -9.6032  -9.5985  -9.5720  -9.5490  -9.5093  -9.4819
    -9.4761  -9.4567  -9.4519  -9.4059  -9.3819  -9.3280  -9.3181  -9.2883
    -9.2517  -9.1983  -9.1786  -9.1627  -9.1474  -9.0806  -9.0546  -9.0460
    -8.9390  -8.8512  -8.8109  -8.7876  -8.7088  -8.6788  -8.6485  -8.6316
    -8.5382  -8.4941  -8.4695  -8.4564  -8.3716  -8.3457  -8.3145  -8.2663
    -8.2568  -8.2220  -8.2127  -8.1992  -8.1804  -8.1579  -8.1447  -8.1177
    -8.1091  -8.0970  -7.9337  -7.8239  -7.7945  -7.7198  -7.7002  -7.6905
    -7.6784  -7.6211  -7.6048  -7.5665  -7.4239  -7.3960  -7.3845  -7.2293
    -7.1699  -7.1556  -7.0992  -7.0883  -7.0611  -7.0156  -6.9485  -6.9195
    -6.8722  -6.8100  -6.8086  -6.7023  -6.6257  -6.6097  -6.5432  -6.4812
    -6.4583  -6.4202  -6.3761  -6.3554  -6.3396  -6.3302  -6.2160  -6.0335
    -5.9824  -5.9535  -5.8870  -5.8569  -5.8435  -5.8352  -5.8162  -5.7994
    -5.7845  -5.7786  -5.7771  -5.7129  -5.6178  -5.5980  -5.5806  -5.5654
    -5.5299  -5.5179  -5.5142  -5.4752  -5.4652  -5.4536  -5.4402  -5.2220
    -5.1093  -4.3516  -4.0202  -3.8772  -2.8801  -2.4810  -2.3119  -1.2281
    -0.7732  -0.5823   0.2593   0.7036   0.8049   0.8723   0.9130   1.1104
     1.3956

     occupation numbers 
     1.0000   1.0000   1.0000   1.0000   1.0000   1.0000   1.0000   1.0000
     1.0000   1.0000   1.0000   1.0000   1.0000   1.0000   1.0000   1.0000
     1.0000   1.0000   1.0000   1.0000   1.0000   1.0000   1.0000   1.0000
     1.0000   1.0000   1.0000   1.0000   1.0000   1.0000   1.0000   1.0000
     1.0000   1.0000   1.0000   1.0000   1.0000   1.0000   1.0000   1.0000
     1.0000   1.0000   1.0000   1.0000   1.0000   1.0000   1.0000   1.0000
     1.0000   1.0000   1.0000   1.0000   1.0000   1.0000   1.0000   1.0000
     1.0000   1.0000   1.0000   1.0000   1.0000   1.0000   1.0000   1.0000
     1.0000   1.0000   1.0000   1.0000   1.0000   1.0000   1.0000   1.0000
     1.0000   1.0000   1.0000   1.0000   1.0000   1.0000   1.0000   1.0000
     1.0000   1.0000   1.0000   1.0000   1.0000   1.0000   1.0000   1.0000
     1.0000   1.0000   1.0000   1.0000   1.0000   1.0000   1.0000   1.0000
     1.0000   1.0000   1.0000   1.0000   1.0000   1.0000   1.0000   1.0000
     1.0001   1.0003   1.0013   1.0025   1.0033   1.0039   1.0057   1.0077
     1.0099   1.0110   1.0112   1.0287   1.0704   1.0776   1.0819   1.0833
     1.0748   1.0672   1.0644   1.0163   0.9985   0.9751   0.9440   0.2226
     0.0472   0.0000   0.0000   0.0000   0.0000   0.0000   0.0000   0.0000
     0.0000   0.0000   0.0000   0.0000   0.0000   0.0000   0.0000   0.0000
     0.0000

          k = 0.3125-0.4691 0.0000 ( 44485 PWs)   bands (ev):

   -11.5657 -10.9078 -10.4725 -10.4494 -10.2963 -10.2283 -10.1744 -10.1537
   -10.0248  -9.9675  -9.9550  -9.9208  -9.9153  -9.8924  -9.8494  -9.7746
    -9.7336  -9.7260  -9.6884  -9.6648  -9.6499  -9.6175  -9.5607  -9.4895
    -9.4673  -9.4559  -9.4432  -9.3672  -9.3350  -9.2825  -9.2527  -9.2397
    -9.2293  -9.2203  -9.1610  -9.1522  -9.1331  -9.0091  -8.9524  -8.9456
    -8.9357  -8.8801  -8.8407  -8.8052  -8.7729  -8.6975  -8.6699  -8.5537
    -8.5410  -8.4713  -8.4267  -8.3992  -8.3847  -8.3306  -8.3000  -8.2310
    -8.1968  -8.1780  -8.1617  -8.1327  -8.0865  -8.0575  -8.0087  -7.9794
    -7.9232  -7.9052  -7.8671  -7.8220  -7.8009  -7.7780  -7.7413  -7.6911
    -7.6376  -7.5977  -7.5585  -7.5286  -7.3658  -7.3098  -7.2551  -7.2415
    -7.1704  -7.1442  -7.1212  -7.1052  -7.0847  -7.0522  -7.0395  -6.9578
    -6.8345  -6.8067  -6.7965  -6.7411  -6.7272  -6.6342  -6.5710  -6.5355
    -6.4711  -6.4514  -6.4266  -6.3467  -6.3149  -6.2753  -6.2569  -6.2093
    -6.0908  -6.0555  -5.9856  -5.9434  -5.8447  -5.8238  -5.8003  -5.7747
    -5.7473  -5.7009  -5.6828  -5.6606  -5.6406  -5.6205  -5.5812  -5.5333
    -5.5264  -5.4934  -5.4596  -5.4461  -5.4403  -5.2205  -5.0752  -5.0148
    -4.7449  -4.5695  -3.9901  -3.5549  -3.1765  -2.4328  -1.9763  -1.5756
    -0.7208  -0.2960  -0.1366   0.0343   0.3640   0.6820   0.9048   1.0810
     1.4102

     occupation numbers 
     1.0000   1.0000   1.0000   1.0000   1.0000   1.0000   1.0000   1.0000
     1.0000   1.0000   1.0000   1.0000   1.0000   1.0000   1.0000   1.0000
     1.0000   1.0000   1.0000   1.0000   1.0000   1.0000   1.0000   1.0000
     1.0000   1.0000   1.0000   1.0000   1.0000   1.0000   1.0000   1.0000
     1.0000   1.0000   1.0000   1.0000   1.0000   1.0000   1.0000   1.0000
     1.0000   1.0000   1.0000   1.0000   1.0000   1.0000   1.0000   1.0000
     1.0000   1.0000   1.0000   1.0000   1.0000   1.0000   1.0000   1.0000
     1.0000   1.0000   1.0000   1.0000   1.0000   1.0000   1.0000   1.0000
     1.0000   1.0000   1.0000   1.0000   1.0000   1.0000   1.0000   1.0000
     1.0000   1.0000   1.0000   1.0000   1.0000   1.0000   1.0000   1.0000
     1.0000   1.0000   1.0000   1.0000   1.0000   1.0000   1.0000   1.0000
     1.0000   1.0000   1.0000   1.0000   1.0000   1.0000   1.0000   1.0000
     1.0000   1.0000   1.0000   1.0000   1.0000   1.0000   1.0000   1.0000
     1.0000   1.0000   1.0001   1.0003   1.0033   1.0049   1.0076   1.0117
     1.0179   1.0332   1.0408   1.0509   1.0603   1.0693   1.0818   1.0765
     1.0729   1.0429   0.9876   0.9581   0.9441   0.2188   0.0263   0.0081
     0.0000   0.0000   0.0000   0.0000   0.0000   0.0000   0.0000   0.0000
     0.0000   0.0000   0.0000   0.0000   0.0000   0.0000   0.0000   0.0000
     0.0000

          k = 0.3125-0.3969 0.0000 ( 44502 PWs)   bands (ev):

   -11.6586 -11.1678 -10.6277 -10.5524 -10.2959 -10.2906 -10.2802 -10.2402
   -10.1933 -10.0840 -10.0685 -10.0378 -10.0022  -9.9782  -9.9066  -9.8852
    -9.8706  -9.7970  -9.7326  -9.7265  -9.7118  -9.7096  -9.6933  -9.5499
    -9.5352  -9.5159  -9.4761  -9.3615  -9.3360  -9.3031  -9.2683  -9.2241
    -9.1876  -9.1751  -9.1631  -9.1266  -9.0957  -8.9699  -8.9641  -8.9510
    -8.9189  -8.7959  -8.7720  -8.7439  -8.7156  -8.6100  -8.5613  -8.4489
    -8.4429  -8.4278  -8.4196  -8.3538  -8.3318  -8.3108  -8.2115  -8.1615
    -8.1304  -8.0925  -8.0520  -8.0223  -8.0146  -7.9729  -7.9465  -7.8979
    -7.8684  -7.8404  -7.8109  -7.7574  -7.7334  -7.6746  -7.6024  -7.5680
    -7.5176  -7.4832  -7.4289  -7.4188  -7.3712  -7.3135  -7.2952  -7.2704
    -7.2431  -7.1819  -7.0931  -7.0537  -7.0140  -7.0017  -6.9973  -6.9515
    -6.9222  -6.9093  -6.7763  -6.7447  -6.7245  -6.7074  -6.6225  -6.5404
    -6.5255  -6.4605  -6.4210  -6.4012  -6.3025  -6.2679  -6.2167  -6.2065
    -6.1833  -6.1341  -6.0248  -6.0044  -5.8377  -5.8274  -5.8075  -5.7762
    -5.7156  -5.6144  -5.6086  -5.5947  -5.5797  -5.5634  -5.5382  -5.5020
    -5.4848  -5.4538  -5.4515  -5.3446  -5.3362  -5.2500  -4.8699  -4.6237
    -4.5122  -4.2097  -3.9523  -3.5286  -3.0560  -2.3954  -1.9923  -1.4787
    -0.8398  -0.7233  -0.5683  -0.3671   0.0776   0.3221   0.7330   1.0099
     1.3042

     occupation numbers 
     1.0000   1.0000   1.0000   1.0000   1.0000   1.0000   1.0000   1.0000
     1.0000   1.0000   1.0000   1.0000   1.0000   1.0000   1.0000   1.0000
     1.0000   1.0000   1.0000   1.0000   1.0000   1.0000   1.0000   1.0000
     1.0000   1.0000   1.0000   1.0000   1.0000   1.0000   1.0000   1.0000
     1.0000   1.0000   1.0000   1.0000   1.0000   1.0000   1.0000   1.0000
     1.0000   1.0000   1.0000   1.0000   1.0000   1.0000   1.0000   1.0000
     1.0000   1.0000   1.0000   1.0000   1.0000   1.0000   1.0000   1.0000
     1.0000   1.0000   1.0000   1.0000   1.0000   1.0000   1.0000   1.0000
     1.0000   1.0000   1.0000   1.0000   1.0000   1.0000   1.0000   1.0000
     1.0000   1.0000   1.0000   1.0000   1.0000   1.0000   1.0000   1.0000
     1.0000   1.0000   1.0000   1.0000   1.0000   1.0000   1.0000   1.0000
     1.0000   1.0000   1.0000   1.0000   1.0000   1.0000   1.0000   1.0000
     1.0000   1.0000   1.0000   1.0000   1.0000   1.0000   1.0000   1.0000
     1.0000   1.0000   1.0000   1.0001   1.0037   1.0046   1.0066   1.0114
     1.0277   1.0718   1.0740   1.0786   1.0820   1.0833   1.0786   1.0529
     1.0313   0.9755   0.9703   0.6312   0.5996   0.2987   0.0002   0.0000
     0.0000   0.0000   0.0000   0.0000   0.0000   0.0000   0.0000   0.0000
     0.0000   0.0000   0.0000   0.0000   0.0000   0.0000   0.0000   0.0000
     0.0000

          k = 0.3125-0.3248 0.0000 ( 44545 PWs)   bands (ev):

   -11.7735 -11.3982 -10.8062 -10.6275 -10.4291 -10.3898 -10.3540 -10.3182
   -10.2934 -10.2394 -10.1764 -10.1338 -10.1295 -10.1202 -10.0467  -9.9923
    -9.9277  -9.8796  -9.8638  -9.8174  -9.7875  -9.7537  -9.7450  -9.6638
    -9.6259  -9.6055  -9.5581  -9.4617  -9.4473  -9.2963  -9.2632  -9.2130
    -9.1918  -9.1564  -9.1290  -9.0619  -9.0365  -9.0195  -8.9995  -8.9167
    -8.8379  -8.7322  -8.6922  -8.6428  -8.5697  -8.5623  -8.5161  -8.4222
    -8.3859  -8.3140  -8.2782  -8.2518  -8.1878  -8.1421  -8.1292  -8.1029
    -8.0557  -8.0216  -8.0136  -7.9854  -7.9707  -7.9419  -7.9181  -7.8791
    -7.8727  -7.8082  -7.7723  -7.6282  -7.6046  -7.6006  -7.5696  -7.5164
    -7.4644  -7.4598  -7.3818  -7.3296  -7.2974  -7.2183  -7.2040  -7.1829
    -7.1659  -7.1385  -7.1299  -7.0676  -7.0399  -7.0096  -6.9425  -6.9134
    -6.8751  -6.8019  -6.7187  -6.6881  -6.6818  -6.6708  -6.5682  -6.4915
    -6.4431  -6.4337  -6.4118  -6.3293  -6.2943  -6.2816  -6.2403  -6.1635
    -6.1375  -6.0935  -6.0784  -6.0152  -5.9134  -5.8569  -5.8375  -5.7315
    -5.7138  -5.5948  -5.5667  -5.5397  -5.5282  -5.5170  -5.4978  -5.4779
    -5.3964  -5.3742  -5.3709  -5.3091  -5.2398  -5.2323  -5.0728  -4.1802
    -4.0853  -3.8943  -3.7860  -3.5164  -2.6711  -2.3157  -2.2065  -1.5175
    -1.3132  -1.1173  -0.9511  -0.6575  -0.4205   0.1368   0.7656   1.0250
     1.1706

     occupation numbers 
     1.0000   1.0000   1.0000   1.0000   1.0000   1.0000   1.0000   1.0000
     1.0000   1.0000   1.0000   1.0000   1.0000   1.0000   1.0000   1.0000
     1.0000   1.0000   1.0000   1.0000   1.0000   1.0000   1.0000   1.0000
     1.0000   1.0000   1.0000   1.0000   1.0000   1.0000   1.0000   1.0000
     1.0000   1.0000   1.0000   1.0000   1.0000   1.0000   1.0000   1.0000
     1.0000   1.0000   1.0000   1.0000   1.0000   1.0000   1.0000   1.0000
     1.0000   1.0000   1.0000   1.0000   1.0000   1.0000   1.0000   1.0000
     1.0000   1.0000   1.0000   1.0000   1.0000   1.0000   1.0000   1.0000
     1.0000   1.0000   1.0000   1.0000   1.0000   1.0000   1.0000   1.0000
     1.0000   1.0000   1.0000   1.0000   1.0000   1.0000   1.0000   1.0000
     1.0000   1.0000   1.0000   1.0000   1.0000   1.0000   1.0000   1.0000
     1.0000   1.0000   1.0000   1.0000   1.0000   1.0000   1.0000   1.0000
     1.0000   1.0000   1.0000   1.0000   1.0000   1.0000   1.0000   1.0000
     1.0000   1.0000   1.0000   1.0000   1.0007   1.0025   1.0038   1.0224
     1.0284   1.0786   1.0833   1.0791   1.0739   1.0666   1.0483   1.0207
     0.8168   0.7403   0.7284   0.4981   0.2694   0.2489   0.0251   0.0000
     0.0000   0.0000   0.0000   0.0000   0.0000   0.0000   0.0000   0.0000
     0.0000   0.0000   0.0000   0.0000   0.0000   0.0000   0.0000   0.0000
     0.0000

          k = 0.3125-0.2526 0.0000 ( 44528 PWs)   bands (ev):

   -11.8931 -11.5859 -10.9648 -10.6812 -10.5503 -10.4799 -10.4628 -10.3721
   -10.3632 -10.3508 -10.2770 -10.2593 -10.2520 -10.2120 -10.1553 -10.1333
   -10.0189  -9.9976  -9.9277  -9.8937  -9.8709  -9.8199  -9.8155  -9.7721
    -9.7563  -9.6788  -9.6467  -9.5804  -9.5276  -9.3389  -9.2596  -9.2374
    -9.2140  -9.2015  -9.1226  -9.0549  -8.9601  -8.9451  -8.9257  -8.8528
    -8.7490  -8.7230  -8.6866  -8.6065  -8.4788  -8.4555  -8.3993  -8.3306
    -8.3143  -8.2605  -8.2091  -8.1912  -8.1510  -8.1128  -8.0818  -8.0750
    -8.0432  -8.0274  -7.9761  -7.9257  -7.9100  -7.8574  -7.8378  -7.8039
    -7.7808  -7.7621  -7.7263  -7.6503  -7.6368  -7.5880  -7.5629  -7.5562
    -7.5017  -7.4279  -7.3748  -7.3673  -7.2855  -7.1559  -7.1224  -7.0926
    -7.0343  -7.0051  -6.9860  -6.9720  -6.9555  -6.9268  -6.9185  -6.7976
    -6.7487  -6.6301  -6.6019  -6.5946  -6.5853  -6.5749  -6.4289  -6.3489
    -6.3360  -6.3287  -6.3104  -6.2876  -6.2271  -6.1954  -6.1413  -6.1236
    -6.0879  -6.0694  -6.0248  -5.9941  -5.9691  -5.8867  -5.8673  -5.7731
    -5.6564  -5.5959  -5.5695  -5.5372  -5.5122  -5.4643  -5.4444  -5.4267
    -5.3787  -5.3332  -5.3108  -5.2990  -5.2400  -5.1656  -5.1603  -4.2183
    -3.8850  -3.5641  -3.3321  -2.9947  -2.6702  -2.2746  -2.1983  -1.9301
    -1.8449  -1.5926  -1.3983  -0.6737  -0.4098  -0.2511   0.5342   1.1696
     1.3697

     occupation numbers 
     1.0000   1.0000   1.0000   1.0000   1.0000   1.0000   1.0000   1.0000
     1.0000   1.0000   1.0000   1.0000   1.0000   1.0000   1.0000   1.0000
     1.0000   1.0000   1.0000   1.0000   1.0000   1.0000   1.0000   1.0000
     1.0000   1.0000   1.0000   1.0000   1.0000   1.0000   1.0000   1.0000
     1.0000   1.0000   1.0000   1.0000   1.0000   1.0000   1.0000   1.0000
     1.0000   1.0000   1.0000   1.0000   1.0000   1.0000   1.0000   1.0000
     1.0000   1.0000   1.0000   1.0000   1.0000   1.0000   1.0000   1.0000
     1.0000   1.0000   1.0000   1.0000   1.0000   1.0000   1.0000   1.0000
     1.0000   1.0000   1.0000   1.0000   1.0000   1.0000   1.0000   1.0000
     1.0000   1.0000   1.0000   1.0000   1.0000   1.0000   1.0000   1.0000
     1.0000   1.0000   1.0000   1.0000   1.0000   1.0000   1.0000   1.0000
     1.0000   1.0000   1.0000   1.0000   1.0000   1.0000   1.0000   1.0000
     1.0000   1.0000   1.0000   1.0000   1.0000   1.0000   1.0000   1.0000
     1.0000   1.0000   1.0000   1.0001   1.0002   1.0013   1.0020   1.0120
     1.0529   1.0783   1.0832   1.0782   1.0627   0.9968   0.9541   0.9087
     0.7563   0.5881   0.5043   0.4614   0.2701   0.1102   0.1025   0.0000
     0.0000   0.0000   0.0000   0.0000   0.0000   0.0000   0.0000   0.0000
     0.0000   0.0000   0.0000   0.0000   0.0000   0.0000   0.0000   0.0000
     0.0000

          k = 0.3750-0.2165 0.0000 ( 44520 PWs)   bands (ev):

   -11.8243 -11.4771 -10.8782 -10.7100 -10.5153 -10.4144 -10.4124 -10.3703
   -10.3323 -10.2425 -10.2418 -10.2292 -10.1923 -10.1145 -10.1025 -10.1010
    -9.9347  -9.9301  -9.8719  -9.8342  -9.8039  -9.8021  -9.7300  -9.7182
    -9.7042  -9.6311  -9.5534  -9.5490  -9.4968  -9.2992  -9.2393  -9.2201
    -9.1884  -9.1678  -9.1103  -9.0679  -9.0148  -8.9637  -8.8842  -8.8610
    -8.8597  -8.7901  -8.6708  -8.6461  -8.5460  -8.5007  -8.4497  -8.3835
    -8.3510  -8.2571  -8.1900  -8.1411  -8.1327  -8.1173  -8.1106  -8.0930
    -8.0572  -8.0082  -7.9518  -7.9472  -7.9166  -7.8846  -7.8721  -7.8404
    -7.8113  -7.7039  -7.6764  -7.6404  -7.6398  -7.6155  -7.5670  -7.5447
    -7.5104  -7.4972  -7.4677  -7.3215  -7.2402  -7.2386  -7.2153  -7.1497
    -7.1085  -7.0870  -7.0868  -7.0372  -6.9770  -6.9658  -6.9506  -6.8711
    -6.7537  -6.7011  -6.6797  -6.6602  -6.6477  -6.6279  -6.4505  -6.4442
    -6.4305  -6.3863  -6.3850  -6.3491  -6.3450  -6.3004  -6.2377  -6.1957
    -6.1771  -6.1370  -6.1326  -6.0642  -6.0138  -5.9795  -5.9688  -5.9367
    -5.8469  -5.6201  -5.5994  -5.5722  -5.5243  -5.4956  -5.4103  -5.4100
    -5.3787  -5.3231  -5.2885  -5.2865  -5.2283  -5.1377  -5.1369  -4.2306
    -3.9159  -3.0014  -2.8827  -2.8259  -2.5820  -2.4886  -2.3335  -2.1222
    -2.0494  -1.4142  -1.1954  -1.0861  -0.5577   0.1032   0.2698   1.0240
     1.5910

     occupation numbers 
     1.0000   1.0000   1.0000   1.0000   1.0000   1.0000   1.0000   1.0000
     1.0000   1.0000   1.0000   1.0000   1.0000   1.0000   1.0000   1.0000
     1.0000   1.0000   1.0000   1.0000   1.0000   1.0000   1.0000   1.0000
     1.0000   1.0000   1.0000   1.0000   1.0000   1.0000   1.0000   1.0000
     1.0000   1.0000   1.0000   1.0000   1.0000   1.0000   1.0000   1.0000
     1.0000   1.0000   1.0000   1.0000   1.0000   1.0000   1.0000   1.0000
     1.0000   1.0000   1.0000   1.0000   1.0000   1.0000   1.0000   1.0000
     1.0000   1.0000   1.0000   1.0000   1.0000   1.0000   1.0000   1.0000
     1.0000   1.0000   1.0000   1.0000   1.0000   1.0000   1.0000   1.0000
     1.0000   1.0000   1.0000   1.0000   1.0000   1.0000   1.0000   1.0000
     1.0000   1.0000   1.0000   1.0000   1.0000   1.0000   1.0000   1.0000
     1.0000   1.0000   1.0000   1.0000   1.0000   1.0000   1.0000   1.0000
     1.0000   1.0000   1.0000   1.0000   1.0000   1.0000   1.0000   1.0000
     1.0000   1.0000   1.0000   1.0000   1.0001   1.0001   1.0002   1.0004
     1.0031   1.0694   1.0772   1.0830   1.0717   1.0456   0.8611   0.8601
     0.7562   0.5502   0.4241   0.4169   0.2385   0.0737   0.0728   0.0000
     0.0000   0.0000   0.0000   0.0000   0.0000   0.0000   0.0000   0.0000
     0.0000   0.0000   0.0000   0.0000   0.0000   0.0000   0.0000   0.0000
     0.0000

          k = 0.3750-0.1443 0.0000 ( 44528 PWs)   bands (ev):

   -11.8931 -11.5859 -10.9648 -10.6812 -10.5503 -10.4799 -10.4628 -10.3721
   -10.3632 -10.3508 -10.2770 -10.2593 -10.2520 -10.2120 -10.1553 -10.1333
   -10.0189  -9.9976  -9.9277  -9.8937  -9.8709  -9.8199  -9.8155  -9.7721
    -9.7563  -9.6788  -9.6467  -9.5804  -9.5276  -9.3389  -9.2596  -9.2374
    -9.2140  -9.2015  -9.1226  -9.0549  -8.9601  -8.9451  -8.9257  -8.8528
    -8.7490  -8.7230  -8.6866  -8.6065  -8.4788  -8.4555  -8.3993  -8.3306
    -8.3143  -8.2605  -8.2091  -8.1912  -8.1510  -8.1128  -8.0818  -8.0750
    -8.0432  -8.0273  -7.9761  -7.9257  -7.9100  -7.8574  -7.8378  -7.8039
    -7.7808  -7.7621  -7.7263  -7.6503  -7.6368  -7.5880  -7.5629  -7.5562
    -7.5017  -7.4279  -7.3748  -7.3673  -7.2855  -7.1559  -7.1224  -7.0926
    -7.0343  -7.0051  -6.9860  -6.9720  -6.9555  -6.9268  -6.9185  -6.7976
    -6.7487  -6.6301  -6.6019  -6.5946  -6.5853  -6.5749  -6.4289  -6.3489
    -6.3360  -6.3287  -6.3104  -6.2876  -6.2271  -6.1954  -6.1413  -6.1236
    -6.0879  -6.0694  -6.0248  -5.9941  -5.9691  -5.8867  -5.8673  -5.7731
    -5.6564  -5.5959  -5.5695  -5.5372  -5.5122  -5.4643  -5.4444  -5.4267
    -5.3787  -5.3332  -5.3108  -5.2990  -5.2400  -5.1656  -5.1603  -4.2183
    -3.8850  -3.5641  -3.3321  -2.9947  -2.6702  -2.2746  -2.1983  -1.9301
    -1.8449  -1.5926  -1.3983  -0.6737  -0.4098  -0.2511   0.5342   1.1696
     1.3697

     occupation numbers 
     1.0000   1.0000   1.0000   1.0000   1.0000   1.0000   1.0000   1.0000
     1.0000   1.0000   1.0000   1.0000   1.0000   1.0000   1.0000   1.0000
     1.0000   1.0000   1.0000   1.0000   1.0000   1.0000   1.0000   1.0000
     1.0000   1.0000   1.0000   1.0000   1.0000   1.0000   1.0000   1.0000
     1.0000   1.0000   1.0000   1.0000   1.0000   1.0000   1.0000   1.0000
     1.0000   1.0000   1.0000   1.0000   1.0000   1.0000   1.0000   1.0000
     1.0000   1.0000   1.0000   1.0000   1.0000   1.0000   1.0000   1.0000
     1.0000   1.0000   1.0000   1.0000   1.0000   1.0000   1.0000   1.0000
     1.0000   1.0000   1.0000   1.0000   1.0000   1.0000   1.0000   1.0000
     1.0000   1.0000   1.0000   1.0000   1.0000   1.0000   1.0000   1.0000
     1.0000   1.0000   1.0000   1.0000   1.0000   1.0000   1.0000   1.0000
     1.0000   1.0000   1.0000   1.0000   1.0000   1.0000   1.0000   1.0000
     1.0000   1.0000   1.0000   1.0000   1.0000   1.0000   1.0000   1.0000
     1.0000   1.0000   1.0000   1.0001   1.0002   1.0013   1.0020   1.0120
     1.0529   1.0783   1.0832   1.0782   1.0627   0.9968   0.9541   0.9087
     0.7563   0.5881   0.5043   0.4614   0.2701   0.1102   0.1025   0.0000
     0.0000   0.0000   0.0000   0.0000   0.0000   0.0000   0.0000   0.0000
     0.0000   0.0000   0.0000   0.0000   0.0000   0.0000   0.0000   0.0000
     0.0000

          k = 0.3750-0.0722 0.0000 ( 44558 PWs)   bands (ev):

   -11.9391 -11.6499 -11.0174 -10.6280 -10.5518 -10.5213 -10.4988 -10.4586
   -10.3831 -10.3575 -10.3224 -10.3016 -10.2610 -10.2500 -10.1527 -10.1457
   -10.1024 -10.0422 -10.0008  -9.9601  -9.8881  -9.8710  -9.8316  -9.8061
    -9.7824  -9.7384  -9.6668  -9.5948  -9.5503  -9.4191  -9.2835  -9.2591
    -9.2335  -9.1582  -9.1240  -9.0334  -8.9918  -8.9578  -8.8863  -8.8632
    -8.7490  -8.6749  -8.5856  -8.5777  -8.4430  -8.4255  -8.3964  -8.3111
    -8.2940  -8.2896  -8.2585  -8.2247  -8.1777  -8.1122  -8.0717  -8.0509
    -8.0446  -8.0397  -8.0002  -7.9512  -7.9186  -7.9012  -7.8158  -7.8044
    -7.7829  -7.7641  -7.6729  -7.6631  -7.6487  -7.6026  -7.5668  -7.5100
    -7.4740  -7.3796  -7.3399  -7.3077  -7.2829  -7.1437  -7.0727  -7.0283
    -7.0146  -6.9796  -6.9740  -6.9275  -6.8962  -6.8427  -6.8229  -6.7890
    -6.7613  -6.6481  -6.5672  -6.5578  -6.5448  -6.5177  -6.3988  -6.3768
    -6.3165  -6.2870  -6.2658  -6.2346  -6.2025  -6.1031  -6.0770  -6.0432
    -5.9881  -5.9763  -5.9542  -5.9347  -5.8324  -5.7797  -5.7298  -5.6900
    -5.5954  -5.5741  -5.5456  -5.5388  -5.5179  -5.4836  -5.3827  -5.3615
    -5.3557  -5.3369  -5.2965  -5.2341  -5.2312  -5.1060  -4.8712  -4.2881
    -4.1798  -3.9563  -3.6955  -3.4904  -2.8829  -2.5259  -1.9386  -1.7252
    -1.6262  -1.2715  -1.0190  -0.7846  -0.2364   0.0312   0.4547   0.7696
     0.8928

     occupation numbers 
     1.0000   1.0000   1.0000   1.0000   1.0000   1.0000   1.0000   1.0000
     1.0000   1.0000   1.0000   1.0000   1.0000   1.0000   1.0000   1.0000
     1.0000   1.0000   1.0000   1.0000   1.0000   1.0000   1.0000   1.0000
     1.0000   1.0000   1.0000   1.0000   1.0000   1.0000   1.0000   1.0000
     1.0000   1.0000   1.0000   1.0000   1.0000   1.0000   1.0000   1.0000
     1.0000   1.0000   1.0000   1.0000   1.0000   1.0000   1.0000   1.0000
     1.0000   1.0000   1.0000   1.0000   1.0000   1.0000   1.0000   1.0000
     1.0000   1.0000   1.0000   1.0000   1.0000   1.0000   1.0000   1.0000
     1.0000   1.0000   1.0000   1.0000   1.0000   1.0000   1.0000   1.0000
     1.0000   1.0000   1.0000   1.0000   1.0000   1.0000   1.0000   1.0000
     1.0000   1.0000   1.0000   1.0000   1.0000   1.0000   1.0000   1.0000
     1.0000   1.0000   1.0000   1.0000   1.0000   1.0000   1.0000   1.0000
     1.0000   1.0000   1.0000   1.0000   1.0000   1.0000   1.0000   1.0000
     1.0001   1.0001   1.0003   1.0004   1.0042   1.0108   1.0229   1.0377
     1.0784   1.0828   1.0809   1.0788   1.0673   1.0295   0.7702   0.6943
     0.6727   0.6020   0.4523   0.2539   0.2461   0.0447   0.0002   0.0000
     0.0000   0.0000   0.0000   0.0000   0.0000   0.0000   0.0000   0.0000
     0.0000   0.0000   0.0000   0.0000   0.0000   0.0000   0.0000   0.0000
     0.0000

          k = 0.3750 0.0000 0.0000 ( 44577 PWs)   bands (ev):

   -11.9552 -11.6710 -11.0350 -10.5542 -10.5513 -10.5352 -10.5302 -10.5283
   -10.3821 -10.3492 -10.3485 -10.3438 -10.2631 -10.1891 -10.1836 -10.1543
   -10.1012 -10.0833 -10.0581  -9.9742  -9.8917  -9.8863  -9.8382  -9.8096
    -9.7895  -9.7733  -9.6599  -9.5933  -9.5726  -9.4454  -9.2826  -9.2779
    -9.2388  -9.1727  -9.0703  -9.0465  -9.0067  -8.9492  -8.8918  -8.8686
    -8.7547  -8.6531  -8.5789  -8.4866  -8.4641  -8.4119  -8.3742  -8.3719
    -8.3075  -8.2777  -8.2615  -8.2352  -8.1872  -8.1127  -8.0815  -8.0431
    -8.0416  -8.0400  -7.9851  -7.9638  -7.9587  -7.9199  -7.8198  -7.7987
    -7.7754  -7.7101  -7.7059  -7.6714  -7.6421  -7.6075  -7.5626  -7.4879
    -7.4637  -7.3779  -7.3199  -7.3027  -7.2285  -7.1708  -7.0331  -7.0144
    -7.0021  -6.9962  -6.9738  -6.9021  -6.8594  -6.8055  -6.7934  -6.7725
    -6.7378  -6.7191  -6.5522  -6.5439  -6.5290  -6.4828  -6.4563  -6.3300
    -6.3124  -6.2649  -6.2544  -6.2157  -6.1954  -6.0906  -6.0636  -6.0351
    -6.0046  -5.9191  -5.9120  -5.8051  -5.7500  -5.7255  -5.6898  -5.6807
    -5.6297  -5.5750  -5.5542  -5.5400  -5.5226  -5.5083  -5.4988  -5.3665
    -5.3381  -5.3145  -5.2938  -5.2859  -4.8425  -4.7971  -4.6355  -4.5425
    -4.4065  -4.1825  -4.1329  -3.3204  -3.0115  -2.8082  -1.8945  -1.5799
    -1.3654  -1.2916  -0.8928  -0.5329  -0.1736   0.1924   0.3456   0.4551
     0.5927

     occupation numbers 
     1.0000   1.0000   1.0000   1.0000   1.0000   1.0000   1.0000   1.0000
     1.0000   1.0000   1.0000   1.0000   1.0000   1.0000   1.0000   1.0000
     1.0000   1.0000   1.0000   1.0000   1.0000   1.0000   1.0000   1.0000
     1.0000   1.0000   1.0000   1.0000   1.0000   1.0000   1.0000   1.0000
     1.0000   1.0000   1.0000   1.0000   1.0000   1.0000   1.0000   1.0000
     1.0000   1.0000   1.0000   1.0000   1.0000   1.0000   1.0000   1.0000
     1.0000   1.0000   1.0000   1.0000   1.0000   1.0000   1.0000   1.0000
     1.0000   1.0000   1.0000   1.0000   1.0000   1.0000   1.0000   1.0000
     1.0000   1.0000   1.0000   1.0000   1.0000   1.0000   1.0000   1.0000
     1.0000   1.0000   1.0000   1.0000   1.0000   1.0000   1.0000   1.0000
     1.0000   1.0000   1.0000   1.0000   1.0000   1.0000   1.0000   1.0000
     1.0000   1.0000   1.0000   1.0000   1.0000   1.0000   1.0000   1.0000
     1.0000   1.0000   1.0000   1.0000   1.0000   1.0000   1.0000   1.0000
     1.0001   1.0006   1.0007   1.0069   1.0172   1.0243   1.0378   1.0417
     1.0653   1.0827   1.0826   1.0792   1.0705   1.0592   1.0494   0.7125
     0.6067   0.5181   0.4427   0.4148   0.0001   0.0000   0.0000   0.0000
     0.0000   0.0000   0.0000   0.0000   0.0000   0.0000   0.0000   0.0000
     0.0000   0.0000   0.0000   0.0000   0.0000   0.0000   0.0000   0.0000
     0.0000

          k = 0.3750 0.0722 0.0000 ( 44558 PWs)   bands (ev):

   -11.9391 -11.6499 -11.0174 -10.6280 -10.5518 -10.5213 -10.4988 -10.4586
   -10.3831 -10.3575 -10.3224 -10.3016 -10.2610 -10.2500 -10.1527 -10.1457
   -10.1024 -10.0422 -10.0008  -9.9601  -9.8881  -9.8710  -9.8316  -9.8061
    -9.7824  -9.7384  -9.6668  -9.5948  -9.5503  -9.4191  -9.2835  -9.2591
    -9.2335  -9.1582  -9.1240  -9.0334  -8.9918  -8.9578  -8.8863  -8.8632
    -8.7490  -8.6749  -8.5856  -8.5777  -8.4430  -8.4255  -8.3964  -8.3111
    -8.2940  -8.2896  -8.2585  -8.2247  -8.1777  -8.1122  -8.0717  -8.0509
    -8.0446  -8.0397  -8.0002  -7.9512  -7.9186  -7.9012  -7.8158  -7.8044
    -7.7829  -7.7641  -7.6729  -7.6631  -7.6487  -7.6026  -7.5668  -7.5100
    -7.4740  -7.3796  -7.3399  -7.3077  -7.2829  -7.1437  -7.0727  -7.0283
    -7.0146  -6.9796  -6.9740  -6.9275  -6.8962  -6.8427  -6.8229  -6.7890
    -6.7613  -6.6481  -6.5672  -6.5578  -6.5448  -6.5177  -6.3988  -6.3768
    -6.3165  -6.2870  -6.2658  -6.2346  -6.2025  -6.1031  -6.0770  -6.0432
    -5.9881  -5.9763  -5.9542  -5.9347  -5.8324  -5.7797  -5.7298  -5.6900
    -5.5954  -5.5741  -5.5456  -5.5388  -5.5179  -5.4836  -5.3827  -5.3615
    -5.3557  -5.3369  -5.2965  -5.2341  -5.2312  -5.1060  -4.8712  -4.2881
    -4.1798  -3.9563  -3.6955  -3.4904  -2.8829  -2.5259  -1.9386  -1.7252
    -1.6262  -1.2715  -1.0190  -0.7846  -0.2364   0.0312   0.4547   0.7696
     0.8928

     occupation numbers 
     1.0000   1.0000   1.0000   1.0000   1.0000   1.0000   1.0000   1.0000
     1.0000   1.0000   1.0000   1.0000   1.0000   1.0000   1.0000   1.0000
     1.0000   1.0000   1.0000   1.0000   1.0000   1.0000   1.0000   1.0000
     1.0000   1.0000   1.0000   1.0000   1.0000   1.0000   1.0000   1.0000
     1.0000   1.0000   1.0000   1.0000   1.0000   1.0000   1.0000   1.0000
     1.0000   1.0000   1.0000   1.0000   1.0000   1.0000   1.0000   1.0000
     1.0000   1.0000   1.0000   1.0000   1.0000   1.0000   1.0000   1.0000
     1.0000   1.0000   1.0000   1.0000   1.0000   1.0000   1.0000   1.0000
     1.0000   1.0000   1.0000   1.0000   1.0000   1.0000   1.0000   1.0000
     1.0000   1.0000   1.0000   1.0000   1.0000   1.0000   1.0000   1.0000
     1.0000   1.0000   1.0000   1.0000   1.0000   1.0000   1.0000   1.0000
     1.0000   1.0000   1.0000   1.0000   1.0000   1.0000   1.0000   1.0000
     1.0000   1.0000   1.0000   1.0000   1.0000   1.0000   1.0000   1.0000
     1.0001   1.0001   1.0003   1.0004   1.0042   1.0108   1.0229   1.0377
     1.0784   1.0828   1.0809   1.0788   1.0673   1.0295   0.7702   0.6943
     0.6727   0.6020   0.4523   0.2539   0.2461   0.0447   0.0002   0.0000
     0.0000   0.0000   0.0000   0.0000   0.0000   0.0000   0.0000   0.0000
     0.0000   0.0000   0.0000   0.0000   0.0000   0.0000   0.0000   0.0000
     0.0000

          k = 0.3750 0.1443 0.0000 ( 44528 PWs)   bands (ev):

   -11.8931 -11.5859 -10.9648 -10.6812 -10.5503 -10.4799 -10.4628 -10.3721
   -10.3632 -10.3508 -10.2770 -10.2593 -10.2520 -10.2120 -10.1553 -10.1333
   -10.0189  -9.9976  -9.9277  -9.8937  -9.8709  -9.8199  -9.8155  -9.7721
    -9.7563  -9.6788  -9.6467  -9.5804  -9.5276  -9.3389  -9.2596  -9.2374
    -9.2140  -9.2015  -9.1226  -9.0549  -8.9601  -8.9451  -8.9257  -8.8528
    -8.7490  -8.7230  -8.6866  -8.6065  -8.4788  -8.4555  -8.3993  -8.3306
    -8.3143  -8.2605  -8.2091  -8.1912  -8.1510  -8.1128  -8.0818  -8.0750
    -8.0432  -8.0273  -7.9761  -7.9257  -7.9100  -7.8574  -7.8378  -7.8039
    -7.7808  -7.7621  -7.7263  -7.6503  -7.6368  -7.5880  -7.5629  -7.5562
    -7.5017  -7.4279  -7.3748  -7.3673  -7.2855  -7.1559  -7.1224  -7.0926
    -7.0343  -7.0051  -6.9860  -6.9720  -6.9555  -6.9268  -6.9185  -6.7976
    -6.7487  -6.6301  -6.6019  -6.5946  -6.5853  -6.5749  -6.4289  -6.3489
    -6.3360  -6.3287  -6.3104  -6.2876  -6.2271  -6.1954  -6.1413  -6.1236
    -6.0879  -6.0694  -6.0248  -5.9941  -5.9691  -5.8867  -5.8673  -5.7731
    -5.6564  -5.5959  -5.5695  -5.5372  -5.5122  -5.4643  -5.4444  -5.4267
    -5.3787  -5.3332  -5.3108  -5.2990  -5.2400  -5.1656  -5.1603  -4.2183
    -3.8850  -3.5641  -3.3321  -2.9947  -2.6702  -2.2746  -2.1983  -1.9301
    -1.8449  -1.5926  -1.3983  -0.6737  -0.4098  -0.2511   0.5342   1.1696
     1.3697

     occupation numbers 
     1.0000   1.0000   1.0000   1.0000   1.0000   1.0000   1.0000   1.0000
     1.0000   1.0000   1.0000   1.0000   1.0000   1.0000   1.0000   1.0000
     1.0000   1.0000   1.0000   1.0000   1.0000   1.0000   1.0000   1.0000
     1.0000   1.0000   1.0000   1.0000   1.0000   1.0000   1.0000   1.0000
     1.0000   1.0000   1.0000   1.0000   1.0000   1.0000   1.0000   1.0000
     1.0000   1.0000   1.0000   1.0000   1.0000   1.0000   1.0000   1.0000
     1.0000   1.0000   1.0000   1.0000   1.0000   1.0000   1.0000   1.0000
     1.0000   1.0000   1.0000   1.0000   1.0000   1.0000   1.0000   1.0000
     1.0000   1.0000   1.0000   1.0000   1.0000   1.0000   1.0000   1.0000
     1.0000   1.0000   1.0000   1.0000   1.0000   1.0000   1.0000   1.0000
     1.0000   1.0000   1.0000   1.0000   1.0000   1.0000   1.0000   1.0000
     1.0000   1.0000   1.0000   1.0000   1.0000   1.0000   1.0000   1.0000
     1.0000   1.0000   1.0000   1.0000   1.0000   1.0000   1.0000   1.0000
     1.0000   1.0000   1.0000   1.0001   1.0002   1.0013   1.0020   1.0120
     1.0529   1.0783   1.0832   1.0782   1.0627   0.9968   0.9541   0.9087
     0.7563   0.5881   0.5043   0.4614   0.2701   0.1102   0.1025   0.0000
     0.0000   0.0000   0.0000   0.0000   0.0000   0.0000   0.0000   0.0000
     0.0000   0.0000   0.0000   0.0000   0.0000   0.0000   0.0000   0.0000
     0.0000

          k = 0.3750 0.2165 0.0000 ( 44520 PWs)   bands (ev):

   -11.8243 -11.4771 -10.8782 -10.7100 -10.5153 -10.4144 -10.4124 -10.3703
   -10.3323 -10.2425 -10.2418 -10.2292 -10.1923 -10.1145 -10.1025 -10.1010
    -9.9347  -9.9301  -9.8719  -9.8342  -9.8039  -9.8021  -9.7300  -9.7182
    -9.7042  -9.6311  -9.5534  -9.5490  -9.4968  -9.2992  -9.2393  -9.2201
    -9.1884  -9.1678  -9.1103  -9.0679  -9.0148  -8.9637  -8.8842  -8.8610
    -8.8597  -8.7901  -8.6708  -8.6461  -8.5460  -8.5007  -8.4497  -8.3835
    -8.3510  -8.2571  -8.1900  -8.1411  -8.1327  -8.1173  -8.1106  -8.0930
    -8.0572  -8.0082  -7.9518  -7.9472  -7.9166  -7.8846  -7.8721  -7.8404
    -7.8113  -7.7039  -7.6764  -7.6404  -7.6398  -7.6155  -7.5670  -7.5447
    -7.5104  -7.4972  -7.4677  -7.3215  -7.2402  -7.2386  -7.2153  -7.1497
    -7.1085  -7.0870  -7.0868  -7.0372  -6.9770  -6.9658  -6.9506  -6.8711
    -6.7537  -6.7011  -6.6797  -6.6602  -6.6477  -6.6279  -6.4505  -6.4442
    -6.4305  -6.3863  -6.3850  -6.3491  -6.3450  -6.3004  -6.2377  -6.1957
    -6.1771  -6.1370  -6.1326  -6.0642  -6.0138  -5.9795  -5.9688  -5.9367
    -5.8469  -5.6201  -5.5994  -5.5722  -5.5243  -5.4956  -5.4103  -5.4100
    -5.3787  -5.3231  -5.2885  -5.2865  -5.2283  -5.1377  -5.1369  -4.2306
    -3.9159  -3.0014  -2.8827  -2.8259  -2.5820  -2.4886  -2.3335  -2.1222
    -2.0494  -1.4142  -1.1954  -1.0861  -0.5577   0.1032   0.2698   1.0240
     1.5910

     occupation numbers 
     1.0000   1.0000   1.0000   1.0000   1.0000   1.0000   1.0000   1.0000
     1.0000   1.0000   1.0000   1.0000   1.0000   1.0000   1.0000   1.0000
     1.0000   1.0000   1.0000   1.0000   1.0000   1.0000   1.0000   1.0000
     1.0000   1.0000   1.0000   1.0000   1.0000   1.0000   1.0000   1.0000
     1.0000   1.0000   1.0000   1.0000   1.0000   1.0000   1.0000   1.0000
     1.0000   1.0000   1.0000   1.0000   1.0000   1.0000   1.0000   1.0000
     1.0000   1.0000   1.0000   1.0000   1.0000   1.0000   1.0000   1.0000
     1.0000   1.0000   1.0000   1.0000   1.0000   1.0000   1.0000   1.0000
     1.0000   1.0000   1.0000   1.0000   1.0000   1.0000   1.0000   1.0000
     1.0000   1.0000   1.0000   1.0000   1.0000   1.0000   1.0000   1.0000
     1.0000   1.0000   1.0000   1.0000   1.0000   1.0000   1.0000   1.0000
     1.0000   1.0000   1.0000   1.0000   1.0000   1.0000   1.0000   1.0000
     1.0000   1.0000   1.0000   1.0000   1.0000   1.0000   1.0000   1.0000
     1.0000   1.0000   1.0000   1.0000   1.0001   1.0001   1.0002   1.0004
     1.0031   1.0694   1.0772   1.0830   1.0717   1.0456   0.8611   0.8601
     0.7562   0.5502   0.4241   0.4169   0.2385   0.0737   0.0728   0.0000
     0.0000   0.0000   0.0000   0.0000   0.0000   0.0000   0.0000   0.0000
     0.0000   0.0000   0.0000   0.0000   0.0000   0.0000   0.0000   0.0000
     0.0000

          k = 0.3750 0.2887 0.0000 ( 44509 PWs)   bands (ev):

   -11.7425 -11.3234 -10.7622 -10.7131 -10.4500 -10.3471 -10.3443 -10.3276
   -10.2655 -10.2254 -10.1620 -10.1400 -10.1005 -10.0528 -10.0328 -10.0000
    -9.8589  -9.8265  -9.8056  -9.7851  -9.7552  -9.7361  -9.6932  -9.6228
    -9.6170  -9.5589  -9.5050  -9.4531  -9.4340  -9.3531  -9.2204  -9.1678
    -9.1505  -9.1375  -9.1151  -9.0952  -9.0533  -8.9972  -8.9593  -8.9235
    -8.8501  -8.7669  -8.7064  -8.6671  -8.6108  -8.5972  -8.5327  -8.4520
    -8.4065  -8.2680  -8.2521  -8.2008  -8.1808  -8.1368  -8.1266  -8.1039
    -8.0709  -8.0305  -8.0043  -7.9977  -7.9685  -7.9536  -7.8895  -7.8286
    -7.7996  -7.7452  -7.6933  -7.6731  -7.6335  -7.5809  -7.5703  -7.5520
    -7.5063  -7.4803  -7.3998  -7.3583  -7.3222  -7.2859  -7.2624  -7.2336
    -7.1977  -7.1593  -7.1110  -7.0895  -7.0479  -6.9859  -6.9635  -6.9365
    -6.8690  -6.7901  -6.7863  -6.7436  -6.7278  -6.6302  -6.5993  -6.5546
    -6.5137  -6.4982  -6.4794  -6.4206  -6.3935  -6.3511  -6.3116  -6.2684
    -6.2332  -6.2014  -6.1785  -6.0995  -6.0410  -5.9760  -5.9466  -5.9181
    -5.8548  -5.6811  -5.6393  -5.5632  -5.5372  -5.5019  -5.4327  -5.4063
    -5.4044  -5.3546  -5.3209  -5.3056  -5.1698  -5.1632  -5.0721  -4.2968
    -3.7724  -3.4953  -3.3004  -2.9281  -2.5836  -2.2537  -2.1692  -1.8892
    -1.7849  -1.3641  -1.0133  -0.7776  -0.4276  -0.2933   0.7149   0.8858
     1.3258

     occupation numbers 
     1.0000   1.0000   1.0000   1.0000   1.0000   1.0000   1.0000   1.0000
     1.0000   1.0000   1.0000   1.0000   1.0000   1.0000   1.0000   1.0000
     1.0000   1.0000   1.0000   1.0000   1.0000   1.0000   1.0000   1.0000
     1.0000   1.0000   1.0000   1.0000   1.0000   1.0000   1.0000   1.0000
     1.0000   1.0000   1.0000   1.0000   1.0000   1.0000   1.0000   1.0000
     1.0000   1.0000   1.0000   1.0000   1.0000   1.0000   1.0000   1.0000
     1.0000   1.0000   1.0000   1.0000   1.0000   1.0000   1.0000   1.0000
     1.0000   1.0000   1.0000   1.0000   1.0000   1.0000   1.0000   1.0000
     1.0000   1.0000   1.0000   1.0000   1.0000   1.0000   1.0000   1.0000
     1.0000   1.0000   1.0000   1.0000   1.0000   1.0000   1.0000   1.0000
     1.0000   1.0000   1.0000   1.0000   1.0000   1.0000   1.0000   1.0000
     1.0000   1.0000   1.0000   1.0000   1.0000   1.0000   1.0000   1.0000
     1.0000   1.0000   1.0000   1.0000   1.0000   1.0000   1.0000   1.0000
     1.0000   1.0000   1.0000   1.0000   1.0000   1.0001   1.0003   1.0006
     1.0027   1.0415   1.0609   1.0833   1.0782   1.0528   0.9249   0.8488
     0.8427   0.6686   0.5420   0.4853   0.1167   0.1066   0.0248   0.0000
     0.0000   0.0000   0.0000   0.0000   0.0000   0.0000   0.0000   0.0000
     0.0000   0.0000   0.0000   0.0000   0.0000   0.0000   0.0000   0.0000
     0.0000

          k = 0.3750-0.7939 0.0000 ( 44477 PWs)   bands (ev):

   -11.6584 -11.1279 -10.7034 -10.6141 -10.3847 -10.2625 -10.2548 -10.2360
   -10.2061 -10.1700 -10.0752 -10.0650  -9.9984  -9.9845  -9.9204  -9.9090
    -9.8127  -9.7448  -9.7235  -9.7159  -9.7021  -9.6726  -9.6380  -9.5391
    -9.5235  -9.4939  -9.4398  -9.4140  -9.3401  -9.3191  -9.2512  -9.2281
    -9.1938  -9.1825  -9.1276  -9.0983  -9.0166  -9.0011  -8.9744  -8.9478
    -8.9099  -8.7852  -8.7786  -8.7035  -8.6756  -8.6585  -8.5760  -8.5087
    -8.4428  -8.4018  -8.3961  -8.3140  -8.2689  -8.2332  -8.1593  -8.1149
    -8.1111  -8.0862  -8.0598  -8.0197  -7.9940  -7.9620  -7.9048  -7.8581
    -7.8269  -7.7928  -7.7453  -7.7361  -7.7058  -7.6652  -7.6245  -7.5927
    -7.5540  -7.4723  -7.4442  -7.4012  -7.3880  -7.3282  -7.3041  -7.2692
    -7.2590  -7.1900  -7.1188  -7.0603  -7.0490  -7.0211  -6.9895  -6.9320
    -6.9249  -6.8336  -6.8012  -6.7830  -6.7601  -6.7199  -6.6516  -6.6151
    -6.5824  -6.5134  -6.4884  -6.4679  -6.4229  -6.3530  -6.2801  -6.2338
    -6.2229  -6.1942  -6.1810  -6.1096  -6.0715  -5.9068  -5.8823  -5.8654
    -5.8415  -5.7237  -5.6855  -5.5669  -5.5529  -5.5166  -5.4920  -5.4641
    -5.4554  -5.4234  -5.3995  -5.3846  -5.2426  -5.2326  -4.8735  -4.3346
    -4.0619  -3.9282  -3.6069  -3.3861  -2.7564  -2.4300  -1.9162  -1.4665
    -1.2193  -0.9953  -0.8331  -0.6115  -0.4880   0.3194   0.5833   0.8282
     1.4835

     occupation numbers 
     1.0000   1.0000   1.0000   1.0000   1.0000   1.0000   1.0000   1.0000
     1.0000   1.0000   1.0000   1.0000   1.0000   1.0000   1.0000   1.0000
     1.0000   1.0000   1.0000   1.0000   1.0000   1.0000   1.0000   1.0000
     1.0000   1.0000   1.0000   1.0000   1.0000   1.0000   1.0000   1.0000
     1.0000   1.0000   1.0000   1.0000   1.0000   1.0000   1.0000   1.0000
     1.0000   1.0000   1.0000   1.0000   1.0000   1.0000   1.0000   1.0000
     1.0000   1.0000   1.0000   1.0000   1.0000   1.0000   1.0000   1.0000
     1.0000   1.0000   1.0000   1.0000   1.0000   1.0000   1.0000   1.0000
     1.0000   1.0000   1.0000   1.0000   1.0000   1.0000   1.0000   1.0000
     1.0000   1.0000   1.0000   1.0000   1.0000   1.0000   1.0000   1.0000
     1.0000   1.0000   1.0000   1.0000   1.0000   1.0000   1.0000   1.0000
     1.0000   1.0000   1.0000   1.0000   1.0000   1.0000   1.0000   1.0000
     1.0000   1.0000   1.0000   1.0000   1.0000   1.0000   1.0000   1.0000
     1.0000   1.0000   1.0000   1.0000   1.0000   1.0008   1.0015   1.0021
     1.0035   1.0249   1.0396   1.0833   1.0824   1.0663   1.0411   0.9965
     0.9788   0.8997   0.8269   0.7770   0.2774   0.2498   0.0003   0.0000
     0.0000   0.0000   0.0000   0.0000   0.0000   0.0000   0.0000   0.0000
     0.0000   0.0000   0.0000   0.0000   0.0000   0.0000   0.0000   0.0000
     0.0000

          k = 0.3750-0.7217 0.0000 ( 44484 PWs)   bands (ev):

   -11.5840 -10.8990 -10.6765 -10.4598 -10.3409 -10.1924 -10.1697 -10.1451
   -10.1104 -10.0515 -10.0284  -9.9795  -9.9179  -9.9071  -9.8162  -9.8099
    -9.7775  -9.7165  -9.6953  -9.6565  -9.6250  -9.5945  -9.5575  -9.4933
    -9.4761  -9.4173  -9.3915  -9.3768  -9.3085  -9.2901  -9.2830  -9.2727
    -9.2496  -9.2175  -9.1194  -9.0977  -9.0753  -9.0460  -8.9767  -8.9655
    -8.9328  -8.8913  -8.8548  -8.7700  -8.7072  -8.6748  -8.6509  -8.5591
    -8.5312  -8.4632  -8.4492  -8.3632  -8.2987  -8.2738  -8.2441  -8.2166
    -8.1739  -8.1298  -8.1116  -8.0900  -8.0521  -8.0064  -7.9650  -7.9440
    -7.9041  -7.8817  -7.8180  -7.8083  -7.7840  -7.7554  -7.7033  -7.6813
    -7.6575  -7.5863  -7.5742  -7.5423  -7.3488  -7.2937  -7.2633  -7.2237
    -7.1573  -7.1496  -7.1481  -7.1303  -7.0871  -7.0395  -6.9863  -6.9662
    -6.8928  -6.8343  -6.8150  -6.7317  -6.7156  -6.6510  -6.6417  -6.5581
    -6.5497  -6.4962  -6.4688  -6.4263  -6.3531  -6.3262  -6.2607  -6.2283
    -6.1742  -6.1073  -6.0829  -6.0603  -6.0444  -5.8634  -5.8499  -5.8318
    -5.7971  -5.7606  -5.6908  -5.6038  -5.5807  -5.5640  -5.5558  -5.5393
    -5.5191  -5.5115  -5.5049  -5.4900  -5.3454  -5.3343  -4.6835  -4.5791
    -4.4832  -4.3160  -4.1025  -3.2643  -2.9853  -2.7322  -1.6922  -1.3932
    -1.0481  -0.7136  -0.3736  -0.1599   0.1773   0.3521   0.4643   1.0934
     1.8423

     occupation numbers 
     1.0000   1.0000   1.0000   1.0000   1.0000   1.0000   1.0000   1.0000
     1.0000   1.0000   1.0000   1.0000   1.0000   1.0000   1.0000   1.0000
     1.0000   1.0000   1.0000   1.0000   1.0000   1.0000   1.0000   1.0000
     1.0000   1.0000   1.0000   1.0000   1.0000   1.0000   1.0000   1.0000
     1.0000   1.0000   1.0000   1.0000   1.0000   1.0000   1.0000   1.0000
     1.0000   1.0000   1.0000   1.0000   1.0000   1.0000   1.0000   1.0000
     1.0000   1.0000   1.0000   1.0000   1.0000   1.0000   1.0000   1.0000
     1.0000   1.0000   1.0000   1.0000   1.0000   1.0000   1.0000   1.0000
     1.0000   1.0000   1.0000   1.0000   1.0000   1.0000   1.0000   1.0000
     1.0000   1.0000   1.0000   1.0000   1.0000   1.0000   1.0000   1.0000
     1.0000   1.0000   1.0000   1.0000   1.0000   1.0000   1.0000   1.0000
     1.0000   1.0000   1.0000   1.0000   1.0000   1.0000   1.0000   1.0000
     1.0000   1.0000   1.0000   1.0000   1.0000   1.0000   1.0000   1.0000
     1.0000   1.0000   1.0000   1.0000   1.0000   1.0022   1.0029   1.0042
     1.0080   1.0146   1.0374   1.0757   1.0819   1.0833   1.0828   1.0790
     1.0682   1.0621   1.0559   1.0385   0.6341   0.5925   0.0000   0.0000
     0.0000   0.0000   0.0000   0.0000   0.0000   0.0000   0.0000   0.0000
     0.0000   0.0000   0.0000   0.0000   0.0000   0.0000   0.0000   0.0000
     0.0000

          k = 0.3750-0.6495 0.0000 ( 44432 PWs)   bands (ev):

   -11.5318 -10.6526 -10.6503 -10.3233 -10.3078 -10.2307 -10.1725 -10.0257
   -10.0084  -9.9510  -9.9278  -9.9208  -9.8793  -9.8643  -9.7644  -9.7421
    -9.6936  -9.6729  -9.6088  -9.6028  -9.5790  -9.5481  -9.5237  -9.5168
    -9.4367  -9.4299  -9.4176  -9.3854  -9.3443  -9.3236  -9.2937  -9.2782
    -9.2324  -9.1982  -9.1871  -9.1504  -9.1377  -9.1021  -8.9592  -8.9493
    -8.9316  -8.9094  -8.8881  -8.8589  -8.7507  -8.6894  -8.6516  -8.6242
    -8.4724  -8.4462  -8.4383  -8.4049  -8.3859  -8.3363  -8.2733  -8.2497
    -8.2338  -8.2241  -8.2015  -8.1614  -8.1290  -8.1035  -8.0939  -8.0594
    -8.0504  -8.0392  -7.9152  -7.8193  -7.7981  -7.7488  -7.7366  -7.6695
    -7.6397  -7.6353  -7.5948  -7.5793  -7.4100  -7.3417  -7.3292  -7.2226
    -7.1947  -7.1227  -7.1093  -7.0817  -7.0657  -7.0382  -6.9777  -6.9403
    -6.9323  -6.8326  -6.7342  -6.6928  -6.6437  -6.6067  -6.5897  -6.5354
    -6.5090  -6.4670  -6.4091  -6.3687  -6.3144  -6.2639  -6.2218  -6.1996
    -6.0412  -6.0217  -5.9729  -5.8809  -5.8549  -5.8241  -5.8114  -5.8078
    -5.7907  -5.7860  -5.7243  -5.7079  -5.6570  -5.6446  -5.6070  -5.5927
    -5.5824  -5.5656  -5.5236  -5.4657  -5.4520  -5.4368  -5.0511  -5.0228
    -4.7263  -4.3749  -4.2349  -3.5551  -2.9148  -2.7100  -1.9871  -1.2701
    -1.0189  -0.2585   0.0498   0.2308   0.3967   0.4952   0.9941   1.3762
     1.5247

     occupation numbers 
     1.0000   1.0000   1.0000   1.0000   1.0000   1.0000   1.0000   1.0000
     1.0000   1.0000   1.0000   1.0000   1.0000   1.0000   1.0000   1.0000
     1.0000   1.0000   1.0000   1.0000   1.0000   1.0000   1.0000   1.0000
     1.0000   1.0000   1.0000   1.0000   1.0000   1.0000   1.0000   1.0000
     1.0000   1.0000   1.0000   1.0000   1.0000   1.0000   1.0000   1.0000
     1.0000   1.0000   1.0000   1.0000   1.0000   1.0000   1.0000   1.0000
     1.0000   1.0000   1.0000   1.0000   1.0000   1.0000   1.0000   1.0000
     1.0000   1.0000   1.0000   1.0000   1.0000   1.0000   1.0000   1.0000
     1.0000   1.0000   1.0000   1.0000   1.0000   1.0000   1.0000   1.0000
     1.0000   1.0000   1.0000   1.0000   1.0000   1.0000   1.0000   1.0000
     1.0000   1.0000   1.0000   1.0000   1.0000   1.0000   1.0000   1.0000
     1.0000   1.0000   1.0000   1.0000   1.0000   1.0000   1.0000   1.0000
     1.0000   1.0000   1.0000   1.0000   1.0000   1.0000   1.0000   1.0000
     1.0000   1.0000   1.0002   1.0015   1.0026   1.0049   1.0062   1.0066
     1.0089   1.0097   1.0247   1.0305   1.0526   1.0584   1.0746   1.0792
     1.0816   1.0833   1.0712   0.9994   0.9715   0.9356   0.0168   0.0096
     0.0000   0.0000   0.0000   0.0000   0.0000   0.0000   0.0000   0.0000
     0.0000   0.0000   0.0000   0.0000   0.0000   0.0000   0.0000   0.0000
     0.0000

          k = 0.3750-0.5774 0.0000 ( 44465 PWs)   bands (ev):

   -11.5129 -10.6410 -10.4132 -10.4078 -10.3075 -10.2200 -10.2098 -10.0152
    -9.9395  -9.9194  -9.8856  -9.8772  -9.8697  -9.7714  -9.7678  -9.6941
    -9.6474  -9.6238  -9.6032  -9.5985  -9.5720  -9.5490  -9.5093  -9.4818
    -9.4761  -9.4567  -9.4519  -9.4059  -9.3819  -9.3280  -9.3181  -9.2883
    -9.2517  -9.1983  -9.1786  -9.1627  -9.1474  -9.0806  -9.0546  -9.0460
    -8.9390  -8.8512  -8.8109  -8.7876  -8.7088  -8.6788  -8.6485  -8.6316
    -8.5382  -8.4941  -8.4695  -8.4564  -8.3716  -8.3457  -8.3145  -8.2663
    -8.2568  -8.2220  -8.2127  -8.1992  -8.1804  -8.1579  -8.1447  -8.1177
    -8.1091  -8.0970  -7.9337  -7.8239  -7.7945  -7.7198  -7.7002  -7.6905
    -7.6784  -7.6211  -7.6048  -7.5665  -7.4239  -7.3960  -7.3845  -7.2293
    -7.1699  -7.1556  -7.0992  -7.0883  -7.0611  -7.0156  -6.9485  -6.9195
    -6.8722  -6.8100  -6.8086  -6.7023  -6.6257  -6.6097  -6.5432  -6.4812
    -6.4583  -6.4202  -6.3761  -6.3554  -6.3396  -6.3302  -6.2160  -6.0335
    -5.9824  -5.9535  -5.8870  -5.8569  -5.8435  -5.8352  -5.8162  -5.7994
    -5.7845  -5.7786  -5.7771  -5.7129  -5.6178  -5.5980  -5.5806  -5.5654
    -5.5299  -5.5179  -5.5142  -5.4752  -5.4652  -5.4536  -5.4402  -5.2220
    -5.1093  -4.3516  -4.0202  -3.8772  -2.8801  -2.4810  -2.3119  -1.2281
    -0.7732  -0.5823   0.2593   0.7036   0.8049   0.8723   0.9130   1.1104
     1.3956

     occupation numbers 
     1.0000   1.0000   1.0000   1.0000   1.0000   1.0000   1.0000   1.0000
     1.0000   1.0000   1.0000   1.0000   1.0000   1.0000   1.0000   1.0000
     1.0000   1.0000   1.0000   1.0000   1.0000   1.0000   1.0000   1.0000
     1.0000   1.0000   1.0000   1.0000   1.0000   1.0000   1.0000   1.0000
     1.0000   1.0000   1.0000   1.0000   1.0000   1.0000   1.0000   1.0000
     1.0000   1.0000   1.0000   1.0000   1.0000   1.0000   1.0000   1.0000
     1.0000   1.0000   1.0000   1.0000   1.0000   1.0000   1.0000   1.0000
     1.0000   1.0000   1.0000   1.0000   1.0000   1.0000   1.0000   1.0000
     1.0000   1.0000   1.0000   1.0000   1.0000   1.0000   1.0000   1.0000
     1.0000   1.0000   1.0000   1.0000   1.0000   1.0000   1.0000   1.0000
     1.0000   1.0000   1.0000   1.0000   1.0000   1.0000   1.0000   1.0000
     1.0000   1.0000   1.0000   1.0000   1.0000   1.0000   1.0000   1.0000
     1.0000   1.0000   1.0000   1.0000   1.0000   1.0000   1.0000   1.0000
     1.0001   1.0003   1.0013   1.0025   1.0033   1.0039   1.0057   1.0077
     1.0099   1.0110   1.0112   1.0287   1.0704   1.0776   1.0819   1.0833
     1.0748   1.0672   1.0644   1.0163   0.9985   0.9751   0.9440   0.2226
     0.0472   0.0000   0.0000   0.0000   0.0000   0.0000   0.0000   0.0000
     0.0000   0.0000   0.0000   0.0000   0.0000   0.0000   0.0000   0.0000
     0.0000

          k = 0.3750-0.5052 0.0000 ( 44432 PWs)   bands (ev):

   -11.5318 -10.6526 -10.6503 -10.3233 -10.3078 -10.2307 -10.1725 -10.0257
   -10.0084  -9.9510  -9.9278  -9.9208  -9.8793  -9.8643  -9.7644  -9.7421
    -9.6936  -9.6729  -9.6088  -9.6028  -9.5790  -9.5481  -9.5237  -9.5168
    -9.4367  -9.4299  -9.4176  -9.3854  -9.3443  -9.3236  -9.2937  -9.2782
    -9.2324  -9.1982  -9.1871  -9.1504  -9.1377  -9.1021  -8.9592  -8.9493
    -8.9316  -8.9094  -8.8881  -8.8589  -8.7507  -8.6894  -8.6516  -8.6242
    -8.4724  -8.4462  -8.4383  -8.4049  -8.3859  -8.3363  -8.2733  -8.2497
    -8.2338  -8.2241  -8.2015  -8.1614  -8.1290  -8.1035  -8.0939  -8.0594
    -8.0504  -8.0392  -7.9152  -7.8193  -7.7981  -7.7488  -7.7366  -7.6695
    -7.6397  -7.6353  -7.5948  -7.5793  -7.4100  -7.3417  -7.3292  -7.2226
    -7.1947  -7.1227  -7.1093  -7.0817  -7.0657  -7.0382  -6.9777  -6.9403
    -6.9323  -6.8326  -6.7342  -6.6928  -6.6437  -6.6067  -6.5897  -6.5354
    -6.5090  -6.4670  -6.4091  -6.3687  -6.3144  -6.2639  -6.2218  -6.1996
    -6.0412  -6.0217  -5.9729  -5.8809  -5.8549  -5.8241  -5.8114  -5.8078
    -5.7907  -5.7860  -5.7243  -5.7079  -5.6570  -5.6446  -5.6070  -5.5927
    -5.5824  -5.5656  -5.5236  -5.4657  -5.4520  -5.4368  -5.0511  -5.0228
    -4.7263  -4.3749  -4.2349  -3.5551  -2.9148  -2.7100  -1.9871  -1.2701
    -1.0189  -0.2585   0.0498   0.2308   0.3967   0.4952   0.9941   1.3762
     1.5247

     occupation numbers 
     1.0000   1.0000   1.0000   1.0000   1.0000   1.0000   1.0000   1.0000
     1.0000   1.0000   1.0000   1.0000   1.0000   1.0000   1.0000   1.0000
     1.0000   1.0000   1.0000   1.0000   1.0000   1.0000   1.0000   1.0000
     1.0000   1.0000   1.0000   1.0000   1.0000   1.0000   1.0000   1.0000
     1.0000   1.0000   1.0000   1.0000   1.0000   1.0000   1.0000   1.0000
     1.0000   1.0000   1.0000   1.0000   1.0000   1.0000   1.0000   1.0000
     1.0000   1.0000   1.0000   1.0000   1.0000   1.0000   1.0000   1.0000
     1.0000   1.0000   1.0000   1.0000   1.0000   1.0000   1.0000   1.0000
     1.0000   1.0000   1.0000   1.0000   1.0000   1.0000   1.0000   1.0000
     1.0000   1.0000   1.0000   1.0000   1.0000   1.0000   1.0000   1.0000
     1.0000   1.0000   1.0000   1.0000   1.0000   1.0000   1.0000   1.0000
     1.0000   1.0000   1.0000   1.0000   1.0000   1.0000   1.0000   1.0000
     1.0000   1.0000   1.0000   1.0000   1.0000   1.0000   1.0000   1.0000
     1.0000   1.0000   1.0002   1.0015   1.0026   1.0049   1.0062   1.0066
     1.0089   1.0097   1.0247   1.0305   1.0526   1.0584   1.0746   1.0792
     1.0816   1.0833   1.0712   0.9994   0.9715   0.9356   0.0168   0.0096
     0.0000   0.0000   0.0000   0.0000   0.0000   0.0000   0.0000   0.0000
     0.0000   0.0000   0.0000   0.0000   0.0000   0.0000   0.0000   0.0000
     0.0000

          k = 0.3750-0.4330 0.0000 ( 44484 PWs)   bands (ev):

   -11.5840 -10.8990 -10.6765 -10.4598 -10.3409 -10.1924 -10.1697 -10.1451
   -10.1104 -10.0515 -10.0284  -9.9795  -9.9179  -9.9071  -9.8162  -9.8099
    -9.7775  -9.7165  -9.6953  -9.6565  -9.6250  -9.5945  -9.5575  -9.4933
    -9.4761  -9.4173  -9.3915  -9.3768  -9.3085  -9.2901  -9.2830  -9.2727
    -9.2496  -9.2175  -9.1194  -9.0977  -9.0753  -9.0460  -8.9767  -8.9655
    -8.9328  -8.8913  -8.8548  -8.7700  -8.7072  -8.6748  -8.6509  -8.5591
    -8.5312  -8.4632  -8.4492  -8.3632  -8.2987  -8.2738  -8.2441  -8.2166
    -8.1739  -8.1298  -8.1116  -8.0900  -8.0521  -8.0064  -7.9650  -7.9440
    -7.9041  -7.8817  -7.8180  -7.8083  -7.7840  -7.7554  -7.7033  -7.6813
    -7.6575  -7.5863  -7.5742  -7.5423  -7.3488  -7.2937  -7.2633  -7.2237
    -7.1573  -7.1496  -7.1481  -7.1303  -7.0871  -7.0395  -6.9863  -6.9662
    -6.8928  -6.8343  -6.8150  -6.7317  -6.7156  -6.6510  -6.6417  -6.5581
    -6.5497  -6.4962  -6.4688  -6.4263  -6.3531  -6.3262  -6.2607  -6.2283
    -6.1742  -6.1073  -6.0829  -6.0603  -6.0444  -5.8634  -5.8499  -5.8318
    -5.7971  -5.7606  -5.6908  -5.6038  -5.5807  -5.5640  -5.5558  -5.5393
    -5.5191  -5.5115  -5.5049  -5.4900  -5.3454  -5.3343  -4.6835  -4.5791
    -4.4832  -4.3160  -4.1025  -3.2643  -2.9853  -2.7322  -1.6922  -1.3932
    -1.0481  -0.7136  -0.3736  -0.1599   0.1773   0.3521   0.4643   1.0934
     1.8423

     occupation numbers 
     1.0000   1.0000   1.0000   1.0000   1.0000   1.0000   1.0000   1.0000
     1.0000   1.0000   1.0000   1.0000   1.0000   1.0000   1.0000   1.0000
     1.0000   1.0000   1.0000   1.0000   1.0000   1.0000   1.0000   1.0000
     1.0000   1.0000   1.0000   1.0000   1.0000   1.0000   1.0000   1.0000
     1.0000   1.0000   1.0000   1.0000   1.0000   1.0000   1.0000   1.0000
     1.0000   1.0000   1.0000   1.0000   1.0000   1.0000   1.0000   1.0000
     1.0000   1.0000   1.0000   1.0000   1.0000   1.0000   1.0000   1.0000
     1.0000   1.0000   1.0000   1.0000   1.0000   1.0000   1.0000   1.0000
     1.0000   1.0000   1.0000   1.0000   1.0000   1.0000   1.0000   1.0000
     1.0000   1.0000   1.0000   1.0000   1.0000   1.0000   1.0000   1.0000
     1.0000   1.0000   1.0000   1.0000   1.0000   1.0000   1.0000   1.0000
     1.0000   1.0000   1.0000   1.0000   1.0000   1.0000   1.0000   1.0000
     1.0000   1.0000   1.0000   1.0000   1.0000   1.0000   1.0000   1.0000
     1.0000   1.0000   1.0000   1.0000   1.0000   1.0022   1.0029   1.0042
     1.0080   1.0146   1.0374   1.0757   1.0819   1.0833   1.0828   1.0790
     1.0682   1.0621   1.0559   1.0385   0.6341   0.5925   0.0000   0.0000
     0.0000   0.0000   0.0000   0.0000   0.0000   0.0000   0.0000   0.0000
     0.0000   0.0000   0.0000   0.0000   0.0000   0.0000   0.0000   0.0000
     0.0000

          k = 0.3750-0.3608 0.0000 ( 44477 PWs)   bands (ev):

   -11.6584 -11.1279 -10.7034 -10.6141 -10.3847 -10.2625 -10.2548 -10.2360
   -10.2061 -10.1700 -10.0752 -10.0650  -9.9984  -9.9845  -9.9204  -9.9090
    -9.8127  -9.7448  -9.7235  -9.7159  -9.7021  -9.6726  -9.6380  -9.5391
    -9.5235  -9.4939  -9.4398  -9.4140  -9.3401  -9.3191  -9.2512  -9.2281
    -9.1938  -9.1825  -9.1276  -9.0983  -9.0166  -9.0011  -8.9744  -8.9478
    -8.9099  -8.7852  -8.7786  -8.7035  -8.6756  -8.6585  -8.5760  -8.5087
    -8.4428  -8.4018  -8.3961  -8.3140  -8.2689  -8.2332  -8.1593  -8.1149
    -8.1111  -8.0862  -8.0598  -8.0197  -7.9940  -7.9620  -7.9048  -7.8581
    -7.8269  -7.7928  -7.7453  -7.7361  -7.7058  -7.6652  -7.6245  -7.5927
    -7.5540  -7.4723  -7.4442  -7.4012  -7.3880  -7.3282  -7.3041  -7.2692
    -7.2590  -7.1900  -7.1188  -7.0603  -7.0490  -7.0211  -6.9895  -6.9320
    -6.9249  -6.8336  -6.8012  -6.7830  -6.7601  -6.7199  -6.6516  -6.6151
    -6.5824  -6.5134  -6.4884  -6.4679  -6.4229  -6.3530  -6.2801  -6.2338
    -6.2229  -6.1942  -6.1810  -6.1096  -6.0715  -5.9068  -5.8823  -5.8654
    -5.8415  -5.7237  -5.6855  -5.5669  -5.5529  -5.5166  -5.4920  -5.4641
    -5.4554  -5.4234  -5.3995  -5.3846  -5.2426  -5.2326  -4.8735  -4.3346
    -4.0619  -3.9282  -3.6069  -3.3861  -2.7564  -2.4300  -1.9162  -1.4665
    -1.2193  -0.9953  -0.8331  -0.6115  -0.4880   0.3194   0.5833   0.8282
     1.4835

     occupation numbers 
     1.0000   1.0000   1.0000   1.0000   1.0000   1.0000   1.0000   1.0000
     1.0000   1.0000   1.0000   1.0000   1.0000   1.0000   1.0000   1.0000
     1.0000   1.0000   1.0000   1.0000   1.0000   1.0000   1.0000   1.0000
     1.0000   1.0000   1.0000   1.0000   1.0000   1.0000   1.0000   1.0000
     1.0000   1.0000   1.0000   1.0000   1.0000   1.0000   1.0000   1.0000
     1.0000   1.0000   1.0000   1.0000   1.0000   1.0000   1.0000   1.0000
     1.0000   1.0000   1.0000   1.0000   1.0000   1.0000   1.0000   1.0000
     1.0000   1.0000   1.0000   1.0000   1.0000   1.0000   1.0000   1.0000
     1.0000   1.0000   1.0000   1.0000   1.0000   1.0000   1.0000   1.0000
     1.0000   1.0000   1.0000   1.0000   1.0000   1.0000   1.0000   1.0000
     1.0000   1.0000   1.0000   1.0000   1.0000   1.0000   1.0000   1.0000
     1.0000   1.0000   1.0000   1.0000   1.0000   1.0000   1.0000   1.0000
     1.0000   1.0000   1.0000   1.0000   1.0000   1.0000   1.0000   1.0000
     1.0000   1.0000   1.0000   1.0000   1.0000   1.0008   1.0015   1.0021
     1.0035   1.0249   1.0396   1.0833   1.0824   1.0663   1.0411   0.9965
     0.9788   0.8997   0.8269   0.7770   0.2774   0.2498   0.0003   0.0000
     0.0000   0.0000   0.0000   0.0000   0.0000   0.0000   0.0000   0.0000
     0.0000   0.0000   0.0000   0.0000   0.0000   0.0000   0.0000   0.0000
     0.0000

          k = 0.3750-0.2887 0.0000 ( 44509 PWs)   bands (ev):

   -11.7425 -11.3234 -10.7622 -10.7131 -10.4500 -10.3471 -10.3443 -10.3276
   -10.2655 -10.2254 -10.1620 -10.1400 -10.1005 -10.0528 -10.0328 -10.0000
    -9.8589  -9.8265  -9.8056  -9.7851  -9.7552  -9.7361  -9.6932  -9.6228
    -9.6170  -9.5589  -9.5050  -9.4531  -9.4340  -9.3531  -9.2204  -9.1678
    -9.1505  -9.1375  -9.1151  -9.0952  -9.0533  -8.9972  -8.9593  -8.9235
    -8.8501  -8.7669  -8.7064  -8.6671  -8.6108  -8.5972  -8.5327  -8.4520
    -8.4065  -8.2680  -8.2521  -8.2008  -8.1808  -8.1368  -8.1266  -8.1039
    -8.0709  -8.0305  -8.0043  -7.9977  -7.9685  -7.9536  -7.8895  -7.8286
    -7.7996  -7.7452  -7.6933  -7.6731  -7.6335  -7.5809  -7.5703  -7.5520
    -7.5063  -7.4803  -7.3998  -7.3583  -7.3222  -7.2859  -7.2624  -7.2336
    -7.1977  -7.1593  -7.1110  -7.0895  -7.0479  -6.9859  -6.9635  -6.9365
    -6.8690  -6.7901  -6.7863  -6.7436  -6.7278  -6.6302  -6.5993  -6.5546
    -6.5137  -6.4982  -6.4794  -6.4206  -6.3935  -6.3511  -6.3116  -6.2684
    -6.2332  -6.2014  -6.1785  -6.0995  -6.0410  -5.9760  -5.9466  -5.9181
    -5.8548  -5.6811  -5.6393  -5.5632  -5.5372  -5.5019  -5.4327  -5.4063
    -5.4044  -5.3546  -5.3209  -5.3056  -5.1698  -5.1632  -5.0721  -4.2968
    -3.7724  -3.4953  -3.3004  -2.9281  -2.5836  -2.2537  -2.1692  -1.8892
    -1.7849  -1.3641  -1.0133  -0.7776  -0.4276  -0.2933   0.7149   0.8858
     1.3258

     occupation numbers 
     1.0000   1.0000   1.0000   1.0000   1.0000   1.0000   1.0000   1.0000
     1.0000   1.0000   1.0000   1.0000   1.0000   1.0000   1.0000   1.0000
     1.0000   1.0000   1.0000   1.0000   1.0000   1.0000   1.0000   1.0000
     1.0000   1.0000   1.0000   1.0000   1.0000   1.0000   1.0000   1.0000
     1.0000   1.0000   1.0000   1.0000   1.0000   1.0000   1.0000   1.0000
     1.0000   1.0000   1.0000   1.0000   1.0000   1.0000   1.0000   1.0000
     1.0000   1.0000   1.0000   1.0000   1.0000   1.0000   1.0000   1.0000
     1.0000   1.0000   1.0000   1.0000   1.0000   1.0000   1.0000   1.0000
     1.0000   1.0000   1.0000   1.0000   1.0000   1.0000   1.0000   1.0000
     1.0000   1.0000   1.0000   1.0000   1.0000   1.0000   1.0000   1.0000
     1.0000   1.0000   1.0000   1.0000   1.0000   1.0000   1.0000   1.0000
     1.0000   1.0000   1.0000   1.0000   1.0000   1.0000   1.0000   1.0000
     1.0000   1.0000   1.0000   1.0000   1.0000   1.0000   1.0000   1.0000
     1.0000   1.0000   1.0000   1.0000   1.0000   1.0001   1.0003   1.0006
     1.0027   1.0415   1.0609   1.0833   1.0782   1.0528   0.9249   0.8488
     0.8427   0.6686   0.5420   0.4853   0.1167   0.1066   0.0248   0.0000
     0.0000   0.0000   0.0000   0.0000   0.0000   0.0000   0.0000   0.0000
     0.0000   0.0000   0.0000   0.0000   0.0000   0.0000   0.0000   0.0000
     0.0000

          k = 0.4375-0.2526 0.0000 ( 44502 PWs)   bands (ev):

   -11.7022 -11.2101 -10.7902 -10.6856 -10.4649 -10.3500 -10.2841 -10.2828
   -10.2680 -10.1587 -10.1583 -10.1302 -10.0627  -9.9937  -9.9913  -9.9769
    -9.7996  -9.7967  -9.7870  -9.7150  -9.6932  -9.6895  -9.6263  -9.6150
    -9.5709  -9.5364  -9.4709  -9.4070  -9.3988  -9.3561  -9.2045  -9.2041
    -9.1712  -9.0957  -9.0909  -9.0752  -9.0500  -9.0090  -8.9348  -8.8906
    -8.8624  -8.8578  -8.6991  -8.6947  -8.6503  -8.6104  -8.5500  -8.4810
    -8.4641  -8.2822  -8.2595  -8.2587  -8.2289  -8.1797  -8.1226  -8.0518
    -8.0361  -8.0296  -8.0240  -7.9957  -7.9799  -7.9673  -7.8211  -7.7677
    -7.7620  -7.7319  -7.7280  -7.7026  -7.5998  -7.5716  -7.5524  -7.5408
    -7.5131  -7.5081  -7.4816  -7.4034  -7.3593  -7.3015  -7.2943  -7.2810
    -7.2094  -7.1663  -7.1418  -7.0890  -7.0438  -7.0144  -6.9933  -6.9922
    -6.8914  -6.8170  -6.7998  -6.7840  -6.7572  -6.6848  -6.6766  -6.5886
    -6.5711  -6.5637  -6.5401  -6.5396  -6.5269  -6.5038  -6.3669  -6.3326
    -6.3112  -6.2988  -6.2554  -6.1061  -6.1055  -6.0184  -5.9872  -5.9847
    -5.9468  -5.7799  -5.6233  -5.5782  -5.5237  -5.5026  -5.3784  -5.3757
    -5.3672  -5.3362  -5.2951  -5.2949  -5.1417  -5.1382  -5.0022  -4.4542
    -3.6432  -2.9835  -2.8405  -2.8217  -2.5963  -2.5592  -2.2428  -2.0020
    -1.9108  -1.2723  -1.0069  -0.9479  -0.7156   0.1839   0.3860   0.4875
     1.7675

     occupation numbers 
     1.0000   1.0000   1.0000   1.0000   1.0000   1.0000   1.0000   1.0000
     1.0000   1.0000   1.0000   1.0000   1.0000   1.0000   1.0000   1.0000
     1.0000   1.0000   1.0000   1.0000   1.0000   1.0000   1.0000   1.0000
     1.0000   1.0000   1.0000   1.0000   1.0000   1.0000   1.0000   1.0000
     1.0000   1.0000   1.0000   1.0000   1.0000   1.0000   1.0000   1.0000
     1.0000   1.0000   1.0000   1.0000   1.0000   1.0000   1.0000   1.0000
     1.0000   1.0000   1.0000   1.0000   1.0000   1.0000   1.0000   1.0000
     1.0000   1.0000   1.0000   1.0000   1.0000   1.0000   1.0000   1.0000
     1.0000   1.0000   1.0000   1.0000   1.0000   1.0000   1.0000   1.0000
     1.0000   1.0000   1.0000   1.0000   1.0000   1.0000   1.0000   1.0000
     1.0000   1.0000   1.0000   1.0000   1.0000   1.0000   1.0000   1.0000
     1.0000   1.0000   1.0000   1.0000   1.0000   1.0000   1.0000   1.0000
     1.0000   1.0000   1.0000   1.0000   1.0000   1.0000   1.0000   1.0000
     1.0000   1.0000   1.0000   1.0000   1.0000   1.0000   1.0001   1.0001
     1.0003   1.0107   1.0681   1.0823   1.0713   1.0536   0.7552   0.7455
     0.7152   0.5993   0.4473   0.4466   0.0783   0.0743   0.0062   0.0000
     0.0000   0.0000   0.0000   0.0000   0.0000   0.0000   0.0000   0.0000
     0.0000   0.0000   0.0000   0.0000   0.0000   0.0000   0.0000   0.0000
     0.0000

          k = 0.4375-0.1804 0.0000 ( 44509 PWs)   bands (ev):

   -11.7425 -11.3234 -10.7622 -10.7131 -10.4500 -10.3471 -10.3443 -10.3276
   -10.2655 -10.2254 -10.1620 -10.1400 -10.1005 -10.0528 -10.0328 -10.0000
    -9.8589  -9.8265  -9.8056  -9.7851  -9.7552  -9.7361  -9.6931  -9.6228
    -9.6170  -9.5589  -9.5050  -9.4531  -9.4340  -9.3531  -9.2204  -9.1678
    -9.1504  -9.1375  -9.1151  -9.0952  -9.0533  -8.9972  -8.9593  -8.9235
    -8.8501  -8.7669  -8.7064  -8.6671  -8.6108  -8.5972  -8.5327  -8.4520
    -8.4065  -8.2680  -8.2521  -8.2008  -8.1808  -8.1368  -8.1266  -8.1039
    -8.0709  -8.0305  -8.0043  -7.9977  -7.9685  -7.9536  -7.8895  -7.8286
    -7.7996  -7.7452  -7.6933  -7.6731  -7.6335  -7.5809  -7.5703  -7.5520
    -7.5063  -7.4803  -7.3998  -7.3583  -7.3222  -7.2859  -7.2624  -7.2336
    -7.1977  -7.1593  -7.1110  -7.0895  -7.0479  -6.9859  -6.9635  -6.9365
    -6.8690  -6.7901  -6.7863  -6.7436  -6.7278  -6.6302  -6.5993  -6.5545
    -6.5137  -6.4982  -6.4794  -6.4206  -6.3935  -6.3511  -6.3116  -6.2684
    -6.2332  -6.2014  -6.1785  -6.0995  -6.0410  -5.9760  -5.9466  -5.9181
    -5.8548  -5.6811  -5.6393  -5.5632  -5.5372  -5.5019  -5.4327  -5.4063
    -5.4044  -5.3546  -5.3209  -5.3056  -5.1698  -5.1632  -5.0721  -4.2968
    -3.7724  -3.4953  -3.3004  -2.9281  -2.5836  -2.2537  -2.1692  -1.8892
    -1.7849  -1.3641  -1.0133  -0.7776  -0.4276  -0.2933   0.7149   0.8858
     1.3258

     occupation numbers 
     1.0000   1.0000   1.0000   1.0000   1.0000   1.0000   1.0000   1.0000
     1.0000   1.0000   1.0000   1.0000   1.0000   1.0000   1.0000   1.0000
     1.0000   1.0000   1.0000   1.0000   1.0000   1.0000   1.0000   1.0000
     1.0000   1.0000   1.0000   1.0000   1.0000   1.0000   1.0000   1.0000
     1.0000   1.0000   1.0000   1.0000   1.0000   1.0000   1.0000   1.0000
     1.0000   1.0000   1.0000   1.0000   1.0000   1.0000   1.0000   1.0000
     1.0000   1.0000   1.0000   1.0000   1.0000   1.0000   1.0000   1.0000
     1.0000   1.0000   1.0000   1.0000   1.0000   1.0000   1.0000   1.0000
     1.0000   1.0000   1.0000   1.0000   1.0000   1.0000   1.0000   1.0000
     1.0000   1.0000   1.0000   1.0000   1.0000   1.0000   1.0000   1.0000
     1.0000   1.0000   1.0000   1.0000   1.0000   1.0000   1.0000   1.0000
     1.0000   1.0000   1.0000   1.0000   1.0000   1.0000   1.0000   1.0000
     1.0000   1.0000   1.0000   1.0000   1.0000   1.0000   1.0000   1.0000
     1.0000   1.0000   1.0000   1.0000   1.0000   1.0001   1.0003   1.0006
     1.0027   1.0415   1.0609   1.0833   1.0782   1.0528   0.9249   0.8488
     0.8427   0.6686   0.5420   0.4853   0.1167   0.1066   0.0248   0.0000
     0.0000   0.0000   0.0000   0.0000   0.0000   0.0000   0.0000   0.0000
     0.0000   0.0000   0.0000   0.0000   0.0000   0.0000   0.0000   0.0000
     0.0000

          k = 0.4375-0.1083 0.0000 ( 44545 PWs)   bands (ev):

   -11.7735 -11.3982 -10.8062 -10.6275 -10.4291 -10.3898 -10.3540 -10.3182
   -10.2934 -10.2394 -10.1764 -10.1338 -10.1295 -10.1202 -10.0467  -9.9923
    -9.9277  -9.8796  -9.8638  -9.8174  -9.7875  -9.7537  -9.7450  -9.6638
    -9.6259  -9.6055  -9.5581  -9.4617  -9.4473  -9.2963  -9.2632  -9.2130
    -9.1918  -9.1564  -9.1290  -9.0619  -9.0365  -9.0196  -8.9995  -8.9167
    -8.8379  -8.7322  -8.6922  -8.6428  -8.5697  -8.5623  -8.5161  -8.4222
    -8.3859  -8.3140  -8.2782  -8.2518  -8.1878  -8.1421  -8.1292  -8.1029
    -8.0557  -8.0216  -8.0136  -7.9854  -7.9707  -7.9419  -7.9181  -7.8791
    -7.8727  -7.8082  -7.7723  -7.6282  -7.6046  -7.6006  -7.5696  -7.5164
    -7.4644  -7.4598  -7.3818  -7.3296  -7.2974  -7.2183  -7.2040  -7.1829
    -7.1659  -7.1385  -7.1299  -7.0676  -7.0399  -7.0096  -6.9425  -6.9134
    -6.8751  -6.8019  -6.7187  -6.6881  -6.6818  -6.6708  -6.5682  -6.4915
    -6.4431  -6.4337  -6.4118  -6.3293  -6.2943  -6.2816  -6.2403  -6.1635
    -6.1375  -6.0935  -6.0784  -6.0152  -5.9134  -5.8569  -5.8375  -5.7315
    -5.7138  -5.5948  -5.5667  -5.5397  -5.5282  -5.5170  -5.4978  -5.4779
    -5.3964  -5.3742  -5.3709  -5.3091  -5.2398  -5.2323  -5.0728  -4.1802
    -4.0853  -3.8943  -3.7860  -3.5164  -2.6711  -2.3157  -2.2065  -1.5175
    -1.3132  -1.1173  -0.9511  -0.6575  -0.4205   0.1368   0.7656   1.0250
     1.1706

     occupation numbers 
     1.0000   1.0000   1.0000   1.0000   1.0000   1.0000   1.0000   1.0000
     1.0000   1.0000   1.0000   1.0000   1.0000   1.0000   1.0000   1.0000
     1.0000   1.0000   1.0000   1.0000   1.0000   1.0000   1.0000   1.0000
     1.0000   1.0000   1.0000   1.0000   1.0000   1.0000   1.0000   1.0000
     1.0000   1.0000   1.0000   1.0000   1.0000   1.0000   1.0000   1.0000
     1.0000   1.0000   1.0000   1.0000   1.0000   1.0000   1.0000   1.0000
     1.0000   1.0000   1.0000   1.0000   1.0000   1.0000   1.0000   1.0000
     1.0000   1.0000   1.0000   1.0000   1.0000   1.0000   1.0000   1.0000
     1.0000   1.0000   1.0000   1.0000   1.0000   1.0000   1.0000   1.0000
     1.0000   1.0000   1.0000   1.0000   1.0000   1.0000   1.0000   1.0000
     1.0000   1.0000   1.0000   1.0000   1.0000   1.0000   1.0000   1.0000
     1.0000   1.0000   1.0000   1.0000   1.0000   1.0000   1.0000   1.0000
     1.0000   1.0000   1.0000   1.0000   1.0000   1.0000   1.0000   1.0000
     1.0000   1.0000   1.0000   1.0000   1.0007   1.0025   1.0038   1.0224
     1.0284   1.0786   1.0833   1.0791   1.0739   1.0666   1.0483   1.0207
     0.8168   0.7403   0.7284   0.4981   0.2694   0.2489   0.0251   0.0000
     0.0000   0.0000   0.0000   0.0000   0.0000   0.0000   0.0000   0.0000
     0.0000   0.0000   0.0000   0.0000   0.0000   0.0000   0.0000   0.0000
     0.0000

          k = 0.4375-0.0361 0.0000 ( 44536 PWs)   bands (ev):

   -11.7905 -11.4351 -10.8286 -10.5279 -10.4225 -10.4131 -10.3972 -10.3711
   -10.2515 -10.2101 -10.2030 -10.1554 -10.1234 -10.1096 -10.0229 -10.0134
    -9.9692  -9.9528  -9.9297  -9.8273  -9.8011  -9.7906  -9.7447  -9.6824
    -9.6591  -9.6252  -9.5455  -9.4723  -9.4308  -9.3444  -9.2493  -9.2347
    -9.2077  -9.1656  -9.1121  -9.0935  -9.0679  -9.0058  -8.9846  -8.8968
    -8.8450  -8.7816  -8.6657  -8.5633  -8.5563  -8.5195  -8.4973  -8.4123
    -8.3923  -8.3702  -8.3269  -8.2981  -8.2551  -8.1440  -8.0922  -8.0724
    -8.0398  -8.0203  -8.0102  -7.9958  -7.9756  -7.9461  -7.9182  -7.9117
    -7.8837  -7.8702  -7.8255  -7.6281  -7.6172  -7.5835  -7.5385  -7.4848
    -7.4400  -7.4137  -7.3844  -7.3611  -7.2444  -7.2048  -7.1845  -7.1680
    -7.1384  -7.1100  -7.0821  -7.0751  -7.0511  -7.0258  -6.9379  -6.9015
    -6.8813  -6.7861  -6.7124  -6.7007  -6.6459  -6.6197  -6.5717  -6.4513
    -6.4224  -6.4025  -6.3924  -6.3685  -6.2411  -6.2224  -6.1672  -6.1182
    -6.0410  -6.0289  -5.9304  -5.9029  -5.8201  -5.7859  -5.7591  -5.6766
    -5.6499  -5.6362  -5.6138  -5.5924  -5.5622  -5.5382  -5.4979  -5.4023
    -5.3972  -5.3357  -5.3304  -5.2348  -5.1348  -5.0457  -4.8127  -4.6956
    -4.5303  -4.2386  -3.8884  -3.5686  -3.0895  -2.4670  -1.9412  -1.4965
    -1.2674  -0.8919  -0.5952  -0.2734  -0.0427   0.2369   0.3818   0.7522
     1.2043

     occupation numbers 
     1.0000   1.0000   1.0000   1.0000   1.0000   1.0000   1.0000   1.0000
     1.0000   1.0000   1.0000   1.0000   1.0000   1.0000   1.0000   1.0000
     1.0000   1.0000   1.0000   1.0000   1.0000   1.0000   1.0000   1.0000
     1.0000   1.0000   1.0000   1.0000   1.0000   1.0000   1.0000   1.0000
     1.0000   1.0000   1.0000   1.0000   1.0000   1.0000   1.0000   1.0000
     1.0000   1.0000   1.0000   1.0000   1.0000   1.0000   1.0000   1.0000
     1.0000   1.0000   1.0000   1.0000   1.0000   1.0000   1.0000   1.0000
     1.0000   1.0000   1.0000   1.0000   1.0000   1.0000   1.0000   1.0000
     1.0000   1.0000   1.0000   1.0000   1.0000   1.0000   1.0000   1.0000
     1.0000   1.0000   1.0000   1.0000   1.0000   1.0000   1.0000   1.0000
     1.0000   1.0000   1.0000   1.0000   1.0000   1.0000   1.0000   1.0000
     1.0000   1.0000   1.0000   1.0000   1.0000   1.0000   1.0000   1.0000
     1.0000   1.0000   1.0000   1.0000   1.0000   1.0000   1.0000   1.0000
     1.0000   1.0000   1.0005   1.0009   1.0053   1.0097   1.0150   1.0435
     1.0559   1.0623   1.0720   1.0793   1.0833   1.0786   1.0484   0.8360
     0.8194   0.5977   0.5775   0.2558   0.0706   0.0151   0.0000   0.0000
     0.0000   0.0000   0.0000   0.0000   0.0000   0.0000   0.0000   0.0000
     0.0000   0.0000   0.0000   0.0000   0.0000   0.0000   0.0000   0.0000
     0.0000

          k = 0.4375 0.0361 0.0000 ( 44536 PWs)   bands (ev):

   -11.7905 -11.4351 -10.8286 -10.5279 -10.4225 -10.4131 -10.3972 -10.3711
   -10.2515 -10.2101 -10.2030 -10.1554 -10.1234 -10.1096 -10.0229 -10.0134
    -9.9692  -9.9528  -9.9297  -9.8273  -9.8011  -9.7906  -9.7447  -9.6824
    -9.6591  -9.6252  -9.5455  -9.4723  -9.4308  -9.3444  -9.2493  -9.2347
    -9.2077  -9.1656  -9.1121  -9.0935  -9.0679  -9.0058  -8.9846  -8.8968
    -8.8450  -8.7816  -8.6657  -8.5633  -8.5563  -8.5195  -8.4973  -8.4123
    -8.3923  -8.3702  -8.3269  -8.2981  -8.2551  -8.1440  -8.0922  -8.0724
    -8.0398  -8.0203  -8.0102  -7.9958  -7.9756  -7.9461  -7.9182  -7.9117
    -7.8837  -7.8702  -7.8255  -7.6281  -7.6172  -7.5835  -7.5385  -7.4848
    -7.4400  -7.4137  -7.3844  -7.3611  -7.2444  -7.2048  -7.1845  -7.1680
    -7.1384  -7.1100  -7.0821  -7.0751  -7.0511  -7.0258  -6.9379  -6.9015
    -6.8813  -6.7861  -6.7124  -6.7007  -6.6459  -6.6197  -6.5717  -6.4513
    -6.4224  -6.4025  -6.3924  -6.3685  -6.2411  -6.2224  -6.1672  -6.1182
    -6.0410  -6.0289  -5.9304  -5.9029  -5.8201  -5.7859  -5.7591  -5.6766
    -5.6499  -5.6362  -5.6138  -5.5924  -5.5622  -5.5382  -5.4979  -5.4023
    -5.3972  -5.3357  -5.3304  -5.2348  -5.1348  -5.0457  -4.8127  -4.6956
    -4.5304  -4.2386  -3.8884  -3.5686  -3.0895  -2.4670  -1.9412  -1.4965
    -1.2674  -0.8919  -0.5952  -0.2734  -0.0427   0.2369   0.3818   0.7522
     1.2043

     occupation numbers 
     1.0000   1.0000   1.0000   1.0000   1.0000   1.0000   1.0000   1.0000
     1.0000   1.0000   1.0000   1.0000   1.0000   1.0000   1.0000   1.0000
     1.0000   1.0000   1.0000   1.0000   1.0000   1.0000   1.0000   1.0000
     1.0000   1.0000   1.0000   1.0000   1.0000   1.0000   1.0000   1.0000
     1.0000   1.0000   1.0000   1.0000   1.0000   1.0000   1.0000   1.0000
     1.0000   1.0000   1.0000   1.0000   1.0000   1.0000   1.0000   1.0000
     1.0000   1.0000   1.0000   1.0000   1.0000   1.0000   1.0000   1.0000
     1.0000   1.0000   1.0000   1.0000   1.0000   1.0000   1.0000   1.0000
     1.0000   1.0000   1.0000   1.0000   1.0000   1.0000   1.0000   1.0000
     1.0000   1.0000   1.0000   1.0000   1.0000   1.0000   1.0000   1.0000
     1.0000   1.0000   1.0000   1.0000   1.0000   1.0000   1.0000   1.0000
     1.0000   1.0000   1.0000   1.0000   1.0000   1.0000   1.0000   1.0000
     1.0000   1.0000   1.0000   1.0000   1.0000   1.0000   1.0000   1.0000
     1.0000   1.0000   1.0005   1.0009   1.0053   1.0097   1.0150   1.0435
     1.0559   1.0623   1.0720   1.0793   1.0833   1.0786   1.0484   0.8360
     0.8194   0.5977   0.5775   0.2558   0.0706   0.0151   0.0000   0.0000
     0.0000   0.0000   0.0000   0.0000   0.0000   0.0000   0.0000   0.0000
     0.0000   0.0000   0.0000   0.0000   0.0000   0.0000   0.0000   0.0000
     0.0000

          k = 0.4375 0.1083 0.0000 ( 44545 PWs)   bands (ev):

   -11.7735 -11.3982 -10.8062 -10.6275 -10.4291 -10.3898 -10.3540 -10.3182
   -10.2934 -10.2394 -10.1764 -10.1338 -10.1295 -10.1202 -10.0467  -9.9923
    -9.9277  -9.8796  -9.8638  -9.8174  -9.7875  -9.7537  -9.7450  -9.6638
    -9.6259  -9.6055  -9.5581  -9.4617  -9.4473  -9.2963  -9.2632  -9.2130
    -9.1918  -9.1564  -9.1290  -9.0619  -9.0365  -9.0196  -8.9995  -8.9167
    -8.8379  -8.7322  -8.6922  -8.6428  -8.5697  -8.5623  -8.5161  -8.4222
    -8.3859  -8.3140  -8.2782  -8.2518  -8.1878  -8.1421  -8.1292  -8.1029
    -8.0557  -8.0216  -8.0136  -7.9854  -7.9707  -7.9419  -7.9181  -7.8791
    -7.8727  -7.8082  -7.7723  -7.6282  -7.6046  -7.6006  -7.5696  -7.5164
    -7.4644  -7.4598  -7.3818  -7.3296  -7.2974  -7.2183  -7.2040  -7.1829
    -7.1659  -7.1385  -7.1299  -7.0676  -7.0399  -7.0096  -6.9425  -6.9134
    -6.8751  -6.8019  -6.7187  -6.6881  -6.6818  -6.6708  -6.5682  -6.4915
    -6.4431  -6.4337  -6.4118  -6.3293  -6.2943  -6.2816  -6.2403  -6.1635
    -6.1375  -6.0935  -6.0784  -6.0152  -5.9134  -5.8569  -5.8375  -5.7315
    -5.7138  -5.5948  -5.5667  -5.5397  -5.5282  -5.5170  -5.4978  -5.4779
    -5.3964  -5.3742  -5.3709  -5.3091  -5.2398  -5.2323  -5.0728  -4.1802
    -4.0853  -3.8943  -3.7860  -3.5164  -2.6711  -2.3157  -2.2065  -1.5175
    -1.3132  -1.1173  -0.9511  -0.6575  -0.4205   0.1368   0.7656   1.0250
     1.1706

     occupation numbers 
     1.0000   1.0000   1.0000   1.0000   1.0000   1.0000   1.0000   1.0000
     1.0000   1.0000   1.0000   1.0000   1.0000   1.0000   1.0000   1.0000
     1.0000   1.0000   1.0000   1.0000   1.0000   1.0000   1.0000   1.0000
     1.0000   1.0000   1.0000   1.0000   1.0000   1.0000   1.0000   1.0000
     1.0000   1.0000   1.0000   1.0000   1.0000   1.0000   1.0000   1.0000
     1.0000   1.0000   1.0000   1.0000   1.0000   1.0000   1.0000   1.0000
     1.0000   1.0000   1.0000   1.0000   1.0000   1.0000   1.0000   1.0000
     1.0000   1.0000   1.0000   1.0000   1.0000   1.0000   1.0000   1.0000
     1.0000   1.0000   1.0000   1.0000   1.0000   1.0000   1.0000   1.0000
     1.0000   1.0000   1.0000   1.0000   1.0000   1.0000   1.0000   1.0000
     1.0000   1.0000   1.0000   1.0000   1.0000   1.0000   1.0000   1.0000
     1.0000   1.0000   1.0000   1.0000   1.0000   1.0000   1.0000   1.0000
     1.0000   1.0000   1.0000   1.0000   1.0000   1.0000   1.0000   1.0000
     1.0000   1.0000   1.0000   1.0000   1.0007   1.0025   1.0038   1.0224
     1.0284   1.0786   1.0833   1.0791   1.0739   1.0666   1.0483   1.0207
     0.8168   0.7403   0.7284   0.4981   0.2694   0.2489   0.0251   0.0000
     0.0000   0.0000   0.0000   0.0000   0.0000   0.0000   0.0000   0.0000
     0.0000   0.0000   0.0000   0.0000   0.0000   0.0000   0.0000   0.0000
     0.0000

          k = 0.4375 0.1804 0.0000 ( 44509 PWs)   bands (ev):

   -11.7425 -11.3234 -10.7622 -10.7131 -10.4500 -10.3471 -10.3443 -10.3276
   -10.2655 -10.2254 -10.1620 -10.1400 -10.1005 -10.0528 -10.0328 -10.0000
    -9.8589  -9.8265  -9.8056  -9.7851  -9.7552  -9.7361  -9.6931  -9.6228
    -9.6170  -9.5589  -9.5050  -9.4531  -9.4340  -9.3531  -9.2204  -9.1678
    -9.1504  -9.1375  -9.1151  -9.0952  -9.0533  -8.9972  -8.9593  -8.9235
    -8.8501  -8.7669  -8.7064  -8.6671  -8.6108  -8.5972  -8.5327  -8.4520
    -8.4065  -8.2680  -8.2521  -8.2008  -8.1808  -8.1368  -8.1266  -8.1039
    -8.0709  -8.0305  -8.0043  -7.9977  -7.9685  -7.9536  -7.8895  -7.8286
    -7.7996  -7.7452  -7.6933  -7.6731  -7.6335  -7.5809  -7.5703  -7.5520
    -7.5063  -7.4803  -7.3998  -7.3583  -7.3222  -7.2859  -7.2624  -7.2336
    -7.1977  -7.1593  -7.1110  -7.0895  -7.0479  -6.9859  -6.9635  -6.9365
    -6.8690  -6.7901  -6.7863  -6.7436  -6.7278  -6.6302  -6.5993  -6.5545
    -6.5137  -6.4982  -6.4794  -6.4206  -6.3935  -6.3511  -6.3116  -6.2684
    -6.2332  -6.2014  -6.1785  -6.0995  -6.0410  -5.9760  -5.9466  -5.9181
    -5.8548  -5.6811  -5.6393  -5.5632  -5.5372  -5.5019  -5.4327  -5.4063
    -5.4044  -5.3546  -5.3209  -5.3056  -5.1698  -5.1632  -5.0721  -4.2968
    -3.7724  -3.4953  -3.3004  -2.9281  -2.5836  -2.2537  -2.1692  -1.8892
    -1.7849  -1.3641  -1.0133  -0.7776  -0.4276  -0.2933   0.7149   0.8858
     1.3258

     occupation numbers 
     1.0000   1.0000   1.0000   1.0000   1.0000   1.0000   1.0000   1.0000
     1.0000   1.0000   1.0000   1.0000   1.0000   1.0000   1.0000   1.0000
     1.0000   1.0000   1.0000   1.0000   1.0000   1.0000   1.0000   1.0000
     1.0000   1.0000   1.0000   1.0000   1.0000   1.0000   1.0000   1.0000
     1.0000   1.0000   1.0000   1.0000   1.0000   1.0000   1.0000   1.0000
     1.0000   1.0000   1.0000   1.0000   1.0000   1.0000   1.0000   1.0000
     1.0000   1.0000   1.0000   1.0000   1.0000   1.0000   1.0000   1.0000
     1.0000   1.0000   1.0000   1.0000   1.0000   1.0000   1.0000   1.0000
     1.0000   1.0000   1.0000   1.0000   1.0000   1.0000   1.0000   1.0000
     1.0000   1.0000   1.0000   1.0000   1.0000   1.0000   1.0000   1.0000
     1.0000   1.0000   1.0000   1.0000   1.0000   1.0000   1.0000   1.0000
     1.0000   1.0000   1.0000   1.0000   1.0000   1.0000   1.0000   1.0000
     1.0000   1.0000   1.0000   1.0000   1.0000   1.0000   1.0000   1.0000
     1.0000   1.0000   1.0000   1.0000   1.0000   1.0001   1.0003   1.0006
     1.0027   1.0415   1.0609   1.0833   1.0782   1.0528   0.9249   0.8488
     0.8427   0.6686   0.5420   0.4853   0.1167   0.1066   0.0248   0.0000
     0.0000   0.0000   0.0000   0.0000   0.0000   0.0000   0.0000   0.0000
     0.0000   0.0000   0.0000   0.0000   0.0000   0.0000   0.0000   0.0000
     0.0000

          k = 0.4375 0.2526 0.0000 ( 44502 PWs)   bands (ev):

   -11.7022 -11.2101 -10.7902 -10.6856 -10.4649 -10.3500 -10.2841 -10.2828
   -10.2680 -10.1587 -10.1583 -10.1302 -10.0627  -9.9937  -9.9913  -9.9769
    -9.7996  -9.7967  -9.7870  -9.7150  -9.6932  -9.6895  -9.6263  -9.6150
    -9.5709  -9.5364  -9.4709  -9.4070  -9.3988  -9.3561  -9.2045  -9.2041
    -9.1712  -9.0957  -9.0909  -9.0752  -9.0500  -9.0090  -8.9348  -8.8906
    -8.8624  -8.8578  -8.6991  -8.6947  -8.6503  -8.6104  -8.5500  -8.4810
    -8.4641  -8.2822  -8.2595  -8.2587  -8.2289  -8.1797  -8.1226  -8.0518
    -8.0361  -8.0296  -8.0240  -7.9957  -7.9799  -7.9673  -7.8211  -7.7677
    -7.7620  -7.7319  -7.7280  -7.7026  -7.5998  -7.5716  -7.5524  -7.5408
    -7.5131  -7.5081  -7.4816  -7.4034  -7.3593  -7.3015  -7.2943  -7.2810
    -7.2094  -7.1663  -7.1418  -7.0890  -7.0438  -7.0144  -6.9933  -6.9922
    -6.8914  -6.8170  -6.7998  -6.7840  -6.7572  -6.6848  -6.6766  -6.5886
    -6.5711  -6.5637  -6.5401  -6.5396  -6.5269  -6.5038  -6.3669  -6.3326
    -6.3112  -6.2988  -6.2554  -6.1061  -6.1055  -6.0184  -5.9872  -5.9847
    -5.9468  -5.7799  -5.6233  -5.5782  -5.5237  -5.5026  -5.3784  -5.3757
    -5.3672  -5.3362  -5.2951  -5.2949  -5.1417  -5.1382  -5.0022  -4.4542
    -3.6432  -2.9835  -2.8405  -2.8217  -2.5963  -2.5592  -2.2428  -2.0020
    -1.9108  -1.2723  -1.0069  -0.9479  -0.7156   0.1839   0.3860   0.4875
     1.7675

     occupation numbers 
     1.0000   1.0000   1.0000   1.0000   1.0000   1.0000   1.0000   1.0000
     1.0000   1.0000   1.0000   1.0000   1.0000   1.0000   1.0000   1.0000
     1.0000   1.0000   1.0000   1.0000   1.0000   1.0000   1.0000   1.0000
     1.0000   1.0000   1.0000   1.0000   1.0000   1.0000   1.0000   1.0000
     1.0000   1.0000   1.0000   1.0000   1.0000   1.0000   1.0000   1.0000
     1.0000   1.0000   1.0000   1.0000   1.0000   1.0000   1.0000   1.0000
     1.0000   1.0000   1.0000   1.0000   1.0000   1.0000   1.0000   1.0000
     1.0000   1.0000   1.0000   1.0000   1.0000   1.0000   1.0000   1.0000
     1.0000   1.0000   1.0000   1.0000   1.0000   1.0000   1.0000   1.0000
     1.0000   1.0000   1.0000   1.0000   1.0000   1.0000   1.0000   1.0000
     1.0000   1.0000   1.0000   1.0000   1.0000   1.0000   1.0000   1.0000
     1.0000   1.0000   1.0000   1.0000   1.0000   1.0000   1.0000   1.0000
     1.0000   1.0000   1.0000   1.0000   1.0000   1.0000   1.0000   1.0000
     1.0000   1.0000   1.0000   1.0000   1.0000   1.0000   1.0001   1.0001
     1.0003   1.0107   1.0681   1.0823   1.0713   1.0536   0.7552   0.7455
     0.7152   0.5993   0.4473   0.4466   0.0783   0.0743   0.0062   0.0000
     0.0000   0.0000   0.0000   0.0000   0.0000   0.0000   0.0000   0.0000
     0.0000   0.0000   0.0000   0.0000   0.0000   0.0000   0.0000   0.0000
     0.0000

          k = 0.4375-0.8299 0.0000 ( 44516 PWs)   bands (ev):

   -11.6583 -11.0602 -10.8430 -10.5902 -10.4730 -10.2933 -10.2436 -10.2187
   -10.2168 -10.1706 -10.1294 -10.0809 -10.0168  -9.9688  -9.9406  -9.8934
    -9.7871  -9.7830  -9.7340  -9.6660  -9.6485  -9.6096  -9.5770  -9.5536
    -9.5360  -9.5063  -9.4567  -9.3948  -9.3700  -9.3228  -9.2260  -9.2190
    -9.2039  -9.1387  -9.0772  -9.0601  -9.0364  -8.9937  -8.9657  -8.9200
    -8.8964  -8.8082  -8.7735  -8.6907  -8.6740  -8.6131  -8.5778  -8.5463
    -8.4981  -8.3784  -8.3683  -8.2901  -8.2585  -8.2013  -8.1423  -8.0975
    -8.0591  -8.0476  -8.0363  -8.0023  -7.9774  -7.9279  -7.8252  -7.7855
    -7.7757  -7.7424  -7.7253  -7.6912  -7.6686  -7.6359  -7.6017  -7.5961
    -7.5504  -7.5319  -7.4936  -7.4153  -7.3684  -7.3220  -7.3103  -7.2946
    -7.2327  -7.1672  -7.1492  -7.1087  -7.0618  -7.0369  -7.0014  -6.9818
    -6.8764  -6.8604  -6.8114  -6.7830  -6.7557  -6.7420  -6.7073  -6.6757
    -6.6574  -6.6070  -6.5793  -6.5439  -6.5309  -6.4654  -6.4247  -6.3428
    -6.3125  -6.3014  -6.2438  -6.1251  -6.1041  -6.0454  -5.9881  -5.9577
    -5.9173  -5.8190  -5.6376  -5.5876  -5.5372  -5.5058  -5.4040  -5.3924
    -5.3730  -5.3676  -5.3358  -5.3216  -5.1683  -5.1618  -4.8563  -4.5378
    -3.5449  -3.4470  -3.2347  -3.0010  -2.7597  -2.1784  -2.0332  -1.7822
    -1.6477  -1.3387  -1.1720  -0.5056  -0.3061  -0.2387   0.1992   0.9785
     1.3701

     occupation numbers 
     1.0000   1.0000   1.0000   1.0000   1.0000   1.0000   1.0000   1.0000
     1.0000   1.0000   1.0000   1.0000   1.0000   1.0000   1.0000   1.0000
     1.0000   1.0000   1.0000   1.0000   1.0000   1.0000   1.0000   1.0000
     1.0000   1.0000   1.0000   1.0000   1.0000   1.0000   1.0000   1.0000
     1.0000   1.0000   1.0000   1.0000   1.0000   1.0000   1.0000   1.0000
     1.0000   1.0000   1.0000   1.0000   1.0000   1.0000   1.0000   1.0000
     1.0000   1.0000   1.0000   1.0000   1.0000   1.0000   1.0000   1.0000
     1.0000   1.0000   1.0000   1.0000   1.0000   1.0000   1.0000   1.0000
     1.0000   1.0000   1.0000   1.0000   1.0000   1.0000   1.0000   1.0000
     1.0000   1.0000   1.0000   1.0000   1.0000   1.0000   1.0000   1.0000
     1.0000   1.0000   1.0000   1.0000   1.0000   1.0000   1.0000   1.0000
     1.0000   1.0000   1.0000   1.0000   1.0000   1.0000   1.0000   1.0000
     1.0000   1.0000   1.0000   1.0000   1.0000   1.0000   1.0000   1.0000
     1.0000   1.0000   1.0000   1.0000   1.0000   1.0000   1.0001   1.0002
     1.0007   1.0054   1.0617   1.0805   1.0782   1.0568   0.8414   0.8036
     0.7359   0.7164   0.5978   0.5446   0.1144   0.1046   0.0002   0.0000
     0.0000   0.0000   0.0000   0.0000   0.0000   0.0000   0.0000   0.0000
     0.0000   0.0000   0.0000   0.0000   0.0000   0.0000   0.0000   0.0000
     0.0000

          k = 0.4375-0.7578 0.0000 ( 44554 PWs)   bands (ev):

   -11.6168 -10.8843 -10.8731 -10.4829 -10.4581 -10.1932 -10.1866 -10.1757
   -10.1715 -10.1389 -10.1252 -10.0185  -9.9667  -9.9324  -9.8790  -9.7966
    -9.7943  -9.7700  -9.7195  -9.6649  -9.5940  -9.5647  -9.5543  -9.5292
    -9.4397  -9.4354  -9.4252  -9.4202  -9.4094  -9.2917  -9.2393  -9.2327
    -9.1962  -9.1886  -9.1136  -9.0755  -9.0589  -9.0259  -8.9496  -8.9459
    -8.9203  -8.9140  -8.7697  -8.6973  -8.6966  -8.6181  -8.5900  -8.5590
    -8.5167  -8.5059  -8.4971  -8.2814  -8.2582  -8.2250  -8.2057  -8.1849
    -8.0865  -8.0804  -8.0675  -8.0110  -7.9951  -7.9368  -7.9196  -7.8447
    -7.8144  -7.7786  -7.7686  -7.7459  -7.7372  -7.7310  -7.6773  -7.6503
    -7.6371  -7.5708  -7.5499  -7.5440  -7.3345  -7.3265  -7.2919  -7.1852
    -7.1818  -7.1671  -7.1496  -7.1154  -7.1143  -7.0445  -6.9881  -6.9667
    -6.8580  -6.8269  -6.8079  -6.7976  -6.7379  -6.7217  -6.7175  -6.6423
    -6.6219  -6.5616  -6.5111  -6.5091  -6.4490  -6.4195  -6.3331  -6.2968
    -6.2918  -6.2174  -6.1273  -6.0939  -6.0819  -6.0626  -6.0422  -5.8913
    -5.8470  -5.7823  -5.6645  -5.6078  -5.5665  -5.5261  -5.4689  -5.4562
    -5.4411  -5.4220  -5.4191  -5.4070  -5.2425  -5.2315  -4.7088  -4.5136
    -4.0437  -3.9275  -3.5588  -3.1696  -2.9890  -2.4449  -1.6525  -1.4342
    -1.3151  -1.0842  -0.8973  -0.5119  -0.0743   0.0429   0.4381   0.8245
     1.6577

     occupation numbers 
     1.0000   1.0000   1.0000   1.0000   1.0000   1.0000   1.0000   1.0000
     1.0000   1.0000   1.0000   1.0000   1.0000   1.0000   1.0000   1.0000
     1.0000   1.0000   1.0000   1.0000   1.0000   1.0000   1.0000   1.0000
     1.0000   1.0000   1.0000   1.0000   1.0000   1.0000   1.0000   1.0000
     1.0000   1.0000   1.0000   1.0000   1.0000   1.0000   1.0000   1.0000
     1.0000   1.0000   1.0000   1.0000   1.0000   1.0000   1.0000   1.0000
     1.0000   1.0000   1.0000   1.0000   1.0000   1.0000   1.0000   1.0000
     1.0000   1.0000   1.0000   1.0000   1.0000   1.0000   1.0000   1.0000
     1.0000   1.0000   1.0000   1.0000   1.0000   1.0000   1.0000   1.0000
     1.0000   1.0000   1.0000   1.0000   1.0000   1.0000   1.0000   1.0000
     1.0000   1.0000   1.0000   1.0000   1.0000   1.0000   1.0000   1.0000
     1.0000   1.0000   1.0000   1.0000   1.0000   1.0000   1.0000   1.0000
     1.0000   1.0000   1.0000   1.0000   1.0000   1.0000   1.0000   1.0000
     1.0000   1.0000   1.0000   1.0000   1.0000   1.0000   1.0000   1.0012
     1.0031   1.0103   1.0491   1.0743   1.0833   1.0728   1.0054   0.9804
     0.9462   0.8955   0.8873   0.8508   0.2770   0.2470   0.0000   0.0000
     0.0000   0.0000   0.0000   0.0000   0.0000   0.0000   0.0000   0.0000
     0.0000   0.0000   0.0000   0.0000   0.0000   0.0000   0.0000   0.0000
     0.0000

          k = 0.4375-0.6856 0.0000 ( 44484 PWs)   bands (ev):

   -11.5840 -10.8990 -10.6765 -10.4598 -10.3409 -10.1924 -10.1697 -10.1451
   -10.1104 -10.0515 -10.0284  -9.9795  -9.9179  -9.9071  -9.8162  -9.8099
    -9.7775  -9.7165  -9.6953  -9.6565  -9.6250  -9.5945  -9.5575  -9.4933
    -9.4761  -9.4173  -9.3915  -9.3768  -9.3085  -9.2901  -9.2830  -9.2727
    -9.2496  -9.2175  -9.1194  -9.0977  -9.0753  -9.0460  -8.9767  -8.9655
    -8.9328  -8.8913  -8.8548  -8.7700  -8.7072  -8.6748  -8.6509  -8.5591
    -8.5312  -8.4632  -8.4492  -8.3632  -8.2987  -8.2738  -8.2441  -8.2166
    -8.1739  -8.1298  -8.1116  -8.0900  -8.0521  -8.0064  -7.9650  -7.9440
    -7.9041  -7.8817  -7.8180  -7.8083  -7.7840  -7.7554  -7.7033  -7.6813
    -7.6575  -7.5863  -7.5742  -7.5423  -7.3488  -7.2937  -7.2633  -7.2236
    -7.1573  -7.1496  -7.1481  -7.1303  -7.0871  -7.0395  -6.9863  -6.9662
    -6.8928  -6.8343  -6.8150  -6.7317  -6.7156  -6.6510  -6.6417  -6.5581
    -6.5497  -6.4962  -6.4688  -6.4263  -6.3531  -6.3262  -6.2607  -6.2283
    -6.1742  -6.1073  -6.0829  -6.0603  -6.0444  -5.8634  -5.8499  -5.8318
    -5.7971  -5.7606  -5.6908  -5.6038  -5.5807  -5.5640  -5.5558  -5.5393
    -5.5191  -5.5115  -5.5049  -5.4900  -5.3454  -5.3343  -4.6835  -4.5791
    -4.4832  -4.3160  -4.1025  -3.2643  -2.9853  -2.7322  -1.6922  -1.3932
    -1.0481  -0.7136  -0.3736  -0.1599   0.1773   0.3521   0.4643   1.0934
     1.8423

     occupation numbers 
     1.0000   1.0000   1.0000   1.0000   1.0000   1.0000   1.0000   1.0000
     1.0000   1.0000   1.0000   1.0000   1.0000   1.0000   1.0000   1.0000
     1.0000   1.0000   1.0000   1.0000   1.0000   1.0000   1.0000   1.0000
     1.0000   1.0000   1.0000   1.0000   1.0000   1.0000   1.0000   1.0000
     1.0000   1.0000   1.0000   1.0000   1.0000   1.0000   1.0000   1.0000
     1.0000   1.0000   1.0000   1.0000   1.0000   1.0000   1.0000   1.0000
     1.0000   1.0000   1.0000   1.0000   1.0000   1.0000   1.0000   1.0000
     1.0000   1.0000   1.0000   1.0000   1.0000   1.0000   1.0000   1.0000
     1.0000   1.0000   1.0000   1.0000   1.0000   1.0000   1.0000   1.0000
     1.0000   1.0000   1.0000   1.0000   1.0000   1.0000   1.0000   1.0000
     1.0000   1.0000   1.0000   1.0000   1.0000   1.0000   1.0000   1.0000
     1.0000   1.0000   1.0000   1.0000   1.0000   1.0000   1.0000   1.0000
     1.0000   1.0000   1.0000   1.0000   1.0000   1.0000   1.0000   1.0000
     1.0000   1.0000   1.0000   1.0000   1.0000   1.0022   1.0029   1.0042
     1.0080   1.0146   1.0374   1.0757   1.0819   1.0833   1.0828   1.0790
     1.0682   1.0621   1.0559   1.0385   0.6341   0.5925   0.0000   0.0000
     0.0000   0.0000   0.0000   0.0000   0.0000   0.0000   0.0000   0.0000
     0.0000   0.0000   0.0000   0.0000   0.0000   0.0000   0.0000   0.0000
     0.0000

          k = 0.4375-0.6134 0.0000 ( 44485 PWs)   bands (ev):

   -11.5657 -10.9078 -10.4725 -10.4494 -10.2963 -10.2283 -10.1744 -10.1537
   -10.0248  -9.9675  -9.9550  -9.9208  -9.9153  -9.8924  -9.8494  -9.7746
    -9.7336  -9.7260  -9.6884  -9.6648  -9.6499  -9.6175  -9.5607  -9.4895
    -9.4673  -9.4559  -9.4432  -9.3672  -9.3350  -9.2826  -9.2527  -9.2397
    -9.2293  -9.2203  -9.1610  -9.1522  -9.1331  -9.0091  -8.9524  -8.9456
    -8.9357  -8.8801  -8.8407  -8.8052  -8.7729  -8.6975  -8.6699  -8.5537
    -8.5410  -8.4713  -8.4267  -8.3992  -8.3847  -8.3306  -8.3000  -8.2310
    -8.1968  -8.1780  -8.1617  -8.1327  -8.0865  -8.0575  -8.0087  -7.9794
    -7.9232  -7.9052  -7.8671  -7.8220  -7.8009  -7.7780  -7.7413  -7.6911
    -7.6376  -7.5977  -7.5585  -7.5286  -7.3658  -7.3098  -7.2551  -7.2415
    -7.1704  -7.1442  -7.1212  -7.1052  -7.0847  -7.0522  -7.0395  -6.9578
    -6.8345  -6.8067  -6.7965  -6.7411  -6.7272  -6.6342  -6.5710  -6.5355
    -6.4711  -6.4514  -6.4266  -6.3467  -6.3149  -6.2753  -6.2569  -6.2093
    -6.0908  -6.0555  -5.9856  -5.9434  -5.8447  -5.8238  -5.8003  -5.7747
    -5.7473  -5.7009  -5.6828  -5.6606  -5.6406  -5.6205  -5.5812  -5.5333
    -5.5264  -5.4934  -5.4596  -5.4461  -5.4403  -5.2205  -5.0752  -5.0148
    -4.7449  -4.5695  -3.9901  -3.5549  -3.1765  -2.4328  -1.9763  -1.5756
    -0.7208  -0.2960  -0.1366   0.0343   0.3640   0.6820   0.9048   1.0810
     1.4102

     occupation numbers 
     1.0000   1.0000   1.0000   1.0000   1.0000   1.0000   1.0000   1.0000
     1.0000   1.0000   1.0000   1.0000   1.0000   1.0000   1.0000   1.0000
     1.0000   1.0000   1.0000   1.0000   1.0000   1.0000   1.0000   1.0000
     1.0000   1.0000   1.0000   1.0000   1.0000   1.0000   1.0000   1.0000
     1.0000   1.0000   1.0000   1.0000   1.0000   1.0000   1.0000   1.0000
     1.0000   1.0000   1.0000   1.0000   1.0000   1.0000   1.0000   1.0000
     1.0000   1.0000   1.0000   1.0000   1.0000   1.0000   1.0000   1.0000
     1.0000   1.0000   1.0000   1.0000   1.0000   1.0000   1.0000   1.0000
     1.0000   1.0000   1.0000   1.0000   1.0000   1.0000   1.0000   1.0000
     1.0000   1.0000   1.0000   1.0000   1.0000   1.0000   1.0000   1.0000
     1.0000   1.0000   1.0000   1.0000   1.0000   1.0000   1.0000   1.0000
     1.0000   1.0000   1.0000   1.0000   1.0000   1.0000   1.0000   1.0000
     1.0000   1.0000   1.0000   1.0000   1.0000   1.0000   1.0000   1.0000
     1.0000   1.0000   1.0001   1.0003   1.0033   1.0049   1.0076   1.0117
     1.0179   1.0332   1.0408   1.0509   1.0603   1.0693   1.0818   1.0765
     1.0729   1.0429   0.9876   0.9581   0.9441   0.2188   0.0263   0.0081
     0.0000   0.0000   0.0000   0.0000   0.0000   0.0000   0.0000   0.0000
     0.0000   0.0000   0.0000   0.0000   0.0000   0.0000   0.0000   0.0000
     0.0000

          k = 0.4375-0.5413 0.0000 ( 44485 PWs)   bands (ev):

   -11.5657 -10.9078 -10.4725 -10.4494 -10.2963 -10.2283 -10.1744 -10.1537
   -10.0248  -9.9675  -9.9550  -9.9208  -9.9153  -9.8924  -9.8494  -9.7746
    -9.7336  -9.7260  -9.6884  -9.6648  -9.6499  -9.6175  -9.5607  -9.4895
    -9.4673  -9.4559  -9.4432  -9.3672  -9.3350  -9.2826  -9.2527  -9.2397
    -9.2293  -9.2203  -9.1610  -9.1522  -9.1331  -9.0091  -8.9524  -8.9456
    -8.9357  -8.8801  -8.8407  -8.8052  -8.7729  -8.6975  -8.6699  -8.5537
    -8.5410  -8.4713  -8.4267  -8.3992  -8.3847  -8.3306  -8.3000  -8.2310
    -8.1968  -8.1780  -8.1617  -8.1327  -8.0865  -8.0575  -8.0087  -7.9794
    -7.9232  -7.9052  -7.8671  -7.8220  -7.8009  -7.7780  -7.7413  -7.6911
    -7.6376  -7.5977  -7.5585  -7.5286  -7.3658  -7.3098  -7.2551  -7.2415
    -7.1704  -7.1442  -7.1212  -7.1052  -7.0847  -7.0522  -7.0395  -6.9578
    -6.8345  -6.8067  -6.7965  -6.7411  -6.7272  -6.6342  -6.5710  -6.5355
    -6.4711  -6.4514  -6.4266  -6.3467  -6.3149  -6.2753  -6.2569  -6.2093
    -6.0908  -6.0555  -5.9856  -5.9434  -5.8447  -5.8238  -5.8003  -5.7747
    -5.7473  -5.7009  -5.6828  -5.6606  -5.6406  -5.6205  -5.5812  -5.5333
    -5.5264  -5.4934  -5.4596  -5.4461  -5.4403  -5.2205  -5.0752  -5.0148
    -4.7449  -4.5695  -3.9901  -3.5549  -3.1765  -2.4328  -1.9763  -1.5756
    -0.7208  -0.2960  -0.1366   0.0343   0.3640   0.6820   0.9048   1.0810
     1.4102

     occupation numbers 
     1.0000   1.0000   1.0000   1.0000   1.0000   1.0000   1.0000   1.0000
     1.0000   1.0000   1.0000   1.0000   1.0000   1.0000   1.0000   1.0000
     1.0000   1.0000   1.0000   1.0000   1.0000   1.0000   1.0000   1.0000
     1.0000   1.0000   1.0000   1.0000   1.0000   1.0000   1.0000   1.0000
     1.0000   1.0000   1.0000   1.0000   1.0000   1.0000   1.0000   1.0000
     1.0000   1.0000   1.0000   1.0000   1.0000   1.0000   1.0000   1.0000
     1.0000   1.0000   1.0000   1.0000   1.0000   1.0000   1.0000   1.0000
     1.0000   1.0000   1.0000   1.0000   1.0000   1.0000   1.0000   1.0000
     1.0000   1.0000   1.0000   1.0000   1.0000   1.0000   1.0000   1.0000
     1.0000   1.0000   1.0000   1.0000   1.0000   1.0000   1.0000   1.0000
     1.0000   1.0000   1.0000   1.0000   1.0000   1.0000   1.0000   1.0000
     1.0000   1.0000   1.0000   1.0000   1.0000   1.0000   1.0000   1.0000
     1.0000   1.0000   1.0000   1.0000   1.0000   1.0000   1.0000   1.0000
     1.0000   1.0000   1.0001   1.0003   1.0033   1.0049   1.0076   1.0117
     1.0179   1.0332   1.0408   1.0509   1.0603   1.0693   1.0818   1.0765
     1.0729   1.0429   0.9876   0.9581   0.9441   0.2188   0.0263   0.0081
     0.0000   0.0000   0.0000   0.0000   0.0000   0.0000   0.0000   0.0000
     0.0000   0.0000   0.0000   0.0000   0.0000   0.0000   0.0000   0.0000
     0.0000

          k = 0.4375-0.4691 0.0000 ( 44484 PWs)   bands (ev):

   -11.5840 -10.8990 -10.6765 -10.4598 -10.3409 -10.1924 -10.1697 -10.1451
   -10.1104 -10.0515 -10.0284  -9.9795  -9.9179  -9.9071  -9.8162  -9.8099
    -9.7775  -9.7165  -9.6953  -9.6565  -9.6250  -9.5945  -9.5575  -9.4933
    -9.4761  -9.4173  -9.3915  -9.3768  -9.3085  -9.2901  -9.2830  -9.2727
    -9.2496  -9.2175  -9.1194  -9.0977  -9.0753  -9.0460  -8.9767  -8.9655
    -8.9328  -8.8913  -8.8548  -8.7700  -8.7072  -8.6748  -8.6509  -8.5591
    -8.5312  -8.4632  -8.4492  -8.3632  -8.2987  -8.2738  -8.2441  -8.2166
    -8.1739  -8.1298  -8.1116  -8.0900  -8.0521  -8.0064  -7.9650  -7.9440
    -7.9041  -7.8817  -7.8180  -7.8083  -7.7840  -7.7554  -7.7033  -7.6813
    -7.6575  -7.5863  -7.5742  -7.5423  -7.3488  -7.2937  -7.2633  -7.2236
    -7.1573  -7.1496  -7.1481  -7.1303  -7.0871  -7.0395  -6.9863  -6.9662
    -6.8928  -6.8343  -6.8150  -6.7317  -6.7156  -6.6510  -6.6417  -6.5581
    -6.5497  -6.4962  -6.4688  -6.4263  -6.3531  -6.3262  -6.2607  -6.2283
    -6.1742  -6.1073  -6.0829  -6.0603  -6.0444  -5.8634  -5.8499  -5.8318
    -5.7971  -5.7606  -5.6908  -5.6038  -5.5807  -5.5640  -5.5558  -5.5393
    -5.5191  -5.5115  -5.5049  -5.4900  -5.3454  -5.3343  -4.6835  -4.5791
    -4.4832  -4.3160  -4.1025  -3.2643  -2.9853  -2.7322  -1.6922  -1.3932
    -1.0481  -0.7136  -0.3736  -0.1599   0.1773   0.3521   0.4643   1.0934
     1.8423

     occupation numbers 
     1.0000   1.0000   1.0000   1.0000   1.0000   1.0000   1.0000   1.0000
     1.0000   1.0000   1.0000   1.0000   1.0000   1.0000   1.0000   1.0000
     1.0000   1.0000   1.0000   1.0000   1.0000   1.0000   1.0000   1.0000
     1.0000   1.0000   1.0000   1.0000   1.0000   1.0000   1.0000   1.0000
     1.0000   1.0000   1.0000   1.0000   1.0000   1.0000   1.0000   1.0000
     1.0000   1.0000   1.0000   1.0000   1.0000   1.0000   1.0000   1.0000
     1.0000   1.0000   1.0000   1.0000   1.0000   1.0000   1.0000   1.0000
     1.0000   1.0000   1.0000   1.0000   1.0000   1.0000   1.0000   1.0000
     1.0000   1.0000   1.0000   1.0000   1.0000   1.0000   1.0000   1.0000
     1.0000   1.0000   1.0000   1.0000   1.0000   1.0000   1.0000   1.0000
     1.0000   1.0000   1.0000   1.0000   1.0000   1.0000   1.0000   1.0000
     1.0000   1.0000   1.0000   1.0000   1.0000   1.0000   1.0000   1.0000
     1.0000   1.0000   1.0000   1.0000   1.0000   1.0000   1.0000   1.0000
     1.0000   1.0000   1.0000   1.0000   1.0000   1.0022   1.0029   1.0042
     1.0080   1.0146   1.0374   1.0757   1.0819   1.0833   1.0828   1.0790
     1.0682   1.0621   1.0559   1.0385   0.6341   0.5925   0.0000   0.0000
     0.0000   0.0000   0.0000   0.0000   0.0000   0.0000   0.0000   0.0000
     0.0000   0.0000   0.0000   0.0000   0.0000   0.0000   0.0000   0.0000
     0.0000

          k = 0.4375-0.3969 0.0000 ( 44554 PWs)   bands (ev):

   -11.6168 -10.8843 -10.8731 -10.4829 -10.4581 -10.1932 -10.1866 -10.1757
   -10.1715 -10.1389 -10.1252 -10.0185  -9.9667  -9.9324  -9.8790  -9.7966
    -9.7943  -9.7700  -9.7195  -9.6649  -9.5940  -9.5647  -9.5543  -9.5292
    -9.4397  -9.4354  -9.4252  -9.4202  -9.4094  -9.2917  -9.2393  -9.2327
    -9.1962  -9.1886  -9.1136  -9.0755  -9.0589  -9.0259  -8.9496  -8.9459
    -8.9203  -8.9140  -8.7697  -8.6973  -8.6966  -8.6181  -8.5900  -8.5590
    -8.5167  -8.5059  -8.4971  -8.2814  -8.2582  -8.2250  -8.2057  -8.1849
    -8.0865  -8.0804  -8.0675  -8.0110  -7.9951  -7.9368  -7.9196  -7.8447
    -7.8144  -7.7786  -7.7686  -7.7459  -7.7372  -7.7310  -7.6773  -7.6503
    -7.6371  -7.5708  -7.5499  -7.5440  -7.3345  -7.3265  -7.2919  -7.1852
    -7.1818  -7.1671  -7.1496  -7.1154  -7.1143  -7.0445  -6.9881  -6.9667
    -6.8580  -6.8269  -6.8079  -6.7976  -6.7379  -6.7217  -6.7175  -6.6423
    -6.6219  -6.5616  -6.5111  -6.5091  -6.4490  -6.4195  -6.3331  -6.2968
    -6.2918  -6.2174  -6.1273  -6.0939  -6.0819  -6.0626  -6.0422  -5.8913
    -5.8470  -5.7823  -5.6645  -5.6078  -5.5665  -5.5261  -5.4689  -5.4562
    -5.4411  -5.4220  -5.4191  -5.4070  -5.2425  -5.2315  -4.7088  -4.5136
    -4.0437  -3.9275  -3.5588  -3.1696  -2.9890  -2.4449  -1.6525  -1.4342
    -1.3151  -1.0842  -0.8973  -0.5119  -0.0743   0.0429   0.4381   0.8245
     1.6577

     occupation numbers 
     1.0000   1.0000   1.0000   1.0000   1.0000   1.0000   1.0000   1.0000
     1.0000   1.0000   1.0000   1.0000   1.0000   1.0000   1.0000   1.0000
     1.0000   1.0000   1.0000   1.0000   1.0000   1.0000   1.0000   1.0000
     1.0000   1.0000   1.0000   1.0000   1.0000   1.0000   1.0000   1.0000
     1.0000   1.0000   1.0000   1.0000   1.0000   1.0000   1.0000   1.0000
     1.0000   1.0000   1.0000   1.0000   1.0000   1.0000   1.0000   1.0000
     1.0000   1.0000   1.0000   1.0000   1.0000   1.0000   1.0000   1.0000
     1.0000   1.0000   1.0000   1.0000   1.0000   1.0000   1.0000   1.0000
     1.0000   1.0000   1.0000   1.0000   1.0000   1.0000   1.0000   1.0000
     1.0000   1.0000   1.0000   1.0000   1.0000   1.0000   1.0000   1.0000
     1.0000   1.0000   1.0000   1.0000   1.0000   1.0000   1.0000   1.0000
     1.0000   1.0000   1.0000   1.0000   1.0000   1.0000   1.0000   1.0000
     1.0000   1.0000   1.0000   1.0000   1.0000   1.0000   1.0000   1.0000
     1.0000   1.0000   1.0000   1.0000   1.0000   1.0000   1.0000   1.0012
     1.0031   1.0103   1.0491   1.0743   1.0833   1.0728   1.0054   0.9804
     0.9462   0.8955   0.8873   0.8508   0.2770   0.2470   0.0000   0.0000
     0.0000   0.0000   0.0000   0.0000   0.0000   0.0000   0.0000   0.0000
     0.0000   0.0000   0.0000   0.0000   0.0000   0.0000   0.0000   0.0000
     0.0000

          k = 0.4375-0.3248 0.0000 ( 44516 PWs)   bands (ev):

   -11.6583 -11.0602 -10.8430 -10.5902 -10.4730 -10.2933 -10.2436 -10.2187
   -10.2168 -10.1706 -10.1294 -10.0809 -10.0168  -9.9688  -9.9406  -9.8934
    -9.7871  -9.7830  -9.7340  -9.6660  -9.6485  -9.6096  -9.5770  -9.5536
    -9.5360  -9.5063  -9.4567  -9.3948  -9.3700  -9.3228  -9.2260  -9.2190
    -9.2039  -9.1387  -9.0772  -9.0601  -9.0364  -8.9937  -8.9657  -8.9200
    -8.8964  -8.8082  -8.7735  -8.6907  -8.6740  -8.6131  -8.5778  -8.5463
    -8.4981  -8.3784  -8.3683  -8.2901  -8.2585  -8.2013  -8.1423  -8.0975
    -8.0591  -8.0476  -8.0363  -8.0023  -7.9774  -7.9279  -7.8252  -7.7855
    -7.7757  -7.7424  -7.7253  -7.6912  -7.6686  -7.6359  -7.6017  -7.5961
    -7.5504  -7.5319  -7.4936  -7.4153  -7.3684  -7.3220  -7.3103  -7.2946
    -7.2327  -7.1672  -7.1492  -7.1087  -7.0618  -7.0369  -7.0014  -6.9818
    -6.8764  -6.8604  -6.8114  -6.7830  -6.7557  -6.7420  -6.7073  -6.6757
    -6.6574  -6.6070  -6.5793  -6.5439  -6.5309  -6.4654  -6.4247  -6.3428
    -6.3125  -6.3014  -6.2438  -6.1251  -6.1041  -6.0454  -5.9881  -5.9577
    -5.9173  -5.8190  -5.6376  -5.5876  -5.5372  -5.5058  -5.4040  -5.3924
    -5.3730  -5.3676  -5.3358  -5.3216  -5.1683  -5.1618  -4.8563  -4.5378
    -3.5449  -3.4470  -3.2347  -3.0010  -2.7597  -2.1784  -2.0332  -1.7822
    -1.6477  -1.3387  -1.1720  -0.5056  -0.3061  -0.2387   0.1992   0.9785
     1.3701

     occupation numbers 
     1.0000   1.0000   1.0000   1.0000   1.0000   1.0000   1.0000   1.0000
     1.0000   1.0000   1.0000   1.0000   1.0000   1.0000   1.0000   1.0000
     1.0000   1.0000   1.0000   1.0000   1.0000   1.0000   1.0000   1.0000
     1.0000   1.0000   1.0000   1.0000   1.0000   1.0000   1.0000   1.0000
     1.0000   1.0000   1.0000   1.0000   1.0000   1.0000   1.0000   1.0000
     1.0000   1.0000   1.0000   1.0000   1.0000   1.0000   1.0000   1.0000
     1.0000   1.0000   1.0000   1.0000   1.0000   1.0000   1.0000   1.0000
     1.0000   1.0000   1.0000   1.0000   1.0000   1.0000   1.0000   1.0000
     1.0000   1.0000   1.0000   1.0000   1.0000   1.0000   1.0000   1.0000
     1.0000   1.0000   1.0000   1.0000   1.0000   1.0000   1.0000   1.0000
     1.0000   1.0000   1.0000   1.0000   1.0000   1.0000   1.0000   1.0000
     1.0000   1.0000   1.0000   1.0000   1.0000   1.0000   1.0000   1.0000
     1.0000   1.0000   1.0000   1.0000   1.0000   1.0000   1.0000   1.0000
     1.0000   1.0000   1.0000   1.0000   1.0000   1.0000   1.0001   1.0002
     1.0007   1.0054   1.0617   1.0805   1.0782   1.0568   0.8414   0.8036
     0.7359   0.7164   0.5978   0.5446   0.1144   0.1046   0.0002   0.0000
     0.0000   0.0000   0.0000   0.0000   0.0000   0.0000   0.0000   0.0000
     0.0000   0.0000   0.0000   0.0000   0.0000   0.0000   0.0000   0.0000
     0.0000

          k =-0.5000 0.2887 0.0000 ( 44486 PWs)   bands (ev):

   -11.6583 -10.9716 -10.9571 -10.5573 -10.5293 -10.2905 -10.2821 -10.1862
   -10.1841 -10.1811 -10.1764 -10.0863 -10.0248  -9.9624  -9.9588  -9.8431
    -9.8340  -9.7615  -9.7591  -9.6397  -9.6225  -9.5995  -9.5691  -9.5238
    -9.5185  -9.5001  -9.4660  -9.4271  -9.4245  -9.3179  -9.2518  -9.1553
    -9.1529  -9.1228  -9.1186  -9.0318  -9.0154  -9.0089  -8.9658  -8.8609
    -8.8537  -8.8533  -8.8468  -8.6701  -8.6381  -8.6074  -8.5910  -8.5410
    -8.5366  -8.3644  -8.3578  -8.2887  -8.2473  -8.1771  -8.1501  -8.0793
    -8.0758  -8.0370  -8.0322  -7.9942  -7.9912  -7.8366  -7.8023  -7.7895
    -7.7705  -7.7026  -7.7025  -7.6617  -7.6194  -7.6164  -7.6000  -7.5773
    -7.5657  -7.5623  -7.5070  -7.4260  -7.3416  -7.3124  -7.2900  -7.2793
    -7.2314  -7.2216  -7.1281  -7.1273  -7.0948  -7.0750  -6.9667  -6.9446
    -6.9387  -6.9305  -6.8125  -6.7992  -6.7766  -6.7539  -6.7190  -6.6676
    -6.6546  -6.6155  -6.6112  -6.5885  -6.5814  -6.5695  -6.4390  -6.4282
    -6.3809  -6.3536  -6.2347  -6.2195  -6.0508  -6.0171  -5.9943  -5.9753
    -5.9519  -5.8981  -5.6241  -5.5794  -5.5232  -5.5027  -5.3623  -5.3595
    -5.3554  -5.3428  -5.3063  -5.3036  -5.1402  -5.1381  -4.8292  -4.6384
    -3.4453  -3.0924  -2.8326  -2.8273  -2.6402  -2.5505  -2.2089  -1.9854
    -1.6169  -1.4207  -1.0919  -0.9805  -0.2167  -0.0839   0.2855   0.4229
     1.8218

     occupation numbers 
     1.0000   1.0000   1.0000   1.0000   1.0000   1.0000   1.0000   1.0000
     1.0000   1.0000   1.0000   1.0000   1.0000   1.0000   1.0000   1.0000
     1.0000   1.0000   1.0000   1.0000   1.0000   1.0000   1.0000   1.0000
     1.0000   1.0000   1.0000   1.0000   1.0000   1.0000   1.0000   1.0000
     1.0000   1.0000   1.0000   1.0000   1.0000   1.0000   1.0000   1.0000
     1.0000   1.0000   1.0000   1.0000   1.0000   1.0000   1.0000   1.0000
     1.0000   1.0000   1.0000   1.0000   1.0000   1.0000   1.0000   1.0000
     1.0000   1.0000   1.0000   1.0000   1.0000   1.0000   1.0000   1.0000
     1.0000   1.0000   1.0000   1.0000   1.0000   1.0000   1.0000   1.0000
     1.0000   1.0000   1.0000   1.0000   1.0000   1.0000   1.0000   1.0000
     1.0000   1.0000   1.0000   1.0000   1.0000   1.0000   1.0000   1.0000
     1.0000   1.0000   1.0000   1.0000   1.0000   1.0000   1.0000   1.0000
     1.0000   1.0000   1.0000   1.0000   1.0000   1.0000   1.0000   1.0000
     1.0000   1.0000   1.0000   1.0000   1.0000   1.0000   1.0001   1.0001
     1.0003   1.0010   1.0677   1.0821   1.0710   1.0536   0.6970   0.6869
     0.6715   0.6245   0.4879   0.4781   0.0766   0.0743   0.0001   0.0000
     0.0000   0.0000   0.0000   0.0000   0.0000   0.0000   0.0000   0.0000
     0.0000   0.0000   0.0000   0.0000   0.0000   0.0000   0.0000   0.0000
     0.0000

          k =-0.5000 0.3608 0.0000 ( 44516 PWs)   bands (ev):

   -11.6583 -11.0602 -10.8430 -10.5902 -10.4730 -10.2933 -10.2436 -10.2187
   -10.2168 -10.1706 -10.1294 -10.0809 -10.0168  -9.9688  -9.9406  -9.8934
    -9.7871  -9.7830  -9.7340  -9.6660  -9.6485  -9.6096  -9.5770  -9.5536
    -9.5360  -9.5063  -9.4567  -9.3948  -9.3700  -9.3228  -9.2260  -9.2190
    -9.2039  -9.1387  -9.0772  -9.0601  -9.0364  -8.9937  -8.9657  -8.9200
    -8.8964  -8.8082  -8.7735  -8.6907  -8.6740  -8.6131  -8.5778  -8.5463
    -8.4981  -8.3784  -8.3683  -8.2901  -8.2585  -8.2013  -8.1423  -8.0975
    -8.0591  -8.0476  -8.0363  -8.0023  -7.9774  -7.9279  -7.8252  -7.7855
    -7.7757  -7.7424  -7.7253  -7.6912  -7.6686  -7.6359  -7.6017  -7.5961
    -7.5504  -7.5319  -7.4936  -7.4153  -7.3684  -7.3220  -7.3103  -7.2946
    -7.2327  -7.1672  -7.1492  -7.1087  -7.0618  -7.0369  -7.0014  -6.9818
    -6.8764  -6.8604  -6.8114  -6.7830  -6.7557  -6.7420  -6.7073  -6.6757
    -6.6574  -6.6070  -6.5794  -6.5439  -6.5309  -6.4654  -6.4247  -6.3428
    -6.3125  -6.3014  -6.2438  -6.1251  -6.1041  -6.0454  -5.9881  -5.9577
    -5.9173  -5.8190  -5.6376  -5.5876  -5.5372  -5.5058  -5.4040  -5.3924
    -5.3730  -5.3676  -5.3358  -5.3216  -5.1683  -5.1618  -4.8563  -4.5378
    -3.5449  -3.4470  -3.2347  -3.0010  -2.7597  -2.1784  -2.0332  -1.7822
    -1.6477  -1.3387  -1.1720  -0.5056  -0.3061  -0.2387   0.1992   0.9785
     1.3701

     occupation numbers 
     1.0000   1.0000   1.0000   1.0000   1.0000   1.0000   1.0000   1.0000
     1.0000   1.0000   1.0000   1.0000   1.0000   1.0000   1.0000   1.0000
     1.0000   1.0000   1.0000   1.0000   1.0000   1.0000   1.0000   1.0000
     1.0000   1.0000   1.0000   1.0000   1.0000   1.0000   1.0000   1.0000
     1.0000   1.0000   1.0000   1.0000   1.0000   1.0000   1.0000   1.0000
     1.0000   1.0000   1.0000   1.0000   1.0000   1.0000   1.0000   1.0000
     1.0000   1.0000   1.0000   1.0000   1.0000   1.0000   1.0000   1.0000
     1.0000   1.0000   1.0000   1.0000   1.0000   1.0000   1.0000   1.0000
     1.0000   1.0000   1.0000   1.0000   1.0000   1.0000   1.0000   1.0000
     1.0000   1.0000   1.0000   1.0000   1.0000   1.0000   1.0000   1.0000
     1.0000   1.0000   1.0000   1.0000   1.0000   1.0000   1.0000   1.0000
     1.0000   1.0000   1.0000   1.0000   1.0000   1.0000   1.0000   1.0000
     1.0000   1.0000   1.0000   1.0000   1.0000   1.0000   1.0000   1.0000
     1.0000   1.0000   1.0000   1.0000   1.0000   1.0000   1.0001   1.0002
     1.0007   1.0054   1.0617   1.0805   1.0782   1.0568   0.8414   0.8036
     0.7359   0.7164   0.5978   0.5446   0.1144   0.1046   0.0002   0.0000
     0.0000   0.0000   0.0000   0.0000   0.0000   0.0000   0.0000   0.0000
     0.0000   0.0000   0.0000   0.0000   0.0000   0.0000   0.0000   0.0000
     0.0000

          k =-0.5000 0.4330 0.0000 ( 44477 PWs)   bands (ev):

   -11.6584 -11.1279 -10.7034 -10.6141 -10.3847 -10.2625 -10.2548 -10.2360
   -10.2061 -10.1700 -10.0752 -10.0650  -9.9984  -9.9845  -9.9204  -9.9090
    -9.8127  -9.7448  -9.7235  -9.7159  -9.7021  -9.6726  -9.6380  -9.5391
    -9.5235  -9.4939  -9.4398  -9.4140  -9.3401  -9.3191  -9.2512  -9.2281
    -9.1938  -9.1825  -9.1276  -9.0983  -9.0166  -9.0011  -8.9744  -8.9478
    -8.9099  -8.7852  -8.7786  -8.7035  -8.6756  -8.6585  -8.5760  -8.5087
    -8.4428  -8.4018  -8.3961  -8.3140  -8.2689  -8.2332  -8.1593  -8.1149
    -8.1111  -8.0862  -8.0598  -8.0197  -7.9940  -7.9620  -7.9048  -7.8581
    -7.8269  -7.7928  -7.7453  -7.7361  -7.7058  -7.6652  -7.6245  -7.5926
    -7.5540  -7.4723  -7.4442  -7.4012  -7.3880  -7.3282  -7.3041  -7.2692
    -7.2590  -7.1900  -7.1188  -7.0603  -7.0490  -7.0211  -6.9895  -6.9320
    -6.9249  -6.8336  -6.8012  -6.7830  -6.7601  -6.7199  -6.6516  -6.6151
    -6.5824  -6.5134  -6.4884  -6.4679  -6.4229  -6.3530  -6.2801  -6.2338
    -6.2229  -6.1942  -6.1810  -6.1096  -6.0715  -5.9068  -5.8823  -5.8654
    -5.8415  -5.7237  -5.6855  -5.5669  -5.5529  -5.5166  -5.4920  -5.4641
    -5.4554  -5.4234  -5.3995  -5.3846  -5.2426  -5.2326  -4.8735  -4.3346
    -4.0619  -3.9282  -3.6069  -3.3861  -2.7564  -2.4300  -1.9162  -1.4665
    -1.2193  -0.9953  -0.8331  -0.6115  -0.4880   0.3194   0.5833   0.8282
     1.4835

     occupation numbers 
     1.0000   1.0000   1.0000   1.0000   1.0000   1.0000   1.0000   1.0000
     1.0000   1.0000   1.0000   1.0000   1.0000   1.0000   1.0000   1.0000
     1.0000   1.0000   1.0000   1.0000   1.0000   1.0000   1.0000   1.0000
     1.0000   1.0000   1.0000   1.0000   1.0000   1.0000   1.0000   1.0000
     1.0000   1.0000   1.0000   1.0000   1.0000   1.0000   1.0000   1.0000
     1.0000   1.0000   1.0000   1.0000   1.0000   1.0000   1.0000   1.0000
     1.0000   1.0000   1.0000   1.0000   1.0000   1.0000   1.0000   1.0000
     1.0000   1.0000   1.0000   1.0000   1.0000   1.0000   1.0000   1.0000
     1.0000   1.0000   1.0000   1.0000   1.0000   1.0000   1.0000   1.0000
     1.0000   1.0000   1.0000   1.0000   1.0000   1.0000   1.0000   1.0000
     1.0000   1.0000   1.0000   1.0000   1.0000   1.0000   1.0000   1.0000
     1.0000   1.0000   1.0000   1.0000   1.0000   1.0000   1.0000   1.0000
     1.0000   1.0000   1.0000   1.0000   1.0000   1.0000   1.0000   1.0000
     1.0000   1.0000   1.0000   1.0000   1.0000   1.0008   1.0015   1.0021
     1.0035   1.0249   1.0396   1.0833   1.0824   1.0663   1.0411   0.9965
     0.9788   0.8997   0.8269   0.7770   0.2774   0.2498   0.0003   0.0000
     0.0000   0.0000   0.0000   0.0000   0.0000   0.0000   0.0000   0.0000
     0.0000   0.0000   0.0000   0.0000   0.0000   0.0000   0.0000   0.0000
     0.0000

          k =-0.5000 0.5052 0.0000 ( 44502 PWs)   bands (ev):

   -11.6586 -11.1678 -10.6277 -10.5524 -10.2959 -10.2906 -10.2802 -10.2402
   -10.1933 -10.0840 -10.0685 -10.0378 -10.0022  -9.9782  -9.9066  -9.8851
    -9.8706  -9.7970  -9.7326  -9.7265  -9.7118  -9.7096  -9.6932  -9.5499
    -9.5352  -9.5159  -9.4761  -9.3615  -9.3360  -9.3031  -9.2683  -9.2241
    -9.1876  -9.1751  -9.1631  -9.1266  -9.0957  -8.9699  -8.9641  -8.9510
    -8.9189  -8.7959  -8.7720  -8.7439  -8.7156  -8.6100  -8.5613  -8.4489
    -8.4429  -8.4278  -8.4196  -8.3538  -8.3318  -8.3108  -8.2115  -8.1615
    -8.1304  -8.0925  -8.0520  -8.0223  -8.0146  -7.9729  -7.9465  -7.8979
    -7.8684  -7.8404  -7.8109  -7.7574  -7.7334  -7.6746  -7.6024  -7.5680
    -7.5176  -7.4832  -7.4289  -7.4188  -7.3712  -7.3135  -7.2952  -7.2704
    -7.2431  -7.1819  -7.0931  -7.0537  -7.0140  -7.0017  -6.9973  -6.9515
    -6.9222  -6.9093  -6.7763  -6.7447  -6.7245  -6.7074  -6.6225  -6.5404
    -6.5255  -6.4605  -6.4210  -6.4012  -6.3025  -6.2679  -6.2167  -6.2065
    -6.1833  -6.1341  -6.0248  -6.0044  -5.8377  -5.8274  -5.8075  -5.7762
    -5.7156  -5.6144  -5.6086  -5.5947  -5.5797  -5.5634  -5.5382  -5.5020
    -5.4848  -5.4538  -5.4515  -5.3446  -5.3362  -5.2500  -4.8699  -4.6237
    -4.5122  -4.2097  -3.9523  -3.5286  -3.0560  -2.3954  -1.9923  -1.4787
    -0.8398  -0.7233  -0.5683  -0.3671   0.0776   0.3221   0.7330   1.0099
     1.3042

     occupation numbers 
     1.0000   1.0000   1.0000   1.0000   1.0000   1.0000   1.0000   1.0000
     1.0000   1.0000   1.0000   1.0000   1.0000   1.0000   1.0000   1.0000
     1.0000   1.0000   1.0000   1.0000   1.0000   1.0000   1.0000   1.0000
     1.0000   1.0000   1.0000   1.0000   1.0000   1.0000   1.0000   1.0000
     1.0000   1.0000   1.0000   1.0000   1.0000   1.0000   1.0000   1.0000
     1.0000   1.0000   1.0000   1.0000   1.0000   1.0000   1.0000   1.0000
     1.0000   1.0000   1.0000   1.0000   1.0000   1.0000   1.0000   1.0000
     1.0000   1.0000   1.0000   1.0000   1.0000   1.0000   1.0000   1.0000
     1.0000   1.0000   1.0000   1.0000   1.0000   1.0000   1.0000   1.0000
     1.0000   1.0000   1.0000   1.0000   1.0000   1.0000   1.0000   1.0000
     1.0000   1.0000   1.0000   1.0000   1.0000   1.0000   1.0000   1.0000
     1.0000   1.0000   1.0000   1.0000   1.0000   1.0000   1.0000   1.0000
     1.0000   1.0000   1.0000   1.0000   1.0000   1.0000   1.0000   1.0000
     1.0000   1.0000   1.0000   1.0001   1.0037   1.0046   1.0066   1.0114
     1.0277   1.0718   1.0740   1.0786   1.0820   1.0833   1.0786   1.0529
     1.0313   0.9755   0.9703   0.6312   0.5996   0.2987   0.0002   0.0000
     0.0000   0.0000   0.0000   0.0000   0.0000   0.0000   0.0000   0.0000
     0.0000   0.0000   0.0000   0.0000   0.0000   0.0000   0.0000   0.0000
     0.0000

          k =-0.5000 0.5774 0.0000 ( 44491 PWs)   bands (ev):

   -11.6586 -11.1809 -10.6300 -10.4127 -10.4086 -10.2893 -10.2489 -10.2464
   -10.1135 -10.1122 -10.0213 -10.0109 -10.0031  -9.9819  -9.9711  -9.8644
    -9.8456  -9.8428  -9.7534  -9.7392  -9.7304  -9.7164  -9.7047  -9.5686
    -9.5570  -9.5075  -9.4626  -9.3825  -9.2916  -9.2759  -9.2591  -9.2393
    -9.2240  -9.2078  -9.1564  -9.1298  -9.0923  -8.9759  -8.9648  -8.9587
    -8.8896  -8.8501  -8.7481  -8.7440  -8.7082  -8.5791  -8.5321  -8.5249
    -8.4590  -8.4297  -8.4108  -8.3878  -8.3822  -8.2761  -8.2420  -8.2076
    -8.1090  -8.0811  -8.0711  -8.0227  -8.0118  -7.9722  -7.9434  -7.9120
    -7.8869  -7.8789  -7.8390  -7.7571  -7.7337  -7.6881  -7.5677  -7.5569
    -7.5315  -7.4756  -7.4453  -7.4261  -7.3439  -7.3162  -7.2970  -7.2558
    -7.2426  -7.1810  -7.0773  -7.0497  -7.0103  -6.9919  -6.9822  -6.9564
    -6.9429  -6.9368  -6.7694  -6.7312  -6.7087  -6.6990  -6.6049  -6.5151
    -6.4867  -6.4457  -6.4245  -6.3890  -6.2713  -6.2587  -6.2014  -6.1760
    -6.1228  -6.1125  -5.9000  -5.8562  -5.8339  -5.7953  -5.7810  -5.7667
    -5.6823  -5.6625  -5.6592  -5.6407  -5.6305  -5.6187  -5.5732  -5.4404
    -5.4355  -5.4249  -5.4241  -5.1712  -5.1310  -5.0710  -5.0181  -4.9127
    -4.7431  -4.6711  -3.7673  -3.4622  -3.4551  -2.2337  -1.8913  -1.8409
    -0.8213  -0.3544  -0.1890  -0.0715   0.0239   0.2631   0.6236   1.1275
     1.3910

     occupation numbers 
     1.0000   1.0000   1.0000   1.0000   1.0000   1.0000   1.0000   1.0000
     1.0000   1.0000   1.0000   1.0000   1.0000   1.0000   1.0000   1.0000
     1.0000   1.0000   1.0000   1.0000   1.0000   1.0000   1.0000   1.0000
     1.0000   1.0000   1.0000   1.0000   1.0000   1.0000   1.0000   1.0000
     1.0000   1.0000   1.0000   1.0000   1.0000   1.0000   1.0000   1.0000
     1.0000   1.0000   1.0000   1.0000   1.0000   1.0000   1.0000   1.0000
     1.0000   1.0000   1.0000   1.0000   1.0000   1.0000   1.0000   1.0000
     1.0000   1.0000   1.0000   1.0000   1.0000   1.0000   1.0000   1.0000
     1.0000   1.0000   1.0000   1.0000   1.0000   1.0000   1.0000   1.0000
     1.0000   1.0000   1.0000   1.0000   1.0000   1.0000   1.0000   1.0000
     1.0000   1.0000   1.0000   1.0000   1.0000   1.0000   1.0000   1.0000
     1.0000   1.0000   1.0000   1.0000   1.0000   1.0000   1.0000   1.0000
     1.0000   1.0000   1.0000   1.0000   1.0000   1.0000   1.0000   1.0000
     1.0000   1.0000   1.0010   1.0026   1.0040   1.0083   1.0106   1.0133
     1.0410   1.0500   1.0515   1.0602   1.0649   1.0700   1.0829   0.9445
     0.9322   0.9037   0.9016   0.1190   0.0666   0.0244   0.0087   0.0007
     0.0000   0.0000   0.0000   0.0000   0.0000   0.0000   0.0000   0.0000
     0.0000   0.0000   0.0000   0.0000   0.0000   0.0000   0.0000   0.0000
     0.0000

          k =-0.5000 0.6495 0.0000 ( 44502 PWs)   bands (ev):

   -11.6586 -11.1678 -10.6277 -10.5524 -10.2959 -10.2906 -10.2802 -10.2402
   -10.1933 -10.0840 -10.0685 -10.0378 -10.0022  -9.9782  -9.9066  -9.8851
    -9.8706  -9.7970  -9.7326  -9.7265  -9.7118  -9.7096  -9.6932  -9.5499
    -9.5352  -9.5159  -9.4761  -9.3615  -9.3360  -9.3031  -9.2683  -9.2241
    -9.1876  -9.1751  -9.1631  -9.1266  -9.0957  -8.9699  -8.9641  -8.9510
    -8.9189  -8.7959  -8.7720  -8.7439  -8.7156  -8.6100  -8.5613  -8.4489
    -8.4429  -8.4278  -8.4196  -8.3538  -8.3318  -8.3108  -8.2115  -8.1615
    -8.1304  -8.0925  -8.0520  -8.0223  -8.0146  -7.9729  -7.9465  -7.8979
    -7.8684  -7.8404  -7.8109  -7.7574  -7.7334  -7.6746  -7.6024  -7.5680
    -7.5176  -7.4832  -7.4289  -7.4188  -7.3712  -7.3135  -7.2952  -7.2704
    -7.2431  -7.1819  -7.0931  -7.0537  -7.0140  -7.0017  -6.9973  -6.9515
    -6.9222  -6.9093  -6.7763  -6.7447  -6.7245  -6.7074  -6.6225  -6.5404
    -6.5255  -6.4605  -6.4210  -6.4012  -6.3025  -6.2679  -6.2167  -6.2065
    -6.1833  -6.1341  -6.0248  -6.0044  -5.8377  -5.8274  -5.8075  -5.7762
    -5.7156  -5.6144  -5.6086  -5.5947  -5.5797  -5.5634  -5.5382  -5.5020
    -5.4848  -5.4538  -5.4515  -5.3446  -5.3362  -5.2500  -4.8699  -4.6237
    -4.5122  -4.2097  -3.9523  -3.5286  -3.0560  -2.3954  -1.9923  -1.4787
    -0.8398  -0.7233  -0.5683  -0.3671   0.0776   0.3221   0.7330   1.0099
     1.3042

     occupation numbers 
     1.0000   1.0000   1.0000   1.0000   1.0000   1.0000   1.0000   1.0000
     1.0000   1.0000   1.0000   1.0000   1.0000   1.0000   1.0000   1.0000
     1.0000   1.0000   1.0000   1.0000   1.0000   1.0000   1.0000   1.0000
     1.0000   1.0000   1.0000   1.0000   1.0000   1.0000   1.0000   1.0000
     1.0000   1.0000   1.0000   1.0000   1.0000   1.0000   1.0000   1.0000
     1.0000   1.0000   1.0000   1.0000   1.0000   1.0000   1.0000   1.0000
     1.0000   1.0000   1.0000   1.0000   1.0000   1.0000   1.0000   1.0000
     1.0000   1.0000   1.0000   1.0000   1.0000   1.0000   1.0000   1.0000
     1.0000   1.0000   1.0000   1.0000   1.0000   1.0000   1.0000   1.0000
     1.0000   1.0000   1.0000   1.0000   1.0000   1.0000   1.0000   1.0000
     1.0000   1.0000   1.0000   1.0000   1.0000   1.0000   1.0000   1.0000
     1.0000   1.0000   1.0000   1.0000   1.0000   1.0000   1.0000   1.0000
     1.0000   1.0000   1.0000   1.0000   1.0000   1.0000   1.0000   1.0000
     1.0000   1.0000   1.0000   1.0001   1.0037   1.0046   1.0066   1.0114
     1.0277   1.0718   1.0740   1.0786   1.0820   1.0833   1.0786   1.0529
     1.0313   0.9755   0.9703   0.6312   0.5996   0.2987   0.0002   0.0000
     0.0000   0.0000   0.0000   0.0000   0.0000   0.0000   0.0000   0.0000
     0.0000   0.0000   0.0000   0.0000   0.0000   0.0000   0.0000   0.0000
     0.0000

          k =-0.5000 0.7217 0.0000 ( 44477 PWs)   bands (ev):

   -11.6584 -11.1279 -10.7034 -10.6141 -10.3847 -10.2625 -10.2548 -10.2360
   -10.2061 -10.1700 -10.0752 -10.0650  -9.9984  -9.9845  -9.9204  -9.9090
    -9.8127  -9.7448  -9.7235  -9.7159  -9.7021  -9.6726  -9.6380  -9.5391
    -9.5235  -9.4939  -9.4398  -9.4140  -9.3401  -9.3191  -9.2512  -9.2281
    -9.1938  -9.1825  -9.1276  -9.0983  -9.0166  -9.0011  -8.9744  -8.9478
    -8.9099  -8.7852  -8.7786  -8.7035  -8.6756  -8.6585  -8.5760  -8.5087
    -8.4428  -8.4018  -8.3961  -8.3140  -8.2689  -8.2332  -8.1593  -8.1149
    -8.1111  -8.0862  -8.0598  -8.0197  -7.9940  -7.9620  -7.9048  -7.8581
    -7.8269  -7.7928  -7.7453  -7.7361  -7.7058  -7.6652  -7.6245  -7.5926
    -7.5540  -7.4723  -7.4442  -7.4012  -7.3880  -7.3282  -7.3041  -7.2692
    -7.2590  -7.1900  -7.1188  -7.0603  -7.0490  -7.0211  -6.9895  -6.9320
    -6.9249  -6.8336  -6.8012  -6.7830  -6.7601  -6.7199  -6.6516  -6.6151
    -6.5824  -6.5134  -6.4884  -6.4679  -6.4229  -6.3530  -6.2801  -6.2338
    -6.2229  -6.1942  -6.1810  -6.1096  -6.0715  -5.9068  -5.8823  -5.8654
    -5.8415  -5.7237  -5.6855  -5.5669  -5.5529  -5.5166  -5.4920  -5.4641
    -5.4554  -5.4234  -5.3995  -5.3846  -5.2426  -5.2326  -4.8735  -4.3346
    -4.0619  -3.9282  -3.6069  -3.3861  -2.7564  -2.4300  -1.9162  -1.4665
    -1.2193  -0.9953  -0.8331  -0.6115  -0.4880   0.3194   0.5833   0.8282
     1.4835

     occupation numbers 
     1.0000   1.0000   1.0000   1.0000   1.0000   1.0000   1.0000   1.0000
     1.0000   1.0000   1.0000   1.0000   1.0000   1.0000   1.0000   1.0000
     1.0000   1.0000   1.0000   1.0000   1.0000   1.0000   1.0000   1.0000
     1.0000   1.0000   1.0000   1.0000   1.0000   1.0000   1.0000   1.0000
     1.0000   1.0000   1.0000   1.0000   1.0000   1.0000   1.0000   1.0000
     1.0000   1.0000   1.0000   1.0000   1.0000   1.0000   1.0000   1.0000
     1.0000   1.0000   1.0000   1.0000   1.0000   1.0000   1.0000   1.0000
     1.0000   1.0000   1.0000   1.0000   1.0000   1.0000   1.0000   1.0000
     1.0000   1.0000   1.0000   1.0000   1.0000   1.0000   1.0000   1.0000
     1.0000   1.0000   1.0000   1.0000   1.0000   1.0000   1.0000   1.0000
     1.0000   1.0000   1.0000   1.0000   1.0000   1.0000   1.0000   1.0000
     1.0000   1.0000   1.0000   1.0000   1.0000   1.0000   1.0000   1.0000
     1.0000   1.0000   1.0000   1.0000   1.0000   1.0000   1.0000   1.0000
     1.0000   1.0000   1.0000   1.0000   1.0000   1.0008   1.0015   1.0021
     1.0035   1.0249   1.0396   1.0833   1.0824   1.0663   1.0411   0.9965
     0.9788   0.8997   0.8269   0.7770   0.2774   0.2498   0.0003   0.0000
     0.0000   0.0000   0.0000   0.0000   0.0000   0.0000   0.0000   0.0000
     0.0000   0.0000   0.0000   0.0000   0.0000   0.0000   0.0000   0.0000
     0.0000

          k =-0.5000 0.7939 0.0000 ( 44516 PWs)   bands (ev):

   -11.6583 -11.0602 -10.8430 -10.5902 -10.4730 -10.2933 -10.2436 -10.2187
   -10.2168 -10.1706 -10.1294 -10.0809 -10.0168  -9.9688  -9.9406  -9.8934
    -9.7871  -9.7830  -9.7340  -9.6660  -9.6485  -9.6096  -9.5770  -9.5536
    -9.5360  -9.5063  -9.4567  -9.3948  -9.3700  -9.3228  -9.2260  -9.2190
    -9.2039  -9.1387  -9.0772  -9.0601  -9.0364  -8.9937  -8.9657  -8.9200
    -8.8964  -8.8082  -8.7735  -8.6907  -8.6740  -8.6131  -8.5778  -8.5463
    -8.4981  -8.3784  -8.3683  -8.2901  -8.2585  -8.2013  -8.1423  -8.0975
    -8.0591  -8.0476  -8.0363  -8.0023  -7.9774  -7.9279  -7.8252  -7.7855
    -7.7757  -7.7424  -7.7253  -7.6912  -7.6686  -7.6359  -7.6017  -7.5961
    -7.5504  -7.5319  -7.4936  -7.4153  -7.3684  -7.3220  -7.3103  -7.2946
    -7.2327  -7.1672  -7.1492  -7.1087  -7.0618  -7.0369  -7.0014  -6.9818
    -6.8764  -6.8604  -6.8114  -6.7830  -6.7557  -6.7420  -6.7073  -6.6757
    -6.6574  -6.6070  -6.5794  -6.5439  -6.5309  -6.4654  -6.4247  -6.3428
    -6.3125  -6.3014  -6.2438  -6.1251  -6.1041  -6.0454  -5.9881  -5.9577
    -5.9173  -5.8190  -5.6376  -5.5876  -5.5372  -5.5058  -5.4040  -5.3924
    -5.3730  -5.3676  -5.3358  -5.3216  -5.1683  -5.1618  -4.8563  -4.5378
    -3.5449  -3.4470  -3.2347  -3.0010  -2.7597  -2.1784  -2.0332  -1.7822
    -1.6477  -1.3387  -1.1720  -0.5056  -0.3061  -0.2387   0.1992   0.9785
     1.3701

     occupation numbers 
     1.0000   1.0000   1.0000   1.0000   1.0000   1.0000   1.0000   1.0000
     1.0000   1.0000   1.0000   1.0000   1.0000   1.0000   1.0000   1.0000
     1.0000   1.0000   1.0000   1.0000   1.0000   1.0000   1.0000   1.0000
     1.0000   1.0000   1.0000   1.0000   1.0000   1.0000   1.0000   1.0000
     1.0000   1.0000   1.0000   1.0000   1.0000   1.0000   1.0000   1.0000
     1.0000   1.0000   1.0000   1.0000   1.0000   1.0000   1.0000   1.0000
     1.0000   1.0000   1.0000   1.0000   1.0000   1.0000   1.0000   1.0000
     1.0000   1.0000   1.0000   1.0000   1.0000   1.0000   1.0000   1.0000
     1.0000   1.0000   1.0000   1.0000   1.0000   1.0000   1.0000   1.0000
     1.0000   1.0000   1.0000   1.0000   1.0000   1.0000   1.0000   1.0000
     1.0000   1.0000   1.0000   1.0000   1.0000   1.0000   1.0000   1.0000
     1.0000   1.0000   1.0000   1.0000   1.0000   1.0000   1.0000   1.0000
     1.0000   1.0000   1.0000   1.0000   1.0000   1.0000   1.0000   1.0000
     1.0000   1.0000   1.0000   1.0000   1.0000   1.0000   1.0001   1.0002
     1.0007   1.0054   1.0617   1.0805   1.0782   1.0568   0.8414   0.8036
     0.7359   0.7164   0.5978   0.5446   0.1144   0.1046   0.0002   0.0000
     0.0000   0.0000   0.0000   0.0000   0.0000   0.0000   0.0000   0.0000
     0.0000   0.0000   0.0000   0.0000   0.0000   0.0000   0.0000   0.0000
     0.0000

          k =-0.5000-0.2887 0.0000 ( 44486 PWs)   bands (ev):

   -11.6583 -10.9716 -10.9571 -10.5573 -10.5293 -10.2905 -10.2821 -10.1862
   -10.1841 -10.1811 -10.1764 -10.0863 -10.0248  -9.9624  -9.9588  -9.8431
    -9.8340  -9.7615  -9.7591  -9.6397  -9.6225  -9.5995  -9.5691  -9.5238
    -9.5185  -9.5001  -9.4660  -9.4271  -9.4245  -9.3179  -9.2518  -9.1553
    -9.1529  -9.1228  -9.1186  -9.0318  -9.0154  -9.0089  -8.9658  -8.8609
    -8.8537  -8.8533  -8.8468  -8.6701  -8.6381  -8.6074  -8.5910  -8.5410
    -8.5366  -8.3644  -8.3578  -8.2887  -8.2473  -8.1771  -8.1501  -8.0793
    -8.0758  -8.0370  -8.0322  -7.9942  -7.9912  -7.8366  -7.8023  -7.7895
    -7.7705  -7.7026  -7.7025  -7.6617  -7.6194  -7.6164  -7.6000  -7.5773
    -7.5657  -7.5623  -7.5070  -7.4260  -7.3416  -7.3124  -7.2900  -7.2793
    -7.2314  -7.2216  -7.1281  -7.1273  -7.0948  -7.0750  -6.9667  -6.9446
    -6.9387  -6.9305  -6.8125  -6.7992  -6.7766  -6.7539  -6.7190  -6.6676
    -6.6546  -6.6155  -6.6112  -6.5885  -6.5814  -6.5695  -6.4390  -6.4282
    -6.3809  -6.3536  -6.2347  -6.2195  -6.0508  -6.0171  -5.9943  -5.9753
    -5.9519  -5.8981  -5.6241  -5.5794  -5.5232  -5.5027  -5.3623  -5.3595
    -5.3554  -5.3428  -5.3063  -5.3036  -5.1402  -5.1381  -4.8292  -4.6384
    -3.4453  -3.0924  -2.8326  -2.8273  -2.6402  -2.5505  -2.2089  -1.9854
    -1.6169  -1.4207  -1.0919  -0.9805  -0.2167  -0.0839   0.2855   0.4229
     1.8218

     occupation numbers 
     1.0000   1.0000   1.0000   1.0000   1.0000   1.0000   1.0000   1.0000
     1.0000   1.0000   1.0000   1.0000   1.0000   1.0000   1.0000   1.0000
     1.0000   1.0000   1.0000   1.0000   1.0000   1.0000   1.0000   1.0000
     1.0000   1.0000   1.0000   1.0000   1.0000   1.0000   1.0000   1.0000
     1.0000   1.0000   1.0000   1.0000   1.0000   1.0000   1.0000   1.0000
     1.0000   1.0000   1.0000   1.0000   1.0000   1.0000   1.0000   1.0000
     1.0000   1.0000   1.0000   1.0000   1.0000   1.0000   1.0000   1.0000
     1.0000   1.0000   1.0000   1.0000   1.0000   1.0000   1.0000   1.0000
     1.0000   1.0000   1.0000   1.0000   1.0000   1.0000   1.0000   1.0000
     1.0000   1.0000   1.0000   1.0000   1.0000   1.0000   1.0000   1.0000
     1.0000   1.0000   1.0000   1.0000   1.0000   1.0000   1.0000   1.0000
     1.0000   1.0000   1.0000   1.0000   1.0000   1.0000   1.0000   1.0000
     1.0000   1.0000   1.0000   1.0000   1.0000   1.0000   1.0000   1.0000
     1.0000   1.0000   1.0000   1.0000   1.0000   1.0000   1.0001   1.0001
     1.0003   1.0010   1.0677   1.0821   1.0710   1.0536   0.6970   0.6869
     0.6715   0.6245   0.4879   0.4781   0.0766   0.0743   0.0001   0.0000
     0.0000   0.0000   0.0000   0.0000   0.0000   0.0000   0.0000   0.0000
     0.0000   0.0000   0.0000   0.0000   0.0000   0.0000   0.0000   0.0000
     0.0000

 ------ SPIN DOWN ----------


          k = 0.0000 0.0000 0.0000 ( 44627 PWs)   bands (ev):

   -12.6349 -12.3176 -11.7029 -11.0281 -10.9168 -10.9168 -10.9140 -10.8768
   -10.7434 -10.7434 -10.7383 -10.5931 -10.5931 -10.5926 -10.5431 -10.5377
   -10.5377 -10.5291 -10.3689 -10.3300 -10.3300 -10.2896 -10.1278 -10.1278
   -10.1242 -10.0899 -10.0899  -9.9966  -9.9377  -9.9377  -9.5120  -9.3919
    -9.3919  -8.9181  -8.7690  -8.7690  -8.5509  -8.5245  -8.5245  -8.3915
    -8.3832  -8.3776  -8.3724  -8.3723  -8.2953  -8.2953  -8.2009  -8.2009
    -8.1939  -8.1939  -8.1925  -8.1408  -8.1132  -8.1132  -8.0084  -8.0084
    -7.8868  -7.8868  -7.7753  -7.7644  -7.7644  -7.6920  -7.6920  -7.6817
    -7.5042  -7.5042  -7.4974  -7.3746  -7.1718  -7.1718  -7.0454  -7.0454
    -7.0217  -6.7600  -6.6143  -6.6143  -6.5896  -6.5895  -6.5379  -6.5257
    -6.5257  -6.3524  -6.3524  -6.3182  -6.2782  -6.2782  -6.1060  -6.0675
    -6.0675  -5.9181  -5.9181  -5.6987  -5.6987  -5.6961  -5.6065  -5.6012
    -5.6012  -5.5147  -5.5147  -5.4190  -5.3551  -5.3511  -5.3511  -5.2850
    -5.2850  -5.2361  -5.2361  -5.2354  -5.1740  -5.1722  -5.1722  -5.1679
    -5.1679  -5.1071  -5.0950  -5.0950  -5.0326  -5.0070  -5.0070  -4.9758
    -4.9469  -4.9464  -4.9464  -4.8566  -4.8566  -4.8556  -4.2155  -3.8443
    -3.7382  -3.7382  -3.1505  -2.6575  -2.6575  -2.2360  -1.7914  -1.7914
    -1.6534  -1.6261  -1.6261  -1.4810  -1.3345  -1.3345  -1.2936  -1.2922
    -1.2922

     occupation numbers 
     1.0000   1.0000   1.0000   1.0000   1.0000   1.0000   1.0000   1.0000
     1.0000   1.0000   1.0000   1.0000   1.0000   1.0000   1.0000   1.0000
     1.0000   1.0000   1.0000   1.0000   1.0000   1.0000   1.0000   1.0000
     1.0000   1.0000   1.0000   1.0000   1.0000   1.0000   1.0000   1.0000
     1.0000   1.0000   1.0000   1.0000   1.0000   1.0000   1.0000   1.0000
     1.0000   1.0000   1.0000   1.0000   1.0000   1.0000   1.0000   1.0000
     1.0000   1.0000   1.0000   1.0000   1.0000   1.0000   1.0000   1.0000
     1.0000   1.0000   1.0000   1.0000   1.0000   1.0000   1.0000   1.0000
     1.0000   1.0000   1.0000   1.0000   1.0000   1.0000   1.0000   1.0000
     1.0000   1.0000   1.0000   1.0000   1.0000   1.0000   1.0000   1.0000
     1.0000   1.0000   1.0000   1.0000   1.0000   1.0000   1.0000   1.0000
     1.0000   1.0006   1.0006   1.0341   1.0341   1.0351   1.0748   1.0766
     1.0766   1.0648   1.0648   0.8869   0.6703   0.6554   0.6554   0.4117
     0.4117   0.2594   0.2594   0.2574   0.1236   0.1206   0.1206   0.1137
     0.1137   0.0455   0.0372   0.0372   0.0117   0.0069   0.0069   0.0035
     0.0018   0.0017   0.0017   0.0002   0.0002   0.0002   0.0000   0.0000
     0.0000   0.0000   0.0000   0.0000   0.0000   0.0000   0.0000   0.0000
     0.0000   0.0000   0.0000   0.0000   0.0000   0.0000   0.0000   0.0000
     0.0000

          k = 0.0000 0.0722 0.0000 ( 44605 PWs)   bands (ev):

   -12.6044 -12.2914 -11.6747 -10.9989 -10.8997 -10.8951 -10.8930 -10.8504
   -10.7341 -10.7223 -10.7184 -10.5794 -10.5763 -10.5757 -10.5222 -10.5149
   -10.5136 -10.5061 -10.3491 -10.3160 -10.3061 -10.2670 -10.1125 -10.1122
   -10.1090 -10.0735 -10.0665  -9.9763  -9.9207  -9.9125  -9.5023  -9.3835
    -9.3820  -8.9188  -8.7754  -8.7699  -8.5561  -8.5345  -8.5147  -8.4193
    -8.4108  -8.3724  -8.3624  -8.3585  -8.3150  -8.2736  -8.1988  -8.1876
    -8.1867  -8.1858  -8.1834  -8.1588  -8.1289  -8.0912  -7.9884  -7.9808
    -7.9151  -7.8668  -7.8074  -7.7629  -7.7441  -7.7102  -7.7060  -7.6813
    -7.5281  -7.5074  -7.5053  -7.4220  -7.2578  -7.2169  -7.0368  -7.0218
    -6.9788  -6.8232  -6.6457  -6.6443  -6.6348  -6.6333  -6.5844  -6.5037
    -6.5033  -6.3773  -6.3733  -6.3371  -6.2807  -6.2784  -6.2169  -6.0861
    -6.0752  -5.9178  -5.8193  -5.7563  -5.7165  -5.7044  -5.6779  -5.6317
    -5.6307  -5.6053  -5.5143  -5.4673  -5.3793  -5.3725  -5.3635  -5.3402
    -5.3391  -5.2835  -5.2703  -5.2475  -5.2107  -5.2075  -5.2005  -5.1977
    -5.1935  -5.1444  -5.1352  -5.1221  -5.0578  -5.0416  -5.0326  -4.9951
    -4.9933  -4.9747  -4.9138  -4.9092  -4.8861  -4.8277  -4.0840  -3.9075
    -3.6969  -3.6399  -3.1837  -2.8173  -2.6425  -2.3874  -2.2036  -1.9769
    -1.8744  -1.7563  -1.7270  -1.4793  -1.3150  -1.2468  -0.9016  -0.8656
    -0.5209

     occupation numbers 
     1.0000   1.0000   1.0000   1.0000   1.0000   1.0000   1.0000   1.0000
     1.0000   1.0000   1.0000   1.0000   1.0000   1.0000   1.0000   1.0000
     1.0000   1.0000   1.0000   1.0000   1.0000   1.0000   1.0000   1.0000
     1.0000   1.0000   1.0000   1.0000   1.0000   1.0000   1.0000   1.0000
     1.0000   1.0000   1.0000   1.0000   1.0000   1.0000   1.0000   1.0000
     1.0000   1.0000   1.0000   1.0000   1.0000   1.0000   1.0000   1.0000
     1.0000   1.0000   1.0000   1.0000   1.0000   1.0000   1.0000   1.0000
     1.0000   1.0000   1.0000   1.0000   1.0000   1.0000   1.0000   1.0000
     1.0000   1.0000   1.0000   1.0000   1.0000   1.0000   1.0000   1.0000
     1.0000   1.0000   1.0000   1.0000   1.0000   1.0000   1.0000   1.0000
     1.0000   1.0000   1.0000   1.0000   1.0000   1.0000   1.0000   1.0000
     1.0000   1.0006   1.0053   1.0157   1.0274   1.0319   1.0429   1.0644
     1.0648   1.0752   1.0645   1.0025   0.7584   0.7340   0.7014   0.6147
     0.6104   0.4065   0.3622   0.2916   0.1955   0.1883   0.1731   0.1673
     0.1590   0.0815   0.0711   0.0580   0.0191   0.0140   0.0117   0.0053
     0.0051   0.0034   0.0008   0.0007   0.0004   0.0001   0.0000   0.0000
     0.0000   0.0000   0.0000   0.0000   0.0000   0.0000   0.0000   0.0000
     0.0000   0.0000   0.0000   0.0000   0.0000   0.0000   0.0000   0.0000
     0.0000

          k = 0.0000 0.1443 0.0000 ( 44584 PWs)   bands (ev):

   -12.5146 -12.2141 -11.5916 -10.9130 -10.8512 -10.8318 -10.8299 -10.7727
   -10.7110 -10.6599 -10.6561 -10.5394 -10.5253 -10.5241 -10.4796 -10.4428
   -10.4379 -10.4298 -10.3072 -10.2611 -10.2358 -10.1987 -10.0687 -10.0673
   -10.0644 -10.0238  -9.9975  -9.9209  -9.8647  -9.8367  -9.4740  -9.3591
    -9.3529  -8.9247  -8.7984  -8.7714  -8.5801  -8.5615  -8.5131  -8.4869
    -8.4732  -8.3735  -8.3438  -8.3302  -8.3179  -8.2295  -8.2092  -8.1857
    -8.1681  -8.1649  -8.1613  -8.1572  -8.1428  -8.0259  -7.9721  -7.9448
    -7.9292  -7.8491  -7.8122  -7.8093  -7.7746  -7.7393  -7.6839  -7.6630
    -7.6033  -7.5661  -7.5143  -7.5004  -7.4068  -7.3138  -7.0570  -7.0279
    -6.9450  -6.9211  -6.7354  -6.7344  -6.7114  -6.7103  -6.7032  -6.5894
    -6.4952  -6.4891  -6.4839  -6.3570  -6.3451  -6.2749  -6.1919  -6.1384
    -6.1168  -6.0141  -5.9183  -5.8158  -5.7957  -5.7627  -5.7514  -5.7483
    -5.7211  -5.7179  -5.5962  -5.5939  -5.5130  -5.4476  -5.4471  -5.4014
    -5.4008  -5.3682  -5.3004  -5.2981  -5.2883  -5.2858  -5.2801  -5.2740
    -5.2379  -5.2361  -5.2248  -5.1956  -5.1793  -5.1742  -5.1169  -5.0980
    -5.0869  -5.0550  -4.9671  -4.9618  -4.9597  -4.5970  -4.3131  -3.7365
    -3.4925  -3.4292  -3.4257  -3.1557  -2.8583  -2.6128  -2.4956  -2.1600
    -2.0454  -1.8642  -1.7185  -1.2247  -1.0083  -0.9619  -0.3697  -0.3221
     0.1816

     occupation numbers 
     1.0000   1.0000   1.0000   1.0000   1.0000   1.0000   1.0000   1.0000
     1.0000   1.0000   1.0000   1.0000   1.0000   1.0000   1.0000   1.0000
     1.0000   1.0000   1.0000   1.0000   1.0000   1.0000   1.0000   1.0000
     1.0000   1.0000   1.0000   1.0000   1.0000   1.0000   1.0000   1.0000
     1.0000   1.0000   1.0000   1.0000   1.0000   1.0000   1.0000   1.0000
     1.0000   1.0000   1.0000   1.0000   1.0000   1.0000   1.0000   1.0000
     1.0000   1.0000   1.0000   1.0000   1.0000   1.0000   1.0000   1.0000
     1.0000   1.0000   1.0000   1.0000   1.0000   1.0000   1.0000   1.0000
     1.0000   1.0000   1.0000   1.0000   1.0000   1.0000   1.0000   1.0000
     1.0000   1.0000   1.0000   1.0000   1.0000   1.0000   1.0000   1.0000
     1.0000   1.0000   1.0000   1.0000   1.0000   1.0000   1.0000   1.0000
     1.0000   1.0000   1.0006   1.0057   1.0082   1.0142   1.0169   1.0176
     1.0258   1.0269   1.0782   1.0788   1.0634   0.9616   0.9605   0.8329
     0.8312   0.7185   0.4662   0.4582   0.4231   0.4147   0.3948   0.3744
     0.2642   0.2593   0.2294   0.1632   0.1325   0.1239   0.0534   0.0391
     0.0323   0.0181   0.0028   0.0025   0.0024   0.0000   0.0000   0.0000
     0.0000   0.0000   0.0000   0.0000   0.0000   0.0000   0.0000   0.0000
     0.0000   0.0000   0.0000   0.0000   0.0000   0.0000   0.0000   0.0000
     0.0000

          k = 0.0000 0.2165 0.0000 ( 44580 PWs)   bands (ev):

   -12.3714 -12.0893 -11.4574 -10.7803 -10.7699 -10.7323 -10.7304 -10.6769
   -10.6486 -10.5598 -10.5560 -10.4758 -10.4384 -10.4368 -10.4116 -10.3301
   -10.3247 -10.2995 -10.2624 -10.1534 -10.1238 -10.0914 -10.0049  -9.9951
    -9.9893  -9.9378  -9.8881  -9.8436  -9.7614  -9.7114  -9.4295  -9.3208
    -9.3054  -8.9459  -8.8434  -8.7705  -8.6485  -8.6151  -8.5981  -8.5752
    -8.4667  -8.4342  -8.3357  -8.2962  -8.2724  -8.2577  -8.2448  -8.1835
    -8.1357  -8.1353  -8.1254  -8.1026  -8.0767  -8.0120  -7.9748  -7.9191
    -7.9012  -7.8793  -7.8424  -7.8346  -7.7939  -7.7153  -7.7122  -7.6938
    -7.6330  -7.5967  -7.5845  -7.5442  -7.4980  -7.4386  -7.2101  -7.0362
    -7.0211  -7.0015  -6.9281  -6.8749  -6.8361  -6.8069  -6.7918  -6.7760
    -6.6569  -6.5539  -6.5013  -6.4840  -6.3568  -6.2902  -6.2691  -6.2279
    -6.2044  -6.1601  -6.0838  -6.0674  -5.9381  -5.9188  -5.9096  -5.9018
    -5.7962  -5.7803  -5.7749  -5.7720  -5.5947  -5.5876  -5.5251  -5.5147
    -5.5067  -5.4850  -5.4686  -5.4681  -5.4511  -5.4490  -5.4028  -5.3349
    -5.3252  -5.3109  -5.2870  -5.2866  -5.2746  -5.2451  -5.1742  -5.1585
    -5.1490  -5.0715  -5.0588  -4.9703  -4.9690  -4.9197  -4.3384  -4.0497
    -3.7967  -3.3086  -3.2010  -3.0936  -2.8934  -2.6460  -2.5838  -2.2677
    -2.1420  -1.7668  -1.5509  -1.2358  -0.7143  -0.5653   0.1906   0.2645
     0.4939

     occupation numbers 
     1.0000   1.0000   1.0000   1.0000   1.0000   1.0000   1.0000   1.0000
     1.0000   1.0000   1.0000   1.0000   1.0000   1.0000   1.0000   1.0000
     1.0000   1.0000   1.0000   1.0000   1.0000   1.0000   1.0000   1.0000
     1.0000   1.0000   1.0000   1.0000   1.0000   1.0000   1.0000   1.0000
     1.0000   1.0000   1.0000   1.0000   1.0000   1.0000   1.0000   1.0000
     1.0000   1.0000   1.0000   1.0000   1.0000   1.0000   1.0000   1.0000
     1.0000   1.0000   1.0000   1.0000   1.0000   1.0000   1.0000   1.0000
     1.0000   1.0000   1.0000   1.0000   1.0000   1.0000   1.0000   1.0000
     1.0000   1.0000   1.0000   1.0000   1.0000   1.0000   1.0000   1.0000
     1.0000   1.0000   1.0000   1.0000   1.0000   1.0000   1.0000   1.0000
     1.0000   1.0000   1.0000   1.0000   1.0000   1.0000   1.0000   1.0000
     1.0000   1.0000   1.0000   1.0000   1.0004   1.0006   1.0008   1.0009
     1.0081   1.0107   1.0117   1.0122   1.0786   1.0805   1.0722   1.0648
     1.0577   1.0315   1.0048   1.0039   0.9694   0.9647   0.8377   0.5945
     0.5579   0.5046   0.4188   0.4172   0.3764   0.2846   0.1239   0.0998
     0.0872   0.0246   0.0194   0.0030   0.0030   0.0009   0.0000   0.0000
     0.0000   0.0000   0.0000   0.0000   0.0000   0.0000   0.0000   0.0000
     0.0000   0.0000   0.0000   0.0000   0.0000   0.0000   0.0000   0.0000
     0.0000

          k = 0.0000 0.2887 0.0000 ( 44592 PWs)   bands (ev):

   -12.1879 -11.9211 -11.2801 -10.6723 -10.6475 -10.6062 -10.6061 -10.5920
   -10.4877 -10.4287 -10.4255 -10.3961 -10.3232 -10.3144 -10.3117 -10.2126
   -10.1849 -10.1786 -10.1312 -10.0103  -9.9798  -9.9627  -9.9216  -9.8943
    -9.8844  -9.8155  -9.7518  -9.7469  -9.6262  -9.5421  -9.3679  -9.2701
    -9.2417  -8.9863  -8.9043  -8.8250  -8.7536  -8.6697  -8.6537  -8.6421
    -8.5844  -8.4915  -8.3693  -8.3571  -8.2890  -8.2344  -8.2183  -8.1973
    -8.1233  -8.1094  -8.0766  -8.0612  -7.9967  -7.9932  -7.9868  -7.9582
    -7.9566  -7.8937  -7.8494  -7.8314  -7.7758  -7.7703  -7.7544  -7.7135
    -7.6436  -7.6151  -7.5630  -7.5014  -7.4910  -7.4504  -7.3807  -7.2786
    -7.2564  -7.1927  -7.0927  -6.9984  -6.9294  -6.8888  -6.8728  -6.8642
    -6.8328  -6.7802  -6.5963  -6.5234  -6.4592  -6.4563  -6.4258  -6.3787
    -6.3296  -6.3241  -6.2592  -6.2589  -6.2290  -6.2008  -6.1721  -5.9338
    -5.9019  -5.8975  -5.8770  -5.7883  -5.7809  -5.7534  -5.7342  -5.7249
    -5.7121  -5.6938  -5.6830  -5.6196  -5.6002  -5.5476  -5.5116  -5.5062
    -5.4500  -5.4154  -5.3834  -5.3578  -5.3303  -5.2995  -5.2964  -5.2548
    -5.1571  -5.1560  -5.1174  -4.9780  -4.9691  -4.9292  -4.7289  -4.5251
    -3.6642  -3.2281  -3.0288  -3.0144  -2.7008  -2.5614  -2.4556  -2.2446
    -2.1294  -1.6707  -1.4064  -1.3503  -0.3857  -0.1943   0.3186   0.7909
     0.8571

     occupation numbers 
     1.0000   1.0000   1.0000   1.0000   1.0000   1.0000   1.0000   1.0000
     1.0000   1.0000   1.0000   1.0000   1.0000   1.0000   1.0000   1.0000
     1.0000   1.0000   1.0000   1.0000   1.0000   1.0000   1.0000   1.0000
     1.0000   1.0000   1.0000   1.0000   1.0000   1.0000   1.0000   1.0000
     1.0000   1.0000   1.0000   1.0000   1.0000   1.0000   1.0000   1.0000
     1.0000   1.0000   1.0000   1.0000   1.0000   1.0000   1.0000   1.0000
     1.0000   1.0000   1.0000   1.0000   1.0000   1.0000   1.0000   1.0000
     1.0000   1.0000   1.0000   1.0000   1.0000   1.0000   1.0000   1.0000
     1.0000   1.0000   1.0000   1.0000   1.0000   1.0000   1.0000   1.0000
     1.0000   1.0000   1.0000   1.0000   1.0000   1.0000   1.0000   1.0000
     1.0000   1.0000   1.0000   1.0000   1.0000   1.0000   1.0000   1.0000
     1.0000   1.0000   1.0000   1.0000   1.0000   1.0000   1.0000   1.0004
     1.0009   1.0010   1.0017   1.0093   1.0106   1.0163   1.0216   1.0245
     1.0290   1.0361   1.0407   1.0696   1.0769   1.0814   1.0622   1.0572
     0.9671   0.8764   0.7727   0.6806   0.5771   0.4632   0.4519   0.3134
     0.0979   0.0965   0.0538   0.0036   0.0030   0.0011   0.0000   0.0000
     0.0000   0.0000   0.0000   0.0000   0.0000   0.0000   0.0000   0.0000
     0.0000   0.0000   0.0000   0.0000   0.0000   0.0000   0.0000   0.0000
     0.0000

          k = 0.0000 0.3608 0.0000 ( 44550 PWs)   bands (ev):

   -11.9890 -11.7110 -11.0729 -10.6226 -10.5532 -10.4656 -10.4641 -10.4106
   -10.3250 -10.3048 -10.2791 -10.2754 -10.2233 -10.1589 -10.1585 -10.1366
   -10.0222 -10.0171  -9.9508  -9.8610  -9.8439  -9.8256  -9.7895  -9.7623
    -9.7549  -9.6738  -9.6253  -9.6123  -9.5075  -9.3436  -9.2675  -9.2009
    -9.1656  -9.0365  -8.9851  -8.9575  -8.8062  -8.7332  -8.7169  -8.6968
    -8.6941  -8.5953  -8.5147  -8.4415  -8.3215  -8.3016  -8.2423  -8.1630
    -8.1552  -8.1501  -8.0709  -8.0187  -8.0120  -8.0070  -8.0043  -7.9741
    -7.9510  -7.9157  -7.8746  -7.8382  -7.7809  -7.7807  -7.6823  -7.6012
    -7.5815  -7.5793  -7.5689  -7.5573  -7.5559  -7.5103  -7.4584  -7.4288
    -7.3881  -7.3593  -7.2921  -7.1773  -7.1129  -6.9914  -6.9874  -6.9064
    -6.8893  -6.8885  -6.7950  -6.7865  -6.7175  -6.6517  -6.6405  -6.5868
    -6.5355  -6.4859  -6.4504  -6.4240  -6.4077  -6.2511  -6.2021  -6.1603
    -6.1052  -6.0879  -6.0773  -6.0364  -6.0360  -5.9349  -5.9281  -5.9244
    -5.9011  -5.8784  -5.8160  -5.8122  -5.8027  -5.7377  -5.6362  -5.5720
    -5.5172  -5.5024  -5.4281  -5.4165  -5.4010  -5.3572  -5.2833  -5.2830
    -5.2437  -5.1625  -5.1535  -5.1466  -5.1384  -4.9711  -4.9694  -4.2909
    -3.7577  -3.0983  -2.8790  -2.8517  -2.5955  -2.5376  -2.2736  -2.0632
    -1.9092  -1.8366  -1.3286  -1.1709  -0.2019   0.0675   0.1071   1.2577
     1.4018

     occupation numbers 
     1.0000   1.0000   1.0000   1.0000   1.0000   1.0000   1.0000   1.0000
     1.0000   1.0000   1.0000   1.0000   1.0000   1.0000   1.0000   1.0000
     1.0000   1.0000   1.0000   1.0000   1.0000   1.0000   1.0000   1.0000
     1.0000   1.0000   1.0000   1.0000   1.0000   1.0000   1.0000   1.0000
     1.0000   1.0000   1.0000   1.0000   1.0000   1.0000   1.0000   1.0000
     1.0000   1.0000   1.0000   1.0000   1.0000   1.0000   1.0000   1.0000
     1.0000   1.0000   1.0000   1.0000   1.0000   1.0000   1.0000   1.0000
     1.0000   1.0000   1.0000   1.0000   1.0000   1.0000   1.0000   1.0000
     1.0000   1.0000   1.0000   1.0000   1.0000   1.0000   1.0000   1.0000
     1.0000   1.0000   1.0000   1.0000   1.0000   1.0000   1.0000   1.0000
     1.0000   1.0000   1.0000   1.0000   1.0000   1.0000   1.0000   1.0000
     1.0000   1.0000   1.0000   1.0000   1.0000   1.0000   1.0000   1.0000
     1.0000   1.0000   1.0000   1.0000   1.0000   1.0004   1.0005   1.0005
     1.0010   1.0016   1.0057   1.0061   1.0073   1.0206   1.0623   1.0830
     1.0668   1.0533   0.9127   0.8797   0.8318   0.6782   0.4058   0.4048
     0.2806   0.1055   0.0930   0.0842   0.0745   0.0031   0.0030   0.0000
     0.0000   0.0000   0.0000   0.0000   0.0000   0.0000   0.0000   0.0000
     0.0000   0.0000   0.0000   0.0000   0.0000   0.0000   0.0000   0.0000
     0.0000

          k = 0.0000 0.4330 0.0000 ( 44520 PWs)   bands (ev):

   -11.8112 -11.4608 -10.8569 -10.6400 -10.4397 -10.3213 -10.3196 -10.3018
   -10.2600 -10.1421 -10.1378 -10.1359 -10.1052 -10.0159 -10.0047 -10.0024
    -9.8478  -9.8432  -9.7948  -9.7525  -9.7098  -9.7087  -9.6405  -9.6158
    -9.6147  -9.5447  -9.4775  -9.4743  -9.4191  -9.1895  -9.1588  -9.1265
    -9.0962  -9.0823  -9.0244  -8.9817  -8.9167  -8.8615  -8.7764  -8.7544
    -8.7543  -8.6841  -8.5746  -8.5481  -8.4508  -8.4038  -8.3615  -8.2774
    -8.2488  -8.1470  -8.0882  -8.0436  -8.0255  -8.0198  -8.0127  -7.9628
    -7.9549  -7.8614  -7.8580  -7.8498  -7.8207  -7.7971  -7.7774  -7.7387
    -7.7141  -7.5789  -7.5703  -7.5415  -7.5223  -7.4825  -7.4645  -7.4362
    -7.4069  -7.3814  -7.3658  -7.2119  -7.1660  -7.1545  -7.1136  -7.0596
    -7.0044  -6.9979  -6.9895  -6.9514  -6.8739  -6.8639  -6.8486  -6.7958
    -6.6549  -6.5962  -6.5858  -6.5542  -6.5409  -6.5181  -6.3395  -6.3263
    -6.3034  -6.2658  -6.2610  -6.2322  -6.2303  -6.1567  -6.1286  -6.0823
    -6.0664  -6.0301  -6.0257  -5.9507  -5.9028  -5.8563  -5.8519  -5.8258
    -5.7285  -5.5081  -5.5060  -5.4538  -5.4045  -5.3703  -5.2598  -5.2566
    -5.2308  -5.1717  -5.1563  -5.1439  -5.1176  -4.9719  -4.9708  -4.1525
    -3.8367  -2.9371  -2.7924  -2.7360  -2.5099  -2.4194  -2.2729  -2.0630
    -1.9934  -1.3610  -1.1463  -1.0364  -0.5060   0.1519   0.3168   1.0644
     1.6300

     occupation numbers 
     1.0000   1.0000   1.0000   1.0000   1.0000   1.0000   1.0000   1.0000
     1.0000   1.0000   1.0000   1.0000   1.0000   1.0000   1.0000   1.0000
     1.0000   1.0000   1.0000   1.0000   1.0000   1.0000   1.0000   1.0000
     1.0000   1.0000   1.0000   1.0000   1.0000   1.0000   1.0000   1.0000
     1.0000   1.0000   1.0000   1.0000   1.0000   1.0000   1.0000   1.0000
     1.0000   1.0000   1.0000   1.0000   1.0000   1.0000   1.0000   1.0000
     1.0000   1.0000   1.0000   1.0000   1.0000   1.0000   1.0000   1.0000
     1.0000   1.0000   1.0000   1.0000   1.0000   1.0000   1.0000   1.0000
     1.0000   1.0000   1.0000   1.0000   1.0000   1.0000   1.0000   1.0000
     1.0000   1.0000   1.0000   1.0000   1.0000   1.0000   1.0000   1.0000
     1.0000   1.0000   1.0000   1.0000   1.0000   1.0000   1.0000   1.0000
     1.0000   1.0000   1.0000   1.0000   1.0000   1.0000   1.0000   1.0000
     1.0000   1.0000   1.0000   1.0000   1.0000   1.0000   1.0000   1.0000
     1.0000   1.0000   1.0000   1.0003   1.0009   1.0026   1.0028   1.0047
     1.0234   1.0590   1.0570   0.9755   0.8430   0.7261   0.3288   0.3188
     0.2450   0.1198   0.0969   0.0809   0.0540   0.0032   0.0031   0.0000
     0.0000   0.0000   0.0000   0.0000   0.0000   0.0000   0.0000   0.0000
     0.0000   0.0000   0.0000   0.0000   0.0000   0.0000   0.0000   0.0000
     0.0000

          k = 0.0000 0.5052 0.0000 ( 44502 PWs)   bands (ev):

   -11.6885 -11.1884 -10.7401 -10.6572 -10.4133 -10.2683 -10.1900 -10.1845
   -10.1803 -10.0549 -10.0503 -10.0479  -9.9847  -9.9076  -9.9028  -9.8645
    -9.7111  -9.7073  -9.7018  -9.6311  -9.5950  -9.5910  -9.5389  -9.5249
    -9.4798  -9.4471  -9.3777  -9.3265  -9.3129  -9.2721  -9.1129  -9.1120
    -9.0749  -9.0051  -8.9992  -8.9812  -8.9540  -8.9140  -8.8261  -8.7885
    -8.7704  -8.7678  -8.5934  -8.5857  -8.5599  -8.5282  -8.4633  -8.3777
    -8.3628  -8.1924  -8.1543  -8.1537  -8.1339  -8.0915  -8.0106  -7.9419
    -7.9278  -7.9218  -7.8948  -7.8936  -7.8701  -7.8301  -7.7382  -7.6921
    -7.6737  -7.6332  -7.6330  -7.6035  -7.4825  -7.4689  -7.4613  -7.4422
    -7.4098  -7.4096  -7.3580  -7.3250  -7.2793  -7.2051  -7.1954  -7.1664
    -7.1355  -7.0513  -7.0141  -6.9960  -6.9642  -6.9102  -6.8863  -6.8841
    -6.7714  -6.7138  -6.6874  -6.6702  -6.6456  -6.5569  -6.5528  -6.4889
    -6.4623  -6.4559  -6.4184  -6.4145  -6.3994  -6.3896  -6.2686  -6.2227
    -6.1987  -6.1848  -6.1479  -5.9966  -5.9913  -5.9062  -5.8689  -5.8665
    -5.8308  -5.6781  -5.5106  -5.4605  -5.4038  -5.3740  -5.2285  -5.2280
    -5.2179  -5.1866  -5.1503  -5.1472  -4.9774  -4.9720  -4.9037  -4.3684
    -3.5663  -2.9160  -2.7457  -2.7267  -2.5258  -2.4872  -2.1770  -1.9450
    -1.8546  -1.2154  -0.9549  -0.8944  -0.6690   0.2346   0.4356   0.5301
     1.8100

     occupation numbers 
     1.0000   1.0000   1.0000   1.0000   1.0000   1.0000   1.0000   1.0000
     1.0000   1.0000   1.0000   1.0000   1.0000   1.0000   1.0000   1.0000
     1.0000   1.0000   1.0000   1.0000   1.0000   1.0000   1.0000   1.0000
     1.0000   1.0000   1.0000   1.0000   1.0000   1.0000   1.0000   1.0000
     1.0000   1.0000   1.0000   1.0000   1.0000   1.0000   1.0000   1.0000
     1.0000   1.0000   1.0000   1.0000   1.0000   1.0000   1.0000   1.0000
     1.0000   1.0000   1.0000   1.0000   1.0000   1.0000   1.0000   1.0000
     1.0000   1.0000   1.0000   1.0000   1.0000   1.0000   1.0000   1.0000
     1.0000   1.0000   1.0000   1.0000   1.0000   1.0000   1.0000   1.0000
     1.0000   1.0000   1.0000   1.0000   1.0000   1.0000   1.0000   1.0000
     1.0000   1.0000   1.0000   1.0000   1.0000   1.0000   1.0000   1.0000
     1.0000   1.0000   1.0000   1.0000   1.0000   1.0000   1.0000   1.0000
     1.0000   1.0000   1.0000   1.0000   1.0000   1.0000   1.0000   1.0000
     1.0000   1.0000   1.0000   1.0001   1.0001   1.0008   1.0020   1.0021
     1.0043   1.0429   1.0614   0.9893   0.8408   0.7395   0.2390   0.2378
     0.2123   0.1457   0.0888   0.0850   0.0036   0.0032   0.0006   0.0000
     0.0000   0.0000   0.0000   0.0000   0.0000   0.0000   0.0000   0.0000
     0.0000   0.0000   0.0000   0.0000   0.0000   0.0000   0.0000   0.0000
     0.0000

          k = 0.0000-0.5774 0.0000 ( 44486 PWs)   bands (ev):

   -11.6444 -10.9390 -10.9245 -10.5208 -10.4899 -10.2081 -10.1939 -10.0810
   -10.0787 -10.0756 -10.0717 -10.0121  -9.9468  -9.8787  -9.8727  -9.7351
    -9.7209  -9.6778  -9.6744  -9.5572  -9.5350  -9.5071  -9.4846  -9.4208
    -9.4154  -9.4103  -9.3758  -9.3410  -9.3370  -9.2292  -9.1714  -9.0480
    -9.0477  -9.0445  -9.0422  -8.9340  -8.9210  -8.9049  -8.8670  -8.7791
    -8.7702  -8.7454  -8.7400  -8.5807  -8.5498  -8.5137  -8.4974  -8.4364
    -8.4321  -8.2798  -8.2705  -8.1833  -8.1445  -8.0694  -8.0429  -7.9684
    -7.9653  -7.9249  -7.9204  -7.8481  -7.8465  -7.7593  -7.7077  -7.7013
    -7.6945  -7.6156  -7.6078  -7.5949  -7.5346  -7.5209  -7.5175  -7.4809
    -7.4579  -7.4372  -7.4312  -7.3576  -7.2644  -7.2423  -7.1740  -7.1598
    -7.1231  -7.1140  -7.0105  -7.0101  -6.9763  -6.9565  -6.8522  -6.8261
    -6.8056  -6.7953  -6.7086  -6.6817  -6.6600  -6.6317  -6.6082  -6.5544
    -6.5504  -6.5115  -6.4901  -6.4787  -6.4786  -6.4700  -6.3301  -6.3261
    -6.2697  -6.2389  -6.1216  -6.1024  -5.9392  -5.9053  -5.8796  -5.8595
    -5.8371  -5.7910  -5.5114  -5.4618  -5.4032  -5.3738  -5.2149  -5.2109
    -5.2091  -5.1953  -5.1572  -5.1521  -4.9753  -4.9724  -4.7373  -4.5459
    -3.3727  -3.0180  -2.7394  -2.7311  -2.5687  -2.4785  -2.1426  -1.9280
    -1.5593  -1.3660  -1.0364  -0.9277  -0.1693  -0.0404   0.3360   0.4734
     1.8660

     occupation numbers 
     1.0000   1.0000   1.0000   1.0000   1.0000   1.0000   1.0000   1.0000
     1.0000   1.0000   1.0000   1.0000   1.0000   1.0000   1.0000   1.0000
     1.0000   1.0000   1.0000   1.0000   1.0000   1.0000   1.0000   1.0000
     1.0000   1.0000   1.0000   1.0000   1.0000   1.0000   1.0000   1.0000
     1.0000   1.0000   1.0000   1.0000   1.0000   1.0000   1.0000   1.0000
     1.0000   1.0000   1.0000   1.0000   1.0000   1.0000   1.0000   1.0000
     1.0000   1.0000   1.0000   1.0000   1.0000   1.0000   1.0000   1.0000
     1.0000   1.0000   1.0000   1.0000   1.0000   1.0000   1.0000   1.0000
     1.0000   1.0000   1.0000   1.0000   1.0000   1.0000   1.0000   1.0000
     1.0000   1.0000   1.0000   1.0000   1.0000   1.0000   1.0000   1.0000
     1.0000   1.0000   1.0000   1.0000   1.0000   1.0000   1.0000   1.0000
     1.0000   1.0000   1.0000   1.0000   1.0000   1.0000   1.0000   1.0000
     1.0000   1.0000   1.0000   1.0000   1.0000   1.0000   1.0000   1.0000
     1.0000   1.0000   1.0000   1.0000   1.0004   1.0009   1.0016   1.0024
     1.0038   1.0089   1.0620   0.9920   0.8388   0.7387   0.2053   0.1960
     0.1920   0.1624   0.0981   0.0912   0.0034   0.0032   0.0000   0.0000
     0.0000   0.0000   0.0000   0.0000   0.0000   0.0000   0.0000   0.0000
     0.0000   0.0000   0.0000   0.0000   0.0000   0.0000   0.0000   0.0000
     0.0000

          k = 0.0625-0.0361 0.0000 ( 44605 PWs)   bands (ev):

   -12.6044 -12.2914 -11.6747 -10.9989 -10.8997 -10.8951 -10.8930 -10.8504
   -10.7341 -10.7223 -10.7184 -10.5794 -10.5763 -10.5757 -10.5222 -10.5149
   -10.5136 -10.5061 -10.3491 -10.3160 -10.3061 -10.2670 -10.1125 -10.1122
   -10.1090 -10.0735 -10.0665  -9.9763  -9.9207  -9.9125  -9.5023  -9.3835
    -9.3820  -8.9188  -8.7754  -8.7699  -8.5561  -8.5345  -8.5147  -8.4193
    -8.4108  -8.3724  -8.3624  -8.3585  -8.3150  -8.2736  -8.1988  -8.1876
    -8.1867  -8.1858  -8.1834  -8.1588  -8.1289  -8.0912  -7.9884  -7.9808
    -7.9151  -7.8668  -7.8074  -7.7629  -7.7441  -7.7102  -7.7060  -7.6813
    -7.5281  -7.5074  -7.5053  -7.4220  -7.2578  -7.2169  -7.0368  -7.0218
    -6.9788  -6.8232  -6.6457  -6.6443  -6.6348  -6.6333  -6.5844  -6.5037
    -6.5033  -6.3773  -6.3733  -6.3371  -6.2807  -6.2784  -6.2169  -6.0861
    -6.0752  -5.9178  -5.8193  -5.7563  -5.7165  -5.7044  -5.6779  -5.6317
    -5.6307  -5.6053  -5.5143  -5.4673  -5.3793  -5.3725  -5.3635  -5.3402
    -5.3391  -5.2835  -5.2703  -5.2475  -5.2107  -5.2075  -5.2005  -5.1977
    -5.1935  -5.1444  -5.1352  -5.1221  -5.0578  -5.0416  -5.0326  -4.9951
    -4.9933  -4.9747  -4.9138  -4.9092  -4.8861  -4.8277  -4.0840  -3.9075
    -3.6969  -3.6399  -3.1837  -2.8173  -2.6425  -2.3874  -2.2036  -1.9769
    -1.8744  -1.7563  -1.7270  -1.4793  -1.3150  -1.2468  -0.9016  -0.8656
    -0.5209

     occupation numbers 
     1.0000   1.0000   1.0000   1.0000   1.0000   1.0000   1.0000   1.0000
     1.0000   1.0000   1.0000   1.0000   1.0000   1.0000   1.0000   1.0000
     1.0000   1.0000   1.0000   1.0000   1.0000   1.0000   1.0000   1.0000
     1.0000   1.0000   1.0000   1.0000   1.0000   1.0000   1.0000   1.0000
     1.0000   1.0000   1.0000   1.0000   1.0000   1.0000   1.0000   1.0000
     1.0000   1.0000   1.0000   1.0000   1.0000   1.0000   1.0000   1.0000
     1.0000   1.0000   1.0000   1.0000   1.0000   1.0000   1.0000   1.0000
     1.0000   1.0000   1.0000   1.0000   1.0000   1.0000   1.0000   1.0000
     1.0000   1.0000   1.0000   1.0000   1.0000   1.0000   1.0000   1.0000
     1.0000   1.0000   1.0000   1.0000   1.0000   1.0000   1.0000   1.0000
     1.0000   1.0000   1.0000   1.0000   1.0000   1.0000   1.0000   1.0000
     1.0000   1.0006   1.0053   1.0157   1.0274   1.0319   1.0430   1.0644
     1.0648   1.0752   1.0645   1.0025   0.7584   0.7340   0.7014   0.6147
     0.6104   0.4065   0.3622   0.2916   0.1955   0.1883   0.1731   0.1673
     0.1590   0.0815   0.0711   0.0580   0.0191   0.0140   0.0117   0.0053
     0.0051   0.0034   0.0008   0.0007   0.0004   0.0001   0.0000   0.0000
     0.0000   0.0000   0.0000   0.0000   0.0000   0.0000   0.0000   0.0000
     0.0000   0.0000   0.0000   0.0000   0.0000   0.0000   0.0000   0.0000
     0.0000

          k = 0.0625 0.0361 0.0000 ( 44605 PWs)   bands (ev):

   -12.6044 -12.2914 -11.6747 -10.9989 -10.8997 -10.8951 -10.8930 -10.8504
   -10.7341 -10.7223 -10.7184 -10.5794 -10.5763 -10.5757 -10.5222 -10.5149
   -10.5136 -10.5061 -10.3491 -10.3160 -10.3061 -10.2670 -10.1125 -10.1122
   -10.1090 -10.0735 -10.0665  -9.9763  -9.9207  -9.9125  -9.5023  -9.3835
    -9.3820  -8.9188  -8.7754  -8.7699  -8.5561  -8.5345  -8.5147  -8.4193
    -8.4108  -8.3724  -8.3624  -8.3585  -8.3150  -8.2736  -8.1988  -8.1876
    -8.1867  -8.1858  -8.1834  -8.1588  -8.1289  -8.0912  -7.9884  -7.9808
    -7.9151  -7.8668  -7.8074  -7.7629  -7.7441  -7.7102  -7.7060  -7.6813
    -7.5281  -7.5074  -7.5053  -7.4220  -7.2578  -7.2169  -7.0368  -7.0218
    -6.9788  -6.8232  -6.6457  -6.6443  -6.6348  -6.6333  -6.5844  -6.5037
    -6.5033  -6.3773  -6.3733  -6.3371  -6.2807  -6.2784  -6.2169  -6.0861
    -6.0752  -5.9178  -5.8193  -5.7563  -5.7165  -5.7044  -5.6779  -5.6317
    -5.6307  -5.6053  -5.5143  -5.4673  -5.3793  -5.3725  -5.3635  -5.3402
    -5.3391  -5.2835  -5.2703  -5.2475  -5.2107  -5.2075  -5.2005  -5.1977
    -5.1935  -5.1444  -5.1352  -5.1221  -5.0578  -5.0416  -5.0326  -4.9951
    -4.9933  -4.9747  -4.9138  -4.9092  -4.8861  -4.8277  -4.0840  -3.9075
    -3.6969  -3.6399  -3.1837  -2.8173  -2.6425  -2.3874  -2.2036  -1.9769
    -1.8744  -1.7563  -1.7270  -1.4793  -1.3150  -1.2468  -0.9016  -0.8656
    -0.5209

     occupation numbers 
     1.0000   1.0000   1.0000   1.0000   1.0000   1.0000   1.0000   1.0000
     1.0000   1.0000   1.0000   1.0000   1.0000   1.0000   1.0000   1.0000
     1.0000   1.0000   1.0000   1.0000   1.0000   1.0000   1.0000   1.0000
     1.0000   1.0000   1.0000   1.0000   1.0000   1.0000   1.0000   1.0000
     1.0000   1.0000   1.0000   1.0000   1.0000   1.0000   1.0000   1.0000
     1.0000   1.0000   1.0000   1.0000   1.0000   1.0000   1.0000   1.0000
     1.0000   1.0000   1.0000   1.0000   1.0000   1.0000   1.0000   1.0000
     1.0000   1.0000   1.0000   1.0000   1.0000   1.0000   1.0000   1.0000
     1.0000   1.0000   1.0000   1.0000   1.0000   1.0000   1.0000   1.0000
     1.0000   1.0000   1.0000   1.0000   1.0000   1.0000   1.0000   1.0000
     1.0000   1.0000   1.0000   1.0000   1.0000   1.0000   1.0000   1.0000
     1.0000   1.0006   1.0053   1.0157   1.0274   1.0319   1.0430   1.0644
     1.0648   1.0752   1.0645   1.0025   0.7584   0.7340   0.7014   0.6147
     0.6104   0.4065   0.3622   0.2916   0.1955   0.1883   0.1731   0.1673
     0.1590   0.0815   0.0711   0.0580   0.0191   0.0140   0.0117   0.0053
     0.0051   0.0034   0.0008   0.0007   0.0004   0.0001   0.0000   0.0000
     0.0000   0.0000   0.0000   0.0000   0.0000   0.0000   0.0000   0.0000
     0.0000   0.0000   0.0000   0.0000   0.0000   0.0000   0.0000   0.0000
     0.0000

          k = 0.0625 0.1083 0.0000 ( 44583 PWs)   bands (ev):

   -12.5442 -12.2397 -11.6190 -10.9412 -10.8624 -10.8607 -10.8473 -10.7983
   -10.7070 -10.7028 -10.6659 -10.5495 -10.5488 -10.5379 -10.4859 -10.4807
   -10.4588 -10.4527 -10.3129 -10.2898 -10.2581 -10.2193 -10.0825 -10.0820
   -10.0792 -10.0413 -10.0202  -9.9369  -9.8877  -9.8598  -9.4832  -9.3665
    -9.3631  -8.9220  -8.7881  -8.7732  -8.5887  -8.5254  -8.5035  -8.4765
    -8.4643  -8.3561  -8.3515  -8.3429  -8.3290  -8.2309  -8.2166  -8.1783
    -8.1718  -8.1701  -8.1672  -8.1554  -8.1541  -8.0478  -7.9636  -7.9490
    -7.9447  -7.8401  -7.8251  -7.7963  -7.7528  -7.7163  -7.7037  -7.6912
    -7.5632  -7.5399  -7.5197  -7.4842  -7.3612  -7.2860  -7.0538  -7.0059
    -6.9523  -6.9016  -6.7062  -6.7045  -6.6913  -6.6828  -6.6661  -6.5322
    -6.5015  -6.4782  -6.4248  -6.3936  -6.3078  -6.2476  -6.2062  -6.1236
    -6.0986  -6.0144  -5.8863  -5.7579  -5.7509  -5.7430  -5.7222  -5.7007
    -5.6951  -5.6833  -5.5879  -5.5518  -5.4594  -5.4228  -5.4190  -5.3890
    -5.3845  -5.3565  -5.2955  -5.2753  -5.2705  -5.2680  -5.2563  -5.2496
    -5.2344  -5.2065  -5.1929  -5.1879  -5.1295  -5.1180  -5.0963  -5.0793
    -5.0581  -5.0485  -4.9630  -4.9540  -4.9497  -4.6106  -4.0254  -3.9802
    -3.7195  -3.3521  -3.2066  -3.1058  -2.7918  -2.6121  -2.4803  -2.2724
    -2.1365  -1.6970  -1.3494  -1.2517  -1.1026  -1.0608  -1.0336  -0.1319
    -0.0635

     occupation numbers 
     1.0000   1.0000   1.0000   1.0000   1.0000   1.0000   1.0000   1.0000
     1.0000   1.0000   1.0000   1.0000   1.0000   1.0000   1.0000   1.0000
     1.0000   1.0000   1.0000   1.0000   1.0000   1.0000   1.0000   1.0000
     1.0000   1.0000   1.0000   1.0000   1.0000   1.0000   1.0000   1.0000
     1.0000   1.0000   1.0000   1.0000   1.0000   1.0000   1.0000   1.0000
     1.0000   1.0000   1.0000   1.0000   1.0000   1.0000   1.0000   1.0000
     1.0000   1.0000   1.0000   1.0000   1.0000   1.0000   1.0000   1.0000
     1.0000   1.0000   1.0000   1.0000   1.0000   1.0000   1.0000   1.0000
     1.0000   1.0000   1.0000   1.0000   1.0000   1.0000   1.0000   1.0000
     1.0000   1.0000   1.0000   1.0000   1.0000   1.0000   1.0000   1.0000
     1.0000   1.0000   1.0000   1.0000   1.0000   1.0000   1.0000   1.0000
     1.0000   1.0000   1.0013   1.0153   1.0170   1.0191   1.0254   1.0333
     1.0356   1.0406   1.0804   1.0823   0.9872   0.8979   0.8871   0.7919
     0.7764   0.6756   0.4485   0.3788   0.3629   0.3547   0.3179   0.2975
     0.2546   0.1862   0.1577   0.1480   0.0651   0.0543   0.0380   0.0283
     0.0192   0.0160   0.0026   0.0021   0.0019   0.0000   0.0000   0.0000
     0.0000   0.0000   0.0000   0.0000   0.0000   0.0000   0.0000   0.0000
     0.0000   0.0000   0.0000   0.0000   0.0000   0.0000   0.0000   0.0000
     0.0000

          k = 0.0625 0.1804 0.0000 ( 44578 PWs)   bands (ev):

   -12.4275 -12.1386 -11.5102 -10.8299 -10.7975 -10.7817 -10.7645 -10.6975
   -10.6757 -10.6352 -10.5731 -10.4969 -10.4856 -10.4625 -10.4286 -10.3986
   -10.3557 -10.3499 -10.2646 -10.2208 -10.1665 -10.1237 -10.0265 -10.0236
   -10.0202  -9.9764  -9.9311  -9.8650  -9.8154  -9.7557  -9.4465  -9.3338
    -9.3263  -8.9353  -8.8182  -8.7772  -8.6450  -8.5854  -8.5570  -8.5253
    -8.4648  -8.4283  -8.3233  -8.3094  -8.2760  -8.2691  -8.2228  -8.1824
    -8.1541  -8.1440  -8.1386  -8.1368  -8.0990  -7.9928  -7.9736  -7.9450
    -7.8809  -7.8721  -7.8474  -7.8260  -7.7746  -7.7485  -7.7167  -7.6623
    -7.6179  -7.5930  -7.5553  -7.5281  -7.4891  -7.3856  -7.1659  -7.0145
    -6.9749  -6.9666  -6.8414  -6.8234  -6.8043  -6.7653  -6.7546  -6.7381
    -6.5815  -6.5160  -6.4772  -6.4591  -6.3601  -6.2740  -6.2114  -6.1943
    -6.1655  -6.1071  -6.0184  -5.9520  -5.9257  -5.8799  -5.8615  -5.7907
    -5.7660  -5.7476  -5.7225  -5.6682  -5.5570  -5.5334  -5.5220  -5.5083
    -5.4976  -5.4113  -5.3942  -5.3798  -5.3655  -5.3582  -5.3474  -5.3166
    -5.3007  -5.2995  -5.2902  -5.2866  -5.2646  -5.2415  -5.1719  -5.1466
    -5.1392  -5.0685  -5.0245  -4.9867  -4.9839  -4.5511  -4.2358  -3.8520
    -3.7716  -3.4964  -3.2938  -3.1686  -2.9210  -2.8290  -2.6434  -2.2536
    -2.0929  -1.5942  -1.2912  -1.0953  -0.8959  -0.8070  -0.5104   0.3179
     0.4620

     occupation numbers 
     1.0000   1.0000   1.0000   1.0000   1.0000   1.0000   1.0000   1.0000
     1.0000   1.0000   1.0000   1.0000   1.0000   1.0000   1.0000   1.0000
     1.0000   1.0000   1.0000   1.0000   1.0000   1.0000   1.0000   1.0000
     1.0000   1.0000   1.0000   1.0000   1.0000   1.0000   1.0000   1.0000
     1.0000   1.0000   1.0000   1.0000   1.0000   1.0000   1.0000   1.0000
     1.0000   1.0000   1.0000   1.0000   1.0000   1.0000   1.0000   1.0000
     1.0000   1.0000   1.0000   1.0000   1.0000   1.0000   1.0000   1.0000
     1.0000   1.0000   1.0000   1.0000   1.0000   1.0000   1.0000   1.0000
     1.0000   1.0000   1.0000   1.0000   1.0000   1.0000   1.0000   1.0000
     1.0000   1.0000   1.0000   1.0000   1.0000   1.0000   1.0000   1.0000
     1.0000   1.0000   1.0000   1.0000   1.0000   1.0000   1.0000   1.0000
     1.0000   1.0000   1.0000   1.0003   1.0005   1.0015   1.0023   1.0089
     1.0135   1.0178   1.0253   1.0473   1.0830   1.0766   1.0702   1.0592
     1.0480   0.8640   0.8096   0.7600   0.7087   0.6819   0.6418   0.5260
     0.4674   0.4632   0.4299   0.4173   0.3437   0.2741   0.1201   0.0842
     0.0755   0.0232   0.0099   0.0044   0.0041   0.0000   0.0000   0.0000
     0.0000   0.0000   0.0000   0.0000   0.0000   0.0000   0.0000   0.0000
     0.0000   0.0000   0.0000   0.0000   0.0000   0.0000   0.0000   0.0000
     0.0000

          k = 0.0625 0.2526 0.0000 ( 44582 PWs)   bands (ev):

   -12.2635 -11.9921 -11.3539 -10.7076 -10.6757 -10.6656 -10.6541 -10.6351
   -10.5542 -10.5292 -10.4477 -10.4232 -10.3887 -10.3510 -10.3462 -10.2728
   -10.2254 -10.2176 -10.1983 -10.1018 -10.0406  -9.9935  -9.9539  -9.9386
    -9.9287  -9.8754  -9.8111  -9.7718  -9.6953  -9.6088  -9.3928  -9.2889
    -9.2719  -8.9689  -8.8705  -8.7820  -8.7267  -8.7064  -8.6495  -8.5490
    -8.5352  -8.4501  -8.3730  -8.3152  -8.2637  -8.2565  -8.2226  -8.2022
    -8.1453  -8.1087  -8.0972  -8.0464  -8.0244  -8.0176  -7.9961  -7.9461
    -7.9224  -7.8691  -7.8340  -7.8281  -7.8048  -7.7804  -7.7540  -7.6935
    -7.6411  -7.6214  -7.5685  -7.5184  -7.5010  -7.4604  -7.3189  -7.1671
    -7.1496  -7.0934  -7.0472  -6.9536  -6.8878  -6.8586  -6.8393  -6.8202
    -6.7777  -6.6639  -6.5566  -6.5013  -6.4449  -6.3625  -6.3201  -6.2876
    -6.2726  -6.2569  -6.2400  -6.1819  -6.1340  -6.1190  -6.0522  -5.9327
    -5.8646  -5.8516  -5.8304  -5.7605  -5.7001  -5.6800  -5.6753  -5.6466
    -5.6359  -5.6212  -5.5842  -5.5608  -5.5265  -5.5010  -5.4696  -5.4472
    -5.3937  -5.3708  -5.3463  -5.3285  -5.3224  -5.3178  -5.2892  -5.1756
    -5.1683  -5.1021  -5.0143  -4.9936  -4.9889  -4.7817  -4.4624  -4.2217
    -3.7922  -3.6280  -3.2625  -3.0945  -2.8706  -2.6793  -2.5306  -2.1539
    -1.9511  -1.5737  -1.3370  -1.0404  -0.6854  -0.3463   0.1497   0.4645
     0.7695

     occupation numbers 
     1.0000   1.0000   1.0000   1.0000   1.0000   1.0000   1.0000   1.0000
     1.0000   1.0000   1.0000   1.0000   1.0000   1.0000   1.0000   1.0000
     1.0000   1.0000   1.0000   1.0000   1.0000   1.0000   1.0000   1.0000
     1.0000   1.0000   1.0000   1.0000   1.0000   1.0000   1.0000   1.0000
     1.0000   1.0000   1.0000   1.0000   1.0000   1.0000   1.0000   1.0000
     1.0000   1.0000   1.0000   1.0000   1.0000   1.0000   1.0000   1.0000
     1.0000   1.0000   1.0000   1.0000   1.0000   1.0000   1.0000   1.0000
     1.0000   1.0000   1.0000   1.0000   1.0000   1.0000   1.0000   1.0000
     1.0000   1.0000   1.0000   1.0000   1.0000   1.0000   1.0000   1.0000
     1.0000   1.0000   1.0000   1.0000   1.0000   1.0000   1.0000   1.0000
     1.0000   1.0000   1.0000   1.0000   1.0000   1.0000   1.0000   1.0000
     1.0000   1.0000   1.0000   1.0000   1.0000   1.0000   1.0000   1.0004
     1.0022   1.0028   1.0043   1.0147   1.0335   1.0420   1.0441   1.0575
     1.0624   1.0690   1.0812   1.0832   1.0730   1.0518   1.0066   0.9606
     0.8078   0.7281   0.6376   0.5704   0.5475   0.5302   0.4263   0.1262
     0.1144   0.0419   0.0080   0.0051   0.0046   0.0000   0.0000   0.0000
     0.0000   0.0000   0.0000   0.0000   0.0000   0.0000   0.0000   0.0000
     0.0000   0.0000   0.0000   0.0000   0.0000   0.0000   0.0000   0.0000
     0.0000

          k = 0.0625 0.3248 0.0000 ( 44578 PWs)   bands (ev):

   -12.0706 -11.8027 -11.1601 -10.6120 -10.5935 -10.5268 -10.5255 -10.4812
   -10.3963 -10.3791 -10.3405 -10.2990 -10.2590 -10.2551 -10.1952 -10.1604
   -10.1139 -10.0757 -10.0239  -9.9528  -9.9007  -9.8688  -9.8420  -9.8243
    -9.8046  -9.7413  -9.6883  -9.6471  -9.5562  -9.4355  -9.3093  -9.2309
    -9.2021  -9.0170  -8.9367  -8.9019  -8.7864  -8.7698  -8.7169  -8.6662
    -8.5874  -8.5458  -8.4458  -8.4015  -8.3194  -8.2460  -8.2236  -8.1898
    -8.1418  -8.1171  -8.0746  -8.0604  -8.0217  -7.9943  -7.9766  -7.9503
    -7.9437  -7.9342  -7.8785  -7.8438  -7.8175  -7.7751  -7.7240  -7.6700
    -7.6313  -7.5961  -7.5229  -7.4991  -7.4692  -7.4429  -7.4325  -7.3960
    -7.3497  -7.3416  -7.2820  -7.0612  -7.0042  -6.9782  -6.9206  -6.8879
    -6.8761  -6.8467  -6.7108  -6.6533  -6.6303  -6.5890  -6.5021  -6.4824
    -6.4634  -6.4237  -6.3888  -6.3676  -6.3461  -6.2506  -6.2107  -6.1146
    -6.0215  -6.0034  -5.9784  -5.9684  -5.8956  -5.8732  -5.8641  -5.8416
    -5.8140  -5.7963  -5.7710  -5.6892  -5.6640  -5.6569  -5.5786  -5.5513
    -5.4790  -5.4129  -5.4018  -5.3630  -5.3319  -5.3232  -5.3152  -5.2764
    -5.1731  -5.1695  -5.1486  -5.0418  -4.9976  -4.9945  -4.8286  -4.3934
    -3.6838  -3.5286  -3.2536  -3.1011  -2.8388  -2.3424  -2.2046  -1.9772
    -1.8596  -1.6769  -1.4431  -0.8145  -0.5025   0.0810   0.2444   0.8388
     1.0662

     occupation numbers 
     1.0000   1.0000   1.0000   1.0000   1.0000   1.0000   1.0000   1.0000
     1.0000   1.0000   1.0000   1.0000   1.0000   1.0000   1.0000   1.0000
     1.0000   1.0000   1.0000   1.0000   1.0000   1.0000   1.0000   1.0000
     1.0000   1.0000   1.0000   1.0000   1.0000   1.0000   1.0000   1.0000
     1.0000   1.0000   1.0000   1.0000   1.0000   1.0000   1.0000   1.0000
     1.0000   1.0000   1.0000   1.0000   1.0000   1.0000   1.0000   1.0000
     1.0000   1.0000   1.0000   1.0000   1.0000   1.0000   1.0000   1.0000
     1.0000   1.0000   1.0000   1.0000   1.0000   1.0000   1.0000   1.0000
     1.0000   1.0000   1.0000   1.0000   1.0000   1.0000   1.0000   1.0000
     1.0000   1.0000   1.0000   1.0000   1.0000   1.0000   1.0000   1.0000
     1.0000   1.0000   1.0000   1.0000   1.0000   1.0000   1.0000   1.0000
     1.0000   1.0000   1.0000   1.0000   1.0000   1.0000   1.0000   1.0000
     1.0000   1.0001   1.0001   1.0002   1.0011   1.0018   1.0022   1.0035
     1.0059   1.0081   1.0124   1.0380   1.0493   1.0526   1.0822   1.0822
     1.0225   0.8688   0.8343   0.6995   0.5833   0.5504   0.5208   0.3824
     0.1220   0.1163   0.0867   0.0140   0.0056   0.0053   0.0001   0.0000
     0.0000   0.0000   0.0000   0.0000   0.0000   0.0000   0.0000   0.0000
     0.0000   0.0000   0.0000   0.0000   0.0000   0.0000   0.0000   0.0000
     0.0000

          k = 0.0625 0.3969 0.0000 ( 44528 PWs)   bands (ev):

   -11.8804 -11.5708 -10.9457 -10.6031 -10.4725 -10.3880 -10.3761 -10.3073
   -10.2849 -10.2499 -10.1948 -10.1590 -10.1458 -10.1027 -10.0662 -10.0301
    -9.9403  -9.9147  -9.8515  -9.8049  -9.7893  -9.7285  -9.7107  -9.6874
    -9.6537  -9.5967  -9.5700  -9.5066  -9.4529  -9.2569  -9.1750  -9.1462
    -9.1217  -9.0959  -9.0339  -8.9679  -8.8592  -8.8409  -8.8183  -8.7493
    -8.6435  -8.6155  -8.5859  -8.5100  -8.3803  -8.3588  -8.3090  -8.2245
    -8.2111  -8.1510  -8.1012  -8.0729  -8.0548  -8.0178  -7.9790  -7.9659
    -7.9434  -7.8829  -7.8633  -7.8275  -7.8119  -7.7614  -7.7332  -7.7087
    -7.6654  -7.6514  -7.6227  -7.5461  -7.5098  -7.4778  -7.4518  -7.4471
    -7.3974  -7.3312  -7.2752  -7.2673  -7.1779  -7.0638  -7.0291  -7.0023
    -6.9418  -6.9150  -6.8893  -6.8748  -6.8618  -6.8297  -6.8183  -6.7096
    -6.6606  -6.5217  -6.5019  -6.4944  -6.4821  -6.4676  -6.2932  -6.2430
    -6.2258  -6.2166  -6.1992  -6.1748  -6.1118  -6.0773  -6.0030  -5.9952
    -5.9749  -5.9501  -5.9067  -5.8861  -5.8594  -5.7656  -5.7525  -5.6556
    -5.5464  -5.4889  -5.4522  -5.4145  -5.3888  -5.3192  -5.2988  -5.2858
    -5.2585  -5.1876  -5.1708  -5.1647  -5.1338  -4.9995  -4.9950  -4.1386
    -3.8110  -3.4726  -3.2544  -2.9277  -2.6133  -2.2086  -2.1265  -1.8688
    -1.7863  -1.5424  -1.3464  -0.6242  -0.3621  -0.2010   0.5788   1.2137
     1.4095

     occupation numbers 
     1.0000   1.0000   1.0000   1.0000   1.0000   1.0000   1.0000   1.0000
     1.0000   1.0000   1.0000   1.0000   1.0000   1.0000   1.0000   1.0000
     1.0000   1.0000   1.0000   1.0000   1.0000   1.0000   1.0000   1.0000
     1.0000   1.0000   1.0000   1.0000   1.0000   1.0000   1.0000   1.0000
     1.0000   1.0000   1.0000   1.0000   1.0000   1.0000   1.0000   1.0000
     1.0000   1.0000   1.0000   1.0000   1.0000   1.0000   1.0000   1.0000
     1.0000   1.0000   1.0000   1.0000   1.0000   1.0000   1.0000   1.0000
     1.0000   1.0000   1.0000   1.0000   1.0000   1.0000   1.0000   1.0000
     1.0000   1.0000   1.0000   1.0000   1.0000   1.0000   1.0000   1.0000
     1.0000   1.0000   1.0000   1.0000   1.0000   1.0000   1.0000   1.0000
     1.0000   1.0000   1.0000   1.0000   1.0000   1.0000   1.0000   1.0000
     1.0000   1.0000   1.0000   1.0000   1.0000   1.0000   1.0000   1.0000
     1.0000   1.0000   1.0000   1.0000   1.0000   1.0000   1.0001   1.0001
     1.0001   1.0003   1.0008   1.0013   1.0024   1.0135   1.0166   1.0532
     1.0811   1.0371   0.9720   0.8736   0.7912   0.5355   0.4604   0.4145
     0.3245   0.1475   0.1184   0.1089   0.0696   0.0059   0.0053   0.0000
     0.0000   0.0000   0.0000   0.0000   0.0000   0.0000   0.0000   0.0000
     0.0000   0.0000   0.0000   0.0000   0.0000   0.0000   0.0000   0.0000
     0.0000

          k = 0.0625 0.4691 0.0000 ( 44509 PWs)   bands (ev):

   -11.7290 -11.3049 -10.7366 -10.6536 -10.3851 -10.2739 -10.2468 -10.2330
   -10.1888 -10.1223 -10.0751 -10.0331 -10.0185  -9.9597  -9.9283  -9.9109
    -9.7699  -9.7334  -9.7242  -9.6944  -9.6684  -9.6407  -9.6034  -9.5382
    -9.5217  -9.4743  -9.4233  -9.3689  -9.3485  -9.2572  -9.1329  -9.0754
    -9.0575  -9.0473  -9.0230  -8.9937  -8.9628  -8.9023  -8.8675  -8.8167
    -8.7474  -8.6621  -8.6044  -8.5672  -8.5181  -8.5054  -8.4434  -8.3484
    -8.3052  -8.1716  -8.1472  -8.0978  -8.0848  -8.0459  -8.0231  -7.9946
    -7.9715  -7.9103  -7.8983  -7.8881  -7.8627  -7.8265  -7.7946  -7.7370
    -7.7007  -7.6449  -7.5964  -7.5717  -7.5242  -7.4624  -7.4556  -7.4304
    -7.4044  -7.3787  -7.3190  -7.2469  -7.2374  -7.1995  -7.1715  -7.1378
    -7.0845  -7.0663  -7.0139  -6.9883  -6.9563  -6.8830  -6.8634  -6.8453
    -6.7697  -6.6881  -6.6712  -6.6280  -6.6164  -6.4968  -6.4800  -6.4450
    -6.4139  -6.3886  -6.3675  -6.3042  -6.2755  -6.2162  -6.1982  -6.1560
    -6.1161  -6.0932  -6.0717  -5.9891  -5.9240  -5.8642  -5.8342  -5.7982
    -5.7387  -5.5803  -5.5295  -5.4471  -5.4155  -5.3771  -5.2809  -5.2585
    -5.2548  -5.2040  -5.1754  -5.1642  -5.0069  -4.9979  -4.9663  -4.2151
    -3.6941  -3.3966  -3.2229  -2.8598  -2.5188  -2.1927  -2.0869  -1.8269
    -1.7256  -1.3090  -0.9639  -0.7258  -0.3767  -0.2429   0.7590   0.9295
     1.3710

     occupation numbers 
     1.0000   1.0000   1.0000   1.0000   1.0000   1.0000   1.0000   1.0000
     1.0000   1.0000   1.0000   1.0000   1.0000   1.0000   1.0000   1.0000
     1.0000   1.0000   1.0000   1.0000   1.0000   1.0000   1.0000   1.0000
     1.0000   1.0000   1.0000   1.0000   1.0000   1.0000   1.0000   1.0000
     1.0000   1.0000   1.0000   1.0000   1.0000   1.0000   1.0000   1.0000
     1.0000   1.0000   1.0000   1.0000   1.0000   1.0000   1.0000   1.0000
     1.0000   1.0000   1.0000   1.0000   1.0000   1.0000   1.0000   1.0000
     1.0000   1.0000   1.0000   1.0000   1.0000   1.0000   1.0000   1.0000
     1.0000   1.0000   1.0000   1.0000   1.0000   1.0000   1.0000   1.0000
     1.0000   1.0000   1.0000   1.0000   1.0000   1.0000   1.0000   1.0000
     1.0000   1.0000   1.0000   1.0000   1.0000   1.0000   1.0000   1.0000
     1.0000   1.0000   1.0000   1.0000   1.0000   1.0000   1.0000   1.0000
     1.0000   1.0000   1.0000   1.0000   1.0000   1.0000   1.0000   1.0000
     1.0000   1.0000   1.0000   1.0001   1.0006   1.0022   1.0040   1.0079
     1.0203   1.0819   1.0746   0.9605   0.8768   0.7505   0.3977   0.3246
     0.3131   0.1805   0.1259   0.1081   0.0069   0.0057   0.0028   0.0000
     0.0000   0.0000   0.0000   0.0000   0.0000   0.0000   0.0000   0.0000
     0.0000   0.0000   0.0000   0.0000   0.0000   0.0000   0.0000   0.0000
     0.0000

          k = 0.0625-0.6134 0.0000 ( 44516 PWs)   bands (ev):

   -11.6445 -11.0340 -10.8023 -10.5575 -10.4294 -10.2087 -10.1597 -10.1163
   -10.1142 -10.0657 -10.0216 -10.0043  -9.9393  -9.8848  -9.8539  -9.7789
    -9.7025  -9.6835  -9.6463  -9.5829  -9.5655  -9.5113  -9.4779  -9.4599
    -9.4427  -9.4111  -9.3758  -9.3068  -9.2804  -9.2395  -9.1374  -9.1262
    -9.1054  -9.0496  -8.9884  -8.9663  -8.9406  -8.8929  -8.8620  -8.8352
    -8.7973  -8.7042  -8.6872  -8.5891  -8.5760  -8.5256  -8.4862  -8.4452
    -8.3950  -8.2932  -8.2790  -8.1834  -8.1561  -8.0971  -8.0343  -7.9900
    -7.9489  -7.9284  -7.9266  -7.8684  -7.8404  -7.8238  -7.7521  -7.7094
    -7.6829  -7.6491  -7.6381  -7.6001  -7.5895  -7.5468  -7.5002  -7.4895
    -7.4571  -7.4359  -7.4104  -7.3313  -7.2711  -7.2285  -7.2104  -7.1894
    -7.1242  -7.0580  -7.0403  -6.9936  -6.9518  -6.9238  -6.8761  -6.8562
    -6.7634  -6.7457  -6.6942  -6.6705  -6.6366  -6.6221  -6.5817  -6.5628
    -6.5446  -6.5143  -6.4781  -6.4335  -6.4174  -6.3574  -6.3263  -6.2354
    -6.1994  -6.1819  -6.1295  -6.0132  -5.9923  -5.9295  -5.8760  -5.8450
    -5.8007  -5.7122  -5.5254  -5.4697  -5.4150  -5.3795  -5.2553  -5.2427
    -5.2262  -5.2202  -5.1862  -5.1732  -5.0032  -4.9971  -4.7607  -4.4476
    -3.4717  -3.3429  -3.1574  -2.9273  -2.6948  -2.0983  -1.9646  -1.7182
    -1.5914  -1.2830  -1.1177  -0.4537  -0.2584  -0.1874   0.2428   1.0265
     1.4164

     occupation numbers 
     1.0000   1.0000   1.0000   1.0000   1.0000   1.0000   1.0000   1.0000
     1.0000   1.0000   1.0000   1.0000   1.0000   1.0000   1.0000   1.0000
     1.0000   1.0000   1.0000   1.0000   1.0000   1.0000   1.0000   1.0000
     1.0000   1.0000   1.0000   1.0000   1.0000   1.0000   1.0000   1.0000
     1.0000   1.0000   1.0000   1.0000   1.0000   1.0000   1.0000   1.0000
     1.0000   1.0000   1.0000   1.0000   1.0000   1.0000   1.0000   1.0000
     1.0000   1.0000   1.0000   1.0000   1.0000   1.0000   1.0000   1.0000
     1.0000   1.0000   1.0000   1.0000   1.0000   1.0000   1.0000   1.0000
     1.0000   1.0000   1.0000   1.0000   1.0000   1.0000   1.0000   1.0000
     1.0000   1.0000   1.0000   1.0000   1.0000   1.0000   1.0000   1.0000
     1.0000   1.0000   1.0000   1.0000   1.0000   1.0000   1.0000   1.0000
     1.0000   1.0000   1.0000   1.0000   1.0000   1.0000   1.0000   1.0000
     1.0000   1.0000   1.0000   1.0000   1.0000   1.0000   1.0000   1.0000
     1.0000   1.0000   1.0000   1.0001   1.0001   1.0005   1.0017   1.0032
     1.0075   1.0289   1.0723   1.0068   0.8753   0.7591   0.3148   0.2777
     0.2329   0.2180   0.1449   0.1222   0.0063   0.0056   0.0000   0.0000
     0.0000   0.0000   0.0000   0.0000   0.0000   0.0000   0.0000   0.0000
     0.0000   0.0000   0.0000   0.0000   0.0000   0.0000   0.0000   0.0000
     0.0000

          k = 0.0625-0.5413 0.0000 ( 44516 PWs)   bands (ev):

   -11.6445 -11.0340 -10.8023 -10.5575 -10.4294 -10.2087 -10.1597 -10.1163
   -10.1142 -10.0657 -10.0216 -10.0043  -9.9393  -9.8848  -9.8539  -9.7789
    -9.7025  -9.6835  -9.6463  -9.5829  -9.5655  -9.5113  -9.4779  -9.4599
    -9.4427  -9.4111  -9.3758  -9.3068  -9.2804  -9.2395  -9.1374  -9.1262
    -9.1054  -9.0496  -8.9884  -8.9663  -8.9406  -8.8929  -8.8620  -8.8352
    -8.7973  -8.7042  -8.6872  -8.5891  -8.5760  -8.5256  -8.4862  -8.4452
    -8.3950  -8.2932  -8.2790  -8.1834  -8.1561  -8.0971  -8.0343  -7.9900
    -7.9489  -7.9284  -7.9266  -7.8684  -7.8404  -7.8238  -7.7521  -7.7094
    -7.6829  -7.6491  -7.6381  -7.6001  -7.5895  -7.5468  -7.5002  -7.4895
    -7.4571  -7.4359  -7.4104  -7.3313  -7.2711  -7.2285  -7.2104  -7.1894
    -7.1242  -7.0580  -7.0403  -6.9936  -6.9518  -6.9238  -6.8761  -6.8562
    -6.7634  -6.7457  -6.6942  -6.6705  -6.6366  -6.6221  -6.5817  -6.5628
    -6.5446  -6.5143  -6.4781  -6.4335  -6.4174  -6.3574  -6.3263  -6.2354
    -6.1994  -6.1819  -6.1295  -6.0132  -5.9923  -5.9295  -5.8760  -5.8450
    -5.8007  -5.7122  -5.5254  -5.4697  -5.4150  -5.3795  -5.2553  -5.2427
    -5.2262  -5.2202  -5.1862  -5.1732  -5.0032  -4.9971  -4.7607  -4.4476
    -3.4717  -3.3429  -3.1574  -2.9273  -2.6948  -2.0983  -1.9646  -1.7182
    -1.5914  -1.2830  -1.1177  -0.4537  -0.2584  -0.1874   0.2428   1.0265
     1.4164

     occupation numbers 
     1.0000   1.0000   1.0000   1.0000   1.0000   1.0000   1.0000   1.0000
     1.0000   1.0000   1.0000   1.0000   1.0000   1.0000   1.0000   1.0000
     1.0000   1.0000   1.0000   1.0000   1.0000   1.0000   1.0000   1.0000
     1.0000   1.0000   1.0000   1.0000   1.0000   1.0000   1.0000   1.0000
     1.0000   1.0000   1.0000   1.0000   1.0000   1.0000   1.0000   1.0000
     1.0000   1.0000   1.0000   1.0000   1.0000   1.0000   1.0000   1.0000
     1.0000   1.0000   1.0000   1.0000   1.0000   1.0000   1.0000   1.0000
     1.0000   1.0000   1.0000   1.0000   1.0000   1.0000   1.0000   1.0000
     1.0000   1.0000   1.0000   1.0000   1.0000   1.0000   1.0000   1.0000
     1.0000   1.0000   1.0000   1.0000   1.0000   1.0000   1.0000   1.0000
     1.0000   1.0000   1.0000   1.0000   1.0000   1.0000   1.0000   1.0000
     1.0000   1.0000   1.0000   1.0000   1.0000   1.0000   1.0000   1.0000
     1.0000   1.0000   1.0000   1.0000   1.0000   1.0000   1.0000   1.0000
     1.0000   1.0000   1.0000   1.0001   1.0001   1.0005   1.0017   1.0032
     1.0075   1.0289   1.0723   1.0068   0.8753   0.7591   0.3148   0.2777
     0.2329   0.2180   0.1449   0.1222   0.0063   0.0056   0.0000   0.0000
     0.0000   0.0000   0.0000   0.0000   0.0000   0.0000   0.0000   0.0000
     0.0000   0.0000   0.0000   0.0000   0.0000   0.0000   0.0000   0.0000
     0.0000

          k = 0.0625-0.4691 0.0000 ( 44509 PWs)   bands (ev):

   -11.7290 -11.3049 -10.7366 -10.6536 -10.3851 -10.2739 -10.2468 -10.2330
   -10.1888 -10.1223 -10.0751 -10.0331 -10.0185  -9.9597  -9.9283  -9.9109
    -9.7699  -9.7334  -9.7242  -9.6944  -9.6684  -9.6407  -9.6034  -9.5382
    -9.5217  -9.4743  -9.4233  -9.3689  -9.3485  -9.2572  -9.1329  -9.0754
    -9.0575  -9.0473  -9.0230  -8.9937  -8.9628  -8.9023  -8.8675  -8.8167
    -8.7474  -8.6621  -8.6044  -8.5672  -8.5181  -8.5054  -8.4434  -8.3484
    -8.3052  -8.1716  -8.1472  -8.0978  -8.0848  -8.0459  -8.0231  -7.9946
    -7.9715  -7.9103  -7.8983  -7.8881  -7.8627  -7.8265  -7.7946  -7.7370
    -7.7007  -7.6449  -7.5964  -7.5717  -7.5242  -7.4624  -7.4556  -7.4304
    -7.4044  -7.3787  -7.3190  -7.2469  -7.2374  -7.1995  -7.1715  -7.1378
    -7.0845  -7.0663  -7.0139  -6.9883  -6.9563  -6.8830  -6.8634  -6.8453
    -6.7697  -6.6881  -6.6712  -6.6280  -6.6164  -6.4968  -6.4800  -6.4450
    -6.4139  -6.3886  -6.3675  -6.3042  -6.2755  -6.2162  -6.1982  -6.1560
    -6.1161  -6.0932  -6.0717  -5.9891  -5.9240  -5.8642  -5.8342  -5.7982
    -5.7387  -5.5803  -5.5295  -5.4471  -5.4155  -5.3771  -5.2809  -5.2585
    -5.2548  -5.2040  -5.1754  -5.1642  -5.0069  -4.9979  -4.9663  -4.2151
    -3.6941  -3.3966  -3.2229  -2.8598  -2.5188  -2.1927  -2.0869  -1.8269
    -1.7256  -1.3090  -0.9639  -0.7258  -0.3767  -0.2429   0.7590   0.9295
     1.3710

     occupation numbers 
     1.0000   1.0000   1.0000   1.0000   1.0000   1.0000   1.0000   1.0000
     1.0000   1.0000   1.0000   1.0000   1.0000   1.0000   1.0000   1.0000
     1.0000   1.0000   1.0000   1.0000   1.0000   1.0000   1.0000   1.0000
     1.0000   1.0000   1.0000   1.0000   1.0000   1.0000   1.0000   1.0000
     1.0000   1.0000   1.0000   1.0000   1.0000   1.0000   1.0000   1.0000
     1.0000   1.0000   1.0000   1.0000   1.0000   1.0000   1.0000   1.0000
     1.0000   1.0000   1.0000   1.0000   1.0000   1.0000   1.0000   1.0000
     1.0000   1.0000   1.0000   1.0000   1.0000   1.0000   1.0000   1.0000
     1.0000   1.0000   1.0000   1.0000   1.0000   1.0000   1.0000   1.0000
     1.0000   1.0000   1.0000   1.0000   1.0000   1.0000   1.0000   1.0000
     1.0000   1.0000   1.0000   1.0000   1.0000   1.0000   1.0000   1.0000
     1.0000   1.0000   1.0000   1.0000   1.0000   1.0000   1.0000   1.0000
     1.0000   1.0000   1.0000   1.0000   1.0000   1.0000   1.0000   1.0000
     1.0000   1.0000   1.0000   1.0001   1.0006   1.0022   1.0040   1.0079
     1.0203   1.0819   1.0746   0.9605   0.8768   0.7505   0.3977   0.3246
     0.3131   0.1805   0.1259   0.1081   0.0069   0.0057   0.0028   0.0000
     0.0000   0.0000   0.0000   0.0000   0.0000   0.0000   0.0000   0.0000
     0.0000   0.0000   0.0000   0.0000   0.0000   0.0000   0.0000   0.0000
     0.0000

          k = 0.0625-0.3969 0.0000 ( 44528 PWs)   bands (ev):

   -11.8804 -11.5708 -10.9457 -10.6031 -10.4725 -10.3880 -10.3761 -10.3073
   -10.2849 -10.2499 -10.1948 -10.1590 -10.1458 -10.1027 -10.0662 -10.0301
    -9.9403  -9.9147  -9.8515  -9.8049  -9.7893  -9.7285  -9.7107  -9.6874
    -9.6537  -9.5967  -9.5700  -9.5066  -9.4529  -9.2569  -9.1750  -9.1462
    -9.1217  -9.0959  -9.0339  -8.9679  -8.8592  -8.8409  -8.8183  -8.7493
    -8.6435  -8.6155  -8.5859  -8.5100  -8.3803  -8.3588  -8.3090  -8.2245
    -8.2111  -8.1510  -8.1012  -8.0729  -8.0548  -8.0178  -7.9790  -7.9659
    -7.9434  -7.8829  -7.8633  -7.8275  -7.8119  -7.7614  -7.7332  -7.7087
    -7.6654  -7.6514  -7.6227  -7.5461  -7.5098  -7.4778  -7.4518  -7.4471
    -7.3974  -7.3312  -7.2752  -7.2673  -7.1779  -7.0638  -7.0291  -7.0023
    -6.9418  -6.9150  -6.8893  -6.8748  -6.8618  -6.8297  -6.8183  -6.7096
    -6.6606  -6.5217  -6.5019  -6.4944  -6.4821  -6.4676  -6.2932  -6.2430
    -6.2258  -6.2166  -6.1992  -6.1748  -6.1118  -6.0773  -6.0030  -5.9952
    -5.9749  -5.9501  -5.9067  -5.8861  -5.8594  -5.7656  -5.7525  -5.6556
    -5.5464  -5.4889  -5.4522  -5.4145  -5.3888  -5.3192  -5.2988  -5.2858
    -5.2585  -5.1876  -5.1708  -5.1647  -5.1338  -4.9995  -4.9950  -4.1386
    -3.8110  -3.4726  -3.2544  -2.9277  -2.6133  -2.2086  -2.1265  -1.8688
    -1.7863  -1.5424  -1.3464  -0.6242  -0.3621  -0.2010   0.5788   1.2137
     1.4095

     occupation numbers 
     1.0000   1.0000   1.0000   1.0000   1.0000   1.0000   1.0000   1.0000
     1.0000   1.0000   1.0000   1.0000   1.0000   1.0000   1.0000   1.0000
     1.0000   1.0000   1.0000   1.0000   1.0000   1.0000   1.0000   1.0000
     1.0000   1.0000   1.0000   1.0000   1.0000   1.0000   1.0000   1.0000
     1.0000   1.0000   1.0000   1.0000   1.0000   1.0000   1.0000   1.0000
     1.0000   1.0000   1.0000   1.0000   1.0000   1.0000   1.0000   1.0000
     1.0000   1.0000   1.0000   1.0000   1.0000   1.0000   1.0000   1.0000
     1.0000   1.0000   1.0000   1.0000   1.0000   1.0000   1.0000   1.0000
     1.0000   1.0000   1.0000   1.0000   1.0000   1.0000   1.0000   1.0000
     1.0000   1.0000   1.0000   1.0000   1.0000   1.0000   1.0000   1.0000
     1.0000   1.0000   1.0000   1.0000   1.0000   1.0000   1.0000   1.0000
     1.0000   1.0000   1.0000   1.0000   1.0000   1.0000   1.0000   1.0000
     1.0000   1.0000   1.0000   1.0000   1.0000   1.0000   1.0001   1.0001
     1.0001   1.0003   1.0008   1.0013   1.0024   1.0135   1.0166   1.0532
     1.0811   1.0371   0.9720   0.8736   0.7912   0.5355   0.4604   0.4145
     0.3245   0.1475   0.1184   0.1089   0.0696   0.0059   0.0053   0.0000
     0.0000   0.0000   0.0000   0.0000   0.0000   0.0000   0.0000   0.0000
     0.0000   0.0000   0.0000   0.0000   0.0000   0.0000   0.0000   0.0000
     0.0000

          k = 0.0625-0.3248 0.0000 ( 44578 PWs)   bands (ev):

   -12.0706 -11.8027 -11.1601 -10.6120 -10.5935 -10.5268 -10.5255 -10.4812
   -10.3963 -10.3791 -10.3405 -10.2990 -10.2590 -10.2551 -10.1952 -10.1604
   -10.1139 -10.0757 -10.0239  -9.9528  -9.9007  -9.8688  -9.8420  -9.8243
    -9.8046  -9.7413  -9.6883  -9.6471  -9.5562  -9.4355  -9.3093  -9.2309
    -9.2021  -9.0170  -8.9367  -8.9019  -8.7864  -8.7698  -8.7169  -8.6662
    -8.5874  -8.5458  -8.4458  -8.4015  -8.3194  -8.2460  -8.2236  -8.1898
    -8.1418  -8.1171  -8.0746  -8.0604  -8.0217  -7.9943  -7.9766  -7.9503
    -7.9437  -7.9342  -7.8785  -7.8438  -7.8175  -7.7751  -7.7240  -7.6700
    -7.6313  -7.5961  -7.5229  -7.4991  -7.4692  -7.4429  -7.4325  -7.3960
    -7.3497  -7.3416  -7.2820  -7.0612  -7.0042  -6.9782  -6.9206  -6.8879
    -6.8761  -6.8467  -6.7108  -6.6533  -6.6303  -6.5890  -6.5021  -6.4824
    -6.4634  -6.4237  -6.3888  -6.3676  -6.3461  -6.2506  -6.2107  -6.1146
    -6.0215  -6.0034  -5.9784  -5.9684  -5.8956  -5.8732  -5.8641  -5.8416
    -5.8140  -5.7963  -5.7710  -5.6892  -5.6640  -5.6569  -5.5786  -5.5513
    -5.4790  -5.4129  -5.4018  -5.3630  -5.3319  -5.3232  -5.3152  -5.2764
    -5.1731  -5.1695  -5.1486  -5.0418  -4.9976  -4.9945  -4.8286  -4.3934
    -3.6838  -3.5286  -3.2536  -3.1011  -2.8388  -2.3424  -2.2046  -1.9772
    -1.8596  -1.6769  -1.4431  -0.8145  -0.5025   0.0810   0.2444   0.8388
     1.0662

     occupation numbers 
     1.0000   1.0000   1.0000   1.0000   1.0000   1.0000   1.0000   1.0000
     1.0000   1.0000   1.0000   1.0000   1.0000   1.0000   1.0000   1.0000
     1.0000   1.0000   1.0000   1.0000   1.0000   1.0000   1.0000   1.0000
     1.0000   1.0000   1.0000   1.0000   1.0000   1.0000   1.0000   1.0000
     1.0000   1.0000   1.0000   1.0000   1.0000   1.0000   1.0000   1.0000
     1.0000   1.0000   1.0000   1.0000   1.0000   1.0000   1.0000   1.0000
     1.0000   1.0000   1.0000   1.0000   1.0000   1.0000   1.0000   1.0000
     1.0000   1.0000   1.0000   1.0000   1.0000   1.0000   1.0000   1.0000
     1.0000   1.0000   1.0000   1.0000   1.0000   1.0000   1.0000   1.0000
     1.0000   1.0000   1.0000   1.0000   1.0000   1.0000   1.0000   1.0000
     1.0000   1.0000   1.0000   1.0000   1.0000   1.0000   1.0000   1.0000
     1.0000   1.0000   1.0000   1.0000   1.0000   1.0000   1.0000   1.0000
     1.0000   1.0001   1.0001   1.0002   1.0011   1.0018   1.0022   1.0035
     1.0059   1.0081   1.0124   1.0380   1.0493   1.0526   1.0822   1.0822
     1.0225   0.8688   0.8343   0.6995   0.5833   0.5504   0.5208   0.3824
     0.1220   0.1163   0.0867   0.0140   0.0056   0.0053   0.0001   0.0000
     0.0000   0.0000   0.0000   0.0000   0.0000   0.0000   0.0000   0.0000
     0.0000   0.0000   0.0000   0.0000   0.0000   0.0000   0.0000   0.0000
     0.0000

          k = 0.0625-0.2526 0.0000 ( 44582 PWs)   bands (ev):

   -12.2635 -11.9921 -11.3539 -10.7076 -10.6757 -10.6656 -10.6541 -10.6351
   -10.5542 -10.5292 -10.4477 -10.4232 -10.3887 -10.3510 -10.3462 -10.2728
   -10.2254 -10.2176 -10.1983 -10.1018 -10.0406  -9.9935  -9.9539  -9.9386
    -9.9287  -9.8754  -9.8111  -9.7718  -9.6953  -9.6088  -9.3928  -9.2889
    -9.2719  -8.9689  -8.8705  -8.7820  -8.7267  -8.7064  -8.6495  -8.5490
    -8.5352  -8.4501  -8.3730  -8.3152  -8.2637  -8.2565  -8.2226  -8.2022
    -8.1453  -8.1087  -8.0972  -8.0464  -8.0244  -8.0176  -7.9961  -7.9461
    -7.9224  -7.8691  -7.8340  -7.8281  -7.8048  -7.7804  -7.7540  -7.6935
    -7.6411  -7.6214  -7.5685  -7.5184  -7.5010  -7.4604  -7.3189  -7.1671
    -7.1496  -7.0934  -7.0472  -6.9536  -6.8878  -6.8586  -6.8393  -6.8202
    -6.7777  -6.6639  -6.5566  -6.5013  -6.4449  -6.3625  -6.3201  -6.2876
    -6.2726  -6.2569  -6.2400  -6.1819  -6.1340  -6.1190  -6.0522  -5.9327
    -5.8646  -5.8516  -5.8304  -5.7605  -5.7001  -5.6800  -5.6753  -5.6466
    -5.6359  -5.6212  -5.5842  -5.5608  -5.5265  -5.5010  -5.4696  -5.4472
    -5.3937  -5.3708  -5.3463  -5.3285  -5.3224  -5.3178  -5.2892  -5.1756
    -5.1683  -5.1021  -5.0143  -4.9936  -4.9889  -4.7817  -4.4624  -4.2217
    -3.7922  -3.6280  -3.2625  -3.0945  -2.8706  -2.6793  -2.5306  -2.1539
    -1.9511  -1.5737  -1.3370  -1.0404  -0.6854  -0.3463   0.1497   0.4645
     0.7695

     occupation numbers 
     1.0000   1.0000   1.0000   1.0000   1.0000   1.0000   1.0000   1.0000
     1.0000   1.0000   1.0000   1.0000   1.0000   1.0000   1.0000   1.0000
     1.0000   1.0000   1.0000   1.0000   1.0000   1.0000   1.0000   1.0000
     1.0000   1.0000   1.0000   1.0000   1.0000   1.0000   1.0000   1.0000
     1.0000   1.0000   1.0000   1.0000   1.0000   1.0000   1.0000   1.0000
     1.0000   1.0000   1.0000   1.0000   1.0000   1.0000   1.0000   1.0000
     1.0000   1.0000   1.0000   1.0000   1.0000   1.0000   1.0000   1.0000
     1.0000   1.0000   1.0000   1.0000   1.0000   1.0000   1.0000   1.0000
     1.0000   1.0000   1.0000   1.0000   1.0000   1.0000   1.0000   1.0000
     1.0000   1.0000   1.0000   1.0000   1.0000   1.0000   1.0000   1.0000
     1.0000   1.0000   1.0000   1.0000   1.0000   1.0000   1.0000   1.0000
     1.0000   1.0000   1.0000   1.0000   1.0000   1.0000   1.0000   1.0004
     1.0022   1.0028   1.0043   1.0147   1.0335   1.0420   1.0441   1.0575
     1.0624   1.0690   1.0812   1.0832   1.0730   1.0518   1.0066   0.9606
     0.8078   0.7281   0.6376   0.5704   0.5475   0.5302   0.4263   0.1262
     0.1144   0.0419   0.0080   0.0051   0.0046   0.0000   0.0000   0.0000
     0.0000   0.0000   0.0000   0.0000   0.0000   0.0000   0.0000   0.0000
     0.0000   0.0000   0.0000   0.0000   0.0000   0.0000   0.0000   0.0000
     0.0000

          k = 0.0625-0.1804 0.0000 ( 44578 PWs)   bands (ev):

   -12.4275 -12.1386 -11.5102 -10.8299 -10.7975 -10.7817 -10.7645 -10.6975
   -10.6757 -10.6352 -10.5731 -10.4969 -10.4856 -10.4625 -10.4286 -10.3986
   -10.3557 -10.3499 -10.2646 -10.2208 -10.1665 -10.1237 -10.0265 -10.0236
   -10.0202  -9.9764  -9.9311  -9.8650  -9.8154  -9.7557  -9.4465  -9.3338
    -9.3263  -8.9353  -8.8182  -8.7772  -8.6450  -8.5854  -8.5570  -8.5253
    -8.4648  -8.4283  -8.3233  -8.3094  -8.2760  -8.2691  -8.2228  -8.1824
    -8.1541  -8.1440  -8.1386  -8.1368  -8.0990  -7.9928  -7.9736  -7.9450
    -7.8809  -7.8721  -7.8474  -7.8260  -7.7746  -7.7485  -7.7167  -7.6623
    -7.6179  -7.5930  -7.5553  -7.5281  -7.4891  -7.3856  -7.1659  -7.0145
    -6.9749  -6.9666  -6.8414  -6.8234  -6.8043  -6.7653  -6.7546  -6.7381
    -6.5815  -6.5160  -6.4772  -6.4591  -6.3601  -6.2740  -6.2114  -6.1943
    -6.1655  -6.1071  -6.0184  -5.9520  -5.9257  -5.8799  -5.8615  -5.7907
    -5.7660  -5.7476  -5.7225  -5.6682  -5.5570  -5.5334  -5.5220  -5.5083
    -5.4976  -5.4113  -5.3942  -5.3798  -5.3655  -5.3582  -5.3474  -5.3166
    -5.3007  -5.2995  -5.2902  -5.2866  -5.2646  -5.2415  -5.1719  -5.1466
    -5.1392  -5.0685  -5.0245  -4.9867  -4.9839  -4.5511  -4.2358  -3.8520
    -3.7716  -3.4964  -3.2938  -3.1686  -2.9210  -2.8290  -2.6434  -2.2536
    -2.0929  -1.5942  -1.2912  -1.0953  -0.8959  -0.8070  -0.5104   0.3179
     0.4620

     occupation numbers 
     1.0000   1.0000   1.0000   1.0000   1.0000   1.0000   1.0000   1.0000
     1.0000   1.0000   1.0000   1.0000   1.0000   1.0000   1.0000   1.0000
     1.0000   1.0000   1.0000   1.0000   1.0000   1.0000   1.0000   1.0000
     1.0000   1.0000   1.0000   1.0000   1.0000   1.0000   1.0000   1.0000
     1.0000   1.0000   1.0000   1.0000   1.0000   1.0000   1.0000   1.0000
     1.0000   1.0000   1.0000   1.0000   1.0000   1.0000   1.0000   1.0000
     1.0000   1.0000   1.0000   1.0000   1.0000   1.0000   1.0000   1.0000
     1.0000   1.0000   1.0000   1.0000   1.0000   1.0000   1.0000   1.0000
     1.0000   1.0000   1.0000   1.0000   1.0000   1.0000   1.0000   1.0000
     1.0000   1.0000   1.0000   1.0000   1.0000   1.0000   1.0000   1.0000
     1.0000   1.0000   1.0000   1.0000   1.0000   1.0000   1.0000   1.0000
     1.0000   1.0000   1.0000   1.0003   1.0005   1.0015   1.0023   1.0089
     1.0135   1.0178   1.0253   1.0473   1.0830   1.0766   1.0702   1.0592
     1.0480   0.8640   0.8096   0.7600   0.7087   0.6819   0.6418   0.5260
     0.4674   0.4632   0.4299   0.4173   0.3437   0.2741   0.1201   0.0842
     0.0755   0.0232   0.0099   0.0044   0.0041   0.0000   0.0000   0.0000
     0.0000   0.0000   0.0000   0.0000   0.0000   0.0000   0.0000   0.0000
     0.0000   0.0000   0.0000   0.0000   0.0000   0.0000   0.0000   0.0000
     0.0000

          k = 0.0625-0.1083 0.0000 ( 44583 PWs)   bands (ev):

   -12.5442 -12.2397 -11.6190 -10.9412 -10.8624 -10.8607 -10.8473 -10.7983
   -10.7070 -10.7028 -10.6659 -10.5495 -10.5488 -10.5379 -10.4859 -10.4807
   -10.4588 -10.4527 -10.3129 -10.2898 -10.2581 -10.2193 -10.0825 -10.0820
   -10.0792 -10.0413 -10.0202  -9.9369  -9.8877  -9.8598  -9.4832  -9.3665
    -9.3631  -8.9220  -8.7881  -8.7732  -8.5887  -8.5254  -8.5035  -8.4765
    -8.4643  -8.3561  -8.3515  -8.3429  -8.3290  -8.2309  -8.2166  -8.1783
    -8.1718  -8.1701  -8.1672  -8.1554  -8.1541  -8.0478  -7.9636  -7.9490
    -7.9447  -7.8401  -7.8251  -7.7963  -7.7528  -7.7163  -7.7037  -7.6912
    -7.5632  -7.5399  -7.5197  -7.4842  -7.3612  -7.2860  -7.0538  -7.0059
    -6.9523  -6.9016  -6.7062  -6.7045  -6.6913  -6.6828  -6.6661  -6.5322
    -6.5015  -6.4782  -6.4248  -6.3936  -6.3078  -6.2476  -6.2062  -6.1236
    -6.0986  -6.0144  -5.8863  -5.7579  -5.7509  -5.7430  -5.7222  -5.7007
    -5.6951  -5.6833  -5.5879  -5.5518  -5.4594  -5.4228  -5.4190  -5.3890
    -5.3845  -5.3565  -5.2955  -5.2753  -5.2705  -5.2680  -5.2563  -5.2496
    -5.2344  -5.2065  -5.1929  -5.1879  -5.1295  -5.1180  -5.0963  -5.0793
    -5.0581  -5.0485  -4.9630  -4.9540  -4.9497  -4.6106  -4.0254  -3.9802
    -3.7195  -3.3521  -3.2066  -3.1058  -2.7918  -2.6121  -2.4803  -2.2724
    -2.1365  -1.6970  -1.3494  -1.2517  -1.1026  -1.0608  -1.0336  -0.1319
    -0.0635

     occupation numbers 
     1.0000   1.0000   1.0000   1.0000   1.0000   1.0000   1.0000   1.0000
     1.0000   1.0000   1.0000   1.0000   1.0000   1.0000   1.0000   1.0000
     1.0000   1.0000   1.0000   1.0000   1.0000   1.0000   1.0000   1.0000
     1.0000   1.0000   1.0000   1.0000   1.0000   1.0000   1.0000   1.0000
     1.0000   1.0000   1.0000   1.0000   1.0000   1.0000   1.0000   1.0000
     1.0000   1.0000   1.0000   1.0000   1.0000   1.0000   1.0000   1.0000
     1.0000   1.0000   1.0000   1.0000   1.0000   1.0000   1.0000   1.0000
     1.0000   1.0000   1.0000   1.0000   1.0000   1.0000   1.0000   1.0000
     1.0000   1.0000   1.0000   1.0000   1.0000   1.0000   1.0000   1.0000
     1.0000   1.0000   1.0000   1.0000   1.0000   1.0000   1.0000   1.0000
     1.0000   1.0000   1.0000   1.0000   1.0000   1.0000   1.0000   1.0000
     1.0000   1.0000   1.0013   1.0153   1.0170   1.0191   1.0254   1.0333
     1.0356   1.0406   1.0804   1.0823   0.9872   0.8979   0.8871   0.7919
     0.7764   0.6756   0.4485   0.3788   0.3629   0.3547   0.3179   0.2975
     0.2546   0.1862   0.1577   0.1480   0.0651   0.0543   0.0380   0.0283
     0.0192   0.0160   0.0026   0.0021   0.0019   0.0000   0.0000   0.0000
     0.0000   0.0000   0.0000   0.0000   0.0000   0.0000   0.0000   0.0000
     0.0000   0.0000   0.0000   0.0000   0.0000   0.0000   0.0000   0.0000
     0.0000

          k = 0.1250-0.0722 0.0000 ( 44584 PWs)   bands (ev):

   -12.5146 -12.2141 -11.5916 -10.9130 -10.8512 -10.8318 -10.8299 -10.7727
   -10.7110 -10.6599 -10.6561 -10.5394 -10.5253 -10.5241 -10.4796 -10.4428
   -10.4379 -10.4298 -10.3072 -10.2611 -10.2358 -10.1987 -10.0687 -10.0673
   -10.0644 -10.0238  -9.9975  -9.9209  -9.8647  -9.8367  -9.4740  -9.3591
    -9.3529  -8.9247  -8.7984  -8.7714  -8.5801  -8.5615  -8.5131  -8.4869
    -8.4732  -8.3735  -8.3438  -8.3301  -8.3179  -8.2295  -8.2092  -8.1857
    -8.1681  -8.1649  -8.1613  -8.1572  -8.1428  -8.0259  -7.9721  -7.9448
    -7.9292  -7.8491  -7.8122  -7.8093  -7.7746  -7.7393  -7.6839  -7.6630
    -7.6033  -7.5661  -7.5143  -7.5005  -7.4068  -7.3138  -7.0570  -7.0279
    -6.9450  -6.9211  -6.7354  -6.7344  -6.7114  -6.7103  -6.7032  -6.5894
    -6.4952  -6.4891  -6.4839  -6.3570  -6.3451  -6.2749  -6.1919  -6.1384
    -6.1168  -6.0141  -5.9183  -5.8158  -5.7957  -5.7627  -5.7514  -5.7483
    -5.7212  -5.7179  -5.5962  -5.5939  -5.5130  -5.4476  -5.4471  -5.4014
    -5.4008  -5.3682  -5.3004  -5.2981  -5.2883  -5.2858  -5.2801  -5.2740
    -5.2379  -5.2361  -5.2248  -5.1956  -5.1793  -5.1742  -5.1169  -5.0980
    -5.0869  -5.0550  -4.9671  -4.9618  -4.9597  -4.5970  -4.3131  -3.7365
    -3.4925  -3.4292  -3.4257  -3.1557  -2.8583  -2.6128  -2.4956  -2.1600
    -2.0454  -1.8642  -1.7185  -1.2247  -1.0083  -0.9619  -0.3697  -0.3221
     0.1816

     occupation numbers 
     1.0000   1.0000   1.0000   1.0000   1.0000   1.0000   1.0000   1.0000
     1.0000   1.0000   1.0000   1.0000   1.0000   1.0000   1.0000   1.0000
     1.0000   1.0000   1.0000   1.0000   1.0000   1.0000   1.0000   1.0000
     1.0000   1.0000   1.0000   1.0000   1.0000   1.0000   1.0000   1.0000
     1.0000   1.0000   1.0000   1.0000   1.0000   1.0000   1.0000   1.0000
     1.0000   1.0000   1.0000   1.0000   1.0000   1.0000   1.0000   1.0000
     1.0000   1.0000   1.0000   1.0000   1.0000   1.0000   1.0000   1.0000
     1.0000   1.0000   1.0000   1.0000   1.0000   1.0000   1.0000   1.0000
     1.0000   1.0000   1.0000   1.0000   1.0000   1.0000   1.0000   1.0000
     1.0000   1.0000   1.0000   1.0000   1.0000   1.0000   1.0000   1.0000
     1.0000   1.0000   1.0000   1.0000   1.0000   1.0000   1.0000   1.0000
     1.0000   1.0000   1.0006   1.0057   1.0082   1.0142   1.0169   1.0176
     1.0258   1.0269   1.0782   1.0788   1.0634   0.9616   0.9605   0.8329
     0.8312   0.7185   0.4662   0.4582   0.4231   0.4147   0.3948   0.3744
     0.2642   0.2593   0.2294   0.1632   0.1325   0.1239   0.0534   0.0391
     0.0323   0.0181   0.0028   0.0025   0.0024   0.0000   0.0000   0.0000
     0.0000   0.0000   0.0000   0.0000   0.0000   0.0000   0.0000   0.0000
     0.0000   0.0000   0.0000   0.0000   0.0000   0.0000   0.0000   0.0000
     0.0000

          k = 0.1250 0.0000 0.0000 ( 44583 PWs)   bands (ev):

   -12.5442 -12.2397 -11.6190 -10.9412 -10.8624 -10.8607 -10.8473 -10.7983
   -10.7070 -10.7028 -10.6659 -10.5495 -10.5488 -10.5379 -10.4859 -10.4807
   -10.4588 -10.4527 -10.3129 -10.2898 -10.2581 -10.2193 -10.0825 -10.0820
   -10.0792 -10.0413 -10.0202  -9.9369  -9.8877  -9.8598  -9.4832  -9.3665
    -9.3631  -8.9220  -8.7881  -8.7732  -8.5887  -8.5254  -8.5035  -8.4765
    -8.4643  -8.3561  -8.3515  -8.3429  -8.3290  -8.2309  -8.2166  -8.1783
    -8.1718  -8.1701  -8.1672  -8.1554  -8.1541  -8.0478  -7.9636  -7.9490
    -7.9447  -7.8401  -7.8251  -7.7963  -7.7528  -7.7163  -7.7037  -7.6912
    -7.5632  -7.5399  -7.5197  -7.4842  -7.3612  -7.2860  -7.0538  -7.0059
    -6.9523  -6.9016  -6.7062  -6.7045  -6.6913  -6.6828  -6.6661  -6.5322
    -6.5015  -6.4782  -6.4248  -6.3936  -6.3078  -6.2476  -6.2062  -6.1236
    -6.0986  -6.0144  -5.8863  -5.7579  -5.7509  -5.7430  -5.7222  -5.7007
    -5.6951  -5.6833  -5.5879  -5.5518  -5.4594  -5.4228  -5.4190  -5.3890
    -5.3845  -5.3565  -5.2955  -5.2753  -5.2705  -5.2680  -5.2563  -5.2496
    -5.2344  -5.2065  -5.1929  -5.1879  -5.1295  -5.1180  -5.0963  -5.0793
    -5.0581  -5.0485  -4.9630  -4.9540  -4.9497  -4.6106  -4.0254  -3.9802
    -3.7195  -3.3521  -3.2066  -3.1058  -2.7918  -2.6121  -2.4803  -2.2724
    -2.1365  -1.6970  -1.3494  -1.2517  -1.1026  -1.0608  -1.0336  -0.1319
    -0.0635

     occupation numbers 
     1.0000   1.0000   1.0000   1.0000   1.0000   1.0000   1.0000   1.0000
     1.0000   1.0000   1.0000   1.0000   1.0000   1.0000   1.0000   1.0000
     1.0000   1.0000   1.0000   1.0000   1.0000   1.0000   1.0000   1.0000
     1.0000   1.0000   1.0000   1.0000   1.0000   1.0000   1.0000   1.0000
     1.0000   1.0000   1.0000   1.0000   1.0000   1.0000   1.0000   1.0000
     1.0000   1.0000   1.0000   1.0000   1.0000   1.0000   1.0000   1.0000
     1.0000   1.0000   1.0000   1.0000   1.0000   1.0000   1.0000   1.0000
     1.0000   1.0000   1.0000   1.0000   1.0000   1.0000   1.0000   1.0000
     1.0000   1.0000   1.0000   1.0000   1.0000   1.0000   1.0000   1.0000
     1.0000   1.0000   1.0000   1.0000   1.0000   1.0000   1.0000   1.0000
     1.0000   1.0000   1.0000   1.0000   1.0000   1.0000   1.0000   1.0000
     1.0000   1.0000   1.0013   1.0153   1.0170   1.0191   1.0254   1.0333
     1.0356   1.0406   1.0804   1.0823   0.9872   0.8979   0.8871   0.7919
     0.7764   0.6756   0.4485   0.3788   0.3629   0.3547   0.3179   0.2975
     0.2546   0.1862   0.1577   0.1480   0.0651   0.0543   0.0380   0.0283
     0.0192   0.0159   0.0026   0.0021   0.0019   0.0000   0.0000   0.0000
     0.0000   0.0000   0.0000   0.0000   0.0000   0.0000   0.0000   0.0000
     0.0000   0.0000   0.0000   0.0000   0.0000   0.0000   0.0000   0.0000
     0.0000

          k = 0.1250 0.0722 0.0000 ( 44584 PWs)   bands (ev):

   -12.5146 -12.2141 -11.5916 -10.9130 -10.8512 -10.8318 -10.8299 -10.7727
   -10.7110 -10.6599 -10.6561 -10.5394 -10.5253 -10.5241 -10.4796 -10.4428
   -10.4379 -10.4298 -10.3072 -10.2611 -10.2358 -10.1987 -10.0687 -10.0673
   -10.0644 -10.0238  -9.9975  -9.9209  -9.8647  -9.8367  -9.4740  -9.3591
    -9.3529  -8.9247  -8.7984  -8.7714  -8.5801  -8.5615  -8.5131  -8.4869
    -8.4732  -8.3735  -8.3438  -8.3301  -8.3179  -8.2295  -8.2092  -8.1857
    -8.1681  -8.1649  -8.1613  -8.1572  -8.1428  -8.0259  -7.9721  -7.9448
    -7.9292  -7.8491  -7.8122  -7.8093  -7.7746  -7.7393  -7.6839  -7.6630
    -7.6033  -7.5661  -7.5143  -7.5005  -7.4068  -7.3138  -7.0570  -7.0279
    -6.9450  -6.9211  -6.7354  -6.7344  -6.7114  -6.7103  -6.7032  -6.5894
    -6.4952  -6.4891  -6.4839  -6.3570  -6.3451  -6.2749  -6.1919  -6.1384
    -6.1168  -6.0141  -5.9183  -5.8158  -5.7957  -5.7627  -5.7514  -5.7483
    -5.7212  -5.7179  -5.5962  -5.5939  -5.5130  -5.4476  -5.4471  -5.4014
    -5.4008  -5.3682  -5.3004  -5.2981  -5.2883  -5.2858  -5.2801  -5.2740
    -5.2379  -5.2361  -5.2248  -5.1956  -5.1793  -5.1742  -5.1169  -5.0980
    -5.0869  -5.0550  -4.9671  -4.9618  -4.9597  -4.5970  -4.3131  -3.7365
    -3.4925  -3.4292  -3.4257  -3.1557  -2.8583  -2.6128  -2.4956  -2.1600
    -2.0454  -1.8642  -1.7185  -1.2247  -1.0083  -0.9619  -0.3697  -0.3221
     0.1816

     occupation numbers 
     1.0000   1.0000   1.0000   1.0000   1.0000   1.0000   1.0000   1.0000
     1.0000   1.0000   1.0000   1.0000   1.0000   1.0000   1.0000   1.0000
     1.0000   1.0000   1.0000   1.0000   1.0000   1.0000   1.0000   1.0000
     1.0000   1.0000   1.0000   1.0000   1.0000   1.0000   1.0000   1.0000
     1.0000   1.0000   1.0000   1.0000   1.0000   1.0000   1.0000   1.0000
     1.0000   1.0000   1.0000   1.0000   1.0000   1.0000   1.0000   1.0000
     1.0000   1.0000   1.0000   1.0000   1.0000   1.0000   1.0000   1.0000
     1.0000   1.0000   1.0000   1.0000   1.0000   1.0000   1.0000   1.0000
     1.0000   1.0000   1.0000   1.0000   1.0000   1.0000   1.0000   1.0000
     1.0000   1.0000   1.0000   1.0000   1.0000   1.0000   1.0000   1.0000
     1.0000   1.0000   1.0000   1.0000   1.0000   1.0000   1.0000   1.0000
     1.0000   1.0000   1.0006   1.0057   1.0082   1.0142   1.0169   1.0176
     1.0258   1.0269   1.0782   1.0788   1.0634   0.9616   0.9605   0.8329
     0.8312   0.7185   0.4662   0.4582   0.4231   0.4147   0.3948   0.3744
     0.2642   0.2593   0.2294   0.1632   0.1325   0.1239   0.0534   0.0391
     0.0323   0.0181   0.0028   0.0025   0.0024   0.0000   0.0000   0.0000
     0.0000   0.0000   0.0000   0.0000   0.0000   0.0000   0.0000   0.0000
     0.0000   0.0000   0.0000   0.0000   0.0000   0.0000   0.0000   0.0000
     0.0000

          k = 0.1250 0.1443 0.0000 ( 44578 PWs)   bands (ev):

   -12.4275 -12.1386 -11.5102 -10.8299 -10.7975 -10.7817 -10.7645 -10.6975
   -10.6757 -10.6352 -10.5731 -10.4969 -10.4856 -10.4625 -10.4286 -10.3986
   -10.3557 -10.3499 -10.2646 -10.2208 -10.1665 -10.1237 -10.0265 -10.0236
   -10.0202  -9.9764  -9.9311  -9.8650  -9.8154  -9.7557  -9.4465  -9.3338
    -9.3263  -8.9353  -8.8182  -8.7772  -8.6450  -8.5854  -8.5570  -8.5253
    -8.4648  -8.4283  -8.3233  -8.3094  -8.2760  -8.2691  -8.2228  -8.1824
    -8.1541  -8.1440  -8.1386  -8.1368  -8.0990  -7.9928  -7.9736  -7.9450
    -7.8809  -7.8721  -7.8474  -7.8260  -7.7746  -7.7485  -7.7167  -7.6623
    -7.6179  -7.5930  -7.5553  -7.5281  -7.4891  -7.3856  -7.1659  -7.0145
    -6.9749  -6.9666  -6.8414  -6.8234  -6.8043  -6.7653  -6.7546  -6.7381
    -6.5815  -6.5160  -6.4772  -6.4591  -6.3601  -6.2740  -6.2114  -6.1943
    -6.1655  -6.1071  -6.0184  -5.9520  -5.9257  -5.8799  -5.8615  -5.7907
    -5.7660  -5.7476  -5.7225  -5.6682  -5.5570  -5.5334  -5.5220  -5.5083
    -5.4976  -5.4113  -5.3942  -5.3798  -5.3655  -5.3582  -5.3474  -5.3166
    -5.3007  -5.2995  -5.2902  -5.2866  -5.2646  -5.2415  -5.1719  -5.1466
    -5.1392  -5.0685  -5.0245  -4.9867  -4.9839  -4.5511  -4.2358  -3.8520
    -3.7716  -3.4964  -3.2938  -3.1686  -2.9210  -2.8290  -2.6434  -2.2536
    -2.0929  -1.5942  -1.2912  -1.0953  -0.8959  -0.8070  -0.5104   0.3179
     0.4620

     occupation numbers 
     1.0000   1.0000   1.0000   1.0000   1.0000   1.0000   1.0000   1.0000
     1.0000   1.0000   1.0000   1.0000   1.0000   1.0000   1.0000   1.0000
     1.0000   1.0000   1.0000   1.0000   1.0000   1.0000   1.0000   1.0000
     1.0000   1.0000   1.0000   1.0000   1.0000   1.0000   1.0000   1.0000
     1.0000   1.0000   1.0000   1.0000   1.0000   1.0000   1.0000   1.0000
     1.0000   1.0000   1.0000   1.0000   1.0000   1.0000   1.0000   1.0000
     1.0000   1.0000   1.0000   1.0000   1.0000   1.0000   1.0000   1.0000
     1.0000   1.0000   1.0000   1.0000   1.0000   1.0000   1.0000   1.0000
     1.0000   1.0000   1.0000   1.0000   1.0000   1.0000   1.0000   1.0000
     1.0000   1.0000   1.0000   1.0000   1.0000   1.0000   1.0000   1.0000
     1.0000   1.0000   1.0000   1.0000   1.0000   1.0000   1.0000   1.0000
     1.0000   1.0000   1.0000   1.0003   1.0005   1.0015   1.0023   1.0089
     1.0135   1.0178   1.0253   1.0473   1.0830   1.0766   1.0702   1.0592
     1.0480   0.8640   0.8096   0.7600   0.7087   0.6819   0.6418   0.5260
     0.4674   0.4632   0.4299   0.4173   0.3437   0.2741   0.1201   0.0842
     0.0755   0.0232   0.0099   0.0044   0.0041   0.0000   0.0000   0.0000
     0.0000   0.0000   0.0000   0.0000   0.0000   0.0000   0.0000   0.0000
     0.0000   0.0000   0.0000   0.0000   0.0000   0.0000   0.0000   0.0000
     0.0000

          k = 0.1250 0.2165 0.0000 ( 44571 PWs)   bands (ev):

   -12.2895 -12.0158 -11.3788 -10.7068 -10.7027 -10.6923 -10.6706 -10.6051
   -10.5972 -10.5761 -10.4549 -10.4232 -10.4220 -10.3588 -10.3353 -10.3289
   -10.2385 -10.2243 -10.1823 -10.1745 -10.0589 -10.0005  -9.9575  -9.9563
    -9.9439  -9.9022  -9.8289  -9.7670  -9.7376  -9.6276  -9.3998  -9.2900
    -9.2875  -8.9624  -8.8485  -8.7900  -8.7294  -8.6824  -8.6656  -8.5215
    -8.4968  -8.4482  -8.3792  -8.3024  -8.2658  -8.2552  -8.2252  -8.2068
    -8.1609  -8.1107  -8.1029  -8.0414  -8.0327  -8.0225  -8.0034  -7.9313
    -7.8826  -7.8707  -7.8596  -7.8447  -7.8070  -7.7825  -7.7626  -7.6694
    -7.6432  -7.6222  -7.5577  -7.5228  -7.5137  -7.4357  -7.3072  -7.1290
    -7.1042  -7.0871  -7.0308  -6.9159  -6.8918  -6.8489  -6.8296  -6.7950
    -6.7505  -6.5887  -6.5658  -6.5042  -6.4539  -6.3466  -6.2785  -6.2634
    -6.2486  -6.2302  -6.2029  -6.1576  -6.1013  -6.0916  -6.0037  -5.9019
    -5.8851  -5.8518  -5.8319  -5.8100  -5.6676  -5.6606  -5.6387  -5.5997
    -5.5893  -5.5478  -5.5401  -5.5272  -5.5152  -5.4909  -5.4500  -5.4209
    -5.4154  -5.3810  -5.3567  -5.3406  -5.3373  -5.3204  -5.2426  -5.2313
    -5.1664  -5.0593  -5.0518  -5.0241  -4.8308  -4.4271  -4.3667  -4.0780
    -3.8558  -3.7392  -3.5140  -3.4850  -2.8987  -2.6463  -2.5174  -2.3107
    -1.7413  -1.3149  -1.0200  -0.9573  -0.7277  -0.5227  -0.4102   0.5428
     0.7107

     occupation numbers 
     1.0000   1.0000   1.0000   1.0000   1.0000   1.0000   1.0000   1.0000
     1.0000   1.0000   1.0000   1.0000   1.0000   1.0000   1.0000   1.0000
     1.0000   1.0000   1.0000   1.0000   1.0000   1.0000   1.0000   1.0000
     1.0000   1.0000   1.0000   1.0000   1.0000   1.0000   1.0000   1.0000
     1.0000   1.0000   1.0000   1.0000   1.0000   1.0000   1.0000   1.0000
     1.0000   1.0000   1.0000   1.0000   1.0000   1.0000   1.0000   1.0000
     1.0000   1.0000   1.0000   1.0000   1.0000   1.0000   1.0000   1.0000
     1.0000   1.0000   1.0000   1.0000   1.0000   1.0000   1.0000   1.0000
     1.0000   1.0000   1.0000   1.0000   1.0000   1.0000   1.0000   1.0000
     1.0000   1.0000   1.0000   1.0000   1.0000   1.0000   1.0000   1.0000
     1.0000   1.0000   1.0000   1.0000   1.0000   1.0000   1.0000   1.0000
     1.0000   1.0000   1.0000   1.0000   1.0000   1.0000   1.0001   1.0009
     1.0014   1.0028   1.0042   1.0063   1.0476   1.0509   1.0611   1.0771
     1.0801   1.0815   1.0793   1.0734   1.0652   1.0397   0.9671   0.8925
     0.8764   0.7644   0.6765   0.6161   0.6035   0.5401   0.2774   0.2464
     0.1115   0.0196   0.0170   0.0098   0.0001   0.0000   0.0000   0.0000
     0.0000   0.0000   0.0000   0.0000   0.0000   0.0000   0.0000   0.0000
     0.0000   0.0000   0.0000   0.0000   0.0000   0.0000   0.0000   0.0000
     0.0000

          k = 0.1250 0.2887 0.0000 ( 44582 PWs)   bands (ev):

   -12.1142 -11.8481 -11.2044 -10.5983 -10.5724 -10.5700 -10.5573 -10.5197
   -10.4882 -10.4186 -10.3409 -10.3187 -10.3097 -10.2462 -10.2132 -10.1945
   -10.1314 -10.1048 -10.0659 -10.0522  -9.9230  -9.8791  -9.8666  -9.8513
    -9.8287  -9.7967  -9.7051  -9.6518  -9.6107  -9.4794  -9.3232  -9.2406
    -9.2268  -9.0131  -8.9040  -8.8297  -8.8127  -8.7926  -8.7508  -8.6379
    -8.5577  -8.4566  -8.4107  -8.3840  -8.3393  -8.2221  -8.2166  -8.2062
    -8.1542  -8.1111  -8.0932  -8.0757  -8.0381  -7.9896  -7.9580  -7.9522
    -7.9427  -7.9271  -7.8784  -7.8517  -7.8208  -7.7876  -7.7442  -7.7009
    -7.6478  -7.6097  -7.5316  -7.4809  -7.4412  -7.4146  -7.3931  -7.3417
    -7.3339  -7.3042  -7.2691  -7.0050  -6.9754  -6.9389  -6.8918  -6.8767
    -6.8468  -6.7732  -6.7002  -6.6491  -6.5666  -6.5380  -6.4639  -6.4192
    -6.4079  -6.3751  -6.3466  -6.3286  -6.3110  -6.2853  -6.1936  -6.1259
    -5.9751  -5.9639  -5.9527  -5.9156  -5.9060  -5.8748  -5.8488  -5.7984
    -5.7568  -5.7297  -5.6887  -5.6377  -5.6036  -5.5652  -5.5519  -5.4468
    -5.4250  -5.4131  -5.3878  -5.3811  -5.3706  -5.3554  -5.3327  -5.2448
    -5.1890  -5.1325  -5.0650  -5.0519  -4.8619  -4.6097  -4.4382  -4.2461
    -4.2013  -3.9049  -3.6370  -3.2767  -3.0152  -2.5784  -2.2528  -1.8730
    -1.5377  -1.3039  -1.0264  -0.8644  -0.4910  -0.0640   0.2179   0.4382
     0.7700

     occupation numbers 
     1.0000   1.0000   1.0000   1.0000   1.0000   1.0000   1.0000   1.0000
     1.0000   1.0000   1.0000   1.0000   1.0000   1.0000   1.0000   1.0000
     1.0000   1.0000   1.0000   1.0000   1.0000   1.0000   1.0000   1.0000
     1.0000   1.0000   1.0000   1.0000   1.0000   1.0000   1.0000   1.0000
     1.0000   1.0000   1.0000   1.0000   1.0000   1.0000   1.0000   1.0000
     1.0000   1.0000   1.0000   1.0000   1.0000   1.0000   1.0000   1.0000
     1.0000   1.0000   1.0000   1.0000   1.0000   1.0000   1.0000   1.0000
     1.0000   1.0000   1.0000   1.0000   1.0000   1.0000   1.0000   1.0000
     1.0000   1.0000   1.0000   1.0000   1.0000   1.0000   1.0000   1.0000
     1.0000   1.0000   1.0000   1.0000   1.0000   1.0000   1.0000   1.0000
     1.0000   1.0000   1.0000   1.0000   1.0000   1.0000   1.0000   1.0000
     1.0000   1.0000   1.0000   1.0000   1.0000   1.0000   1.0000   1.0000
     1.0001   1.0002   1.0003   1.0007   1.0009   1.0017   1.0030   1.0078
     1.0155   1.0230   1.0382   1.0616   1.0758   1.0833   1.0823   0.9598
     0.9041   0.8694   0.7878   0.7647   0.7273   0.6717   0.5862   0.2837
     0.1502   0.0681   0.0218   0.0170   0.0002   0.0000   0.0000   0.0000
     0.0000   0.0000   0.0000   0.0000   0.0000   0.0000   0.0000   0.0000
     0.0000   0.0000   0.0000   0.0000   0.0000   0.0000   0.0000   0.0000
     0.0000

          k = 0.1250 0.3608 0.0000 ( 44558 PWs)   bands (ev):

   -11.9268 -11.6356 -10.9996 -10.5430 -10.4750 -10.4300 -10.4190 -10.3638
   -10.3247 -10.2559 -10.2361 -10.1843 -10.1590 -10.1525 -10.0680 -10.0400
   -10.0242  -9.9652  -9.9161  -9.8846  -9.8027  -9.7717  -9.7445  -9.7180
    -9.6811  -9.6626  -9.5821  -9.5211  -9.4729  -9.3405  -9.2011  -9.1741
    -9.1446  -9.0673  -9.0106  -8.9379  -8.8913  -8.8481  -8.7841  -8.7637
    -8.6485  -8.5706  -8.4861  -8.4740  -8.3472  -8.3212  -8.3007  -8.2097
    -8.1877  -8.1763  -8.1436  -8.1176  -8.0790  -8.0210  -7.9823  -7.9449
    -7.9316  -7.9014  -7.8725  -7.8482  -7.8206  -7.7846  -7.7168  -7.6896
    -7.6799  -7.6640  -7.5753  -7.5551  -7.5288  -7.4916  -7.4519  -7.4098
    -7.3729  -7.2909  -7.2381  -7.1999  -7.1785  -7.0387  -6.9771  -6.9356
    -6.9179  -6.8856  -6.8729  -6.8447  -6.8090  -6.7405  -6.7244  -6.6960
    -6.6783  -6.5487  -6.4611  -6.4576  -6.4398  -6.4072  -6.2881  -6.2498
    -6.1956  -6.1736  -6.1611  -6.1332  -6.0874  -5.9888  -5.9637  -5.9299
    -5.8771  -5.8632  -5.8348  -5.8003  -5.7069  -5.6586  -5.6206  -5.5625
    -5.4733  -5.4416  -5.4073  -5.3888  -5.3774  -5.3404  -5.2585  -5.2368
    -5.2114  -5.2006  -5.1764  -5.0688  -5.0664  -5.0020  -4.7940  -4.2077
    -4.0826  -3.8703  -3.6235  -3.4270  -2.8248  -2.4701  -1.8828  -1.6744
    -1.5631  -1.2161  -0.9645  -0.7335  -0.1879   0.0798   0.5038   0.8165
     0.9462

     occupation numbers 
     1.0000   1.0000   1.0000   1.0000   1.0000   1.0000   1.0000   1.0000
     1.0000   1.0000   1.0000   1.0000   1.0000   1.0000   1.0000   1.0000
     1.0000   1.0000   1.0000   1.0000   1.0000   1.0000   1.0000   1.0000
     1.0000   1.0000   1.0000   1.0000   1.0000   1.0000   1.0000   1.0000
     1.0000   1.0000   1.0000   1.0000   1.0000   1.0000   1.0000   1.0000
     1.0000   1.0000   1.0000   1.0000   1.0000   1.0000   1.0000   1.0000
     1.0000   1.0000   1.0000   1.0000   1.0000   1.0000   1.0000   1.0000
     1.0000   1.0000   1.0000   1.0000   1.0000   1.0000   1.0000   1.0000
     1.0000   1.0000   1.0000   1.0000   1.0000   1.0000   1.0000   1.0000
     1.0000   1.0000   1.0000   1.0000   1.0000   1.0000   1.0000   1.0000
     1.0000   1.0000   1.0000   1.0000   1.0000   1.0000   1.0000   1.0000
     1.0000   1.0000   1.0000   1.0000   1.0000   1.0000   1.0000   1.0000
     1.0000   1.0000   1.0000   1.0000   1.0000   1.0001   1.0002   1.0005
     1.0016   1.0022   1.0040   1.0076   1.0309   1.0518   1.0692   1.0833
     1.0131   0.9473   0.8519   0.7913   0.7517   0.6154   0.3247   0.2612
     0.1972   0.1733   0.1276   0.0234   0.0224   0.0062   0.0000   0.0000
     0.0000   0.0000   0.0000   0.0000   0.0000   0.0000   0.0000   0.0000
     0.0000   0.0000   0.0000   0.0000   0.0000   0.0000   0.0000   0.0000
     0.0000

          k = 0.1250 0.4330 0.0000 ( 44545 PWs)   bands (ev):

   -11.7604 -11.3819 -10.7849 -10.5562 -10.3562 -10.2929 -10.2662 -10.2237
   -10.2178 -10.1694 -10.0801 -10.0479 -10.0298 -10.0110  -9.9545  -9.9021
    -9.8457  -9.7842  -9.7798  -9.7361  -9.7006  -9.6562  -9.6458  -9.5849
    -9.5385  -9.5191  -9.4711  -9.3859  -9.3648  -9.2015  -9.1617  -9.1209
    -9.1018  -9.0714  -9.0329  -8.9652  -8.9376  -8.9272  -8.8978  -8.8234
    -8.7269  -8.6401  -8.5955  -8.5318  -8.4720  -8.4687  -8.4226  -8.3158
    -8.2854  -8.2123  -8.1850  -8.1491  -8.0749  -8.0492  -8.0283  -8.0072
    -7.9646  -7.9091  -7.8996  -7.8786  -7.8607  -7.8293  -7.8100  -7.7804
    -7.7652  -7.7011  -7.6614  -7.5295  -7.4935  -7.4798  -7.4509  -7.4110
    -7.3591  -7.3563  -7.2689  -7.2465  -7.2112  -7.1318  -7.1101  -7.0855
    -7.0774  -7.0357  -7.0273  -6.9722  -6.9471  -6.9083  -6.8414  -6.8163
    -6.7846  -6.7020  -6.6057  -6.5732  -6.5675  -6.5450  -6.4483  -6.3821
    -6.3373  -6.3320  -6.3070  -6.2176  -6.1835  -6.1754  -6.1259  -6.0355
    -6.0228  -5.9691  -5.9523  -5.9040  -5.8007  -5.7386  -5.7178  -5.6142
    -5.6019  -5.4921  -5.4426  -5.4171  -5.4010  -5.3714  -5.3444  -5.3340
    -5.2474  -5.2342  -5.2269  -5.2100  -5.0754  -5.0690  -4.9685  -4.1013
    -3.9814  -3.8107  -3.7058  -3.4486  -2.6081  -2.2579  -2.1449  -1.4474
    -1.2561  -1.0633  -0.8964  -0.6070  -0.3690   0.1831   0.8130   1.0717
     1.2110

     occupation numbers 
     1.0000   1.0000   1.0000   1.0000   1.0000   1.0000   1.0000   1.0000
     1.0000   1.0000   1.0000   1.0000   1.0000   1.0000   1.0000   1.0000
     1.0000   1.0000   1.0000   1.0000   1.0000   1.0000   1.0000   1.0000
     1.0000   1.0000   1.0000   1.0000   1.0000   1.0000   1.0000   1.0000
     1.0000   1.0000   1.0000   1.0000   1.0000   1.0000   1.0000   1.0000
     1.0000   1.0000   1.0000   1.0000   1.0000   1.0000   1.0000   1.0000
     1.0000   1.0000   1.0000   1.0000   1.0000   1.0000   1.0000   1.0000
     1.0000   1.0000   1.0000   1.0000   1.0000   1.0000   1.0000   1.0000
     1.0000   1.0000   1.0000   1.0000   1.0000   1.0000   1.0000   1.0000
     1.0000   1.0000   1.0000   1.0000   1.0000   1.0000   1.0000   1.0000
     1.0000   1.0000   1.0000   1.0000   1.0000   1.0000   1.0000   1.0000
     1.0000   1.0000   1.0000   1.0000   1.0000   1.0000   1.0000   1.0000
     1.0000   1.0000   1.0000   1.0000   1.0000   1.0000   1.0000   1.0000
     1.0000   1.0002   1.0003   1.0009   1.0075   1.0203   1.0269   1.0718
     1.0764   1.0413   0.9498   0.8815   0.8319   0.7303   0.6303   0.5911
     0.2913   0.2541   0.2348   0.1940   0.0263   0.0235   0.0029   0.0000
     0.0000   0.0000   0.0000   0.0000   0.0000   0.0000   0.0000   0.0000
     0.0000   0.0000   0.0000   0.0000   0.0000   0.0000   0.0000   0.0000
     0.0000

          k = 0.1250-0.6495 0.0000 ( 44477 PWs)   bands (ev):

   -11.6448 -11.1064 -10.6529 -10.5855 -10.3351 -10.1800 -10.1531 -10.1397
   -10.1073 -10.0907  -9.9881  -9.9551  -9.9203  -9.8983  -9.8219  -9.8135
    -9.7289  -9.6506  -9.6367  -9.6240  -9.6145  -9.5866  -9.5381  -9.4435
    -9.4318  -9.4014  -9.3520  -9.3275  -9.2590  -9.2338  -9.1595  -9.1251
    -9.1112  -9.0863  -9.0328  -9.0020  -8.9246  -8.9014  -8.8731  -8.8610
    -8.8108  -8.6827  -8.6745  -8.6217  -8.5754  -8.5633  -8.4838  -8.4036
    -8.3431  -8.3155  -8.3052  -8.2064  -8.1647  -8.1366  -8.0585  -8.0175
    -8.0010  -7.9655  -7.9492  -7.9135  -7.8802  -7.8279  -7.8043  -7.7802
    -7.7234  -7.7072  -7.6506  -7.6331  -7.6063  -7.5744  -7.5263  -7.5004
    -7.4606  -7.3940  -7.3460  -7.3119  -7.2668  -7.2350  -7.2081  -7.1745
    -7.1510  -7.0861  -7.0155  -6.9530  -6.9368  -6.8940  -6.8776  -6.8150
    -6.8053  -6.7110  -6.6912  -6.6696  -6.6535  -6.6058  -6.5464  -6.5062
    -6.4862  -6.4181  -6.3733  -6.3583  -6.3128  -6.2184  -6.1790  -6.1305
    -6.1113  -6.0852  -6.0453  -5.9945  -5.9647  -5.7951  -5.7728  -5.7488
    -5.7261  -5.6151  -5.5749  -5.4432  -5.4373  -5.3967  -5.3385  -5.3175
    -5.3058  -5.2725  -5.2493  -5.2416  -5.0782  -5.0691  -4.7738  -4.2492
    -3.9550  -3.8446  -3.5306  -3.3136  -2.6867  -2.3664  -1.8596  -1.3905
    -1.1604  -0.9358  -0.7781  -0.5626  -0.4393   0.3669   0.6257   0.8755
     1.5282

     occupation numbers 
     1.0000   1.0000   1.0000   1.0000   1.0000   1.0000   1.0000   1.0000
     1.0000   1.0000   1.0000   1.0000   1.0000   1.0000   1.0000   1.0000
     1.0000   1.0000   1.0000   1.0000   1.0000   1.0000   1.0000   1.0000
     1.0000   1.0000   1.0000   1.0000   1.0000   1.0000   1.0000   1.0000
     1.0000   1.0000   1.0000   1.0000   1.0000   1.0000   1.0000   1.0000
     1.0000   1.0000   1.0000   1.0000   1.0000   1.0000   1.0000   1.0000
     1.0000   1.0000   1.0000   1.0000   1.0000   1.0000   1.0000   1.0000
     1.0000   1.0000   1.0000   1.0000   1.0000   1.0000   1.0000   1.0000
     1.0000   1.0000   1.0000   1.0000   1.0000   1.0000   1.0000   1.0000
     1.0000   1.0000   1.0000   1.0000   1.0000   1.0000   1.0000   1.0000
     1.0000   1.0000   1.0000   1.0000   1.0000   1.0000   1.0000   1.0000
     1.0000   1.0000   1.0000   1.0000   1.0000   1.0000   1.0000   1.0000
     1.0000   1.0000   1.0000   1.0000   1.0000   1.0000   1.0000   1.0000
     1.0000   1.0000   1.0000   1.0001   1.0002   1.0083   1.0121   1.0175
     1.0241   1.0715   1.0827   0.9514   0.9368   0.8178   0.6081   0.5292
     0.4860   0.3695   0.2968   0.2746   0.0277   0.0235   0.0000   0.0000
     0.0000   0.0000   0.0000   0.0000   0.0000   0.0000   0.0000   0.0000
     0.0000   0.0000   0.0000   0.0000   0.0000   0.0000   0.0000   0.0000
     0.0000

          k = 0.1250-0.5774 0.0000 ( 44554 PWs)   bands (ev):

   -11.6031 -10.8521 -10.8409 -10.4461 -10.4186 -10.1124 -10.0992 -10.0759
   -10.0702 -10.0318 -10.0193  -9.9416  -9.8878  -9.8511  -9.7909  -9.6929
    -9.6834  -9.6796  -9.6464  -9.5746  -9.5127  -9.4620  -9.4529  -9.4428
    -9.3433  -9.3407  -9.3344  -9.3232  -9.3163  -9.2112  -9.1615  -9.1342
    -9.1130  -9.0948  -9.0344  -8.9749  -8.9619  -8.9296  -8.8471  -8.8406
    -8.8308  -8.8157  -8.6906  -8.5994  -8.5985  -8.5185  -8.4808  -8.4703
    -8.4240  -8.4079  -8.4022  -8.1753  -8.1581  -8.1188  -8.1026  -8.0807
    -7.9766  -7.9649  -7.9532  -7.8804  -7.8634  -7.8400  -7.8215  -7.7774
    -7.7352  -7.7098  -7.6799  -7.6569  -7.6450  -7.6320  -7.5790  -7.5646
    -7.5401  -7.4808  -7.4589  -7.4547  -7.2396  -7.2150  -7.1908  -7.0739
    -7.0674  -7.0498  -7.0382  -7.0058  -7.0012  -6.9291  -6.8734  -6.8516
    -6.7321  -6.7068  -6.6838  -6.6710  -6.6209  -6.6013  -6.5958  -6.5537
    -6.5210  -6.4506  -6.4184  -6.3986  -6.3490  -6.3172  -6.2266  -6.1939
    -6.1846  -6.0818  -6.0175  -5.9843  -5.9697  -5.9472  -5.9338  -5.7746
    -5.7365  -5.6720  -5.5532  -5.4892  -5.4427  -5.4027  -5.3174  -5.3042
    -5.2948  -5.2786  -5.2666  -5.2562  -5.0786  -5.0688  -4.6154  -4.4201
    -3.9352  -3.8454  -3.4858  -3.0967  -2.9147  -2.3811  -1.5956  -1.3545
    -1.2604  -1.0246  -0.8394  -0.4601  -0.0273   0.0863   0.4848   0.8725
     1.7023

     occupation numbers 
     1.0000   1.0000   1.0000   1.0000   1.0000   1.0000   1.0000   1.0000
     1.0000   1.0000   1.0000   1.0000   1.0000   1.0000   1.0000   1.0000
     1.0000   1.0000   1.0000   1.0000   1.0000   1.0000   1.0000   1.0000
     1.0000   1.0000   1.0000   1.0000   1.0000   1.0000   1.0000   1.0000
     1.0000   1.0000   1.0000   1.0000   1.0000   1.0000   1.0000   1.0000
     1.0000   1.0000   1.0000   1.0000   1.0000   1.0000   1.0000   1.0000
     1.0000   1.0000   1.0000   1.0000   1.0000   1.0000   1.0000   1.0000
     1.0000   1.0000   1.0000   1.0000   1.0000   1.0000   1.0000   1.0000
     1.0000   1.0000   1.0000   1.0000   1.0000   1.0000   1.0000   1.0000
     1.0000   1.0000   1.0000   1.0000   1.0000   1.0000   1.0000   1.0000
     1.0000   1.0000   1.0000   1.0000   1.0000   1.0000   1.0000   1.0000
     1.0000   1.0000   1.0000   1.0000   1.0000   1.0000   1.0000   1.0000
     1.0000   1.0000   1.0000   1.0000   1.0000   1.0000   1.0000   1.0000
     1.0000   1.0000   1.0000   1.0001   1.0002   1.0003   1.0004   1.0117
     1.0209   1.0456   1.0825   1.0374   0.9500   0.8372   0.5287   0.4803
     0.4463   0.3899   0.3503   0.3176   0.0279   0.0234   0.0000   0.0000
     0.0000   0.0000   0.0000   0.0000   0.0000   0.0000   0.0000   0.0000
     0.0000   0.0000   0.0000   0.0000   0.0000   0.0000   0.0000   0.0000
     0.0000

          k = 0.1250-0.5052 0.0000 ( 44477 PWs)   bands (ev):

   -11.6448 -11.1064 -10.6529 -10.5855 -10.3351 -10.1800 -10.1531 -10.1397
   -10.1073 -10.0907  -9.9881  -9.9551  -9.9203  -9.8983  -9.8219  -9.8135
    -9.7289  -9.6506  -9.6367  -9.6240  -9.6145  -9.5866  -9.5381  -9.4435
    -9.4318  -9.4014  -9.3520  -9.3275  -9.2590  -9.2338  -9.1595  -9.1251
    -9.1112  -9.0863  -9.0328  -9.0020  -8.9246  -8.9014  -8.8731  -8.8610
    -8.8108  -8.6827  -8.6745  -8.6217  -8.5754  -8.5633  -8.4838  -8.4036
    -8.3431  -8.3155  -8.3052  -8.2064  -8.1647  -8.1366  -8.0585  -8.0175
    -8.0010  -7.9655  -7.9492  -7.9135  -7.8802  -7.8279  -7.8043  -7.7802
    -7.7234  -7.7072  -7.6506  -7.6331  -7.6063  -7.5744  -7.5263  -7.5004
    -7.4606  -7.3940  -7.3460  -7.3119  -7.2668  -7.2350  -7.2081  -7.1745
    -7.1510  -7.0861  -7.0155  -6.9530  -6.9368  -6.8940  -6.8776  -6.8150
    -6.8053  -6.7110  -6.6912  -6.6696  -6.6535  -6.6058  -6.5464  -6.5062
    -6.4862  -6.4181  -6.3733  -6.3583  -6.3128  -6.2184  -6.1790  -6.1305
    -6.1113  -6.0852  -6.0453  -5.9945  -5.9647  -5.7951  -5.7728  -5.7488
    -5.7261  -5.6151  -5.5749  -5.4432  -5.4373  -5.3967  -5.3385  -5.3175
    -5.3058  -5.2725  -5.2493  -5.2416  -5.0782  -5.0691  -4.7738  -4.2492
    -3.9550  -3.8446  -3.5306  -3.3136  -2.6867  -2.3664  -1.8596  -1.3905
    -1.1604  -0.9358  -0.7781  -0.5626  -0.4393   0.3669   0.6257   0.8755
     1.5282

     occupation numbers 
     1.0000   1.0000   1.0000   1.0000   1.0000   1.0000   1.0000   1.0000
     1.0000   1.0000   1.0000   1.0000   1.0000   1.0000   1.0000   1.0000
     1.0000   1.0000   1.0000   1.0000   1.0000   1.0000   1.0000   1.0000
     1.0000   1.0000   1.0000   1.0000   1.0000   1.0000   1.0000   1.0000
     1.0000   1.0000   1.0000   1.0000   1.0000   1.0000   1.0000   1.0000
     1.0000   1.0000   1.0000   1.0000   1.0000   1.0000   1.0000   1.0000
     1.0000   1.0000   1.0000   1.0000   1.0000   1.0000   1.0000   1.0000
     1.0000   1.0000   1.0000   1.0000   1.0000   1.0000   1.0000   1.0000
     1.0000   1.0000   1.0000   1.0000   1.0000   1.0000   1.0000   1.0000
     1.0000   1.0000   1.0000   1.0000   1.0000   1.0000   1.0000   1.0000
     1.0000   1.0000   1.0000   1.0000   1.0000   1.0000   1.0000   1.0000
     1.0000   1.0000   1.0000   1.0000   1.0000   1.0000   1.0000   1.0000
     1.0000   1.0000   1.0000   1.0000   1.0000   1.0000   1.0000   1.0000
     1.0000   1.0000   1.0000   1.0001   1.0002   1.0083   1.0121   1.0175
     1.0241   1.0715   1.0827   0.9514   0.9368   0.8178   0.6081   0.5292
     0.4860   0.3695   0.2968   0.2746   0.0277   0.0235   0.0000   0.0000
     0.0000   0.0000   0.0000   0.0000   0.0000   0.0000   0.0000   0.0000
     0.0000   0.0000   0.0000   0.0000   0.0000   0.0000   0.0000   0.0000
     0.0000

          k = 0.1250-0.4330 0.0000 ( 44545 PWs)   bands (ev):

   -11.7604 -11.3819 -10.7849 -10.5562 -10.3562 -10.2929 -10.2662 -10.2237
   -10.2178 -10.1694 -10.0801 -10.0479 -10.0298 -10.0110  -9.9545  -9.9021
    -9.8457  -9.7842  -9.7798  -9.7361  -9.7006  -9.6562  -9.6458  -9.5849
    -9.5385  -9.5191  -9.4711  -9.3859  -9.3648  -9.2015  -9.1617  -9.1209
    -9.1018  -9.0714  -9.0329  -8.9652  -8.9376  -8.9272  -8.8978  -8.8234
    -8.7269  -8.6401  -8.5955  -8.5318  -8.4720  -8.4687  -8.4226  -8.3158
    -8.2854  -8.2123  -8.1850  -8.1491  -8.0749  -8.0492  -8.0283  -8.0072
    -7.9646  -7.9091  -7.8996  -7.8786  -7.8607  -7.8293  -7.8100  -7.7804
    -7.7652  -7.7011  -7.6614  -7.5295  -7.4935  -7.4798  -7.4509  -7.4110
    -7.3591  -7.3563  -7.2689  -7.2465  -7.2112  -7.1318  -7.1101  -7.0855
    -7.0774  -7.0357  -7.0273  -6.9722  -6.9471  -6.9083  -6.8414  -6.8163
    -6.7846  -6.7020  -6.6057  -6.5732  -6.5675  -6.5450  -6.4483  -6.3821
    -6.3373  -6.3320  -6.3070  -6.2176  -6.1835  -6.1754  -6.1259  -6.0355
    -6.0228  -5.9691  -5.9523  -5.9040  -5.8007  -5.7386  -5.7178  -5.6142
    -5.6019  -5.4921  -5.4426  -5.4171  -5.4010  -5.3714  -5.3444  -5.3340
    -5.2474  -5.2342  -5.2269  -5.2100  -5.0754  -5.0690  -4.9685  -4.1013
    -3.9814  -3.8107  -3.7058  -3.4486  -2.6081  -2.2579  -2.1449  -1.4474
    -1.2561  -1.0633  -0.8964  -0.6070  -0.3690   0.1831   0.8130   1.0717
     1.2110

     occupation numbers 
     1.0000   1.0000   1.0000   1.0000   1.0000   1.0000   1.0000   1.0000
     1.0000   1.0000   1.0000   1.0000   1.0000   1.0000   1.0000   1.0000
     1.0000   1.0000   1.0000   1.0000   1.0000   1.0000   1.0000   1.0000
     1.0000   1.0000   1.0000   1.0000   1.0000   1.0000   1.0000   1.0000
     1.0000   1.0000   1.0000   1.0000   1.0000   1.0000   1.0000   1.0000
     1.0000   1.0000   1.0000   1.0000   1.0000   1.0000   1.0000   1.0000
     1.0000   1.0000   1.0000   1.0000   1.0000   1.0000   1.0000   1.0000
     1.0000   1.0000   1.0000   1.0000   1.0000   1.0000   1.0000   1.0000
     1.0000   1.0000   1.0000   1.0000   1.0000   1.0000   1.0000   1.0000
     1.0000   1.0000   1.0000   1.0000   1.0000   1.0000   1.0000   1.0000
     1.0000   1.0000   1.0000   1.0000   1.0000   1.0000   1.0000   1.0000
     1.0000   1.0000   1.0000   1.0000   1.0000   1.0000   1.0000   1.0000
     1.0000   1.0000   1.0000   1.0000   1.0000   1.0000   1.0000   1.0000
     1.0000   1.0002   1.0003   1.0009   1.0075   1.0203   1.0269   1.0718
     1.0764   1.0413   0.9498   0.8815   0.8319   0.7303   0.6303   0.5911
     0.2913   0.2541   0.2348   0.1940   0.0263   0.0235   0.0029   0.0000
     0.0000   0.0000   0.0000   0.0000   0.0000   0.0000   0.0000   0.0000
     0.0000   0.0000   0.0000   0.0000   0.0000   0.0000   0.0000   0.0000
     0.0000

          k = 0.1250-0.3608 0.0000 ( 44558 PWs)   bands (ev):

   -11.9268 -11.6356 -10.9996 -10.5430 -10.4750 -10.4300 -10.4190 -10.3638
   -10.3247 -10.2559 -10.2361 -10.1843 -10.1590 -10.1525 -10.0680 -10.0400
   -10.0242  -9.9652  -9.9161  -9.8846  -9.8027  -9.7717  -9.7445  -9.7180
    -9.6811  -9.6626  -9.5821  -9.5211  -9.4729  -9.3405  -9.2011  -9.1741
    -9.1446  -9.0673  -9.0106  -8.9379  -8.8913  -8.8481  -8.7841  -8.7637
    -8.6485  -8.5706  -8.4861  -8.4740  -8.3472  -8.3212  -8.3007  -8.2097
    -8.1877  -8.1763  -8.1436  -8.1176  -8.0790  -8.0210  -7.9823  -7.9449
    -7.9316  -7.9014  -7.8725  -7.8482  -7.8206  -7.7846  -7.7168  -7.6896
    -7.6799  -7.6640  -7.5753  -7.5551  -7.5288  -7.4916  -7.4519  -7.4098
    -7.3729  -7.2909  -7.2381  -7.1999  -7.1785  -7.0387  -6.9771  -6.9356
    -6.9179  -6.8856  -6.8729  -6.8447  -6.8090  -6.7405  -6.7244  -6.6960
    -6.6783  -6.5487  -6.4611  -6.4576  -6.4398  -6.4072  -6.2881  -6.2498
    -6.1956  -6.1736  -6.1611  -6.1332  -6.0874  -5.9888  -5.9637  -5.9299
    -5.8771  -5.8632  -5.8348  -5.8003  -5.7069  -5.6586  -5.6206  -5.5625
    -5.4733  -5.4416  -5.4073  -5.3888  -5.3774  -5.3404  -5.2585  -5.2368
    -5.2114  -5.2006  -5.1764  -5.0688  -5.0664  -5.0020  -4.7940  -4.2077
    -4.0826  -3.8703  -3.6235  -3.4270  -2.8248  -2.4701  -1.8828  -1.6744
    -1.5631  -1.2161  -0.9645  -0.7335  -0.1879   0.0798   0.5038   0.8165
     0.9462

     occupation numbers 
     1.0000   1.0000   1.0000   1.0000   1.0000   1.0000   1.0000   1.0000
     1.0000   1.0000   1.0000   1.0000   1.0000   1.0000   1.0000   1.0000
     1.0000   1.0000   1.0000   1.0000   1.0000   1.0000   1.0000   1.0000
     1.0000   1.0000   1.0000   1.0000   1.0000   1.0000   1.0000   1.0000
     1.0000   1.0000   1.0000   1.0000   1.0000   1.0000   1.0000   1.0000
     1.0000   1.0000   1.0000   1.0000   1.0000   1.0000   1.0000   1.0000
     1.0000   1.0000   1.0000   1.0000   1.0000   1.0000   1.0000   1.0000
     1.0000   1.0000   1.0000   1.0000   1.0000   1.0000   1.0000   1.0000
     1.0000   1.0000   1.0000   1.0000   1.0000   1.0000   1.0000   1.0000
     1.0000   1.0000   1.0000   1.0000   1.0000   1.0000   1.0000   1.0000
     1.0000   1.0000   1.0000   1.0000   1.0000   1.0000   1.0000   1.0000
     1.0000   1.0000   1.0000   1.0000   1.0000   1.0000   1.0000   1.0000
     1.0000   1.0000   1.0000   1.0000   1.0000   1.0001   1.0002   1.0005
     1.0016   1.0022   1.0040   1.0076   1.0309   1.0518   1.0692   1.0833
     1.0131   0.9473   0.8519   0.7913   0.7517   0.6154   0.3247   0.2612
     0.1972   0.1733   0.1276   0.0234   0.0224   0.0062   0.0000   0.0000
     0.0000   0.0000   0.0000   0.0000   0.0000   0.0000   0.0000   0.0000
     0.0000   0.0000   0.0000   0.0000   0.0000   0.0000   0.0000   0.0000
     0.0000

          k = 0.1250-0.2887 0.0000 ( 44582 PWs)   bands (ev):

   -12.1142 -11.8481 -11.2044 -10.5983 -10.5724 -10.5700 -10.5573 -10.5197
   -10.4882 -10.4186 -10.3409 -10.3187 -10.3097 -10.2462 -10.2132 -10.1945
   -10.1314 -10.1048 -10.0659 -10.0522  -9.9230  -9.8791  -9.8666  -9.8513
    -9.8287  -9.7967  -9.7051  -9.6518  -9.6107  -9.4794  -9.3232  -9.2406
    -9.2268  -9.0131  -8.9040  -8.8297  -8.8127  -8.7926  -8.7508  -8.6379
    -8.5577  -8.4566  -8.4107  -8.3840  -8.3393  -8.2221  -8.2166  -8.2062
    -8.1542  -8.1111  -8.0932  -8.0757  -8.0381  -7.9896  -7.9580  -7.9522
    -7.9427  -7.9271  -7.8784  -7.8517  -7.8208  -7.7876  -7.7442  -7.7009
    -7.6478  -7.6097  -7.5316  -7.4809  -7.4412  -7.4146  -7.3931  -7.3417
    -7.3339  -7.3042  -7.2691  -7.0050  -6.9754  -6.9389  -6.8918  -6.8767
    -6.8468  -6.7732  -6.7002  -6.6491  -6.5666  -6.5380  -6.4639  -6.4192
    -6.4079  -6.3751  -6.3466  -6.3286  -6.3110  -6.2853  -6.1936  -6.1259
    -5.9751  -5.9639  -5.9527  -5.9156  -5.9060  -5.8748  -5.8488  -5.7984
    -5.7568  -5.7297  -5.6887  -5.6377  -5.6036  -5.5652  -5.5519  -5.4468
    -5.4250  -5.4131  -5.3878  -5.3811  -5.3706  -5.3554  -5.3327  -5.2448
    -5.1890  -5.1325  -5.0650  -5.0519  -4.8619  -4.6097  -4.4382  -4.2461
    -4.2013  -3.9049  -3.6370  -3.2767  -3.0152  -2.5784  -2.2528  -1.8730
    -1.5377  -1.3039  -1.0264  -0.8644  -0.4910  -0.0640   0.2179   0.4382
     0.7700

     occupation numbers 
     1.0000   1.0000   1.0000   1.0000   1.0000   1.0000   1.0000   1.0000
     1.0000   1.0000   1.0000   1.0000   1.0000   1.0000   1.0000   1.0000
     1.0000   1.0000   1.0000   1.0000   1.0000   1.0000   1.0000   1.0000
     1.0000   1.0000   1.0000   1.0000   1.0000   1.0000   1.0000   1.0000
     1.0000   1.0000   1.0000   1.0000   1.0000   1.0000   1.0000   1.0000
     1.0000   1.0000   1.0000   1.0000   1.0000   1.0000   1.0000   1.0000
     1.0000   1.0000   1.0000   1.0000   1.0000   1.0000   1.0000   1.0000
     1.0000   1.0000   1.0000   1.0000   1.0000   1.0000   1.0000   1.0000
     1.0000   1.0000   1.0000   1.0000   1.0000   1.0000   1.0000   1.0000
     1.0000   1.0000   1.0000   1.0000   1.0000   1.0000   1.0000   1.0000
     1.0000   1.0000   1.0000   1.0000   1.0000   1.0000   1.0000   1.0000
     1.0000   1.0000   1.0000   1.0000   1.0000   1.0000   1.0000   1.0000
     1.0001   1.0002   1.0003   1.0007   1.0009   1.0017   1.0030   1.0078
     1.0155   1.0230   1.0382   1.0616   1.0758   1.0833   1.0823   0.9598
     0.9041   0.8694   0.7878   0.7647   0.7273   0.6717   0.5862   0.2837
     0.1502   0.0681   0.0218   0.0170   0.0002   0.0000   0.0000   0.0000
     0.0000   0.0000   0.0000   0.0000   0.0000   0.0000   0.0000   0.0000
     0.0000   0.0000   0.0000   0.0000   0.0000   0.0000   0.0000   0.0000
     0.0000

          k = 0.1250-0.2165 0.0000 ( 44571 PWs)   bands (ev):

   -12.2895 -12.0158 -11.3788 -10.7068 -10.7027 -10.6923 -10.6706 -10.6051
   -10.5972 -10.5761 -10.4549 -10.4232 -10.4220 -10.3588 -10.3353 -10.3289
   -10.2385 -10.2243 -10.1823 -10.1745 -10.0589 -10.0005  -9.9575  -9.9563
    -9.9439  -9.9022  -9.8289  -9.7670  -9.7376  -9.6276  -9.3998  -9.2900
    -9.2875  -8.9624  -8.8485  -8.7900  -8.7294  -8.6824  -8.6656  -8.5215
    -8.4968  -8.4482  -8.3792  -8.3024  -8.2658  -8.2552  -8.2252  -8.2068
    -8.1609  -8.1107  -8.1029  -8.0414  -8.0327  -8.0225  -8.0034  -7.9313
    -7.8826  -7.8707  -7.8596  -7.8447  -7.8070  -7.7825  -7.7626  -7.6694
    -7.6432  -7.6222  -7.5577  -7.5228  -7.5137  -7.4357  -7.3072  -7.1290
    -7.1042  -7.0871  -7.0308  -6.9159  -6.8918  -6.8489  -6.8296  -6.7950
    -6.7505  -6.5887  -6.5658  -6.5042  -6.4539  -6.3466  -6.2785  -6.2634
    -6.2486  -6.2302  -6.2029  -6.1576  -6.1013  -6.0916  -6.0037  -5.9019
    -5.8851  -5.8518  -5.8319  -5.8100  -5.6676  -5.6606  -5.6387  -5.5997
    -5.5893  -5.5478  -5.5401  -5.5272  -5.5152  -5.4909  -5.4500  -5.4209
    -5.4154  -5.3810  -5.3567  -5.3406  -5.3373  -5.3204  -5.2426  -5.2313
    -5.1664  -5.0593  -5.0518  -5.0241  -4.8308  -4.4271  -4.3667  -4.0780
    -3.8558  -3.7392  -3.5140  -3.4850  -2.8987  -2.6463  -2.5174  -2.3107
    -1.7413  -1.3149  -1.0200  -0.9573  -0.7277  -0.5227  -0.4102   0.5428
     0.7107

     occupation numbers 
     1.0000   1.0000   1.0000   1.0000   1.0000   1.0000   1.0000   1.0000
     1.0000   1.0000   1.0000   1.0000   1.0000   1.0000   1.0000   1.0000
     1.0000   1.0000   1.0000   1.0000   1.0000   1.0000   1.0000   1.0000
     1.0000   1.0000   1.0000   1.0000   1.0000   1.0000   1.0000   1.0000
     1.0000   1.0000   1.0000   1.0000   1.0000   1.0000   1.0000   1.0000
     1.0000   1.0000   1.0000   1.0000   1.0000   1.0000   1.0000   1.0000
     1.0000   1.0000   1.0000   1.0000   1.0000   1.0000   1.0000   1.0000
     1.0000   1.0000   1.0000   1.0000   1.0000   1.0000   1.0000   1.0000
     1.0000   1.0000   1.0000   1.0000   1.0000   1.0000   1.0000   1.0000
     1.0000   1.0000   1.0000   1.0000   1.0000   1.0000   1.0000   1.0000
     1.0000   1.0000   1.0000   1.0000   1.0000   1.0000   1.0000   1.0000
     1.0000   1.0000   1.0000   1.0000   1.0000   1.0000   1.0001   1.0009
     1.0014   1.0028   1.0042   1.0063   1.0476   1.0509   1.0611   1.0771
     1.0801   1.0815   1.0793   1.0734   1.0652   1.0397   0.9671   0.8925
     0.8764   0.7644   0.6765   0.6161   0.6035   0.5401   0.2774   0.2464
     0.1115   0.0196   0.0170   0.0098   0.0001   0.0000   0.0000   0.0000
     0.0000   0.0000   0.0000   0.0000   0.0000   0.0000   0.0000   0.0000
     0.0000   0.0000   0.0000   0.0000   0.0000   0.0000   0.0000   0.0000
     0.0000

          k = 0.1250-0.1443 0.0000 ( 44578 PWs)   bands (ev):

   -12.4275 -12.1386 -11.5102 -10.8299 -10.7975 -10.7817 -10.7645 -10.6975
   -10.6757 -10.6352 -10.5731 -10.4969 -10.4856 -10.4625 -10.4286 -10.3986
   -10.3557 -10.3499 -10.2646 -10.2208 -10.1665 -10.1237 -10.0265 -10.0236
   -10.0202  -9.9764  -9.9311  -9.8650  -9.8154  -9.7557  -9.4465  -9.3338
    -9.3263  -8.9353  -8.8182  -8.7772  -8.6450  -8.5854  -8.5570  -8.5253
    -8.4648  -8.4283  -8.3233  -8.3094  -8.2760  -8.2691  -8.2228  -8.1824
    -8.1541  -8.1440  -8.1386  -8.1368  -8.0990  -7.9928  -7.9736  -7.9450
    -7.8809  -7.8721  -7.8474  -7.8260  -7.7746  -7.7485  -7.7167  -7.6623
    -7.6179  -7.5930  -7.5553  -7.5281  -7.4891  -7.3856  -7.1659  -7.0145
    -6.9749  -6.9666  -6.8414  -6.8234  -6.8043  -6.7653  -6.7546  -6.7381
    -6.5815  -6.5160  -6.4772  -6.4591  -6.3601  -6.2740  -6.2114  -6.1943
    -6.1655  -6.1071  -6.0184  -5.9520  -5.9257  -5.8799  -5.8615  -5.7907
    -5.7660  -5.7476  -5.7225  -5.6682  -5.5570  -5.5334  -5.5220  -5.5083
    -5.4976  -5.4113  -5.3942  -5.3798  -5.3655  -5.3582  -5.3474  -5.3166
    -5.3007  -5.2995  -5.2902  -5.2866  -5.2646  -5.2415  -5.1719  -5.1466
    -5.1392  -5.0685  -5.0245  -4.9867  -4.9839  -4.5511  -4.2358  -3.8520
    -3.7716  -3.4964  -3.2938  -3.1686  -2.9210  -2.8290  -2.6434  -2.2536
    -2.0929  -1.5942  -1.2912  -1.0953  -0.8959  -0.8070  -0.5104   0.3179
     0.4620

     occupation numbers 
     1.0000   1.0000   1.0000   1.0000   1.0000   1.0000   1.0000   1.0000
     1.0000   1.0000   1.0000   1.0000   1.0000   1.0000   1.0000   1.0000
     1.0000   1.0000   1.0000   1.0000   1.0000   1.0000   1.0000   1.0000
     1.0000   1.0000   1.0000   1.0000   1.0000   1.0000   1.0000   1.0000
     1.0000   1.0000   1.0000   1.0000   1.0000   1.0000   1.0000   1.0000
     1.0000   1.0000   1.0000   1.0000   1.0000   1.0000   1.0000   1.0000
     1.0000   1.0000   1.0000   1.0000   1.0000   1.0000   1.0000   1.0000
     1.0000   1.0000   1.0000   1.0000   1.0000   1.0000   1.0000   1.0000
     1.0000   1.0000   1.0000   1.0000   1.0000   1.0000   1.0000   1.0000
     1.0000   1.0000   1.0000   1.0000   1.0000   1.0000   1.0000   1.0000
     1.0000   1.0000   1.0000   1.0000   1.0000   1.0000   1.0000   1.0000
     1.0000   1.0000   1.0000   1.0003   1.0005   1.0015   1.0023   1.0089
     1.0135   1.0178   1.0253   1.0473   1.0830   1.0766   1.0702   1.0592
     1.0480   0.8640   0.8096   0.7600   0.7087   0.6819   0.6418   0.5260
     0.4674   0.4632   0.4299   0.4173   0.3437   0.2741   0.1201   0.0842
     0.0755   0.0232   0.0099   0.0044   0.0041   0.0000   0.0000   0.0000
     0.0000   0.0000   0.0000   0.0000   0.0000   0.0000   0.0000   0.0000
     0.0000   0.0000   0.0000   0.0000   0.0000   0.0000   0.0000   0.0000
     0.0000

          k = 0.1875-0.1083 0.0000 ( 44580 PWs)   bands (ev):

   -12.3714 -12.0893 -11.4574 -10.7803 -10.7699 -10.7323 -10.7304 -10.6769
   -10.6486 -10.5598 -10.5560 -10.4758 -10.4384 -10.4368 -10.4116 -10.3301
   -10.3247 -10.2995 -10.2624 -10.1534 -10.1238 -10.0914 -10.0049  -9.9951
    -9.9893  -9.9378  -9.8881  -9.8436  -9.7614  -9.7114  -9.4295  -9.3208
    -9.3054  -8.9459  -8.8434  -8.7705  -8.6485  -8.6151  -8.5981  -8.5752
    -8.4667  -8.4342  -8.3357  -8.2962  -8.2724  -8.2577  -8.2448  -8.1835
    -8.1357  -8.1353  -8.1254  -8.1026  -8.0767  -8.0120  -7.9748  -7.9191
    -7.9012  -7.8793  -7.8424  -7.8346  -7.7939  -7.7153  -7.7122  -7.6938
    -7.6330  -7.5967  -7.5845  -7.5442  -7.4980  -7.4386  -7.2101  -7.0363
    -7.0211  -7.0015  -6.9281  -6.8749  -6.8361  -6.8069  -6.7918  -6.7760
    -6.6569  -6.5539  -6.5013  -6.4840  -6.3568  -6.2902  -6.2691  -6.2279
    -6.2044  -6.1601  -6.0838  -6.0674  -5.9381  -5.9188  -5.9096  -5.9018
    -5.7962  -5.7803  -5.7749  -5.7720  -5.5947  -5.5876  -5.5251  -5.5147
    -5.5067  -5.4850  -5.4686  -5.4681  -5.4511  -5.4490  -5.4028  -5.3349
    -5.3252  -5.3109  -5.2870  -5.2866  -5.2746  -5.2451  -5.1742  -5.1585
    -5.1490  -5.0715  -5.0588  -4.9703  -4.9690  -4.9197  -4.3384  -4.0497
    -3.7967  -3.3086  -3.2010  -3.0936  -2.8934  -2.6460  -2.5838  -2.2677
    -2.1420  -1.7668  -1.5509  -1.2358  -0.7143  -0.5653   0.1906   0.2645
     0.4939

     occupation numbers 
     1.0000   1.0000   1.0000   1.0000   1.0000   1.0000   1.0000   1.0000
     1.0000   1.0000   1.0000   1.0000   1.0000   1.0000   1.0000   1.0000
     1.0000   1.0000   1.0000   1.0000   1.0000   1.0000   1.0000   1.0000
     1.0000   1.0000   1.0000   1.0000   1.0000   1.0000   1.0000   1.0000
     1.0000   1.0000   1.0000   1.0000   1.0000   1.0000   1.0000   1.0000
     1.0000   1.0000   1.0000   1.0000   1.0000   1.0000   1.0000   1.0000
     1.0000   1.0000   1.0000   1.0000   1.0000   1.0000   1.0000   1.0000
     1.0000   1.0000   1.0000   1.0000   1.0000   1.0000   1.0000   1.0000
     1.0000   1.0000   1.0000   1.0000   1.0000   1.0000   1.0000   1.0000
     1.0000   1.0000   1.0000   1.0000   1.0000   1.0000   1.0000   1.0000
     1.0000   1.0000   1.0000   1.0000   1.0000   1.0000   1.0000   1.0000
     1.0000   1.0000   1.0000   1.0000   1.0004   1.0006   1.0008   1.0009
     1.0081   1.0107   1.0117   1.0122   1.0786   1.0805   1.0722   1.0648
     1.0577   1.0315   1.0048   1.0039   0.9694   0.9647   0.8377   0.5945
     0.5579   0.5046   0.4188   0.4172   0.3764   0.2846   0.1239   0.0998
     0.0872   0.0246   0.0194   0.0030   0.0030   0.0009   0.0000   0.0000
     0.0000   0.0000   0.0000   0.0000   0.0000   0.0000   0.0000   0.0000
     0.0000   0.0000   0.0000   0.0000   0.0000   0.0000   0.0000   0.0000
     0.0000

          k = 0.1875-0.0361 0.0000 ( 44578 PWs)   bands (ev):

   -12.4275 -12.1386 -11.5102 -10.8299 -10.7975 -10.7817 -10.7645 -10.6975
   -10.6757 -10.6352 -10.5731 -10.4969 -10.4856 -10.4625 -10.4286 -10.3986
   -10.3557 -10.3499 -10.2646 -10.2208 -10.1665 -10.1237 -10.0265 -10.0236
   -10.0202  -9.9764  -9.9311  -9.8650  -9.8154  -9.7557  -9.4465  -9.3338
    -9.3263  -8.9353  -8.8182  -8.7772  -8.6450  -8.5854  -8.5570  -8.5253
    -8.4648  -8.4283  -8.3233  -8.3094  -8.2760  -8.2691  -8.2228  -8.1824
    -8.1541  -8.1440  -8.1386  -8.1368  -8.0990  -7.9928  -7.9736  -7.9450
    -7.8809  -7.8721  -7.8474  -7.8260  -7.7746  -7.7485  -7.7167  -7.6623
    -7.6179  -7.5930  -7.5553  -7.5281  -7.4891  -7.3856  -7.1659  -7.0145
    -6.9749  -6.9666  -6.8414  -6.8234  -6.8043  -6.7653  -6.7546  -6.7381
    -6.5815  -6.5160  -6.4772  -6.4591  -6.3601  -6.2740  -6.2114  -6.1943
    -6.1655  -6.1071  -6.0184  -5.9520  -5.9257  -5.8799  -5.8615  -5.7907
    -5.7660  -5.7476  -5.7225  -5.6682  -5.5570  -5.5334  -5.5220  -5.5083
    -5.4976  -5.4113  -5.3942  -5.3798  -5.3655  -5.3582  -5.3474  -5.3166
    -5.3007  -5.2995  -5.2902  -5.2866  -5.2646  -5.2415  -5.1719  -5.1466
    -5.1392  -5.0685  -5.0245  -4.9867  -4.9839  -4.5511  -4.2358  -3.8520
    -3.7716  -3.4964  -3.2938  -3.1686  -2.9210  -2.8290  -2.6434  -2.2536
    -2.0929  -1.5942  -1.2912  -1.0953  -0.8959  -0.8070  -0.5104   0.3179
     0.4620

     occupation numbers 
     1.0000   1.0000   1.0000   1.0000   1.0000   1.0000   1.0000   1.0000
     1.0000   1.0000   1.0000   1.0000   1.0000   1.0000   1.0000   1.0000
     1.0000   1.0000   1.0000   1.0000   1.0000   1.0000   1.0000   1.0000
     1.0000   1.0000   1.0000   1.0000   1.0000   1.0000   1.0000   1.0000
     1.0000   1.0000   1.0000   1.0000   1.0000   1.0000   1.0000   1.0000
     1.0000   1.0000   1.0000   1.0000   1.0000   1.0000   1.0000   1.0000
     1.0000   1.0000   1.0000   1.0000   1.0000   1.0000   1.0000   1.0000
     1.0000   1.0000   1.0000   1.0000   1.0000   1.0000   1.0000   1.0000
     1.0000   1.0000   1.0000   1.0000   1.0000   1.0000   1.0000   1.0000
     1.0000   1.0000   1.0000   1.0000   1.0000   1.0000   1.0000   1.0000
     1.0000   1.0000   1.0000   1.0000   1.0000   1.0000   1.0000   1.0000
     1.0000   1.0000   1.0000   1.0003   1.0005   1.0015   1.0023   1.0089
     1.0135   1.0178   1.0253   1.0473   1.0830   1.0766   1.0702   1.0592
     1.0480   0.8640   0.8096   0.7600   0.7087   0.6819   0.6418   0.5260
     0.4674   0.4632   0.4299   0.4173   0.3437   0.2741   0.1201   0.0842
     0.0755   0.0232   0.0099   0.0044   0.0041   0.0000   0.0000   0.0000
     0.0000   0.0000   0.0000   0.0000   0.0000   0.0000   0.0000   0.0000
     0.0000   0.0000   0.0000   0.0000   0.0000   0.0000   0.0000   0.0000
     0.0000

          k = 0.1875 0.0361 0.0000 ( 44578 PWs)   bands (ev):

   -12.4275 -12.1386 -11.5102 -10.8299 -10.7975 -10.7817 -10.7645 -10.6975
   -10.6757 -10.6352 -10.5731 -10.4969 -10.4856 -10.4625 -10.4286 -10.3986
   -10.3557 -10.3499 -10.2646 -10.2208 -10.1665 -10.1237 -10.0265 -10.0236
   -10.0202  -9.9764  -9.9311  -9.8650  -9.8154  -9.7557  -9.4465  -9.3338
    -9.3263  -8.9353  -8.8182  -8.7772  -8.6450  -8.5854  -8.5570  -8.5253
    -8.4648  -8.4283  -8.3233  -8.3094  -8.2760  -8.2691  -8.2228  -8.1824
    -8.1541  -8.1440  -8.1386  -8.1368  -8.0990  -7.9928  -7.9736  -7.9450
    -7.8809  -7.8721  -7.8474  -7.8260  -7.7746  -7.7485  -7.7167  -7.6623
    -7.6179  -7.5930  -7.5553  -7.5281  -7.4891  -7.3856  -7.1659  -7.0145
    -6.9749  -6.9666  -6.8414  -6.8234  -6.8043  -6.7653  -6.7546  -6.7381
    -6.5815  -6.5160  -6.4772  -6.4591  -6.3601  -6.2740  -6.2114  -6.1943
    -6.1655  -6.1071  -6.0184  -5.9520  -5.9257  -5.8799  -5.8615  -5.7907
    -5.7660  -5.7476  -5.7225  -5.6682  -5.5570  -5.5334  -5.5220  -5.5083
    -5.4976  -5.4113  -5.3942  -5.3798  -5.3655  -5.3582  -5.3474  -5.3166
    -5.3007  -5.2995  -5.2902  -5.2866  -5.2646  -5.2415  -5.1719  -5.1466
    -5.1392  -5.0685  -5.0245  -4.9867  -4.9839  -4.5511  -4.2358  -3.8520
    -3.7716  -3.4964  -3.2938  -3.1686  -2.9210  -2.8290  -2.6434  -2.2536
    -2.0929  -1.5942  -1.2912  -1.0953  -0.8959  -0.8070  -0.5104   0.3179
     0.4620

     occupation numbers 
     1.0000   1.0000   1.0000   1.0000   1.0000   1.0000   1.0000   1.0000
     1.0000   1.0000   1.0000   1.0000   1.0000   1.0000   1.0000   1.0000
     1.0000   1.0000   1.0000   1.0000   1.0000   1.0000   1.0000   1.0000
     1.0000   1.0000   1.0000   1.0000   1.0000   1.0000   1.0000   1.0000
     1.0000   1.0000   1.0000   1.0000   1.0000   1.0000   1.0000   1.0000
     1.0000   1.0000   1.0000   1.0000   1.0000   1.0000   1.0000   1.0000
     1.0000   1.0000   1.0000   1.0000   1.0000   1.0000   1.0000   1.0000
     1.0000   1.0000   1.0000   1.0000   1.0000   1.0000   1.0000   1.0000
     1.0000   1.0000   1.0000   1.0000   1.0000   1.0000   1.0000   1.0000
     1.0000   1.0000   1.0000   1.0000   1.0000   1.0000   1.0000   1.0000
     1.0000   1.0000   1.0000   1.0000   1.0000   1.0000   1.0000   1.0000
     1.0000   1.0000   1.0000   1.0003   1.0005   1.0015   1.0023   1.0089
     1.0135   1.0178   1.0253   1.0473   1.0830   1.0766   1.0702   1.0592
     1.0480   0.8640   0.8096   0.7600   0.7087   0.6819   0.6418   0.5260
     0.4674   0.4632   0.4299   0.4173   0.3437   0.2741   0.1201   0.0842
     0.0755   0.0232   0.0099   0.0044   0.0041   0.0000   0.0000   0.0000
     0.0000   0.0000   0.0000   0.0000   0.0000   0.0000   0.0000   0.0000
     0.0000   0.0000   0.0000   0.0000   0.0000   0.0000   0.0000   0.0000
     0.0000

          k = 0.1875 0.1083 0.0000 ( 44580 PWs)   bands (ev):

   -12.3714 -12.0893 -11.4574 -10.7803 -10.7699 -10.7323 -10.7304 -10.6769
   -10.6486 -10.5598 -10.5560 -10.4758 -10.4384 -10.4368 -10.4116 -10.3301
   -10.3247 -10.2995 -10.2624 -10.1534 -10.1238 -10.0914 -10.0049  -9.9951
    -9.9893  -9.9378  -9.8881  -9.8436  -9.7614  -9.7114  -9.4295  -9.3208
    -9.3054  -8.9459  -8.8434  -8.7705  -8.6485  -8.6151  -8.5981  -8.5752
    -8.4667  -8.4342  -8.3357  -8.2962  -8.2724  -8.2577  -8.2448  -8.1835
    -8.1357  -8.1353  -8.1254  -8.1026  -8.0767  -8.0120  -7.9748  -7.9191
    -7.9012  -7.8793  -7.8424  -7.8346  -7.7939  -7.7153  -7.7122  -7.6938
    -7.6330  -7.5967  -7.5845  -7.5442  -7.4980  -7.4386  -7.2101  -7.0363
    -7.0211  -7.0015  -6.9281  -6.8749  -6.8361  -6.8069  -6.7918  -6.7760
    -6.6569  -6.5539  -6.5013  -6.4840  -6.3568  -6.2902  -6.2691  -6.2279
    -6.2044  -6.1601  -6.0838  -6.0674  -5.9381  -5.9188  -5.9096  -5.9018
    -5.7962  -5.7803  -5.7749  -5.7720  -5.5947  -5.5876  -5.5251  -5.5147
    -5.5067  -5.4850  -5.4686  -5.4681  -5.4511  -5.4490  -5.4028  -5.3349
    -5.3252  -5.3109  -5.2870  -5.2866  -5.2746  -5.2451  -5.1742  -5.1585
    -5.1490  -5.0715  -5.0588  -4.9703  -4.9690  -4.9197  -4.3384  -4.0497
    -3.7967  -3.3086  -3.2010  -3.0936  -2.8934  -2.6460  -2.5838  -2.2677
    -2.1420  -1.7668  -1.5509  -1.2358  -0.7143  -0.5653   0.1906   0.2645
     0.4939

     occupation numbers 
     1.0000   1.0000   1.0000   1.0000   1.0000   1.0000   1.0000   1.0000
     1.0000   1.0000   1.0000   1.0000   1.0000   1.0000   1.0000   1.0000
     1.0000   1.0000   1.0000   1.0000   1.0000   1.0000   1.0000   1.0000
     1.0000   1.0000   1.0000   1.0000   1.0000   1.0000   1.0000   1.0000
     1.0000   1.0000   1.0000   1.0000   1.0000   1.0000   1.0000   1.0000
     1.0000   1.0000   1.0000   1.0000   1.0000   1.0000   1.0000   1.0000
     1.0000   1.0000   1.0000   1.0000   1.0000   1.0000   1.0000   1.0000
     1.0000   1.0000   1.0000   1.0000   1.0000   1.0000   1.0000   1.0000
     1.0000   1.0000   1.0000   1.0000   1.0000   1.0000   1.0000   1.0000
     1.0000   1.0000   1.0000   1.0000   1.0000   1.0000   1.0000   1.0000
     1.0000   1.0000   1.0000   1.0000   1.0000   1.0000   1.0000   1.0000
     1.0000   1.0000   1.0000   1.0000   1.0004   1.0006   1.0008   1.0009
     1.0081   1.0107   1.0117   1.0122   1.0786   1.0805   1.0722   1.0648
     1.0577   1.0315   1.0048   1.0039   0.9694   0.9647   0.8377   0.5945
     0.5579   0.5046   0.4188   0.4172   0.3764   0.2846   0.1239   0.0998
     0.0872   0.0246   0.0194   0.0030   0.0030   0.0009   0.0000   0.0000
     0.0000   0.0000   0.0000   0.0000   0.0000   0.0000   0.0000   0.0000
     0.0000   0.0000   0.0000   0.0000   0.0000   0.0000   0.0000   0.0000
     0.0000

          k = 0.1875 0.1804 0.0000 ( 44582 PWs)   bands (ev):

   -12.2635 -11.9921 -11.3539 -10.7076 -10.6757 -10.6656 -10.6541 -10.6351
   -10.5542 -10.5292 -10.4477 -10.4232 -10.3887 -10.3510 -10.3462 -10.2728
   -10.2254 -10.2176 -10.1983 -10.1018 -10.0406  -9.9935  -9.9539  -9.9386
    -9.9287  -9.8754  -9.8111  -9.7718  -9.6953  -9.6088  -9.3928  -9.2889
    -9.2719  -8.9689  -8.8705  -8.7820  -8.7266  -8.7064  -8.6495  -8.5490
    -8.5352  -8.4501  -8.3730  -8.3152  -8.2637  -8.2565  -8.2226  -8.2022
    -8.1453  -8.1087  -8.0972  -8.0464  -8.0244  -8.0176  -7.9961  -7.9461
    -7.9224  -7.8691  -7.8340  -7.8281  -7.8048  -7.7804  -7.7540  -7.6935
    -7.6411  -7.6214  -7.5685  -7.5184  -7.5010  -7.4604  -7.3189  -7.1671
    -7.1496  -7.0934  -7.0472  -6.9536  -6.8878  -6.8586  -6.8393  -6.8202
    -6.7777  -6.6639  -6.5566  -6.5013  -6.4449  -6.3625  -6.3201  -6.2876
    -6.2726  -6.2569  -6.2400  -6.1819  -6.1340  -6.1190  -6.0522  -5.9327
    -5.8646  -5.8516  -5.8304  -5.7605  -5.7001  -5.6800  -5.6753  -5.6466
    -5.6359  -5.6212  -5.5842  -5.5608  -5.5265  -5.5010  -5.4696  -5.4472
    -5.3937  -5.3708  -5.3463  -5.3285  -5.3224  -5.3178  -5.2892  -5.1756
    -5.1683  -5.1021  -5.0143  -4.9936  -4.9889  -4.7817  -4.4624  -4.2217
    -3.7922  -3.6280  -3.2625  -3.0945  -2.8706  -2.6793  -2.5306  -2.1539
    -1.9511  -1.5737  -1.3370  -1.0404  -0.6854  -0.3463   0.1497   0.4645
     0.7695

     occupation numbers 
     1.0000   1.0000   1.0000   1.0000   1.0000   1.0000   1.0000   1.0000
     1.0000   1.0000   1.0000   1.0000   1.0000   1.0000   1.0000   1.0000
     1.0000   1.0000   1.0000   1.0000   1.0000   1.0000   1.0000   1.0000
     1.0000   1.0000   1.0000   1.0000   1.0000   1.0000   1.0000   1.0000
     1.0000   1.0000   1.0000   1.0000   1.0000   1.0000   1.0000   1.0000
     1.0000   1.0000   1.0000   1.0000   1.0000   1.0000   1.0000   1.0000
     1.0000   1.0000   1.0000   1.0000   1.0000   1.0000   1.0000   1.0000
     1.0000   1.0000   1.0000   1.0000   1.0000   1.0000   1.0000   1.0000
     1.0000   1.0000   1.0000   1.0000   1.0000   1.0000   1.0000   1.0000
     1.0000   1.0000   1.0000   1.0000   1.0000   1.0000   1.0000   1.0000
     1.0000   1.0000   1.0000   1.0000   1.0000   1.0000   1.0000   1.0000
     1.0000   1.0000   1.0000   1.0000   1.0000   1.0000   1.0000   1.0004
     1.0022   1.0028   1.0043   1.0147   1.0335   1.0420   1.0441   1.0575
     1.0624   1.0690   1.0812   1.0832   1.0730   1.0518   1.0066   0.9606
     0.8078   0.7281   0.6376   0.5704   0.5474   0.5302   0.4263   0.1262
     0.1144   0.0419   0.0080   0.0051   0.0046   0.0000   0.0000   0.0000
     0.0000   0.0000   0.0000   0.0000   0.0000   0.0000   0.0000   0.0000
     0.0000   0.0000   0.0000   0.0000   0.0000   0.0000   0.0000   0.0000
     0.0000

          k = 0.1875 0.2526 0.0000 ( 44582 PWs)   bands (ev):

   -12.1142 -11.8481 -11.2044 -10.5983 -10.5724 -10.5700 -10.5573 -10.5197
   -10.4882 -10.4186 -10.3409 -10.3187 -10.3097 -10.2462 -10.2132 -10.1945
   -10.1314 -10.1048 -10.0659 -10.0522  -9.9230  -9.8791  -9.8666  -9.8513
    -9.8287  -9.7967  -9.7051  -9.6518  -9.6107  -9.4794  -9.3232  -9.2406
    -9.2268  -9.0131  -8.9040  -8.8297  -8.8127  -8.7926  -8.7508  -8.6379
    -8.5577  -8.4566  -8.4107  -8.3840  -8.3393  -8.2221  -8.2166  -8.2062
    -8.1542  -8.1111  -8.0932  -8.0757  -8.0381  -7.9896  -7.9580  -7.9522
    -7.9427  -7.9271  -7.8784  -7.8517  -7.8208  -7.7876  -7.7442  -7.7009
    -7.6478  -7.6097  -7.5316  -7.4809  -7.4412  -7.4146  -7.3931  -7.3417
    -7.3339  -7.3042  -7.2691  -7.0050  -6.9754  -6.9389  -6.8918  -6.8767
    -6.8468  -6.7732  -6.7002  -6.6491  -6.5666  -6.5380  -6.4639  -6.4192
    -6.4079  -6.3751  -6.3466  -6.3286  -6.3110  -6.2853  -6.1936  -6.1259
    -5.9751  -5.9639  -5.9527  -5.9156  -5.9060  -5.8748  -5.8488  -5.7984
    -5.7568  -5.7297  -5.6887  -5.6377  -5.6036  -5.5652  -5.5519  -5.4468
    -5.4250  -5.4131  -5.3878  -5.3811  -5.3706  -5.3554  -5.3327  -5.2448
    -5.1890  -5.1325  -5.0650  -5.0519  -4.8619  -4.6097  -4.4382  -4.2461
    -4.2013  -3.9049  -3.6370  -3.2767  -3.0151  -2.5784  -2.2528  -1.8730
    -1.5377  -1.3039  -1.0264  -0.8644  -0.4910  -0.0640   0.2179   0.4382
     0.7700

     occupation numbers 
     1.0000   1.0000   1.0000   1.0000   1.0000   1.0000   1.0000   1.0000
     1.0000   1.0000   1.0000   1.0000   1.0000   1.0000   1.0000   1.0000
     1.0000   1.0000   1.0000   1.0000   1.0000   1.0000   1.0000   1.0000
     1.0000   1.0000   1.0000   1.0000   1.0000   1.0000   1.0000   1.0000
     1.0000   1.0000   1.0000   1.0000   1.0000   1.0000   1.0000   1.0000
     1.0000   1.0000   1.0000   1.0000   1.0000   1.0000   1.0000   1.0000
     1.0000   1.0000   1.0000   1.0000   1.0000   1.0000   1.0000   1.0000
     1.0000   1.0000   1.0000   1.0000   1.0000   1.0000   1.0000   1.0000
     1.0000   1.0000   1.0000   1.0000   1.0000   1.0000   1.0000   1.0000
     1.0000   1.0000   1.0000   1.0000   1.0000   1.0000   1.0000   1.0000
     1.0000   1.0000   1.0000   1.0000   1.0000   1.0000   1.0000   1.0000
     1.0000   1.0000   1.0000   1.0000   1.0000   1.0000   1.0000   1.0000
     1.0001   1.0002   1.0003   1.0007   1.0009   1.0017   1.0030   1.0078
     1.0155   1.0230   1.0382   1.0616   1.0758   1.0833   1.0823   0.9598
     0.9041   0.8694   0.7878   0.7647   0.7273   0.6717   0.5862   0.2837
     0.1502   0.0681   0.0218   0.0170   0.0002   0.0000   0.0000   0.0000
     0.0000   0.0000   0.0000   0.0000   0.0000   0.0000   0.0000   0.0000
     0.0000   0.0000   0.0000   0.0000   0.0000   0.0000   0.0000   0.0000
     0.0000

          k = 0.1875 0.3248 0.0000 ( 44577 PWs)   bands (ev):

   -11.9431 -11.6569 -11.0177 -10.4634 -10.4619 -10.4539 -10.4511 -10.4440
   -10.3315 -10.2518 -10.2321 -10.2309 -10.1555 -10.1060 -10.1010 -10.0408
   -10.0221 -10.0026  -9.9849  -9.8999  -9.7979  -9.7877  -9.7620  -9.7210
    -9.6991  -9.6849  -9.5751  -9.5202  -9.4914  -9.3699  -9.2010  -9.1940
    -9.1488  -9.0810  -8.9701  -8.9251  -8.9067  -8.8441  -8.8045  -8.7604
    -8.6532  -8.5515  -8.4781  -8.3936  -8.3671  -8.3100  -8.2591  -8.2530
    -8.2097  -8.1740  -8.1502  -8.1310  -8.0864  -8.0225  -7.9946  -7.9323
    -7.9299  -7.8934  -7.8734  -7.8570  -7.8330  -7.8219  -7.7093  -7.6936
    -7.6716  -7.6184  -7.6084  -7.5430  -7.5365  -7.4988  -7.4467  -7.3901
    -7.3629  -7.2914  -7.2126  -7.1966  -7.1253  -7.0668  -6.9400  -6.9112
    -6.9046  -6.8973  -6.8755  -6.8222  -6.7761  -6.7166  -6.6998  -6.6763
    -6.6372  -6.6209  -6.4464  -6.4439  -6.4246  -6.3758  -6.3394  -6.2116
    -6.1820  -6.1471  -6.1446  -6.1145  -6.0972  -5.9770  -5.9503  -5.9221
    -5.8883  -5.8136  -5.8073  -5.6876  -5.6226  -5.6138  -5.5419  -5.5310
    -5.4858  -5.4409  -5.4202  -5.4187  -5.3850  -5.3746  -5.3641  -5.2275
    -5.1954  -5.1529  -5.1496  -5.1190  -4.7529  -4.6980  -4.5383  -4.4468
    -4.3199  -4.1162  -4.0539  -3.2566  -2.9528  -2.7524  -1.8424  -1.5293
    -1.3113  -1.2396  -0.8422  -0.4762  -0.1154   0.2451   0.3916   0.5028
     0.6430

     occupation numbers 
     1.0000   1.0000   1.0000   1.0000   1.0000   1.0000   1.0000   1.0000
     1.0000   1.0000   1.0000   1.0000   1.0000   1.0000   1.0000   1.0000
     1.0000   1.0000   1.0000   1.0000   1.0000   1.0000   1.0000   1.0000
     1.0000   1.0000   1.0000   1.0000   1.0000   1.0000   1.0000   1.0000
     1.0000   1.0000   1.0000   1.0000   1.0000   1.0000   1.0000   1.0000
     1.0000   1.0000   1.0000   1.0000   1.0000   1.0000   1.0000   1.0000
     1.0000   1.0000   1.0000   1.0000   1.0000   1.0000   1.0000   1.0000
     1.0000   1.0000   1.0000   1.0000   1.0000   1.0000   1.0000   1.0000
     1.0000   1.0000   1.0000   1.0000   1.0000   1.0000   1.0000   1.0000
     1.0000   1.0000   1.0000   1.0000   1.0000   1.0000   1.0000   1.0000
     1.0000   1.0000   1.0000   1.0000   1.0000   1.0000   1.0000   1.0000
     1.0000   1.0000   1.0000   1.0000   1.0000   1.0000   1.0000   1.0000
     1.0000   1.0000   1.0000   1.0000   1.0000   1.0001   1.0003   1.0006
     1.0013   1.0059   1.0067   1.0387   1.0683   1.0720   1.0799   1.0754
     1.0327   0.9456   0.8905   0.8861   0.7784   0.7416   0.7038   0.2364
     0.1626   0.0922   0.0880   0.0553   0.0000   0.0000   0.0000   0.0000
     0.0000   0.0000   0.0000   0.0000   0.0000   0.0000   0.0000   0.0000
     0.0000   0.0000   0.0000   0.0000   0.0000   0.0000   0.0000   0.0000
     0.0000

          k = 0.1875 0.3969 0.0000 ( 44536 PWs)   bands (ev):

   -11.7776 -11.4198 -10.8090 -10.4470 -10.3332 -10.3232 -10.3168 -10.2921
   -10.1506 -10.1451 -10.0973 -10.0680 -10.0402  -9.9996  -9.9424  -9.9338
    -9.8803  -9.8731  -9.8321  -9.7454  -9.7073  -9.6895  -9.6439  -9.6114
    -9.5820  -9.5253  -9.4593  -9.3987  -9.3470  -9.2580  -9.1574  -9.1460
    -9.1135  -9.0606  -9.0173  -8.9879  -8.9743  -8.9083  -8.8868  -8.8100
    -8.7334  -8.6930  -8.5672  -8.4567  -8.4546  -8.4206  -8.4009  -8.3142
    -8.2902  -8.2657  -8.2279  -8.1949  -8.1499  -8.0543  -7.9969  -7.9726
    -7.9483  -7.9125  -7.8941  -7.8818  -7.8682  -7.8243  -7.8185  -7.8031
    -7.7785  -7.7567  -7.7193  -7.5102  -7.5037  -7.4565  -7.4423  -7.3848
    -7.3337  -7.3096  -7.2724  -7.2567  -7.1719  -7.1228  -7.0961  -7.0671
    -7.0329  -7.0238  -6.9893  -6.9759  -6.9467  -6.9255  -6.8376  -6.8034
    -6.7939  -6.6872  -6.5934  -6.5785  -6.5427  -6.5001  -6.4507  -6.3436
    -6.3143  -6.2974  -6.2839  -6.2664  -6.1294  -6.1219  -6.0549  -6.0025
    -5.9320  -5.9257  -5.8120  -5.7741  -5.6848  -5.6628  -5.6525  -5.5478
    -5.5056  -5.4953  -5.4883  -5.4493  -5.4354  -5.3926  -5.3632  -5.2465
    -5.2413  -5.1732  -5.1640  -5.1333  -5.0271  -4.9405  -4.7315  -4.5934
    -4.4355  -4.1634  -3.8085  -3.4970  -3.0245  -2.4093  -1.8808  -1.4391
    -1.2180  -0.8344  -0.5441  -0.2193   0.0086   0.2892   0.4314   0.8022
     1.2575

     occupation numbers 
     1.0000   1.0000   1.0000   1.0000   1.0000   1.0000   1.0000   1.0000
     1.0000   1.0000   1.0000   1.0000   1.0000   1.0000   1.0000   1.0000
     1.0000   1.0000   1.0000   1.0000   1.0000   1.0000   1.0000   1.0000
     1.0000   1.0000   1.0000   1.0000   1.0000   1.0000   1.0000   1.0000
     1.0000   1.0000   1.0000   1.0000   1.0000   1.0000   1.0000   1.0000
     1.0000   1.0000   1.0000   1.0000   1.0000   1.0000   1.0000   1.0000
     1.0000   1.0000   1.0000   1.0000   1.0000   1.0000   1.0000   1.0000
     1.0000   1.0000   1.0000   1.0000   1.0000   1.0000   1.0000   1.0000
     1.0000   1.0000   1.0000   1.0000   1.0000   1.0000   1.0000   1.0000
     1.0000   1.0000   1.0000   1.0000   1.0000   1.0000   1.0000   1.0000
     1.0000   1.0000   1.0000   1.0000   1.0000   1.0000   1.0000   1.0000
     1.0000   1.0000   1.0000   1.0000   1.0000   1.0000   1.0000   1.0000
     1.0000   1.0000   1.0000   1.0000   1.0000   1.0000   1.0000   1.0001
     1.0005   1.0005   1.0061   1.0118   1.0399   1.0498   1.0547   1.0815
     1.0566   1.0453   1.0362   0.9656   0.9319   0.8042   0.7004   0.2886
     0.2736   0.1222   0.1078   0.0690   0.0105   0.0015   0.0000   0.0000
     0.0000   0.0000   0.0000   0.0000   0.0000   0.0000   0.0000   0.0000
     0.0000   0.0000   0.0000   0.0000   0.0000   0.0000   0.0000   0.0000
     0.0000

          k = 0.1875-0.6856 0.0000 ( 44502 PWs)   bands (ev):

   -11.6452 -11.1491 -10.6022 -10.4897 -10.2364 -10.2020 -10.1793 -10.1519
   -10.1141 -10.0140  -9.9717  -9.9442  -9.8983  -9.8893  -9.8213  -9.8026
    -9.7848  -9.7117  -9.6353  -9.6327  -9.6204  -9.6077  -9.5976  -9.4667
    -9.4504  -9.4222  -9.3851  -9.2779  -9.2407  -9.2132  -9.1838  -9.1332
    -9.0926  -9.0808  -9.0711  -9.0262  -8.9896  -8.8846  -8.8689  -8.8566
    -8.8088  -8.7113  -8.6764  -8.6379  -8.6141  -8.5245  -8.4689  -8.3611
    -8.3416  -8.3301  -8.3207  -8.2529  -8.2257  -8.2053  -8.1218  -8.0586
    -8.0163  -7.9867  -7.9487  -7.9142  -7.9040  -7.8646  -7.8235  -7.8149
    -7.7607  -7.7395  -7.6908  -7.6578  -7.6362  -7.5798  -7.5148  -7.4550
    -7.4353  -7.4051  -7.3442  -7.3026  -7.2716  -7.2179  -7.1919  -7.1749
    -7.1465  -7.0781  -6.9932  -6.9316  -6.9042  -6.8925  -6.8870  -6.8299
    -6.7983  -6.7756  -6.6842  -6.6364  -6.6136  -6.5997  -6.5192  -6.4442
    -6.4251  -6.3644  -6.3105  -6.2923  -6.1897  -6.1579  -6.1024  -6.0974
    -6.0691  -6.0260  -5.8957  -5.8798  -5.7188  -5.7116  -5.6910  -5.6630
    -5.5974  -5.4872  -5.4754  -5.4641  -5.4397  -5.4340  -5.3933  -5.3693
    -5.3604  -5.3014  -5.2966  -5.1865  -5.1749  -5.1537  -4.7696  -4.5165
    -4.4182  -4.1319  -3.8747  -3.4494  -2.9879  -2.3288  -1.9345  -1.4189
    -0.7876  -0.6579  -0.5179  -0.3137   0.1260   0.3714   0.7807   1.0511
     1.3544

     occupation numbers 
     1.0000   1.0000   1.0000   1.0000   1.0000   1.0000   1.0000   1.0000
     1.0000   1.0000   1.0000   1.0000   1.0000   1.0000   1.0000   1.0000
     1.0000   1.0000   1.0000   1.0000   1.0000   1.0000   1.0000   1.0000
     1.0000   1.0000   1.0000   1.0000   1.0000   1.0000   1.0000   1.0000
     1.0000   1.0000   1.0000   1.0000   1.0000   1.0000   1.0000   1.0000
     1.0000   1.0000   1.0000   1.0000   1.0000   1.0000   1.0000   1.0000
     1.0000   1.0000   1.0000   1.0000   1.0000   1.0000   1.0000   1.0000
     1.0000   1.0000   1.0000   1.0000   1.0000   1.0000   1.0000   1.0000
     1.0000   1.0000   1.0000   1.0000   1.0000   1.0000   1.0000   1.0000
     1.0000   1.0000   1.0000   1.0000   1.0000   1.0000   1.0000   1.0000
     1.0000   1.0000   1.0000   1.0000   1.0000   1.0000   1.0000   1.0000
     1.0000   1.0000   1.0000   1.0000   1.0000   1.0000   1.0000   1.0000
     1.0000   1.0000   1.0000   1.0000   1.0000   1.0000   1.0000   1.0000
     1.0000   1.0000   1.0011   1.0016   1.0266   1.0291   1.0373   1.0498
     1.0778   1.0347   1.0167   0.9964   0.9428   0.9283   0.8066   0.7226
     0.6901   0.4700   0.4526   0.1455   0.1250   0.0933   0.0000   0.0000
     0.0000   0.0000   0.0000   0.0000   0.0000   0.0000   0.0000   0.0000
     0.0000   0.0000   0.0000   0.0000   0.0000   0.0000   0.0000   0.0000
     0.0000

          k = 0.1875-0.6134 0.0000 ( 44484 PWs)   bands (ev):

   -11.5705 -10.8732 -10.6358 -10.4254 -10.2961 -10.1020 -10.0767 -10.0401
   -10.0300  -9.9743  -9.9192  -9.8884  -9.8418  -9.8265  -9.7374  -9.7209
    -9.6724  -9.6408  -9.5861  -9.5527  -9.5240  -9.5068  -9.4595  -9.3984
    -9.3819  -9.3226  -9.3061  -9.2901  -9.2152  -9.1997  -9.1915  -9.1829
    -9.1603  -9.1402  -9.0205  -8.9983  -8.9743  -8.9573  -8.8793  -8.8691
    -8.8383  -8.7915  -8.7511  -8.6857  -8.6128  -8.5805  -8.5601  -8.4667
    -8.4365  -8.3554  -8.3431  -8.2557  -8.1954  -8.1747  -8.1434  -8.1156
    -8.0749  -8.0299  -8.0068  -7.9718  -7.9398  -7.8930  -7.8590  -7.8481
    -7.8180  -7.8118  -7.7434  -7.7051  -7.6888  -7.6532  -7.6168  -7.6027
    -7.5512  -7.4904  -7.4720  -7.4506  -7.2415  -7.1976  -7.1607  -7.1159
    -7.0452  -7.0357  -7.0339  -7.0111  -6.9699  -6.9258  -6.8749  -6.8412
    -6.7768  -6.7147  -6.6987  -6.6134  -6.5960  -6.5566  -6.5386  -6.4536
    -6.4457  -6.3888  -6.3734  -6.3168  -6.2347  -6.2172  -6.1594  -6.1225
    -6.0602  -6.0079  -5.9490  -5.9425  -5.9363  -5.7647  -5.7307  -5.7153
    -5.6862  -5.6450  -5.5765  -5.4837  -5.4585  -5.4208  -5.4050  -5.4024
    -5.3752  -5.3716  -5.3484  -5.3450  -5.1836  -5.1729  -4.5927  -4.4618
    -4.3934  -4.2265  -4.0283  -3.1889  -2.9146  -2.6608  -1.6327  -1.3349
    -0.9935  -0.6430  -0.3201  -0.1111   0.2259   0.4001   0.5078   1.1368
     1.8899

     occupation numbers 
     1.0000   1.0000   1.0000   1.0000   1.0000   1.0000   1.0000   1.0000
     1.0000   1.0000   1.0000   1.0000   1.0000   1.0000   1.0000   1.0000
     1.0000   1.0000   1.0000   1.0000   1.0000   1.0000   1.0000   1.0000
     1.0000   1.0000   1.0000   1.0000   1.0000   1.0000   1.0000   1.0000
     1.0000   1.0000   1.0000   1.0000   1.0000   1.0000   1.0000   1.0000
     1.0000   1.0000   1.0000   1.0000   1.0000   1.0000   1.0000   1.0000
     1.0000   1.0000   1.0000   1.0000   1.0000   1.0000   1.0000   1.0000
     1.0000   1.0000   1.0000   1.0000   1.0000   1.0000   1.0000   1.0000
     1.0000   1.0000   1.0000   1.0000   1.0000   1.0000   1.0000   1.0000
     1.0000   1.0000   1.0000   1.0000   1.0000   1.0000   1.0000   1.0000
     1.0000   1.0000   1.0000   1.0000   1.0000   1.0000   1.0000   1.0000
     1.0000   1.0000   1.0000   1.0000   1.0000   1.0000   1.0000   1.0000
     1.0000   1.0000   1.0000   1.0000   1.0000   1.0000   1.0000   1.0000
     1.0000   1.0001   1.0003   1.0004   1.0004   1.0137   1.0227   1.0278
     1.0393   1.0582   1.0825   1.0297   0.9853   0.8922   0.8446   0.8362
     0.7438   0.7310   0.6455   0.6325   0.1402   0.1216   0.0000   0.0000
     0.0000   0.0000   0.0000   0.0000   0.0000   0.0000   0.0000   0.0000
     0.0000   0.0000   0.0000   0.0000   0.0000   0.0000   0.0000   0.0000
     0.0000

          k = 0.1875-0.5413 0.0000 ( 44484 PWs)   bands (ev):

   -11.5705 -10.8732 -10.6358 -10.4254 -10.2961 -10.1020 -10.0767 -10.0401
   -10.0300  -9.9743  -9.9192  -9.8884  -9.8418  -9.8265  -9.7374  -9.7209
    -9.6724  -9.6408  -9.5861  -9.5527  -9.5240  -9.5068  -9.4595  -9.3984
    -9.3819  -9.3226  -9.3061  -9.2901  -9.2152  -9.1997  -9.1915  -9.1829
    -9.1603  -9.1402  -9.0205  -8.9983  -8.9743  -8.9573  -8.8793  -8.8691
    -8.8383  -8.7915  -8.7511  -8.6857  -8.6128  -8.5805  -8.5601  -8.4667
    -8.4365  -8.3554  -8.3431  -8.2557  -8.1954  -8.1747  -8.1434  -8.1156
    -8.0749  -8.0299  -8.0068  -7.9718  -7.9398  -7.8930  -7.8590  -7.8481
    -7.8180  -7.8118  -7.7434  -7.7051  -7.6888  -7.6532  -7.6168  -7.6027
    -7.5512  -7.4904  -7.4720  -7.4506  -7.2415  -7.1976  -7.1607  -7.1159
    -7.0452  -7.0357  -7.0339  -7.0111  -6.9699  -6.9258  -6.8749  -6.8412
    -6.7768  -6.7147  -6.6987  -6.6134  -6.5960  -6.5566  -6.5386  -6.4536
    -6.4457  -6.3888  -6.3734  -6.3168  -6.2347  -6.2172  -6.1594  -6.1225
    -6.0602  -6.0079  -5.9490  -5.9425  -5.9363  -5.7647  -5.7307  -5.7153
    -5.6862  -5.6450  -5.5765  -5.4837  -5.4585  -5.4208  -5.4050  -5.4024
    -5.3752  -5.3716  -5.3484  -5.3450  -5.1836  -5.1729  -4.5927  -4.4618
    -4.3934  -4.2265  -4.0283  -3.1889  -2.9146  -2.6608  -1.6327  -1.3349
    -0.9935  -0.6430  -0.3201  -0.1111   0.2259   0.4001   0.5078   1.1368
     1.8892

     occupation numbers 
     1.0000   1.0000   1.0000   1.0000   1.0000   1.0000   1.0000   1.0000
     1.0000   1.0000   1.0000   1.0000   1.0000   1.0000   1.0000   1.0000
     1.0000   1.0000   1.0000   1.0000   1.0000   1.0000   1.0000   1.0000
     1.0000   1.0000   1.0000   1.0000   1.0000   1.0000   1.0000   1.0000
     1.0000   1.0000   1.0000   1.0000   1.0000   1.0000   1.0000   1.0000
     1.0000   1.0000   1.0000   1.0000   1.0000   1.0000   1.0000   1.0000
     1.0000   1.0000   1.0000   1.0000   1.0000   1.0000   1.0000   1.0000
     1.0000   1.0000   1.0000   1.0000   1.0000   1.0000   1.0000   1.0000
     1.0000   1.0000   1.0000   1.0000   1.0000   1.0000   1.0000   1.0000
     1.0000   1.0000   1.0000   1.0000   1.0000   1.0000   1.0000   1.0000
     1.0000   1.0000   1.0000   1.0000   1.0000   1.0000   1.0000   1.0000
     1.0000   1.0000   1.0000   1.0000   1.0000   1.0000   1.0000   1.0000
     1.0000   1.0000   1.0000   1.0000   1.0000   1.0000   1.0000   1.0000
     1.0000   1.0001   1.0003   1.0004   1.0004   1.0137   1.0227   1.0278
     1.0393   1.0582   1.0825   1.0297   0.9853   0.8922   0.8446   0.8362
     0.7438   0.7310   0.6455   0.6325   0.1402   0.1216   0.0000   0.0000
     0.0000   0.0000   0.0000   0.0000   0.0000   0.0000   0.0000   0.0000
     0.0000   0.0000   0.0000   0.0000   0.0000   0.0000   0.0000   0.0000
     0.0000

          k = 0.1875-0.4691 0.0000 ( 44502 PWs)   bands (ev):

   -11.6452 -11.1491 -10.6022 -10.4897 -10.2364 -10.2020 -10.1793 -10.1519
   -10.1141 -10.0140  -9.9717  -9.9442  -9.8983  -9.8893  -9.8213  -9.8026
    -9.7848  -9.7117  -9.6353  -9.6327  -9.6204  -9.6077  -9.5976  -9.4667
    -9.4504  -9.4222  -9.3851  -9.2779  -9.2407  -9.2132  -9.1838  -9.1332
    -9.0926  -9.0808  -9.0711  -9.0262  -8.9896  -8.8846  -8.8689  -8.8566
    -8.8088  -8.7113  -8.6764  -8.6379  -8.6141  -8.5245  -8.4689  -8.3611
    -8.3416  -8.3301  -8.3207  -8.2529  -8.2257  -8.2053  -8.1218  -8.0586
    -8.0163  -7.9867  -7.9487  -7.9142  -7.9040  -7.8646  -7.8235  -7.8149
    -7.7607  -7.7395  -7.6908  -7.6578  -7.6362  -7.5798  -7.5148  -7.4550
    -7.4353  -7.4051  -7.3442  -7.3026  -7.2716  -7.2179  -7.1919  -7.1749
    -7.1465  -7.0781  -6.9932  -6.9316  -6.9042  -6.8925  -6.8870  -6.8299
    -6.7983  -6.7756  -6.6842  -6.6364  -6.6136  -6.5997  -6.5192  -6.4442
    -6.4251  -6.3644  -6.3105  -6.2923  -6.1897  -6.1579  -6.1024  -6.0974
    -6.0691  -6.0260  -5.8957  -5.8798  -5.7188  -5.7116  -5.6910  -5.6630
    -5.5974  -5.4872  -5.4754  -5.4641  -5.4397  -5.4340  -5.3933  -5.3693
    -5.3604  -5.3014  -5.2966  -5.1865  -5.1749  -5.1537  -4.7696  -4.5165
    -4.4182  -4.1319  -3.8747  -3.4494  -2.9879  -2.3288  -1.9345  -1.4189
    -0.7876  -0.6579  -0.5179  -0.3137   0.1260   0.3714   0.7807   1.0511
     1.3544

     occupation numbers 
     1.0000   1.0000   1.0000   1.0000   1.0000   1.0000   1.0000   1.0000
     1.0000   1.0000   1.0000   1.0000   1.0000   1.0000   1.0000   1.0000
     1.0000   1.0000   1.0000   1.0000   1.0000   1.0000   1.0000   1.0000
     1.0000   1.0000   1.0000   1.0000   1.0000   1.0000   1.0000   1.0000
     1.0000   1.0000   1.0000   1.0000   1.0000   1.0000   1.0000   1.0000
     1.0000   1.0000   1.0000   1.0000   1.0000   1.0000   1.0000   1.0000
     1.0000   1.0000   1.0000   1.0000   1.0000   1.0000   1.0000   1.0000
     1.0000   1.0000   1.0000   1.0000   1.0000   1.0000   1.0000   1.0000
     1.0000   1.0000   1.0000   1.0000   1.0000   1.0000   1.0000   1.0000
     1.0000   1.0000   1.0000   1.0000   1.0000   1.0000   1.0000   1.0000
     1.0000   1.0000   1.0000   1.0000   1.0000   1.0000   1.0000   1.0000
     1.0000   1.0000   1.0000   1.0000   1.0000   1.0000   1.0000   1.0000
     1.0000   1.0000   1.0000   1.0000   1.0000   1.0000   1.0000   1.0000
     1.0000   1.0000   1.0011   1.0016   1.0266   1.0291   1.0373   1.0498
     1.0778   1.0347   1.0167   0.9964   0.9428   0.9283   0.8066   0.7226
     0.6901   0.4700   0.4526   0.1455   0.1250   0.0933   0.0000   0.0000
     0.0000   0.0000   0.0000   0.0000   0.0000   0.0000   0.0000   0.0000
     0.0000   0.0000   0.0000   0.0000   0.0000   0.0000   0.0000   0.0000
     0.0000

          k = 0.1875-0.3969 0.0000 ( 44536 PWs)   bands (ev):

   -11.7776 -11.4198 -10.8090 -10.4470 -10.3332 -10.3232 -10.3168 -10.2921
   -10.1506 -10.1451 -10.0973 -10.0680 -10.0402  -9.9996  -9.9424  -9.9338
    -9.8803  -9.8731  -9.8321  -9.7454  -9.7073  -9.6895  -9.6439  -9.6114
    -9.5820  -9.5253  -9.4593  -9.3987  -9.3470  -9.2580  -9.1574  -9.1460
    -9.1135  -9.0606  -9.0173  -8.9879  -8.9743  -8.9083  -8.8868  -8.8100
    -8.7334  -8.6930  -8.5672  -8.4567  -8.4546  -8.4206  -8.4009  -8.3142
    -8.2902  -8.2657  -8.2279  -8.1949  -8.1499  -8.0543  -7.9969  -7.9726
    -7.9483  -7.9125  -7.8941  -7.8818  -7.8682  -7.8243  -7.8185  -7.8031
    -7.7785  -7.7567  -7.7193  -7.5102  -7.5037  -7.4565  -7.4423  -7.3848
    -7.3337  -7.3096  -7.2724  -7.2567  -7.1719  -7.1228  -7.0961  -7.0671
    -7.0329  -7.0238  -6.9893  -6.9759  -6.9467  -6.9255  -6.8376  -6.8034
    -6.7939  -6.6872  -6.5934  -6.5785  -6.5427  -6.5001  -6.4507  -6.3436
    -6.3143  -6.2974  -6.2839  -6.2664  -6.1294  -6.1219  -6.0549  -6.0025
    -5.9320  -5.9257  -5.8120  -5.7741  -5.6848  -5.6628  -5.6525  -5.5478
    -5.5056  -5.4953  -5.4883  -5.4493  -5.4354  -5.3926  -5.3632  -5.2465
    -5.2413  -5.1732  -5.1640  -5.1333  -5.0271  -4.9405  -4.7315  -4.5934
    -4.4355  -4.1634  -3.8085  -3.4970  -3.0245  -2.4093  -1.8808  -1.4391
    -1.2180  -0.8344  -0.5441  -0.2193   0.0086   0.2892   0.4314   0.8022
     1.2575

     occupation numbers 
     1.0000   1.0000   1.0000   1.0000   1.0000   1.0000   1.0000   1.0000
     1.0000   1.0000   1.0000   1.0000   1.0000   1.0000   1.0000   1.0000
     1.0000   1.0000   1.0000   1.0000   1.0000   1.0000   1.0000   1.0000
     1.0000   1.0000   1.0000   1.0000   1.0000   1.0000   1.0000   1.0000
     1.0000   1.0000   1.0000   1.0000   1.0000   1.0000   1.0000   1.0000
     1.0000   1.0000   1.0000   1.0000   1.0000   1.0000   1.0000   1.0000
     1.0000   1.0000   1.0000   1.0000   1.0000   1.0000   1.0000   1.0000
     1.0000   1.0000   1.0000   1.0000   1.0000   1.0000   1.0000   1.0000
     1.0000   1.0000   1.0000   1.0000   1.0000   1.0000   1.0000   1.0000
     1.0000   1.0000   1.0000   1.0000   1.0000   1.0000   1.0000   1.0000
     1.0000   1.0000   1.0000   1.0000   1.0000   1.0000   1.0000   1.0000
     1.0000   1.0000   1.0000   1.0000   1.0000   1.0000   1.0000   1.0000
     1.0000   1.0000   1.0000   1.0000   1.0000   1.0000   1.0000   1.0001
     1.0005   1.0005   1.0061   1.0118   1.0399   1.0498   1.0547   1.0815
     1.0566   1.0453   1.0362   0.9656   0.9319   0.8042   0.7004   0.2886
     0.2736   0.1222   0.1078   0.0690   0.0105   0.0015   0.0000   0.0000
     0.0000   0.0000   0.0000   0.0000   0.0000   0.0000   0.0000   0.0000
     0.0000   0.0000   0.0000   0.0000   0.0000   0.0000   0.0000   0.0000
     0.0000

          k = 0.1875-0.3248 0.0000 ( 44577 PWs)   bands (ev):

   -11.9431 -11.6569 -11.0177 -10.4634 -10.4619 -10.4539 -10.4511 -10.4440
   -10.3315 -10.2518 -10.2321 -10.2309 -10.1555 -10.1060 -10.1010 -10.0408
   -10.0221 -10.0026  -9.9849  -9.8999  -9.7979  -9.7877  -9.7620  -9.7210
    -9.6991  -9.6849  -9.5751  -9.5202  -9.4914  -9.3699  -9.2010  -9.1940
    -9.1488  -9.0810  -8.9701  -8.9251  -8.9067  -8.8441  -8.8045  -8.7604
    -8.6532  -8.5515  -8.4781  -8.3936  -8.3671  -8.3100  -8.2591  -8.2530
    -8.2097  -8.1740  -8.1502  -8.1310  -8.0864  -8.0225  -7.9946  -7.9323
    -7.9299  -7.8934  -7.8734  -7.8570  -7.8330  -7.8219  -7.7093  -7.6936
    -7.6716  -7.6184  -7.6084  -7.5430  -7.5365  -7.4988  -7.4467  -7.3901
    -7.3629  -7.2914  -7.2126  -7.1966  -7.1253  -7.0668  -6.9400  -6.9112
    -6.9046  -6.8973  -6.8755  -6.8222  -6.7761  -6.7166  -6.6998  -6.6763
    -6.6372  -6.6209  -6.4464  -6.4439  -6.4246  -6.3758  -6.3394  -6.2116
    -6.1820  -6.1471  -6.1446  -6.1145  -6.0972  -5.9770  -5.9503  -5.9221
    -5.8883  -5.8136  -5.8073  -5.6876  -5.6226  -5.6138  -5.5419  -5.5310
    -5.4858  -5.4409  -5.4202  -5.4187  -5.3850  -5.3746  -5.3641  -5.2275
    -5.1954  -5.1529  -5.1496  -5.1190  -4.7529  -4.6980  -4.5383  -4.4468
    -4.3199  -4.1162  -4.0539  -3.2566  -2.9528  -2.7524  -1.8424  -1.5293
    -1.3113  -1.2396  -0.8422  -0.4762  -0.1154   0.2451   0.3916   0.5028
     0.6430

     occupation numbers 
     1.0000   1.0000   1.0000   1.0000   1.0000   1.0000   1.0000   1.0000
     1.0000   1.0000   1.0000   1.0000   1.0000   1.0000   1.0000   1.0000
     1.0000   1.0000   1.0000   1.0000   1.0000   1.0000   1.0000   1.0000
     1.0000   1.0000   1.0000   1.0000   1.0000   1.0000   1.0000   1.0000
     1.0000   1.0000   1.0000   1.0000   1.0000   1.0000   1.0000   1.0000
     1.0000   1.0000   1.0000   1.0000   1.0000   1.0000   1.0000   1.0000
     1.0000   1.0000   1.0000   1.0000   1.0000   1.0000   1.0000   1.0000
     1.0000   1.0000   1.0000   1.0000   1.0000   1.0000   1.0000   1.0000
     1.0000   1.0000   1.0000   1.0000   1.0000   1.0000   1.0000   1.0000
     1.0000   1.0000   1.0000   1.0000   1.0000   1.0000   1.0000   1.0000
     1.0000   1.0000   1.0000   1.0000   1.0000   1.0000   1.0000   1.0000
     1.0000   1.0000   1.0000   1.0000   1.0000   1.0000   1.0000   1.0000
     1.0000   1.0000   1.0000   1.0000   1.0000   1.0001   1.0003   1.0006
     1.0013   1.0059   1.0067   1.0387   1.0683   1.0720   1.0799   1.0754
     1.0327   0.9456   0.8905   0.8861   0.7784   0.7416   0.7038   0.2364
     0.1626   0.0922   0.0880   0.0553   0.0000   0.0000   0.0000   0.0000
     0.0000   0.0000   0.0000   0.0000   0.0000   0.0000   0.0000   0.0000
     0.0000   0.0000   0.0000   0.0000   0.0000   0.0000   0.0000   0.0000
     0.0000

          k = 0.1875-0.2526 0.0000 ( 44582 PWs)   bands (ev):

   -12.1142 -11.8481 -11.2044 -10.5983 -10.5724 -10.5700 -10.5573 -10.5197
   -10.4882 -10.4186 -10.3409 -10.3187 -10.3097 -10.2462 -10.2132 -10.1945
   -10.1314 -10.1048 -10.0659 -10.0522  -9.9230  -9.8791  -9.8666  -9.8513
    -9.8287  -9.7967  -9.7051  -9.6518  -9.6107  -9.4794  -9.3232  -9.2406
    -9.2268  -9.0131  -8.9040  -8.8297  -8.8127  -8.7926  -8.7508  -8.6379
    -8.5577  -8.4566  -8.4107  -8.3840  -8.3393  -8.2221  -8.2166  -8.2062
    -8.1542  -8.1111  -8.0932  -8.0757  -8.0381  -7.9896  -7.9580  -7.9522
    -7.9427  -7.9271  -7.8784  -7.8517  -7.8208  -7.7876  -7.7442  -7.7009
    -7.6478  -7.6097  -7.5316  -7.4809  -7.4412  -7.4146  -7.3931  -7.3417
    -7.3339  -7.3042  -7.2691  -7.0050  -6.9754  -6.9389  -6.8918  -6.8767
    -6.8468  -6.7732  -6.7002  -6.6491  -6.5666  -6.5380  -6.4639  -6.4192
    -6.4079  -6.3751  -6.3466  -6.3286  -6.3110  -6.2853  -6.1936  -6.1259
    -5.9751  -5.9639  -5.9527  -5.9156  -5.9060  -5.8748  -5.8488  -5.7984
    -5.7568  -5.7297  -5.6887  -5.6377  -5.6036  -5.5652  -5.5519  -5.4468
    -5.4250  -5.4131  -5.3878  -5.3811  -5.3706  -5.3554  -5.3327  -5.2448
    -5.1890  -5.1325  -5.0650  -5.0519  -4.8619  -4.6097  -4.4382  -4.2461
    -4.2013  -3.9049  -3.6370  -3.2767  -3.0151  -2.5784  -2.2528  -1.8730
    -1.5377  -1.3039  -1.0264  -0.8644  -0.4910  -0.0640   0.2179   0.4382
     0.7700

     occupation numbers 
     1.0000   1.0000   1.0000   1.0000   1.0000   1.0000   1.0000   1.0000
     1.0000   1.0000   1.0000   1.0000   1.0000   1.0000   1.0000   1.0000
     1.0000   1.0000   1.0000   1.0000   1.0000   1.0000   1.0000   1.0000
     1.0000   1.0000   1.0000   1.0000   1.0000   1.0000   1.0000   1.0000
     1.0000   1.0000   1.0000   1.0000   1.0000   1.0000   1.0000   1.0000
     1.0000   1.0000   1.0000   1.0000   1.0000   1.0000   1.0000   1.0000
     1.0000   1.0000   1.0000   1.0000   1.0000   1.0000   1.0000   1.0000
     1.0000   1.0000   1.0000   1.0000   1.0000   1.0000   1.0000   1.0000
     1.0000   1.0000   1.0000   1.0000   1.0000   1.0000   1.0000   1.0000
     1.0000   1.0000   1.0000   1.0000   1.0000   1.0000   1.0000   1.0000
     1.0000   1.0000   1.0000   1.0000   1.0000   1.0000   1.0000   1.0000
     1.0000   1.0000   1.0000   1.0000   1.0000   1.0000   1.0000   1.0000
     1.0001   1.0002   1.0003   1.0007   1.0009   1.0017   1.0030   1.0078
     1.0155   1.0230   1.0382   1.0616   1.0758   1.0833   1.0823   0.9598
     0.9041   0.8694   0.7878   0.7647   0.7273   0.6717   0.5862   0.2837
     0.1502   0.0681   0.0218   0.0170   0.0002   0.0000   0.0000   0.0000
     0.0000   0.0000   0.0000   0.0000   0.0000   0.0000   0.0000   0.0000
     0.0000   0.0000   0.0000   0.0000   0.0000   0.0000   0.0000   0.0000
     0.0000

          k = 0.1875-0.1804 0.0000 ( 44582 PWs)   bands (ev):

   -12.2635 -11.9921 -11.3539 -10.7076 -10.6757 -10.6656 -10.6541 -10.6351
   -10.5542 -10.5292 -10.4477 -10.4232 -10.3887 -10.3510 -10.3462 -10.2728
   -10.2254 -10.2176 -10.1983 -10.1018 -10.0406  -9.9935  -9.9539  -9.9386
    -9.9287  -9.8754  -9.8111  -9.7718  -9.6953  -9.6088  -9.3928  -9.2889
    -9.2719  -8.9689  -8.8705  -8.7820  -8.7266  -8.7064  -8.6495  -8.5490
    -8.5352  -8.4501  -8.3730  -8.3152  -8.2637  -8.2565  -8.2226  -8.2022
    -8.1453  -8.1087  -8.0972  -8.0464  -8.0244  -8.0176  -7.9961  -7.9461
    -7.9224  -7.8691  -7.8340  -7.8281  -7.8048  -7.7804  -7.7540  -7.6935
    -7.6411  -7.6214  -7.5685  -7.5184  -7.5010  -7.4604  -7.3189  -7.1671
    -7.1496  -7.0934  -7.0472  -6.9536  -6.8878  -6.8586  -6.8393  -6.8202
    -6.7777  -6.6639  -6.5566  -6.5013  -6.4449  -6.3625  -6.3201  -6.2876
    -6.2726  -6.2569  -6.2400  -6.1819  -6.1340  -6.1190  -6.0522  -5.9327
    -5.8646  -5.8516  -5.8304  -5.7605  -5.7001  -5.6800  -5.6753  -5.6466
    -5.6359  -5.6212  -5.5842  -5.5608  -5.5265  -5.5010  -5.4696  -5.4472
    -5.3937  -5.3708  -5.3463  -5.3285  -5.3224  -5.3178  -5.2892  -5.1756
    -5.1683  -5.1021  -5.0143  -4.9936  -4.9889  -4.7817  -4.4624  -4.2217
    -3.7922  -3.6280  -3.2625  -3.0945  -2.8706  -2.6793  -2.5306  -2.1539
    -1.9511  -1.5737  -1.3370  -1.0404  -0.6854  -0.3463   0.1497   0.4645
     0.7695

     occupation numbers 
     1.0000   1.0000   1.0000   1.0000   1.0000   1.0000   1.0000   1.0000
     1.0000   1.0000   1.0000   1.0000   1.0000   1.0000   1.0000   1.0000
     1.0000   1.0000   1.0000   1.0000   1.0000   1.0000   1.0000   1.0000
     1.0000   1.0000   1.0000   1.0000   1.0000   1.0000   1.0000   1.0000
     1.0000   1.0000   1.0000   1.0000   1.0000   1.0000   1.0000   1.0000
     1.0000   1.0000   1.0000   1.0000   1.0000   1.0000   1.0000   1.0000
     1.0000   1.0000   1.0000   1.0000   1.0000   1.0000   1.0000   1.0000
     1.0000   1.0000   1.0000   1.0000   1.0000   1.0000   1.0000   1.0000
     1.0000   1.0000   1.0000   1.0000   1.0000   1.0000   1.0000   1.0000
     1.0000   1.0000   1.0000   1.0000   1.0000   1.0000   1.0000   1.0000
     1.0000   1.0000   1.0000   1.0000   1.0000   1.0000   1.0000   1.0000
     1.0000   1.0000   1.0000   1.0000   1.0000   1.0000   1.0000   1.0004
     1.0022   1.0028   1.0043   1.0147   1.0335   1.0420   1.0441   1.0575
     1.0624   1.0690   1.0812   1.0832   1.0730   1.0518   1.0066   0.9606
     0.8078   0.7281   0.6376   0.5704   0.5474   0.5302   0.4263   0.1262
     0.1144   0.0419   0.0080   0.0051   0.0046   0.0000   0.0000   0.0000
     0.0000   0.0000   0.0000   0.0000   0.0000   0.0000   0.0000   0.0000
     0.0000   0.0000   0.0000   0.0000   0.0000   0.0000   0.0000   0.0000
     0.0000

          k = 0.2500-0.1443 0.0000 ( 44592 PWs)   bands (ev):

   -12.1879 -11.9211 -11.2801 -10.6723 -10.6475 -10.6062 -10.6061 -10.5920
   -10.4877 -10.4287 -10.4255 -10.3961 -10.3232 -10.3144 -10.3117 -10.2126
   -10.1849 -10.1786 -10.1312 -10.0103  -9.9798  -9.9627  -9.9216  -9.8943
    -9.8844  -9.8155  -9.7518  -9.7469  -9.6262  -9.5421  -9.3679  -9.2701
    -9.2417  -8.9863  -8.9043  -8.8250  -8.7536  -8.6697  -8.6537  -8.6421
    -8.5844  -8.4915  -8.3693  -8.3571  -8.2890  -8.2344  -8.2183  -8.1973
    -8.1233  -8.1094  -8.0766  -8.0612  -7.9967  -7.9932  -7.9868  -7.9582
    -7.9566  -7.8937  -7.8494  -7.8314  -7.7758  -7.7703  -7.7544  -7.7135
    -7.6436  -7.6151  -7.5630  -7.5014  -7.4910  -7.4504  -7.3807  -7.2786
    -7.2564  -7.1927  -7.0927  -6.9984  -6.9294  -6.8888  -6.8728  -6.8642
    -6.8328  -6.7802  -6.5963  -6.5234  -6.4592  -6.4563  -6.4258  -6.3787
    -6.3296  -6.3241  -6.2592  -6.2589  -6.2290  -6.2008  -6.1721  -5.9338
    -5.9019  -5.8975  -5.8770  -5.7883  -5.7809  -5.7534  -5.7342  -5.7249
    -5.7121  -5.6938  -5.6830  -5.6196  -5.6002  -5.5476  -5.5116  -5.5062
    -5.4500  -5.4154  -5.3834  -5.3578  -5.3303  -5.2995  -5.2964  -5.2548
    -5.1571  -5.1560  -5.1174  -4.9780  -4.9691  -4.9292  -4.7289  -4.5251
    -3.6642  -3.2281  -3.0288  -3.0144  -2.7008  -2.5614  -2.4556  -2.2446
    -2.1294  -1.6707  -1.4064  -1.3503  -0.3857  -0.1943   0.3186   0.7909
     0.8571

     occupation numbers 
     1.0000   1.0000   1.0000   1.0000   1.0000   1.0000   1.0000   1.0000
     1.0000   1.0000   1.0000   1.0000   1.0000   1.0000   1.0000   1.0000
     1.0000   1.0000   1.0000   1.0000   1.0000   1.0000   1.0000   1.0000
     1.0000   1.0000   1.0000   1.0000   1.0000   1.0000   1.0000   1.0000
     1.0000   1.0000   1.0000   1.0000   1.0000   1.0000   1.0000   1.0000
     1.0000   1.0000   1.0000   1.0000   1.0000   1.0000   1.0000   1.0000
     1.0000   1.0000   1.0000   1.0000   1.0000   1.0000   1.0000   1.0000
     1.0000   1.0000   1.0000   1.0000   1.0000   1.0000   1.0000   1.0000
     1.0000   1.0000   1.0000   1.0000   1.0000   1.0000   1.0000   1.0000
     1.0000   1.0000   1.0000   1.0000   1.0000   1.0000   1.0000   1.0000
     1.0000   1.0000   1.0000   1.0000   1.0000   1.0000   1.0000   1.0000
     1.0000   1.0000   1.0000   1.0000   1.0000   1.0000   1.0000   1.0004
     1.0009   1.0010   1.0017   1.0093   1.0106   1.0163   1.0216   1.0245
     1.0290   1.0361   1.0407   1.0696   1.0769   1.0814   1.0622   1.0572
     0.9671   0.8764   0.7727   0.6806   0.5771   0.4632   0.4519   0.3134
     0.0979   0.0965   0.0538   0.0036   0.0030   0.0011   0.0000   0.0000
     0.0000   0.0000   0.0000   0.0000   0.0000   0.0000   0.0000   0.0000
     0.0000   0.0000   0.0000   0.0000   0.0000   0.0000   0.0000   0.0000
     0.0000

          k = 0.2500-0.0722 0.0000 ( 44582 PWs)   bands (ev):

   -12.2635 -11.9921 -11.3539 -10.7076 -10.6757 -10.6656 -10.6541 -10.6351
   -10.5542 -10.5292 -10.4477 -10.4232 -10.3887 -10.3510 -10.3462 -10.2728
   -10.2254 -10.2176 -10.1983 -10.1018 -10.0406  -9.9935  -9.9539  -9.9386
    -9.9287  -9.8754  -9.8111  -9.7718  -9.6953  -9.6088  -9.3928  -9.2889
    -9.2719  -8.9689  -8.8705  -8.7820  -8.7266  -8.7064  -8.6495  -8.5490
    -8.5352  -8.4501  -8.3730  -8.3152  -8.2637  -8.2565  -8.2226  -8.2022
    -8.1453  -8.1087  -8.0972  -8.0464  -8.0244  -8.0176  -7.9961  -7.9461
    -7.9224  -7.8691  -7.8340  -7.8281  -7.8048  -7.7804  -7.7540  -7.6935
    -7.6411  -7.6214  -7.5685  -7.5184  -7.5010  -7.4604  -7.3189  -7.1671
    -7.1496  -7.0934  -7.0472  -6.9536  -6.8878  -6.8586  -6.8393  -6.8202
    -6.7777  -6.6639  -6.5566  -6.5013  -6.4449  -6.3625  -6.3201  -6.2876
    -6.2726  -6.2569  -6.2400  -6.1819  -6.1340  -6.1190  -6.0522  -5.9327
    -5.8646  -5.8516  -5.8304  -5.7605  -5.7001  -5.6800  -5.6753  -5.6466
    -5.6359  -5.6212  -5.5842  -5.5608  -5.5265  -5.5010  -5.4696  -5.4472
    -5.3937  -5.3708  -5.3463  -5.3285  -5.3224  -5.3178  -5.2892  -5.1756
    -5.1683  -5.1021  -5.0143  -4.9936  -4.9889  -4.7817  -4.4624  -4.2217
    -3.7922  -3.6280  -3.2625  -3.0945  -2.8706  -2.6793  -2.5306  -2.1539
    -1.9511  -1.5737  -1.3370  -1.0404  -0.6854  -0.3463   0.1497   0.4645
     0.7695

     occupation numbers 
     1.0000   1.0000   1.0000   1.0000   1.0000   1.0000   1.0000   1.0000
     1.0000   1.0000   1.0000   1.0000   1.0000   1.0000   1.0000   1.0000
     1.0000   1.0000   1.0000   1.0000   1.0000   1.0000   1.0000   1.0000
     1.0000   1.0000   1.0000   1.0000   1.0000   1.0000   1.0000   1.0000
     1.0000   1.0000   1.0000   1.0000   1.0000   1.0000   1.0000   1.0000
     1.0000   1.0000   1.0000   1.0000   1.0000   1.0000   1.0000   1.0000
     1.0000   1.0000   1.0000   1.0000   1.0000   1.0000   1.0000   1.0000
     1.0000   1.0000   1.0000   1.0000   1.0000   1.0000   1.0000   1.0000
     1.0000   1.0000   1.0000   1.0000   1.0000   1.0000   1.0000   1.0000
     1.0000   1.0000   1.0000   1.0000   1.0000   1.0000   1.0000   1.0000
     1.0000   1.0000   1.0000   1.0000   1.0000   1.0000   1.0000   1.0000
     1.0000   1.0000   1.0000   1.0000   1.0000   1.0000   1.0000   1.0004
     1.0022   1.0028   1.0043   1.0147   1.0335   1.0420   1.0441   1.0575
     1.0624   1.0690   1.0812   1.0832   1.0730   1.0518   1.0066   0.9606
     0.8078   0.7281   0.6376   0.5704   0.5475   0.5302   0.4263   0.1262
     0.1144   0.0419   0.0080   0.0051   0.0046   0.0000   0.0000   0.0000
     0.0000   0.0000   0.0000   0.0000   0.0000   0.0000   0.0000   0.0000
     0.0000   0.0000   0.0000   0.0000   0.0000   0.0000   0.0000   0.0000
     0.0000

          k = 0.2500 0.0000 0.0000 ( 44571 PWs)   bands (ev):

   -12.2895 -12.0158 -11.3788 -10.7068 -10.7027 -10.6923 -10.6706 -10.6051
   -10.5972 -10.5761 -10.4549 -10.4232 -10.4220 -10.3588 -10.3353 -10.3289
   -10.2385 -10.2243 -10.1823 -10.1745 -10.0589 -10.0005  -9.9575  -9.9563
    -9.9439  -9.9022  -9.8289  -9.7670  -9.7376  -9.6276  -9.3998  -9.2900
    -9.2875  -8.9624  -8.8485  -8.7900  -8.7294  -8.6824  -8.6656  -8.5215
    -8.4968  -8.4482  -8.3792  -8.3024  -8.2658  -8.2552  -8.2252  -8.2068
    -8.1609  -8.1107  -8.1029  -8.0414  -8.0327  -8.0225  -8.0034  -7.9313
    -7.8826  -7.8707  -7.8596  -7.8447  -7.8070  -7.7825  -7.7626  -7.6694
    -7.6432  -7.6222  -7.5577  -7.5228  -7.5137  -7.4357  -7.3072  -7.1290
    -7.1042  -7.0871  -7.0308  -6.9159  -6.8919  -6.8489  -6.8296  -6.7950
    -6.7505  -6.5887  -6.5658  -6.5042  -6.4539  -6.3466  -6.2785  -6.2634
    -6.2486  -6.2302  -6.2029  -6.1576  -6.1013  -6.0916  -6.0037  -5.9019
    -5.8851  -5.8518  -5.8319  -5.8100  -5.6676  -5.6606  -5.6387  -5.5997
    -5.5893  -5.5478  -5.5401  -5.5272  -5.5152  -5.4909  -5.4500  -5.4209
    -5.4154  -5.3810  -5.3567  -5.3406  -5.3373  -5.3204  -5.2426  -5.2313
    -5.1664  -5.0593  -5.0518  -5.0241  -4.8308  -4.4271  -4.3667  -4.0780
    -3.8558  -3.7392  -3.5140  -3.4850  -2.8987  -2.6463  -2.5174  -2.3107
    -1.7413  -1.3149  -1.0200  -0.9572  -0.7277  -0.5227  -0.4102   0.5428
     0.7107

     occupation numbers 
     1.0000   1.0000   1.0000   1.0000   1.0000   1.0000   1.0000   1.0000
     1.0000   1.0000   1.0000   1.0000   1.0000   1.0000   1.0000   1.0000
     1.0000   1.0000   1.0000   1.0000   1.0000   1.0000   1.0000   1.0000
     1.0000   1.0000   1.0000   1.0000   1.0000   1.0000   1.0000   1.0000
     1.0000   1.0000   1.0000   1.0000   1.0000   1.0000   1.0000   1.0000
     1.0000   1.0000   1.0000   1.0000   1.0000   1.0000   1.0000   1.0000
     1.0000   1.0000   1.0000   1.0000   1.0000   1.0000   1.0000   1.0000
     1.0000   1.0000   1.0000   1.0000   1.0000   1.0000   1.0000   1.0000
     1.0000   1.0000   1.0000   1.0000   1.0000   1.0000   1.0000   1.0000
     1.0000   1.0000   1.0000   1.0000   1.0000   1.0000   1.0000   1.0000
     1.0000   1.0000   1.0000   1.0000   1.0000   1.0000   1.0000   1.0000
     1.0000   1.0000   1.0000   1.0000   1.0000   1.0000   1.0001   1.0009
     1.0014   1.0028   1.0042   1.0063   1.0476   1.0509   1.0611   1.0771
     1.0801   1.0815   1.0793   1.0734   1.0652   1.0397   0.9671   0.8925
     0.8764   0.7644   0.6765   0.6161   0.6035   0.5401   0.2774   0.2464
     0.1115   0.0196   0.0170   0.0098   0.0001   0.0000   0.0000   0.0000
     0.0000   0.0000   0.0000   0.0000   0.0000   0.0000   0.0000   0.0000
     0.0000   0.0000   0.0000   0.0000   0.0000   0.0000   0.0000   0.0000
     0.0000

          k = 0.2500 0.0722 0.0000 ( 44582 PWs)   bands (ev):

   -12.2635 -11.9921 -11.3539 -10.7076 -10.6757 -10.6656 -10.6541 -10.6351
   -10.5542 -10.5292 -10.4477 -10.4232 -10.3887 -10.3510 -10.3462 -10.2728
   -10.2254 -10.2176 -10.1983 -10.1018 -10.0406  -9.9935  -9.9539  -9.9386
    -9.9287  -9.8754  -9.8111  -9.7718  -9.6953  -9.6088  -9.3928  -9.2889
    -9.2719  -8.9689  -8.8705  -8.7820  -8.7266  -8.7064  -8.6495  -8.5490
    -8.5352  -8.4501  -8.3730  -8.3152  -8.2637  -8.2565  -8.2226  -8.2022
    -8.1453  -8.1087  -8.0972  -8.0464  -8.0244  -8.0176  -7.9961  -7.9461
    -7.9224  -7.8691  -7.8340  -7.8281  -7.8048  -7.7804  -7.7540  -7.6935
    -7.6411  -7.6214  -7.5685  -7.5184  -7.5010  -7.4604  -7.3189  -7.1671
    -7.1496  -7.0934  -7.0472  -6.9536  -6.8878  -6.8586  -6.8393  -6.8202
    -6.7777  -6.6639  -6.5566  -6.5013  -6.4449  -6.3625  -6.3201  -6.2876
    -6.2726  -6.2569  -6.2400  -6.1819  -6.1340  -6.1190  -6.0522  -5.9327
    -5.8646  -5.8516  -5.8304  -5.7605  -5.7001  -5.6800  -5.6753  -5.6466
    -5.6359  -5.6212  -5.5842  -5.5608  -5.5265  -5.5010  -5.4696  -5.4472
    -5.3937  -5.3708  -5.3463  -5.3285  -5.3224  -5.3178  -5.2892  -5.1756
    -5.1683  -5.1021  -5.0143  -4.9936  -4.9889  -4.7817  -4.4624  -4.2217
    -3.7922  -3.6280  -3.2625  -3.0945  -2.8706  -2.6793  -2.5306  -2.1539
    -1.9511  -1.5737  -1.3370  -1.0404  -0.6854  -0.3463   0.1497   0.4645
     0.7695

     occupation numbers 
     1.0000   1.0000   1.0000   1.0000   1.0000   1.0000   1.0000   1.0000
     1.0000   1.0000   1.0000   1.0000   1.0000   1.0000   1.0000   1.0000
     1.0000   1.0000   1.0000   1.0000   1.0000   1.0000   1.0000   1.0000
     1.0000   1.0000   1.0000   1.0000   1.0000   1.0000   1.0000   1.0000
     1.0000   1.0000   1.0000   1.0000   1.0000   1.0000   1.0000   1.0000
     1.0000   1.0000   1.0000   1.0000   1.0000   1.0000   1.0000   1.0000
     1.0000   1.0000   1.0000   1.0000   1.0000   1.0000   1.0000   1.0000
     1.0000   1.0000   1.0000   1.0000   1.0000   1.0000   1.0000   1.0000
     1.0000   1.0000   1.0000   1.0000   1.0000   1.0000   1.0000   1.0000
     1.0000   1.0000   1.0000   1.0000   1.0000   1.0000   1.0000   1.0000
     1.0000   1.0000   1.0000   1.0000   1.0000   1.0000   1.0000   1.0000
     1.0000   1.0000   1.0000   1.0000   1.0000   1.0000   1.0000   1.0004
     1.0022   1.0028   1.0043   1.0147   1.0335   1.0420   1.0441   1.0575
     1.0624   1.0690   1.0812   1.0832   1.0730   1.0518   1.0066   0.9606
     0.8078   0.7281   0.6376   0.5704   0.5475   0.5302   0.4263   0.1262
     0.1144   0.0419   0.0080   0.0051   0.0046   0.0000   0.0000   0.0000
     0.0000   0.0000   0.0000   0.0000   0.0000   0.0000   0.0000   0.0000
     0.0000   0.0000   0.0000   0.0000   0.0000   0.0000   0.0000   0.0000
     0.0000

          k = 0.2500 0.1443 0.0000 ( 44592 PWs)   bands (ev):

   -12.1879 -11.9211 -11.2801 -10.6723 -10.6475 -10.6062 -10.6061 -10.5920
   -10.4877 -10.4287 -10.4255 -10.3961 -10.3232 -10.3144 -10.3117 -10.2126
   -10.1849 -10.1786 -10.1312 -10.0103  -9.9798  -9.9627  -9.9216  -9.8943
    -9.8844  -9.8155  -9.7518  -9.7469  -9.6262  -9.5421  -9.3679  -9.2701
    -9.2417  -8.9863  -8.9043  -8.8250  -8.7536  -8.6697  -8.6537  -8.6421
    -8.5844  -8.4915  -8.3693  -8.3571  -8.2890  -8.2344  -8.2183  -8.1973
    -8.1233  -8.1094  -8.0766  -8.0612  -7.9967  -7.9932  -7.9868  -7.9582
    -7.9566  -7.8937  -7.8494  -7.8314  -7.7758  -7.7703  -7.7544  -7.7135
    -7.6436  -7.6151  -7.5630  -7.5014  -7.4910  -7.4504  -7.3807  -7.2786
    -7.2564  -7.1927  -7.0927  -6.9984  -6.9294  -6.8888  -6.8728  -6.8642
    -6.8328  -6.7802  -6.5963  -6.5234  -6.4592  -6.4563  -6.4258  -6.3787
    -6.3296  -6.3241  -6.2592  -6.2589  -6.2290  -6.2008  -6.1721  -5.9338
    -5.9019  -5.8975  -5.8770  -5.7883  -5.7809  -5.7534  -5.7342  -5.7249
    -5.7121  -5.6938  -5.6830  -5.6196  -5.6002  -5.5476  -5.5116  -5.5062
    -5.4500  -5.4154  -5.3834  -5.3578  -5.3303  -5.2995  -5.2964  -5.2548
    -5.1571  -5.1560  -5.1174  -4.9780  -4.9691  -4.9292  -4.7289  -4.5251
    -3.6642  -3.2281  -3.0288  -3.0144  -2.7008  -2.5614  -2.4556  -2.2446
    -2.1294  -1.6707  -1.4064  -1.3503  -0.3857  -0.1943   0.3186   0.7909
     0.8571

     occupation numbers 
     1.0000   1.0000   1.0000   1.0000   1.0000   1.0000   1.0000   1.0000
     1.0000   1.0000   1.0000   1.0000   1.0000   1.0000   1.0000   1.0000
     1.0000   1.0000   1.0000   1.0000   1.0000   1.0000   1.0000   1.0000
     1.0000   1.0000   1.0000   1.0000   1.0000   1.0000   1.0000   1.0000
     1.0000   1.0000   1.0000   1.0000   1.0000   1.0000   1.0000   1.0000
     1.0000   1.0000   1.0000   1.0000   1.0000   1.0000   1.0000   1.0000
     1.0000   1.0000   1.0000   1.0000   1.0000   1.0000   1.0000   1.0000
     1.0000   1.0000   1.0000   1.0000   1.0000   1.0000   1.0000   1.0000
     1.0000   1.0000   1.0000   1.0000   1.0000   1.0000   1.0000   1.0000
     1.0000   1.0000   1.0000   1.0000   1.0000   1.0000   1.0000   1.0000
     1.0000   1.0000   1.0000   1.0000   1.0000   1.0000   1.0000   1.0000
     1.0000   1.0000   1.0000   1.0000   1.0000   1.0000   1.0000   1.0004
     1.0009   1.0010   1.0017   1.0093   1.0106   1.0163   1.0216   1.0245
     1.0290   1.0361   1.0407   1.0696   1.0769   1.0814   1.0622   1.0572
     0.9671   0.8764   0.7727   0.6806   0.5771   0.4632   0.4519   0.3134
     0.0979   0.0965   0.0538   0.0036   0.0030   0.0011   0.0000   0.0000
     0.0000   0.0000   0.0000   0.0000   0.0000   0.0000   0.0000   0.0000
     0.0000   0.0000   0.0000   0.0000   0.0000   0.0000   0.0000   0.0000
     0.0000

          k = 0.2500 0.2165 0.0000 ( 44578 PWs)   bands (ev):

   -12.0706 -11.8027 -11.1601 -10.6120 -10.5935 -10.5268 -10.5255 -10.4812
   -10.3963 -10.3791 -10.3405 -10.2990 -10.2590 -10.2551 -10.1952 -10.1604
   -10.1139 -10.0757 -10.0239  -9.9528  -9.9007  -9.8688  -9.8419  -9.8243
    -9.8046  -9.7413  -9.6883  -9.6471  -9.5562  -9.4355  -9.3093  -9.2309
    -9.2021  -9.0170  -8.9367  -8.9019  -8.7864  -8.7698  -8.7169  -8.6662
    -8.5874  -8.5458  -8.4458  -8.4015  -8.3194  -8.2460  -8.2236  -8.1898
    -8.1418  -8.1171  -8.0746  -8.0604  -8.0217  -7.9943  -7.9766  -7.9503
    -7.9437  -7.9342  -7.8785  -7.8438  -7.8175  -7.7751  -7.7240  -7.6700
    -7.6313  -7.5961  -7.5229  -7.4991  -7.4692  -7.4429  -7.4325  -7.3960
    -7.3496  -7.3416  -7.2820  -7.0612  -7.0042  -6.9782  -6.9206  -6.8879
    -6.8761  -6.8467  -6.7108  -6.6533  -6.6303  -6.5890  -6.5021  -6.4824
    -6.4634  -6.4237  -6.3888  -6.3676  -6.3461  -6.2506  -6.2107  -6.1146
    -6.0215  -6.0034  -5.9784  -5.9684  -5.8956  -5.8732  -5.8641  -5.8416
    -5.8140  -5.7963  -5.7710  -5.6892  -5.6640  -5.6569  -5.5786  -5.5513
    -5.4790  -5.4129  -5.4018  -5.3630  -5.3319  -5.3232  -5.3152  -5.2764
    -5.1731  -5.1695  -5.1486  -5.0418  -4.9976  -4.9945  -4.8286  -4.3934
    -3.6838  -3.5286  -3.2536  -3.1011  -2.8388  -2.3424  -2.2046  -1.9772
    -1.8596  -1.6769  -1.4431  -0.8145  -0.5025   0.0810   0.2444   0.8388
     1.0662

     occupation numbers 
     1.0000   1.0000   1.0000   1.0000   1.0000   1.0000   1.0000   1.0000
     1.0000   1.0000   1.0000   1.0000   1.0000   1.0000   1.0000   1.0000
     1.0000   1.0000   1.0000   1.0000   1.0000   1.0000   1.0000   1.0000
     1.0000   1.0000   1.0000   1.0000   1.0000   1.0000   1.0000   1.0000
     1.0000   1.0000   1.0000   1.0000   1.0000   1.0000   1.0000   1.0000
     1.0000   1.0000   1.0000   1.0000   1.0000   1.0000   1.0000   1.0000
     1.0000   1.0000   1.0000   1.0000   1.0000   1.0000   1.0000   1.0000
     1.0000   1.0000   1.0000   1.0000   1.0000   1.0000   1.0000   1.0000
     1.0000   1.0000   1.0000   1.0000   1.0000   1.0000   1.0000   1.0000
     1.0000   1.0000   1.0000   1.0000   1.0000   1.0000   1.0000   1.0000
     1.0000   1.0000   1.0000   1.0000   1.0000   1.0000   1.0000   1.0000
     1.0000   1.0000   1.0000   1.0000   1.0000   1.0000   1.0000   1.0000
     1.0000   1.0001   1.0001   1.0002   1.0011   1.0018   1.0022   1.0035
     1.0059   1.0081   1.0124   1.0380   1.0493   1.0526   1.0822   1.0822
     1.0225   0.8688   0.8343   0.6995   0.5833   0.5504   0.5208   0.3824
     0.1220   0.1163   0.0867   0.0140   0.0056   0.0053   0.0001   0.0000
     0.0000   0.0000   0.0000   0.0000   0.0000   0.0000   0.0000   0.0000
     0.0000   0.0000   0.0000   0.0000   0.0000   0.0000   0.0000   0.0000
     0.0000

          k = 0.2500 0.2887 0.0000 ( 44558 PWs)   bands (ev):

   -11.9268 -11.6356 -10.9996 -10.5430 -10.4750 -10.4300 -10.4190 -10.3638
   -10.3247 -10.2559 -10.2361 -10.1843 -10.1590 -10.1525 -10.0680 -10.0400
   -10.0242  -9.9652  -9.9161  -9.8846  -9.8027  -9.7717  -9.7445  -9.7180
    -9.6811  -9.6626  -9.5821  -9.5211  -9.4729  -9.3405  -9.2011  -9.1741
    -9.1446  -9.0673  -9.0106  -8.9379  -8.8913  -8.8481  -8.7841  -8.7637
    -8.6485  -8.5706  -8.4861  -8.4740  -8.3472  -8.3212  -8.3007  -8.2097
    -8.1877  -8.1763  -8.1436  -8.1176  -8.0790  -8.0210  -7.9823  -7.9449
    -7.9316  -7.9014  -7.8725  -7.8482  -7.8206  -7.7846  -7.7167  -7.6896
    -7.6799  -7.6640  -7.5753  -7.5551  -7.5288  -7.4916  -7.4519  -7.4098
    -7.3729  -7.2909  -7.2381  -7.1999  -7.1785  -7.0387  -6.9771  -6.9356
    -6.9179  -6.8856  -6.8729  -6.8447  -6.8090  -6.7405  -6.7244  -6.6960
    -6.6783  -6.5487  -6.4611  -6.4576  -6.4398  -6.4072  -6.2881  -6.2498
    -6.1956  -6.1736  -6.1611  -6.1332  -6.0874  -5.9888  -5.9637  -5.9299
    -5.8771  -5.8632  -5.8348  -5.8003  -5.7069  -5.6586  -5.6206  -5.5625
    -5.4733  -5.4416  -5.4073  -5.3888  -5.3774  -5.3404  -5.2585  -5.2368
    -5.2114  -5.2006  -5.1764  -5.0688  -5.0664  -5.0020  -4.7940  -4.2077
    -4.0826  -3.8703  -3.6236  -3.4270  -2.8248  -2.4701  -1.8828  -1.6744
    -1.5631  -1.2161  -0.9645  -0.7335  -0.1879   0.0798   0.5038   0.8165
     0.9462

     occupation numbers 
     1.0000   1.0000   1.0000   1.0000   1.0000   1.0000   1.0000   1.0000
     1.0000   1.0000   1.0000   1.0000   1.0000   1.0000   1.0000   1.0000
     1.0000   1.0000   1.0000   1.0000   1.0000   1.0000   1.0000   1.0000
     1.0000   1.0000   1.0000   1.0000   1.0000   1.0000   1.0000   1.0000
     1.0000   1.0000   1.0000   1.0000   1.0000   1.0000   1.0000   1.0000
     1.0000   1.0000   1.0000   1.0000   1.0000   1.0000   1.0000   1.0000
     1.0000   1.0000   1.0000   1.0000   1.0000   1.0000   1.0000   1.0000
     1.0000   1.0000   1.0000   1.0000   1.0000   1.0000   1.0000   1.0000
     1.0000   1.0000   1.0000   1.0000   1.0000   1.0000   1.0000   1.0000
     1.0000   1.0000   1.0000   1.0000   1.0000   1.0000   1.0000   1.0000
     1.0000   1.0000   1.0000   1.0000   1.0000   1.0000   1.0000   1.0000
     1.0000   1.0000   1.0000   1.0000   1.0000   1.0000   1.0000   1.0000
     1.0000   1.0000   1.0000   1.0000   1.0000   1.0001   1.0002   1.0005
     1.0016   1.0022   1.0040   1.0076   1.0309   1.0518   1.0692   1.0833
     1.0131   0.9473   0.8519   0.7913   0.7517   0.6154   0.3247   0.2612
     0.1972   0.1733   0.1276   0.0234   0.0224   0.0062   0.0000   0.0000
     0.0000   0.0000   0.0000   0.0000   0.0000   0.0000   0.0000   0.0000
     0.0000   0.0000   0.0000   0.0000   0.0000   0.0000   0.0000   0.0000
     0.0000

          k = 0.2500 0.3608 0.0000 ( 44536 PWs)   bands (ev):

   -11.7776 -11.4198 -10.8090 -10.4470 -10.3332 -10.3232 -10.3168 -10.2921
   -10.1506 -10.1451 -10.0973 -10.0680 -10.0402  -9.9996  -9.9424  -9.9338
    -9.8803  -9.8731  -9.8321  -9.7454  -9.7073  -9.6895  -9.6439  -9.6114
    -9.5820  -9.5253  -9.4593  -9.3987  -9.3470  -9.2580  -9.1574  -9.1460
    -9.1135  -9.0606  -9.0173  -8.9879  -8.9743  -8.9083  -8.8868  -8.8100
    -8.7334  -8.6930  -8.5672  -8.4567  -8.4546  -8.4206  -8.4009  -8.3142
    -8.2902  -8.2657  -8.2279  -8.1949  -8.1499  -8.0543  -7.9969  -7.9726
    -7.9483  -7.9125  -7.8941  -7.8818  -7.8682  -7.8243  -7.8185  -7.8031
    -7.7785  -7.7567  -7.7193  -7.5102  -7.5037  -7.4565  -7.4423  -7.3848
    -7.3337  -7.3096  -7.2724  -7.2567  -7.1719  -7.1228  -7.0961  -7.0671
    -7.0329  -7.0238  -6.9893  -6.9759  -6.9467  -6.9255  -6.8376  -6.8034
    -6.7939  -6.6872  -6.5934  -6.5785  -6.5427  -6.5001  -6.4507  -6.3436
    -6.3143  -6.2974  -6.2839  -6.2664  -6.1294  -6.1219  -6.0549  -6.0025
    -5.9320  -5.9257  -5.8120  -5.7741  -5.6848  -5.6628  -5.6525  -5.5478
    -5.5056  -5.4953  -5.4883  -5.4493  -5.4354  -5.3926  -5.3632  -5.2465
    -5.2413  -5.1732  -5.1640  -5.1333  -5.0271  -4.9405  -4.7315  -4.5934
    -4.4355  -4.1634  -3.8085  -3.4970  -3.0245  -2.4093  -1.8808  -1.4391
    -1.2180  -0.8344  -0.5441  -0.2193   0.0086   0.2892   0.4314   0.8022
     1.2575

     occupation numbers 
     1.0000   1.0000   1.0000   1.0000   1.0000   1.0000   1.0000   1.0000
     1.0000   1.0000   1.0000   1.0000   1.0000   1.0000   1.0000   1.0000
     1.0000   1.0000   1.0000   1.0000   1.0000   1.0000   1.0000   1.0000
     1.0000   1.0000   1.0000   1.0000   1.0000   1.0000   1.0000   1.0000
     1.0000   1.0000   1.0000   1.0000   1.0000   1.0000   1.0000   1.0000
     1.0000   1.0000   1.0000   1.0000   1.0000   1.0000   1.0000   1.0000
     1.0000   1.0000   1.0000   1.0000   1.0000   1.0000   1.0000   1.0000
     1.0000   1.0000   1.0000   1.0000   1.0000   1.0000   1.0000   1.0000
     1.0000   1.0000   1.0000   1.0000   1.0000   1.0000   1.0000   1.0000
     1.0000   1.0000   1.0000   1.0000   1.0000   1.0000   1.0000   1.0000
     1.0000   1.0000   1.0000   1.0000   1.0000   1.0000   1.0000   1.0000
     1.0000   1.0000   1.0000   1.0000   1.0000   1.0000   1.0000   1.0000
     1.0000   1.0000   1.0000   1.0000   1.0000   1.0000   1.0000   1.0001
     1.0005   1.0005   1.0061   1.0118   1.0399   1.0498   1.0547   1.0815
     1.0566   1.0453   1.0362   0.9656   0.9319   0.8042   0.7004   0.2886
     0.2736   0.1222   0.1078   0.0690   0.0105   0.0015   0.0000   0.0000
     0.0000   0.0000   0.0000   0.0000   0.0000   0.0000   0.0000   0.0000
     0.0000   0.0000   0.0000   0.0000   0.0000   0.0000   0.0000   0.0000
     0.0000

          k = 0.2500-0.7217 0.0000 ( 44491 PWs)   bands (ev):

   -11.6454 -11.1632 -10.6060 -10.3370 -10.3321 -10.1885 -10.1747 -10.1726
   -10.0223 -10.0193  -9.9716  -9.9319  -9.9173  -9.8868  -9.8581  -9.7800
    -9.7618  -9.7592  -9.6466  -9.6382  -9.6363  -9.6202  -9.6032  -9.4867
    -9.4769  -9.4189  -9.3668  -9.3047  -9.2080  -9.1850  -9.1628  -9.1327
    -9.1273  -9.1155  -9.0644  -9.0394  -8.9912  -8.8884  -8.8601  -8.8407
    -8.8086  -8.7721  -8.6416  -8.6381  -8.6119  -8.4843  -8.4469  -8.4415
    -8.3647  -8.3390  -8.3130  -8.2762  -8.2694  -8.1855  -8.1294  -8.1002
    -8.0087  -7.9802  -7.9679  -7.9143  -7.9041  -7.8553  -7.8362  -7.8244
    -7.7805  -7.7701  -7.7060  -7.6631  -7.6375  -7.5866  -7.4798  -7.4500
    -7.4381  -7.3910  -7.3772  -7.3111  -7.2368  -7.2153  -7.2015  -7.1642
    -7.1474  -7.0777  -6.9611  -6.9425  -6.9046  -6.8845  -6.8739  -6.8326
    -6.8114  -6.8019  -6.6793  -6.6248  -6.5960  -6.5956  -6.5034  -6.4191
    -6.3909  -6.3456  -6.3134  -6.2798  -6.1619  -6.1439  -6.0873  -6.0701
    -6.0185  -6.0117  -5.7833  -5.7324  -5.6958  -5.6774  -5.6464  -5.6411
    -5.5525  -5.5356  -5.5239  -5.5133  -5.5048  -5.4723  -5.4233  -5.2809
    -5.2725  -5.2658  -5.2601  -5.0780  -5.0234  -4.9591  -4.9145  -4.8148
    -4.6539  -4.5957  -3.6894  -3.3901  -3.3773  -2.1708  -1.8328  -1.7776
    -0.7721  -0.3074  -0.1323  -0.0208   0.0794   0.3166   0.6758   1.1761
     1.4306

     occupation numbers 
     1.0000   1.0000   1.0000   1.0000   1.0000   1.0000   1.0000   1.0000
     1.0000   1.0000   1.0000   1.0000   1.0000   1.0000   1.0000   1.0000
     1.0000   1.0000   1.0000   1.0000   1.0000   1.0000   1.0000   1.0000
     1.0000   1.0000   1.0000   1.0000   1.0000   1.0000   1.0000   1.0000
     1.0000   1.0000   1.0000   1.0000   1.0000   1.0000   1.0000   1.0000
     1.0000   1.0000   1.0000   1.0000   1.0000   1.0000   1.0000   1.0000
     1.0000   1.0000   1.0000   1.0000   1.0000   1.0000   1.0000   1.0000
     1.0000   1.0000   1.0000   1.0000   1.0000   1.0000   1.0000   1.0000
     1.0000   1.0000   1.0000   1.0000   1.0000   1.0000   1.0000   1.0000
     1.0000   1.0000   1.0000   1.0000   1.0000   1.0000   1.0000   1.0000
     1.0000   1.0000   1.0000   1.0000   1.0000   1.0000   1.0000   1.0000
     1.0000   1.0000   1.0000   1.0000   1.0000   1.0000   1.0000   1.0000
     1.0000   1.0000   1.0000   1.0000   1.0000   1.0000   1.0000   1.0000
     1.0000   1.0001   1.0101   1.0222   1.0353   1.0432   1.0575   1.0600
     1.0824   1.0776   1.0714   1.0637   1.0558   1.0115   0.8992   0.3976
     0.3696   0.3478   0.3296   0.0276   0.0097   0.0023   0.0008   0.0000
     0.0000   0.0000   0.0000   0.0000   0.0000   0.0000   0.0000   0.0000
     0.0000   0.0000   0.0000   0.0000   0.0000   0.0000   0.0000   0.0000
     0.0000

          k = 0.2500-0.6495 0.0000 ( 44485 PWs)   bands (ev):

   -11.5524 -10.8854 -10.4223 -10.4141 -10.2257 -10.1720 -10.0970 -10.0490
    -9.9546  -9.8926  -9.8724  -9.8492  -9.8064  -9.7951  -9.7461  -9.6693
    -9.6441  -9.6351  -9.5947  -9.5713  -9.5548  -9.5227  -9.4581  -9.3968
    -9.3811  -9.3634  -9.3502  -9.2792  -9.2556  -9.1877  -9.1556  -9.1471
    -9.1395  -9.1346  -9.0575  -9.0482  -9.0365  -8.8940  -8.8624  -8.8529
    -8.8473  -8.7790  -8.7510  -8.7109  -8.6816  -8.6085  -8.5832  -8.4577
    -8.4495  -8.3766  -8.3188  -8.2961  -8.2790  -8.2322  -8.1969  -8.1257
    -8.0867  -8.0716  -8.0615  -8.0309  -7.9813  -7.9558  -7.8990  -7.8845
    -7.8414  -7.8269  -7.7748  -7.7338  -7.7037  -7.6540  -7.6398  -7.6094
    -7.5477  -7.5062  -7.4402  -7.4373  -7.2741  -7.2086  -7.1562  -7.1381
    -7.0528  -7.0240  -7.0053  -6.9822  -6.9671  -6.9366  -6.9204  -6.8480
    -6.7202  -6.6947  -6.6821  -6.6255  -6.6058  -6.5426  -6.4764  -6.4275
    -6.3755  -6.3593  -6.3198  -6.2369  -6.2039  -6.1667  -6.1444  -6.1055
    -5.9955  -5.9363  -5.8644  -5.8165  -5.7250  -5.6999  -5.6762  -5.6579
    -5.6177  -5.5818  -5.5531  -5.5252  -5.5102  -5.4709  -5.4326  -5.4160
    -5.3625  -5.3506  -5.3384  -5.2887  -5.2808  -5.1318  -4.9660  -4.9136
    -4.6612  -4.4768  -3.9072  -3.4791  -3.0997  -2.3637  -1.9113  -1.5188
    -0.6671  -0.2465  -0.0882   0.0966   0.4115   0.7314   0.9491   1.1293
     1.4500

     occupation numbers 
     1.0000   1.0000   1.0000   1.0000   1.0000   1.0000   1.0000   1.0000
     1.0000   1.0000   1.0000   1.0000   1.0000   1.0000   1.0000   1.0000
     1.0000   1.0000   1.0000   1.0000   1.0000   1.0000   1.0000   1.0000
     1.0000   1.0000   1.0000   1.0000   1.0000   1.0000   1.0000   1.0000
     1.0000   1.0000   1.0000   1.0000   1.0000   1.0000   1.0000   1.0000
     1.0000   1.0000   1.0000   1.0000   1.0000   1.0000   1.0000   1.0000
     1.0000   1.0000   1.0000   1.0000   1.0000   1.0000   1.0000   1.0000
     1.0000   1.0000   1.0000   1.0000   1.0000   1.0000   1.0000   1.0000
     1.0000   1.0000   1.0000   1.0000   1.0000   1.0000   1.0000   1.0000
     1.0000   1.0000   1.0000   1.0000   1.0000   1.0000   1.0000   1.0000
     1.0000   1.0000   1.0000   1.0000   1.0000   1.0000   1.0000   1.0000
     1.0000   1.0000   1.0000   1.0000   1.0000   1.0000   1.0000   1.0000
     1.0000   1.0000   1.0000   1.0000   1.0000   1.0000   1.0000   1.0000
     1.0001   1.0004   1.0022   1.0056   1.0245   1.0336   1.0437   1.0522
     1.0704   1.0817   1.0825   1.0722   1.0609   1.0090   0.9246   0.8782
     0.6979   0.6535   0.6079   0.4247   0.3975   0.0674   0.0028   0.0008
     0.0000   0.0000   0.0000   0.0000   0.0000   0.0000   0.0000   0.0000
     0.0000   0.0000   0.0000   0.0000   0.0000   0.0000   0.0000   0.0000
     0.0000

          k = 0.2500-0.5774 0.0000 ( 44432 PWs)   bands (ev):

   -11.5186 -10.6202 -10.6179 -10.2796 -10.2615 -10.1655 -10.0929  -9.9175
    -9.9010  -9.8884  -9.8622  -9.8478  -9.7720  -9.7566  -9.6761  -9.6295
    -9.6044  -9.6007  -9.5080  -9.4994  -9.4646  -9.4551  -9.4291  -9.4212
    -9.3452  -9.3434  -9.3374  -9.3041  -9.2551  -9.2252  -9.1992  -9.1883
    -9.1354  -9.1201  -9.0919  -9.0496  -9.0366  -8.9959  -8.8559  -8.8444
    -8.8261  -8.8200  -8.8029  -8.7669  -8.6687  -8.5933  -8.5609  -8.5363
    -8.3657  -8.3451  -8.3357  -8.3037  -8.2830  -8.2211  -8.1714  -8.1604
    -8.1343  -8.1142  -8.1027  -8.0763  -8.0485  -7.9970  -7.9831  -7.9656
    -7.9438  -7.9383  -7.8511  -7.7599  -7.7058  -7.6381  -7.6301  -7.5840
    -7.5468  -7.5225  -7.4873  -7.4705  -7.2982  -7.2385  -7.2246  -7.1136
    -7.0865  -7.0075  -6.9950  -6.9665  -6.9461  -6.9204  -6.8642  -6.8243
    -6.8156  -6.7148  -6.6210  -6.6050  -6.5415  -6.4984  -6.4830  -6.4209
    -6.3973  -6.3622  -6.3062  -6.2532  -6.2077  -6.1529  -6.1183  -6.0891
    -5.9352  -5.9160  -5.8435  -5.7696  -5.7531  -5.7171  -5.6948  -5.6889
    -5.6705  -5.6680  -5.5978  -5.5748  -5.5245  -5.5121  -5.4743  -5.4371
    -5.4263  -5.4099  -5.3860  -5.3553  -5.2940  -5.2823  -4.9404  -4.9232
    -4.6449  -4.2854  -4.1446  -3.4787  -2.8407  -2.6372  -1.9212  -1.2138
    -0.9644  -0.2063   0.1120   0.2793   0.4393   0.5434   1.0372   1.4169
     1.5685

     occupation numbers 
     1.0000   1.0000   1.0000   1.0000   1.0000   1.0000   1.0000   1.0000
     1.0000   1.0000   1.0000   1.0000   1.0000   1.0000   1.0000   1.0000
     1.0000   1.0000   1.0000   1.0000   1.0000   1.0000   1.0000   1.0000
     1.0000   1.0000   1.0000   1.0000   1.0000   1.0000   1.0000   1.0000
     1.0000   1.0000   1.0000   1.0000   1.0000   1.0000   1.0000   1.0000
     1.0000   1.0000   1.0000   1.0000   1.0000   1.0000   1.0000   1.0000
     1.0000   1.0000   1.0000   1.0000   1.0000   1.0000   1.0000   1.0000
     1.0000   1.0000   1.0000   1.0000   1.0000   1.0000   1.0000   1.0000
     1.0000   1.0000   1.0000   1.0000   1.0000   1.0000   1.0000   1.0000
     1.0000   1.0000   1.0000   1.0000   1.0000   1.0000   1.0000   1.0000
     1.0000   1.0000   1.0000   1.0000   1.0000   1.0000   1.0000   1.0000
     1.0000   1.0000   1.0000   1.0000   1.0000   1.0000   1.0000   1.0000
     1.0000   1.0000   1.0000   1.0000   1.0000   1.0000   1.0000   1.0000
     1.0004   1.0007   1.0033   1.0127   1.0164   1.0272   1.0357   1.0382
     1.0463   1.0474   1.0777   1.0827   1.0718   1.0626   1.0149   0.9361
     0.9078   0.8597   0.7818   0.6711   0.4434   0.4025   0.0015   0.0010
     0.0000   0.0000   0.0000   0.0000   0.0000   0.0000   0.0000   0.0000
     0.0000   0.0000   0.0000   0.0000   0.0000   0.0000   0.0000   0.0000
     0.0000

          k = 0.2500-0.5052 0.0000 ( 44485 PWs)   bands (ev):

   -11.5524 -10.8854 -10.4223 -10.4141 -10.2257 -10.1720 -10.0970 -10.0490
    -9.9546  -9.8926  -9.8724  -9.8492  -9.8064  -9.7951  -9.7461  -9.6693
    -9.6441  -9.6351  -9.5947  -9.5713  -9.5548  -9.5227  -9.4581  -9.3968
    -9.3811  -9.3634  -9.3502  -9.2792  -9.2556  -9.1877  -9.1556  -9.1471
    -9.1395  -9.1346  -9.0575  -9.0482  -9.0365  -8.8940  -8.8624  -8.8529
    -8.8473  -8.7790  -8.7510  -8.7109  -8.6816  -8.6085  -8.5832  -8.4577
    -8.4495  -8.3766  -8.3188  -8.2961  -8.2790  -8.2322  -8.1969  -8.1257
    -8.0867  -8.0716  -8.0615  -8.0309  -7.9813  -7.9558  -7.8990  -7.8845
    -7.8414  -7.8269  -7.7748  -7.7338  -7.7037  -7.6540  -7.6398  -7.6094
    -7.5477  -7.5062  -7.4402  -7.4373  -7.2741  -7.2086  -7.1562  -7.1381
    -7.0528  -7.0240  -7.0053  -6.9822  -6.9671  -6.9366  -6.9204  -6.8480
    -6.7202  -6.6947  -6.6821  -6.6255  -6.6058  -6.5426  -6.4764  -6.4275
    -6.3755  -6.3593  -6.3198  -6.2369  -6.2039  -6.1667  -6.1444  -6.1055
    -5.9955  -5.9363  -5.8644  -5.8165  -5.7250  -5.6999  -5.6762  -5.6579
    -5.6177  -5.5818  -5.5531  -5.5252  -5.5102  -5.4709  -5.4326  -5.4160
    -5.3625  -5.3506  -5.3384  -5.2887  -5.2808  -5.1318  -4.9660  -4.9136
    -4.6612  -4.4768  -3.9072  -3.4791  -3.0997  -2.3637  -1.9113  -1.5188
    -0.6671  -0.2465  -0.0882   0.0966   0.4115   0.7314   0.9491   1.1293
     1.4500

     occupation numbers 
     1.0000   1.0000   1.0000   1.0000   1.0000   1.0000   1.0000   1.0000
     1.0000   1.0000   1.0000   1.0000   1.0000   1.0000   1.0000   1.0000
     1.0000   1.0000   1.0000   1.0000   1.0000   1.0000   1.0000   1.0000
     1.0000   1.0000   1.0000   1.0000   1.0000   1.0000   1.0000   1.0000
     1.0000   1.0000   1.0000   1.0000   1.0000   1.0000   1.0000   1.0000
     1.0000   1.0000   1.0000   1.0000   1.0000   1.0000   1.0000   1.0000
     1.0000   1.0000   1.0000   1.0000   1.0000   1.0000   1.0000   1.0000
     1.0000   1.0000   1.0000   1.0000   1.0000   1.0000   1.0000   1.0000
     1.0000   1.0000   1.0000   1.0000   1.0000   1.0000   1.0000   1.0000
     1.0000   1.0000   1.0000   1.0000   1.0000   1.0000   1.0000   1.0000
     1.0000   1.0000   1.0000   1.0000   1.0000   1.0000   1.0000   1.0000
     1.0000   1.0000   1.0000   1.0000   1.0000   1.0000   1.0000   1.0000
     1.0000   1.0000   1.0000   1.0000   1.0000   1.0000   1.0000   1.0000
     1.0001   1.0004   1.0022   1.0056   1.0245   1.0336   1.0437   1.0522
     1.0704   1.0817   1.0825   1.0722   1.0609   1.0090   0.9246   0.8782
     0.6979   0.6535   0.6079   0.4247   0.3975   0.0674   0.0028   0.0008
     0.0000   0.0000   0.0000   0.0000   0.0000   0.0000   0.0000   0.0000
     0.0000   0.0000   0.0000   0.0000   0.0000   0.0000   0.0000   0.0000
     0.0000

          k = 0.2500-0.4330 0.0000 ( 44491 PWs)   bands (ev):

   -11.6454 -11.1632 -10.6060 -10.3370 -10.3321 -10.1885 -10.1747 -10.1726
   -10.0223 -10.0193  -9.9716  -9.9319  -9.9173  -9.8868  -9.8581  -9.7800
    -9.7618  -9.7592  -9.6466  -9.6382  -9.6363  -9.6202  -9.6032  -9.4867
    -9.4769  -9.4189  -9.3668  -9.3047  -9.2080  -9.1850  -9.1628  -9.1327
    -9.1273  -9.1155  -9.0644  -9.0394  -8.9912  -8.8884  -8.8601  -8.8407
    -8.8086  -8.7721  -8.6416  -8.6381  -8.6119  -8.4843  -8.4469  -8.4415
    -8.3647  -8.3390  -8.3130  -8.2762  -8.2694  -8.1855  -8.1294  -8.1002
    -8.0087  -7.9802  -7.9679  -7.9143  -7.9041  -7.8553  -7.8362  -7.8244
    -7.7805  -7.7701  -7.7060  -7.6631  -7.6375  -7.5866  -7.4798  -7.4500
    -7.4381  -7.3910  -7.3772  -7.3111  -7.2368  -7.2153  -7.2015  -7.1642
    -7.1474  -7.0777  -6.9611  -6.9425  -6.9046  -6.8845  -6.8739  -6.8326
    -6.8114  -6.8019  -6.6793  -6.6248  -6.5960  -6.5956  -6.5034  -6.4191
    -6.3909  -6.3456  -6.3134  -6.2798  -6.1619  -6.1439  -6.0873  -6.0701
    -6.0185  -6.0117  -5.7833  -5.7324  -5.6958  -5.6774  -5.6464  -5.6411
    -5.5525  -5.5356  -5.5239  -5.5133  -5.5048  -5.4723  -5.4233  -5.2809
    -5.2725  -5.2658  -5.2601  -5.0780  -5.0234  -4.9591  -4.9145  -4.8148
    -4.6539  -4.5957  -3.6894  -3.3901  -3.3773  -2.1708  -1.8328  -1.7776
    -0.7721  -0.3074  -0.1323  -0.0208   0.0794   0.3166   0.6758   1.1761
     1.4306

     occupation numbers 
     1.0000   1.0000   1.0000   1.0000   1.0000   1.0000   1.0000   1.0000
     1.0000   1.0000   1.0000   1.0000   1.0000   1.0000   1.0000   1.0000
     1.0000   1.0000   1.0000   1.0000   1.0000   1.0000   1.0000   1.0000
     1.0000   1.0000   1.0000   1.0000   1.0000   1.0000   1.0000   1.0000
     1.0000   1.0000   1.0000   1.0000   1.0000   1.0000   1.0000   1.0000
     1.0000   1.0000   1.0000   1.0000   1.0000   1.0000   1.0000   1.0000
     1.0000   1.0000   1.0000   1.0000   1.0000   1.0000   1.0000   1.0000
     1.0000   1.0000   1.0000   1.0000   1.0000   1.0000   1.0000   1.0000
     1.0000   1.0000   1.0000   1.0000   1.0000   1.0000   1.0000   1.0000
     1.0000   1.0000   1.0000   1.0000   1.0000   1.0000   1.0000   1.0000
     1.0000   1.0000   1.0000   1.0000   1.0000   1.0000   1.0000   1.0000
     1.0000   1.0000   1.0000   1.0000   1.0000   1.0000   1.0000   1.0000
     1.0000   1.0000   1.0000   1.0000   1.0000   1.0000   1.0000   1.0000
     1.0000   1.0001   1.0101   1.0222   1.0353   1.0432   1.0575   1.0600
     1.0824   1.0776   1.0714   1.0637   1.0558   1.0115   0.8992   0.3976
     0.3696   0.3478   0.3296   0.0276   0.0097   0.0023   0.0008   0.0000
     0.0000   0.0000   0.0000   0.0000   0.0000   0.0000   0.0000   0.0000
     0.0000   0.0000   0.0000   0.0000   0.0000   0.0000   0.0000   0.0000
     0.0000

          k = 0.2500-0.3608 0.0000 ( 44536 PWs)   bands (ev):

   -11.7776 -11.4198 -10.8090 -10.4470 -10.3332 -10.3232 -10.3168 -10.2921
   -10.1506 -10.1451 -10.0973 -10.0680 -10.0402  -9.9996  -9.9424  -9.9338
    -9.8803  -9.8731  -9.8321  -9.7454  -9.7073  -9.6895  -9.6439  -9.6114
    -9.5820  -9.5253  -9.4593  -9.3987  -9.3470  -9.2580  -9.1574  -9.1460
    -9.1135  -9.0606  -9.0173  -8.9879  -8.9743  -8.9083  -8.8868  -8.8100
    -8.7334  -8.6930  -8.5672  -8.4567  -8.4546  -8.4206  -8.4009  -8.3142
    -8.2902  -8.2657  -8.2279  -8.1949  -8.1499  -8.0543  -7.9969  -7.9726
    -7.9483  -7.9125  -7.8941  -7.8818  -7.8682  -7.8243  -7.8185  -7.8031
    -7.7785  -7.7567  -7.7193  -7.5102  -7.5037  -7.4565  -7.4423  -7.3848
    -7.3337  -7.3096  -7.2724  -7.2567  -7.1719  -7.1228  -7.0961  -7.0671
    -7.0329  -7.0238  -6.9893  -6.9759  -6.9467  -6.9255  -6.8376  -6.8034
    -6.7939  -6.6872  -6.5934  -6.5785  -6.5427  -6.5001  -6.4507  -6.3436
    -6.3143  -6.2974  -6.2839  -6.2664  -6.1294  -6.1219  -6.0549  -6.0025
    -5.9320  -5.9257  -5.8120  -5.7741  -5.6848  -5.6628  -5.6525  -5.5478
    -5.5056  -5.4953  -5.4883  -5.4493  -5.4354  -5.3926  -5.3632  -5.2465
    -5.2413  -5.1732  -5.1640  -5.1333  -5.0271  -4.9405  -4.7315  -4.5934
    -4.4355  -4.1634  -3.8085  -3.4970  -3.0245  -2.4093  -1.8808  -1.4391
    -1.2180  -0.8344  -0.5441  -0.2193   0.0086   0.2892   0.4314   0.8022
     1.2575

     occupation numbers 
     1.0000   1.0000   1.0000   1.0000   1.0000   1.0000   1.0000   1.0000
     1.0000   1.0000   1.0000   1.0000   1.0000   1.0000   1.0000   1.0000
     1.0000   1.0000   1.0000   1.0000   1.0000   1.0000   1.0000   1.0000
     1.0000   1.0000   1.0000   1.0000   1.0000   1.0000   1.0000   1.0000
     1.0000   1.0000   1.0000   1.0000   1.0000   1.0000   1.0000   1.0000
     1.0000   1.0000   1.0000   1.0000   1.0000   1.0000   1.0000   1.0000
     1.0000   1.0000   1.0000   1.0000   1.0000   1.0000   1.0000   1.0000
     1.0000   1.0000   1.0000   1.0000   1.0000   1.0000   1.0000   1.0000
     1.0000   1.0000   1.0000   1.0000   1.0000   1.0000   1.0000   1.0000
     1.0000   1.0000   1.0000   1.0000   1.0000   1.0000   1.0000   1.0000
     1.0000   1.0000   1.0000   1.0000   1.0000   1.0000   1.0000   1.0000
     1.0000   1.0000   1.0000   1.0000   1.0000   1.0000   1.0000   1.0000
     1.0000   1.0000   1.0000   1.0000   1.0000   1.0000   1.0000   1.0001
     1.0005   1.0005   1.0061   1.0118   1.0399   1.0498   1.0547   1.0815
     1.0566   1.0453   1.0362   0.9656   0.9319   0.8042   0.7004   0.2886
     0.2736   0.1222   0.1078   0.0690   0.0105   0.0015   0.0000   0.0000
     0.0000   0.0000   0.0000   0.0000   0.0000   0.0000   0.0000   0.0000
     0.0000   0.0000   0.0000   0.0000   0.0000   0.0000   0.0000   0.0000
     0.0000

          k = 0.2500-0.2887 0.0000 ( 44558 PWs)   bands (ev):

   -11.9268 -11.6356 -10.9996 -10.5430 -10.4750 -10.4300 -10.4190 -10.3638
   -10.3247 -10.2559 -10.2361 -10.1843 -10.1590 -10.1525 -10.0680 -10.0400
   -10.0242  -9.9652  -9.9161  -9.8846  -9.8027  -9.7717  -9.7445  -9.7180
    -9.6811  -9.6626  -9.5821  -9.5211  -9.4729  -9.3405  -9.2011  -9.1741
    -9.1446  -9.0673  -9.0106  -8.9379  -8.8913  -8.8481  -8.7841  -8.7637
    -8.6485  -8.5706  -8.4861  -8.4740  -8.3472  -8.3212  -8.3007  -8.2097
    -8.1877  -8.1763  -8.1436  -8.1176  -8.0790  -8.0210  -7.9823  -7.9449
    -7.9316  -7.9014  -7.8725  -7.8482  -7.8206  -7.7846  -7.7167  -7.6896
    -7.6799  -7.6640  -7.5753  -7.5551  -7.5288  -7.4916  -7.4519  -7.4098
    -7.3729  -7.2909  -7.2381  -7.1999  -7.1785  -7.0387  -6.9771  -6.9356
    -6.9179  -6.8856  -6.8729  -6.8447  -6.8090  -6.7405  -6.7244  -6.6960
    -6.6783  -6.5487  -6.4611  -6.4576  -6.4398  -6.4072  -6.2881  -6.2498
    -6.1956  -6.1736  -6.1611  -6.1332  -6.0874  -5.9888  -5.9637  -5.9299
    -5.8771  -5.8632  -5.8348  -5.8003  -5.7069  -5.6586  -5.6206  -5.5625
    -5.4733  -5.4416  -5.4073  -5.3888  -5.3774  -5.3404  -5.2585  -5.2368
    -5.2114  -5.2006  -5.1764  -5.0688  -5.0664  -5.0020  -4.7940  -4.2077
    -4.0826  -3.8703  -3.6236  -3.4270  -2.8248  -2.4701  -1.8828  -1.6744
    -1.5631  -1.2161  -0.9645  -0.7335  -0.1879   0.0798   0.5038   0.8165
     0.9462

     occupation numbers 
     1.0000   1.0000   1.0000   1.0000   1.0000   1.0000   1.0000   1.0000
     1.0000   1.0000   1.0000   1.0000   1.0000   1.0000   1.0000   1.0000
     1.0000   1.0000   1.0000   1.0000   1.0000   1.0000   1.0000   1.0000
     1.0000   1.0000   1.0000   1.0000   1.0000   1.0000   1.0000   1.0000
     1.0000   1.0000   1.0000   1.0000   1.0000   1.0000   1.0000   1.0000
     1.0000   1.0000   1.0000   1.0000   1.0000   1.0000   1.0000   1.0000
     1.0000   1.0000   1.0000   1.0000   1.0000   1.0000   1.0000   1.0000
     1.0000   1.0000   1.0000   1.0000   1.0000   1.0000   1.0000   1.0000
     1.0000   1.0000   1.0000   1.0000   1.0000   1.0000   1.0000   1.0000
     1.0000   1.0000   1.0000   1.0000   1.0000   1.0000   1.0000   1.0000
     1.0000   1.0000   1.0000   1.0000   1.0000   1.0000   1.0000   1.0000
     1.0000   1.0000   1.0000   1.0000   1.0000   1.0000   1.0000   1.0000
     1.0000   1.0000   1.0000   1.0000   1.0000   1.0001   1.0002   1.0005
     1.0016   1.0022   1.0040   1.0076   1.0309   1.0518   1.0692   1.0833
     1.0131   0.9473   0.8519   0.7913   0.7517   0.6154   0.3247   0.2612
     0.1972   0.1733   0.1276   0.0234   0.0224   0.0062   0.0000   0.0000
     0.0000   0.0000   0.0000   0.0000   0.0000   0.0000   0.0000   0.0000
     0.0000   0.0000   0.0000   0.0000   0.0000   0.0000   0.0000   0.0000
     0.0000

          k = 0.2500-0.2165 0.0000 ( 44578 PWs)   bands (ev):

   -12.0706 -11.8027 -11.1601 -10.6120 -10.5935 -10.5268 -10.5255 -10.4812
   -10.3963 -10.3791 -10.3405 -10.2990 -10.2590 -10.2551 -10.1952 -10.1604
   -10.1139 -10.0757 -10.0239  -9.9528  -9.9007  -9.8688  -9.8419  -9.8243
    -9.8046  -9.7413  -9.6883  -9.6471  -9.5562  -9.4355  -9.3093  -9.2309
    -9.2021  -9.0170  -8.9367  -8.9019  -8.7864  -8.7698  -8.7169  -8.6662
    -8.5874  -8.5458  -8.4458  -8.4015  -8.3194  -8.2460  -8.2236  -8.1898
    -8.1418  -8.1171  -8.0746  -8.0604  -8.0217  -7.9943  -7.9766  -7.9503
    -7.9437  -7.9342  -7.8785  -7.8438  -7.8175  -7.7751  -7.7240  -7.6700
    -7.6313  -7.5961  -7.5229  -7.4991  -7.4692  -7.4429  -7.4325  -7.3960
    -7.3496  -7.3416  -7.2820  -7.0612  -7.0042  -6.9782  -6.9206  -6.8879
    -6.8761  -6.8467  -6.7108  -6.6533  -6.6303  -6.5890  -6.5021  -6.4824
    -6.4634  -6.4237  -6.3888  -6.3676  -6.3461  -6.2506  -6.2107  -6.1146
    -6.0215  -6.0034  -5.9784  -5.9684  -5.8956  -5.8732  -5.8641  -5.8416
    -5.8140  -5.7963  -5.7710  -5.6892  -5.6640  -5.6569  -5.5786  -5.5513
    -5.4790  -5.4129  -5.4018  -5.3630  -5.3319  -5.3232  -5.3152  -5.2764
    -5.1731  -5.1695  -5.1486  -5.0418  -4.9976  -4.9945  -4.8286  -4.3934
    -3.6838  -3.5286  -3.2536  -3.1011  -2.8388  -2.3424  -2.2046  -1.9772
    -1.8596  -1.6769  -1.4431  -0.8145  -0.5025   0.0810   0.2444   0.8388
     1.0662

     occupation numbers 
     1.0000   1.0000   1.0000   1.0000   1.0000   1.0000   1.0000   1.0000
     1.0000   1.0000   1.0000   1.0000   1.0000   1.0000   1.0000   1.0000
     1.0000   1.0000   1.0000   1.0000   1.0000   1.0000   1.0000   1.0000
     1.0000   1.0000   1.0000   1.0000   1.0000   1.0000   1.0000   1.0000
     1.0000   1.0000   1.0000   1.0000   1.0000   1.0000   1.0000   1.0000
     1.0000   1.0000   1.0000   1.0000   1.0000   1.0000   1.0000   1.0000
     1.0000   1.0000   1.0000   1.0000   1.0000   1.0000   1.0000   1.0000
     1.0000   1.0000   1.0000   1.0000   1.0000   1.0000   1.0000   1.0000
     1.0000   1.0000   1.0000   1.0000   1.0000   1.0000   1.0000   1.0000
     1.0000   1.0000   1.0000   1.0000   1.0000   1.0000   1.0000   1.0000
     1.0000   1.0000   1.0000   1.0000   1.0000   1.0000   1.0000   1.0000
     1.0000   1.0000   1.0000   1.0000   1.0000   1.0000   1.0000   1.0000
     1.0000   1.0001   1.0001   1.0002   1.0011   1.0018   1.0022   1.0035
     1.0059   1.0081   1.0124   1.0380   1.0493   1.0526   1.0822   1.0822
     1.0225   0.8688   0.8343   0.6995   0.5833   0.5504   0.5208   0.3824
     0.1220   0.1163   0.0867   0.0140   0.0056   0.0053   0.0001   0.0000
     0.0000   0.0000   0.0000   0.0000   0.0000   0.0000   0.0000   0.0000
     0.0000   0.0000   0.0000   0.0000   0.0000   0.0000   0.0000   0.0000
     0.0000

          k = 0.3125-0.1804 0.0000 ( 44550 PWs)   bands (ev):

   -11.9890 -11.7110 -11.0729 -10.6226 -10.5532 -10.4656 -10.4642 -10.4106
   -10.3250 -10.3048 -10.2791 -10.2754 -10.2233 -10.1589 -10.1585 -10.1366
   -10.0222 -10.0171  -9.9508  -9.8610  -9.8439  -9.8256  -9.7895  -9.7623
    -9.7549  -9.6738  -9.6253  -9.6123  -9.5075  -9.3436  -9.2675  -9.2009
    -9.1656  -9.0365  -8.9850  -8.9575  -8.8062  -8.7332  -8.7169  -8.6968
    -8.6941  -8.5953  -8.5147  -8.4415  -8.3216  -8.3016  -8.2423  -8.1630
    -8.1552  -8.1501  -8.0709  -8.0187  -8.0120  -8.0070  -8.0043  -7.9741
    -7.9510  -7.9157  -7.8746  -7.8382  -7.7809  -7.7807  -7.6823  -7.6012
    -7.5815  -7.5793  -7.5689  -7.5573  -7.5559  -7.5103  -7.4584  -7.4288
    -7.3881  -7.3593  -7.2921  -7.1773  -7.1129  -6.9914  -6.9874  -6.9064
    -6.8893  -6.8885  -6.7950  -6.7865  -6.7175  -6.6517  -6.6405  -6.5868
    -6.5355  -6.4859  -6.4504  -6.4240  -6.4077  -6.2511  -6.2021  -6.1603
    -6.1052  -6.0879  -6.0773  -6.0364  -6.0360  -5.9349  -5.9281  -5.9244
    -5.9011  -5.8784  -5.8160  -5.8122  -5.8027  -5.7377  -5.6362  -5.5720
    -5.5172  -5.5024  -5.4281  -5.4165  -5.4010  -5.3572  -5.2833  -5.2830
    -5.2437  -5.1625  -5.1535  -5.1466  -5.1384  -4.9711  -4.9694  -4.2909
    -3.7577  -3.0983  -2.8790  -2.8517  -2.5955  -2.5376  -2.2736  -2.0633
    -1.9092  -1.8366  -1.3286  -1.1709  -0.2019   0.0675   0.1071   1.2577
     1.4018

     occupation numbers 
     1.0000   1.0000   1.0000   1.0000   1.0000   1.0000   1.0000   1.0000
     1.0000   1.0000   1.0000   1.0000   1.0000   1.0000   1.0000   1.0000
     1.0000   1.0000   1.0000   1.0000   1.0000   1.0000   1.0000   1.0000
     1.0000   1.0000   1.0000   1.0000   1.0000   1.0000   1.0000   1.0000
     1.0000   1.0000   1.0000   1.0000   1.0000   1.0000   1.0000   1.0000
     1.0000   1.0000   1.0000   1.0000   1.0000   1.0000   1.0000   1.0000
     1.0000   1.0000   1.0000   1.0000   1.0000   1.0000   1.0000   1.0000
     1.0000   1.0000   1.0000   1.0000   1.0000   1.0000   1.0000   1.0000
     1.0000   1.0000   1.0000   1.0000   1.0000   1.0000   1.0000   1.0000
     1.0000   1.0000   1.0000   1.0000   1.0000   1.0000   1.0000   1.0000
     1.0000   1.0000   1.0000   1.0000   1.0000   1.0000   1.0000   1.0000
     1.0000   1.0000   1.0000   1.0000   1.0000   1.0000   1.0000   1.0000
     1.0000   1.0000   1.0000   1.0000   1.0000   1.0004   1.0005   1.0005
     1.0010   1.0016   1.0057   1.0061   1.0073   1.0206   1.0623   1.0830
     1.0668   1.0533   0.9127   0.8797   0.8318   0.6782   0.4058   0.4048
     0.2806   0.1055   0.0930   0.0842   0.0745   0.0031   0.0030   0.0000
     0.0000   0.0000   0.0000   0.0000   0.0000   0.0000   0.0000   0.0000
     0.0000   0.0000   0.0000   0.0000   0.0000   0.0000   0.0000   0.0000
     0.0000

          k = 0.3125-0.1083 0.0000 ( 44578 PWs)   bands (ev):

   -12.0706 -11.8027 -11.1601 -10.6120 -10.5935 -10.5268 -10.5255 -10.4812
   -10.3963 -10.3791 -10.3405 -10.2990 -10.2590 -10.2551 -10.1952 -10.1604
   -10.1139 -10.0757 -10.0239  -9.9528  -9.9007  -9.8688  -9.8420  -9.8243
    -9.8046  -9.7413  -9.6883  -9.6471  -9.5562  -9.4355  -9.3093  -9.2309
    -9.2021  -9.0170  -8.9367  -8.9019  -8.7864  -8.7698  -8.7169  -8.6662
    -8.5874  -8.5458  -8.4458  -8.4015  -8.3194  -8.2460  -8.2236  -8.1898
    -8.1418  -8.1171  -8.0746  -8.0604  -8.0217  -7.9943  -7.9766  -7.9503
    -7.9437  -7.9342  -7.8785  -7.8438  -7.8175  -7.7751  -7.7240  -7.6700
    -7.6313  -7.5961  -7.5229  -7.4991  -7.4692  -7.4429  -7.4325  -7.3960
    -7.3496  -7.3416  -7.2820  -7.0612  -7.0042  -6.9782  -6.9206  -6.8879
    -6.8761  -6.8467  -6.7108  -6.6533  -6.6303  -6.5890  -6.5021  -6.4824
    -6.4634  -6.4237  -6.3888  -6.3676  -6.3461  -6.2506  -6.2107  -6.1146
    -6.0215  -6.0034  -5.9784  -5.9684  -5.8956  -5.8732  -5.8641  -5.8416
    -5.8140  -5.7963  -5.7710  -5.6892  -5.6640  -5.6569  -5.5786  -5.5513
    -5.4790  -5.4129  -5.4018  -5.3630  -5.3319  -5.3232  -5.3152  -5.2764
    -5.1731  -5.1695  -5.1486  -5.0418  -4.9976  -4.9945  -4.8286  -4.3934
    -3.6838  -3.5286  -3.2536  -3.1011  -2.8388  -2.3424  -2.2046  -1.9772
    -1.8596  -1.6769  -1.4431  -0.8145  -0.5025   0.0810   0.2444   0.8388
     1.0662

     occupation numbers 
     1.0000   1.0000   1.0000   1.0000   1.0000   1.0000   1.0000   1.0000
     1.0000   1.0000   1.0000   1.0000   1.0000   1.0000   1.0000   1.0000
     1.0000   1.0000   1.0000   1.0000   1.0000   1.0000   1.0000   1.0000
     1.0000   1.0000   1.0000   1.0000   1.0000   1.0000   1.0000   1.0000
     1.0000   1.0000   1.0000   1.0000   1.0000   1.0000   1.0000   1.0000
     1.0000   1.0000   1.0000   1.0000   1.0000   1.0000   1.0000   1.0000
     1.0000   1.0000   1.0000   1.0000   1.0000   1.0000   1.0000   1.0000
     1.0000   1.0000   1.0000   1.0000   1.0000   1.0000   1.0000   1.0000
     1.0000   1.0000   1.0000   1.0000   1.0000   1.0000   1.0000   1.0000
     1.0000   1.0000   1.0000   1.0000   1.0000   1.0000   1.0000   1.0000
     1.0000   1.0000   1.0000   1.0000   1.0000   1.0000   1.0000   1.0000
     1.0000   1.0000   1.0000   1.0000   1.0000   1.0000   1.0000   1.0000
     1.0000   1.0001   1.0001   1.0002   1.0011   1.0018   1.0022   1.0035
     1.0059   1.0081   1.0124   1.0380   1.0493   1.0526   1.0822   1.0822
     1.0225   0.8688   0.8343   0.6995   0.5833   0.5504   0.5208   0.3824
     0.1220   0.1163   0.0867   0.0140   0.0056   0.0053   0.0001   0.0000
     0.0000   0.0000   0.0000   0.0000   0.0000   0.0000   0.0000   0.0000
     0.0000   0.0000   0.0000   0.0000   0.0000   0.0000   0.0000   0.0000
     0.0000

          k = 0.3125-0.0361 0.0000 ( 44582 PWs)   bands (ev):

   -12.1142 -11.8481 -11.2044 -10.5983 -10.5724 -10.5700 -10.5573 -10.5197
   -10.4882 -10.4186 -10.3409 -10.3187 -10.3097 -10.2462 -10.2132 -10.1945
   -10.1314 -10.1048 -10.0659 -10.0522  -9.9230  -9.8791  -9.8666  -9.8513
    -9.8287  -9.7967  -9.7051  -9.6518  -9.6107  -9.4794  -9.3232  -9.2406
    -9.2268  -9.0131  -8.9040  -8.8298  -8.8127  -8.7926  -8.7508  -8.6379
    -8.5577  -8.4566  -8.4107  -8.3840  -8.3393  -8.2221  -8.2166  -8.2062
    -8.1542  -8.1110  -8.0932  -8.0757  -8.0381  -7.9896  -7.9580  -7.9522
    -7.9427  -7.9271  -7.8784  -7.8517  -7.8208  -7.7876  -7.7442  -7.7009
    -7.6478  -7.6097  -7.5316  -7.4809  -7.4412  -7.4146  -7.3931  -7.3417
    -7.3339  -7.3042  -7.2691  -7.0050  -6.9754  -6.9389  -6.8918  -6.8767
    -6.8468  -6.7732  -6.7002  -6.6491  -6.5666  -6.5380  -6.4639  -6.4192
    -6.4079  -6.3751  -6.3466  -6.3286  -6.3110  -6.2853  -6.1936  -6.1259
    -5.9751  -5.9639  -5.9527  -5.9156  -5.9060  -5.8748  -5.8488  -5.7984
    -5.7568  -5.7297  -5.6887  -5.6377  -5.6036  -5.5652  -5.5519  -5.4468
    -5.4250  -5.4131  -5.3878  -5.3811  -5.3706  -5.3554  -5.3327  -5.2448
    -5.1890  -5.1325  -5.0650  -5.0519  -4.8619  -4.6097  -4.4382  -4.2461
    -4.2013  -3.9049  -3.6370  -3.2767  -3.0151  -2.5784  -2.2528  -1.8730
    -1.5377  -1.3039  -1.0264  -0.8644  -0.4910  -0.0640   0.2179   0.4382
     0.7700

     occupation numbers 
     1.0000   1.0000   1.0000   1.0000   1.0000   1.0000   1.0000   1.0000
     1.0000   1.0000   1.0000   1.0000   1.0000   1.0000   1.0000   1.0000
     1.0000   1.0000   1.0000   1.0000   1.0000   1.0000   1.0000   1.0000
     1.0000   1.0000   1.0000   1.0000   1.0000   1.0000   1.0000   1.0000
     1.0000   1.0000   1.0000   1.0000   1.0000   1.0000   1.0000   1.0000
     1.0000   1.0000   1.0000   1.0000   1.0000   1.0000   1.0000   1.0000
     1.0000   1.0000   1.0000   1.0000   1.0000   1.0000   1.0000   1.0000
     1.0000   1.0000   1.0000   1.0000   1.0000   1.0000   1.0000   1.0000
     1.0000   1.0000   1.0000   1.0000   1.0000   1.0000   1.0000   1.0000
     1.0000   1.0000   1.0000   1.0000   1.0000   1.0000   1.0000   1.0000
     1.0000   1.0000   1.0000   1.0000   1.0000   1.0000   1.0000   1.0000
     1.0000   1.0000   1.0000   1.0000   1.0000   1.0000   1.0000   1.0000
     1.0001   1.0002   1.0003   1.0007   1.0009   1.0017   1.0030   1.0078
     1.0155   1.0230   1.0382   1.0616   1.0758   1.0833   1.0823   0.9598
     0.9041   0.8694   0.7878   0.7647   0.7273   0.6717   0.5862   0.2837
     0.1502   0.0681   0.0218   0.0170   0.0002   0.0000   0.0000   0.0000
     0.0000   0.0000   0.0000   0.0000   0.0000   0.0000   0.0000   0.0000
     0.0000   0.0000   0.0000   0.0000   0.0000   0.0000   0.0000   0.0000
     0.0000

          k = 0.3125 0.0361 0.0000 ( 44582 PWs)   bands (ev):

   -12.1142 -11.8481 -11.2044 -10.5983 -10.5724 -10.5700 -10.5573 -10.5197
   -10.4882 -10.4186 -10.3409 -10.3187 -10.3097 -10.2462 -10.2132 -10.1945
   -10.1314 -10.1048 -10.0659 -10.0522  -9.9230  -9.8791  -9.8666  -9.8513
    -9.8287  -9.7967  -9.7051  -9.6518  -9.6107  -9.4794  -9.3232  -9.2406
    -9.2268  -9.0131  -8.9040  -8.8298  -8.8127  -8.7926  -8.7508  -8.6379
    -8.5577  -8.4566  -8.4107  -8.3840  -8.3393  -8.2221  -8.2166  -8.2062
    -8.1542  -8.1110  -8.0932  -8.0757  -8.0381  -7.9896  -7.9580  -7.9522
    -7.9427  -7.9271  -7.8784  -7.8517  -7.8208  -7.7876  -7.7442  -7.7009
    -7.6478  -7.6097  -7.5316  -7.4809  -7.4412  -7.4146  -7.3931  -7.3417
    -7.3339  -7.3042  -7.2691  -7.0050  -6.9754  -6.9389  -6.8918  -6.8767
    -6.8468  -6.7732  -6.7002  -6.6491  -6.5666  -6.5380  -6.4639  -6.4192
    -6.4079  -6.3751  -6.3466  -6.3286  -6.3110  -6.2853  -6.1936  -6.1259
    -5.9751  -5.9639  -5.9527  -5.9156  -5.9060  -5.8748  -5.8488  -5.7984
    -5.7568  -5.7297  -5.6887  -5.6377  -5.6036  -5.5652  -5.5519  -5.4468
    -5.4250  -5.4131  -5.3878  -5.3811  -5.3706  -5.3554  -5.3327  -5.2448
    -5.1890  -5.1325  -5.0650  -5.0519  -4.8619  -4.6097  -4.4382  -4.2461
    -4.2013  -3.9049  -3.6370  -3.2767  -3.0151  -2.5784  -2.2528  -1.8730
    -1.5377  -1.3039  -1.0264  -0.8644  -0.4910  -0.0640   0.2179   0.4382
     0.7700

     occupation numbers 
     1.0000   1.0000   1.0000   1.0000   1.0000   1.0000   1.0000   1.0000
     1.0000   1.0000   1.0000   1.0000   1.0000   1.0000   1.0000   1.0000
     1.0000   1.0000   1.0000   1.0000   1.0000   1.0000   1.0000   1.0000
     1.0000   1.0000   1.0000   1.0000   1.0000   1.0000   1.0000   1.0000
     1.0000   1.0000   1.0000   1.0000   1.0000   1.0000   1.0000   1.0000
     1.0000   1.0000   1.0000   1.0000   1.0000   1.0000   1.0000   1.0000
     1.0000   1.0000   1.0000   1.0000   1.0000   1.0000   1.0000   1.0000
     1.0000   1.0000   1.0000   1.0000   1.0000   1.0000   1.0000   1.0000
     1.0000   1.0000   1.0000   1.0000   1.0000   1.0000   1.0000   1.0000
     1.0000   1.0000   1.0000   1.0000   1.0000   1.0000   1.0000   1.0000
     1.0000   1.0000   1.0000   1.0000   1.0000   1.0000   1.0000   1.0000
     1.0000   1.0000   1.0000   1.0000   1.0000   1.0000   1.0000   1.0000
     1.0001   1.0002   1.0003   1.0007   1.0009   1.0017   1.0030   1.0078
     1.0155   1.0230   1.0382   1.0616   1.0758   1.0833   1.0823   0.9598
     0.9041   0.8694   0.7878   0.7647   0.7273   0.6717   0.5862   0.2837
     0.1502   0.0681   0.0218   0.0170   0.0002   0.0000   0.0000   0.0000
     0.0000   0.0000   0.0000   0.0000   0.0000   0.0000   0.0000   0.0000
     0.0000   0.0000   0.0000   0.0000   0.0000   0.0000   0.0000   0.0000
     0.0000

          k = 0.3125 0.1083 0.0000 ( 44578 PWs)   bands (ev):

   -12.0706 -11.8027 -11.1601 -10.6120 -10.5935 -10.5268 -10.5255 -10.4812
   -10.3963 -10.3791 -10.3405 -10.2990 -10.2590 -10.2551 -10.1952 -10.1604
   -10.1139 -10.0757 -10.0239  -9.9528  -9.9007  -9.8688  -9.8420  -9.8243
    -9.8046  -9.7413  -9.6883  -9.6471  -9.5562  -9.4355  -9.3093  -9.2309
    -9.2021  -9.0170  -8.9367  -8.9019  -8.7864  -8.7698  -8.7169  -8.6662
    -8.5874  -8.5458  -8.4458  -8.4015  -8.3194  -8.2460  -8.2236  -8.1898
    -8.1418  -8.1171  -8.0746  -8.0604  -8.0217  -7.9943  -7.9766  -7.9503
    -7.9437  -7.9342  -7.8785  -7.8438  -7.8175  -7.7751  -7.7240  -7.6700
    -7.6313  -7.5961  -7.5229  -7.4991  -7.4692  -7.4429  -7.4325  -7.3960
    -7.3496  -7.3416  -7.2820  -7.0612  -7.0042  -6.9782  -6.9206  -6.8879
    -6.8761  -6.8467  -6.7108  -6.6533  -6.6303  -6.5890  -6.5021  -6.4824
    -6.4634  -6.4237  -6.3888  -6.3676  -6.3461  -6.2506  -6.2107  -6.1146
    -6.0215  -6.0034  -5.9784  -5.9684  -5.8956  -5.8732  -5.8641  -5.8416
    -5.8140  -5.7963  -5.7710  -5.6892  -5.6640  -5.6569  -5.5786  -5.5513
    -5.4790  -5.4129  -5.4018  -5.3630  -5.3319  -5.3232  -5.3152  -5.2764
    -5.1731  -5.1695  -5.1486  -5.0418  -4.9976  -4.9945  -4.8286  -4.3934
    -3.6838  -3.5286  -3.2536  -3.1011  -2.8388  -2.3424  -2.2046  -1.9772
    -1.8596  -1.6769  -1.4431  -0.8145  -0.5025   0.0810   0.2444   0.8388
     1.0662

     occupation numbers 
     1.0000   1.0000   1.0000   1.0000   1.0000   1.0000   1.0000   1.0000
     1.0000   1.0000   1.0000   1.0000   1.0000   1.0000   1.0000   1.0000
     1.0000   1.0000   1.0000   1.0000   1.0000   1.0000   1.0000   1.0000
     1.0000   1.0000   1.0000   1.0000   1.0000   1.0000   1.0000   1.0000
     1.0000   1.0000   1.0000   1.0000   1.0000   1.0000   1.0000   1.0000
     1.0000   1.0000   1.0000   1.0000   1.0000   1.0000   1.0000   1.0000
     1.0000   1.0000   1.0000   1.0000   1.0000   1.0000   1.0000   1.0000
     1.0000   1.0000   1.0000   1.0000   1.0000   1.0000   1.0000   1.0000
     1.0000   1.0000   1.0000   1.0000   1.0000   1.0000   1.0000   1.0000
     1.0000   1.0000   1.0000   1.0000   1.0000   1.0000   1.0000   1.0000
     1.0000   1.0000   1.0000   1.0000   1.0000   1.0000   1.0000   1.0000
     1.0000   1.0000   1.0000   1.0000   1.0000   1.0000   1.0000   1.0000
     1.0000   1.0001   1.0001   1.0002   1.0011   1.0018   1.0022   1.0035
     1.0059   1.0081   1.0124   1.0380   1.0493   1.0526   1.0822   1.0822
     1.0225   0.8688   0.8343   0.6995   0.5833   0.5504   0.5208   0.3824
     0.1220   0.1163   0.0867   0.0140   0.0056   0.0053   0.0001   0.0000
     0.0000   0.0000   0.0000   0.0000   0.0000   0.0000   0.0000   0.0000
     0.0000   0.0000   0.0000   0.0000   0.0000   0.0000   0.0000   0.0000
     0.0000

          k = 0.3125 0.1804 0.0000 ( 44550 PWs)   bands (ev):

   -11.9890 -11.7110 -11.0729 -10.6226 -10.5532 -10.4656 -10.4642 -10.4106
   -10.3250 -10.3048 -10.2791 -10.2754 -10.2233 -10.1589 -10.1585 -10.1366
   -10.0222 -10.0171  -9.9508  -9.8610  -9.8439  -9.8256  -9.7895  -9.7623
    -9.7549  -9.6738  -9.6253  -9.6123  -9.5075  -9.3436  -9.2675  -9.2009
    -9.1656  -9.0365  -8.9850  -8.9575  -8.8062  -8.7332  -8.7169  -8.6968
    -8.6941  -8.5953  -8.5147  -8.4415  -8.3216  -8.3016  -8.2423  -8.1630
    -8.1552  -8.1501  -8.0709  -8.0187  -8.0120  -8.0070  -8.0043  -7.9741
    -7.9510  -7.9157  -7.8746  -7.8382  -7.7809  -7.7807  -7.6823  -7.6012
    -7.5815  -7.5793  -7.5689  -7.5573  -7.5559  -7.5103  -7.4584  -7.4288
    -7.3881  -7.3593  -7.2921  -7.1773  -7.1129  -6.9914  -6.9874  -6.9064
    -6.8893  -6.8885  -6.7950  -6.7865  -6.7175  -6.6517  -6.6405  -6.5868
    -6.5355  -6.4859  -6.4504  -6.4240  -6.4077  -6.2511  -6.2021  -6.1603
    -6.1052  -6.0879  -6.0773  -6.0364  -6.0360  -5.9349  -5.9281  -5.9244
    -5.9011  -5.8784  -5.8160  -5.8122  -5.8027  -5.7377  -5.6362  -5.5720
    -5.5172  -5.5024  -5.4281  -5.4165  -5.4010  -5.3572  -5.2833  -5.2830
    -5.2437  -5.1625  -5.1535  -5.1466  -5.1384  -4.9711  -4.9694  -4.2909
    -3.7577  -3.0983  -2.8790  -2.8517  -2.5955  -2.5376  -2.2736  -2.0633
    -1.9092  -1.8366  -1.3286  -1.1709  -0.2019   0.0675   0.1071   1.2577
     1.4018

     occupation numbers 
     1.0000   1.0000   1.0000   1.0000   1.0000   1.0000   1.0000   1.0000
     1.0000   1.0000   1.0000   1.0000   1.0000   1.0000   1.0000   1.0000
     1.0000   1.0000   1.0000   1.0000   1.0000   1.0000   1.0000   1.0000
     1.0000   1.0000   1.0000   1.0000   1.0000   1.0000   1.0000   1.0000
     1.0000   1.0000   1.0000   1.0000   1.0000   1.0000   1.0000   1.0000
     1.0000   1.0000   1.0000   1.0000   1.0000   1.0000   1.0000   1.0000
     1.0000   1.0000   1.0000   1.0000   1.0000   1.0000   1.0000   1.0000
     1.0000   1.0000   1.0000   1.0000   1.0000   1.0000   1.0000   1.0000
     1.0000   1.0000   1.0000   1.0000   1.0000   1.0000   1.0000   1.0000
     1.0000   1.0000   1.0000   1.0000   1.0000   1.0000   1.0000   1.0000
     1.0000   1.0000   1.0000   1.0000   1.0000   1.0000   1.0000   1.0000
     1.0000   1.0000   1.0000   1.0000   1.0000   1.0000   1.0000   1.0000
     1.0000   1.0000   1.0000   1.0000   1.0000   1.0004   1.0005   1.0005
     1.0010   1.0016   1.0057   1.0061   1.0073   1.0206   1.0623   1.0830
     1.0668   1.0533   0.9127   0.8797   0.8318   0.6782   0.4058   0.4048
     0.2806   0.1055   0.0930   0.0842   0.0745   0.0031   0.0030   0.0000
     0.0000   0.0000   0.0000   0.0000   0.0000   0.0000   0.0000   0.0000
     0.0000   0.0000   0.0000   0.0000   0.0000   0.0000   0.0000   0.0000
     0.0000

          k = 0.3125 0.2526 0.0000 ( 44528 PWs)   bands (ev):

   -11.8804 -11.5708 -10.9457 -10.6031 -10.4725 -10.3880 -10.3761 -10.3073
   -10.2849 -10.2499 -10.1948 -10.1590 -10.1458 -10.1027 -10.0662 -10.0301
    -9.9403  -9.9147  -9.8515  -9.8049  -9.7893  -9.7285  -9.7107  -9.6874
    -9.6537  -9.5967  -9.5700  -9.5066  -9.4529  -9.2570  -9.1750  -9.1462
    -9.1217  -9.0959  -9.0339  -8.9679  -8.8592  -8.8409  -8.8183  -8.7493
    -8.6435  -8.6155  -8.5859  -8.5100  -8.3803  -8.3588  -8.3090  -8.2245
    -8.2111  -8.1510  -8.1012  -8.0729  -8.0548  -8.0178  -7.9790  -7.9659
    -7.9434  -7.8829  -7.8633  -7.8275  -7.8119  -7.7614  -7.7332  -7.7087
    -7.6654  -7.6514  -7.6227  -7.5461  -7.5098  -7.4778  -7.4518  -7.4471
    -7.3974  -7.3312  -7.2752  -7.2673  -7.1779  -7.0638  -7.0291  -7.0023
    -6.9418  -6.9150  -6.8893  -6.8748  -6.8618  -6.8297  -6.8183  -6.7096
    -6.6606  -6.5217  -6.5019  -6.4944  -6.4821  -6.4676  -6.2932  -6.2430
    -6.2258  -6.2166  -6.1992  -6.1748  -6.1118  -6.0773  -6.0030  -5.9952
    -5.9749  -5.9501  -5.9067  -5.8861  -5.8594  -5.7656  -5.7525  -5.6556
    -5.5464  -5.4889  -5.4522  -5.4145  -5.3888  -5.3192  -5.2988  -5.2858
    -5.2585  -5.1876  -5.1708  -5.1647  -5.1338  -4.9995  -4.9950  -4.1386
    -3.8110  -3.4726  -3.2544  -2.9277  -2.6133  -2.2086  -2.1265  -1.8688
    -1.7863  -1.5424  -1.3464  -0.6242  -0.3621  -0.2010   0.5788   1.2137
     1.4095

     occupation numbers 
     1.0000   1.0000   1.0000   1.0000   1.0000   1.0000   1.0000   1.0000
     1.0000   1.0000   1.0000   1.0000   1.0000   1.0000   1.0000   1.0000
     1.0000   1.0000   1.0000   1.0000   1.0000   1.0000   1.0000   1.0000
     1.0000   1.0000   1.0000   1.0000   1.0000   1.0000   1.0000   1.0000
     1.0000   1.0000   1.0000   1.0000   1.0000   1.0000   1.0000   1.0000
     1.0000   1.0000   1.0000   1.0000   1.0000   1.0000   1.0000   1.0000
     1.0000   1.0000   1.0000   1.0000   1.0000   1.0000   1.0000   1.0000
     1.0000   1.0000   1.0000   1.0000   1.0000   1.0000   1.0000   1.0000
     1.0000   1.0000   1.0000   1.0000   1.0000   1.0000   1.0000   1.0000
     1.0000   1.0000   1.0000   1.0000   1.0000   1.0000   1.0000   1.0000
     1.0000   1.0000   1.0000   1.0000   1.0000   1.0000   1.0000   1.0000
     1.0000   1.0000   1.0000   1.0000   1.0000   1.0000   1.0000   1.0000
     1.0000   1.0000   1.0000   1.0000   1.0000   1.0000   1.0001   1.0001
     1.0001   1.0003   1.0008   1.0013   1.0024   1.0135   1.0166   1.0532
     1.0811   1.0371   0.9720   0.8736   0.7912   0.5355   0.4604   0.4145
     0.3245   0.1475   0.1184   0.1089   0.0696   0.0059   0.0053   0.0000
     0.0000   0.0000   0.0000   0.0000   0.0000   0.0000   0.0000   0.0000
     0.0000   0.0000   0.0000   0.0000   0.0000   0.0000   0.0000   0.0000
     0.0000

          k = 0.3125 0.3248 0.0000 ( 44545 PWs)   bands (ev):

   -11.7604 -11.3819 -10.7849 -10.5562 -10.3562 -10.2929 -10.2662 -10.2237
   -10.2178 -10.1694 -10.0801 -10.0479 -10.0298 -10.0110  -9.9545  -9.9021
    -9.8457  -9.7842  -9.7798  -9.7361  -9.7006  -9.6562  -9.6458  -9.5849
    -9.5385  -9.5191  -9.4711  -9.3859  -9.3648  -9.2015  -9.1617  -9.1209
    -9.1018  -9.0714  -9.0329  -8.9652  -8.9376  -8.9272  -8.8978  -8.8234
    -8.7269  -8.6400  -8.5955  -8.5318  -8.4720  -8.4687  -8.4226  -8.3158
    -8.2854  -8.2122  -8.1850  -8.1491  -8.0749  -8.0492  -8.0283  -8.0072
    -7.9646  -7.9091  -7.8996  -7.8786  -7.8607  -7.8293  -7.8100  -7.7804
    -7.7652  -7.7011  -7.6614  -7.5295  -7.4935  -7.4798  -7.4509  -7.4110
    -7.3591  -7.3563  -7.2689  -7.2465  -7.2112  -7.1318  -7.1101  -7.0855
    -7.0774  -7.0357  -7.0273  -6.9722  -6.9471  -6.9083  -6.8414  -6.8163
    -6.7846  -6.7020  -6.6057  -6.5732  -6.5675  -6.5450  -6.4483  -6.3821
    -6.3373  -6.3320  -6.3070  -6.2176  -6.1835  -6.1754  -6.1259  -6.0355
    -6.0228  -5.9691  -5.9523  -5.9040  -5.8007  -5.7386  -5.7178  -5.6142
    -5.6019  -5.4921  -5.4426  -5.4171  -5.4010  -5.3714  -5.3444  -5.3340
    -5.2474  -5.2342  -5.2269  -5.2100  -5.0754  -5.0690  -4.9685  -4.1013
    -3.9814  -3.8107  -3.7058  -3.4486  -2.6081  -2.2579  -2.1449  -1.4474
    -1.2561  -1.0633  -0.8964  -0.6070  -0.3690   0.1831   0.8130   1.0717
     1.2110

     occupation numbers 
     1.0000   1.0000   1.0000   1.0000   1.0000   1.0000   1.0000   1.0000
     1.0000   1.0000   1.0000   1.0000   1.0000   1.0000   1.0000   1.0000
     1.0000   1.0000   1.0000   1.0000   1.0000   1.0000   1.0000   1.0000
     1.0000   1.0000   1.0000   1.0000   1.0000   1.0000   1.0000   1.0000
     1.0000   1.0000   1.0000   1.0000   1.0000   1.0000   1.0000   1.0000
     1.0000   1.0000   1.0000   1.0000   1.0000   1.0000   1.0000   1.0000
     1.0000   1.0000   1.0000   1.0000   1.0000   1.0000   1.0000   1.0000
     1.0000   1.0000   1.0000   1.0000   1.0000   1.0000   1.0000   1.0000
     1.0000   1.0000   1.0000   1.0000   1.0000   1.0000   1.0000   1.0000
     1.0000   1.0000   1.0000   1.0000   1.0000   1.0000   1.0000   1.0000
     1.0000   1.0000   1.0000   1.0000   1.0000   1.0000   1.0000   1.0000
     1.0000   1.0000   1.0000   1.0000   1.0000   1.0000   1.0000   1.0000
     1.0000   1.0000   1.0000   1.0000   1.0000   1.0000   1.0000   1.0000
     1.0000   1.0002   1.0003   1.0009   1.0075   1.0203   1.0269   1.0718
     1.0764   1.0413   0.9498   0.8815   0.8319   0.7303   0.6303   0.5911
     0.2913   0.2541   0.2348   0.1940   0.0263   0.0235   0.0029   0.0000
     0.0000   0.0000   0.0000   0.0000   0.0000   0.0000   0.0000   0.0000
     0.0000   0.0000   0.0000   0.0000   0.0000   0.0000   0.0000   0.0000
     0.0000

          k = 0.3125-0.7578 0.0000 ( 44502 PWs)   bands (ev):

   -11.6452 -11.1491 -10.6022 -10.4897 -10.2364 -10.2020 -10.1793 -10.1519
   -10.1141 -10.0140  -9.9717  -9.9442  -9.8983  -9.8893  -9.8213  -9.8026
    -9.7848  -9.7117  -9.6353  -9.6327  -9.6204  -9.6077  -9.5976  -9.4667
    -9.4504  -9.4222  -9.3851  -9.2779  -9.2407  -9.2132  -9.1838  -9.1332
    -9.0926  -9.0808  -9.0711  -9.0262  -8.9896  -8.8846  -8.8688  -8.8566
    -8.8088  -8.7113  -8.6764  -8.6379  -8.6141  -8.5245  -8.4689  -8.3611
    -8.3416  -8.3301  -8.3207  -8.2529  -8.2257  -8.2053  -8.1218  -8.0586
    -8.0163  -7.9867  -7.9487  -7.9142  -7.9040  -7.8646  -7.8235  -7.8149
    -7.7607  -7.7395  -7.6908  -7.6578  -7.6362  -7.5798  -7.5148  -7.4550
    -7.4353  -7.4051  -7.3442  -7.3026  -7.2716  -7.2179  -7.1919  -7.1749
    -7.1465  -7.0781  -6.9932  -6.9316  -6.9042  -6.8925  -6.8870  -6.8299
    -6.7983  -6.7756  -6.6842  -6.6364  -6.6136  -6.5997  -6.5192  -6.4442
    -6.4251  -6.3644  -6.3105  -6.2923  -6.1897  -6.1579  -6.1024  -6.0974
    -6.0691  -6.0260  -5.8957  -5.8798  -5.7188  -5.7116  -5.6910  -5.6630
    -5.5974  -5.4872  -5.4754  -5.4641  -5.4397  -5.4340  -5.3933  -5.3693
    -5.3604  -5.3014  -5.2966  -5.1865  -5.1749  -5.1537  -4.7696  -4.5165
    -4.4182  -4.1319  -3.8747  -3.4494  -2.9879  -2.3288  -1.9345  -1.4189
    -0.7876  -0.6579  -0.5179  -0.3137   0.1260   0.3714   0.7807   1.0511
     1.3544

     occupation numbers 
     1.0000   1.0000   1.0000   1.0000   1.0000   1.0000   1.0000   1.0000
     1.0000   1.0000   1.0000   1.0000   1.0000   1.0000   1.0000   1.0000
     1.0000   1.0000   1.0000   1.0000   1.0000   1.0000   1.0000   1.0000
     1.0000   1.0000   1.0000   1.0000   1.0000   1.0000   1.0000   1.0000
     1.0000   1.0000   1.0000   1.0000   1.0000   1.0000   1.0000   1.0000
     1.0000   1.0000   1.0000   1.0000   1.0000   1.0000   1.0000   1.0000
     1.0000   1.0000   1.0000   1.0000   1.0000   1.0000   1.0000   1.0000
     1.0000   1.0000   1.0000   1.0000   1.0000   1.0000   1.0000   1.0000
     1.0000   1.0000   1.0000   1.0000   1.0000   1.0000   1.0000   1.0000
     1.0000   1.0000   1.0000   1.0000   1.0000   1.0000   1.0000   1.0000
     1.0000   1.0000   1.0000   1.0000   1.0000   1.0000   1.0000   1.0000
     1.0000   1.0000   1.0000   1.0000   1.0000   1.0000   1.0000   1.0000
     1.0000   1.0000   1.0000   1.0000   1.0000   1.0000   1.0000   1.0000
     1.0000   1.0000   1.0011   1.0016   1.0266   1.0291   1.0373   1.0498
     1.0778   1.0347   1.0166   0.9964   0.9428   0.9283   0.8066   0.7226
     0.6901   0.4700   0.4526   0.1455   0.1250   0.0933   0.0000   0.0000
     0.0000   0.0000   0.0000   0.0000   0.0000   0.0000   0.0000   0.0000
     0.0000   0.0000   0.0000   0.0000   0.0000   0.0000   0.0000   0.0000
     0.0000

          k = 0.3125-0.6856 0.0000 ( 44485 PWs)   bands (ev):

   -11.5524 -10.8854 -10.4223 -10.4141 -10.2257 -10.1720 -10.0970 -10.0490
    -9.9546  -9.8926  -9.8724  -9.8492  -9.8064  -9.7951  -9.7461  -9.6693
    -9.6441  -9.6351  -9.5947  -9.5713  -9.5548  -9.5227  -9.4581  -9.3968
    -9.3811  -9.3634  -9.3502  -9.2792  -9.2556  -9.1877  -9.1556  -9.1471
    -9.1395  -9.1346  -9.0575  -9.0482  -9.0365  -8.8940  -8.8624  -8.8529
    -8.8473  -8.7790  -8.7510  -8.7109  -8.6816  -8.6085  -8.5832  -8.4577
    -8.4495  -8.3766  -8.3188  -8.2961  -8.2790  -8.2322  -8.1969  -8.1257
    -8.0867  -8.0716  -8.0615  -8.0309  -7.9813  -7.9558  -7.8990  -7.8845
    -7.8414  -7.8269  -7.7748  -7.7338  -7.7037  -7.6540  -7.6398  -7.6094
    -7.5477  -7.5062  -7.4402  -7.4373  -7.2741  -7.2086  -7.1562  -7.1381
    -7.0528  -7.0240  -7.0053  -6.9822  -6.9671  -6.9366  -6.9204  -6.8480
    -6.7202  -6.6947  -6.6821  -6.6255  -6.6058  -6.5426  -6.4764  -6.4275
    -6.3755  -6.3593  -6.3198  -6.2369  -6.2039  -6.1667  -6.1444  -6.1055
    -5.9955  -5.9363  -5.8644  -5.8165  -5.7250  -5.6999  -5.6762  -5.6579
    -5.6177  -5.5818  -5.5531  -5.5252  -5.5102  -5.4709  -5.4326  -5.4160
    -5.3625  -5.3506  -5.3384  -5.2887  -5.2808  -5.1318  -4.9660  -4.9136
    -4.6612  -4.4768  -3.9072  -3.4791  -3.0997  -2.3637  -1.9113  -1.5188
    -0.6671  -0.2465  -0.0882   0.0966   0.4115   0.7314   0.9491   1.1293
     1.4500

     occupation numbers 
     1.0000   1.0000   1.0000   1.0000   1.0000   1.0000   1.0000   1.0000
     1.0000   1.0000   1.0000   1.0000   1.0000   1.0000   1.0000   1.0000
     1.0000   1.0000   1.0000   1.0000   1.0000   1.0000   1.0000   1.0000
     1.0000   1.0000   1.0000   1.0000   1.0000   1.0000   1.0000   1.0000
     1.0000   1.0000   1.0000   1.0000   1.0000   1.0000   1.0000   1.0000
     1.0000   1.0000   1.0000   1.0000   1.0000   1.0000   1.0000   1.0000
     1.0000   1.0000   1.0000   1.0000   1.0000   1.0000   1.0000   1.0000
     1.0000   1.0000   1.0000   1.0000   1.0000   1.0000   1.0000   1.0000
     1.0000   1.0000   1.0000   1.0000   1.0000   1.0000   1.0000   1.0000
     1.0000   1.0000   1.0000   1.0000   1.0000   1.0000   1.0000   1.0000
     1.0000   1.0000   1.0000   1.0000   1.0000   1.0000   1.0000   1.0000
     1.0000   1.0000   1.0000   1.0000   1.0000   1.0000   1.0000   1.0000
     1.0000   1.0000   1.0000   1.0000   1.0000   1.0000   1.0000   1.0000
     1.0001   1.0004   1.0022   1.0056   1.0245   1.0336   1.0437   1.0522
     1.0704   1.0817   1.0825   1.0722   1.0609   1.0090   0.9246   0.8782
     0.6979   0.6535   0.6079   0.4247   0.3975   0.0674   0.0028   0.0008
     0.0000   0.0000   0.0000   0.0000   0.0000   0.0000   0.0000   0.0000
     0.0000   0.0000   0.0000   0.0000   0.0000   0.0000   0.0000   0.0000
     0.0000

          k = 0.3125-0.6134 0.0000 ( 44465 PWs)   bands (ev):

   -11.4998 -10.6120 -10.3702 -10.3645 -10.2619 -10.1596 -10.1470  -9.9073
    -9.8663  -9.8456  -9.8122  -9.7698  -9.7597  -9.6762  -9.6690  -9.5840
    -9.5485  -9.5367  -9.5111  -9.4982  -9.4887  -9.4674  -9.4140  -9.3938
    -9.3857  -9.3590  -9.3578  -9.3169  -9.2827  -9.2415  -9.2219  -9.1951
    -9.1673  -9.1219  -9.0765  -9.0582  -9.0427  -8.9676  -8.9506  -8.9424
    -8.8264  -8.7637  -8.7296  -8.7076  -8.6218  -8.5878  -8.5541  -8.5353
    -8.4496  -8.3922  -8.3701  -8.3480  -8.2659  -8.2532  -8.2127  -8.1680
    -8.1563  -8.1200  -8.1035  -8.0903  -8.0819  -8.0811  -8.0468  -8.0186
    -8.0126  -7.9855  -7.8714  -7.7774  -7.7034  -7.6010  -7.5921  -7.5915
    -7.5749  -7.5143  -7.4993  -7.4538  -7.3257  -7.2883  -7.2726  -7.1215
    -7.0579  -7.0444  -6.9852  -6.9720  -6.9457  -6.8971  -6.8315  -6.8040
    -6.7561  -6.6946  -6.6927  -6.6221  -6.5167  -6.5079  -6.4350  -6.3767
    -6.3565  -6.3206  -6.2611  -6.2348  -6.2314  -6.2275  -6.1096  -5.9260
    -5.8643  -5.8321  -5.7777  -5.7380  -5.7330  -5.6995  -5.6901  -5.6704
    -5.6642  -5.6603  -5.6597  -5.5729  -5.4724  -5.4604  -5.4272  -5.4092
    -5.3816  -5.3740  -5.3664  -5.3648  -5.3514  -5.3344  -5.3301  -5.1319
    -5.0235  -4.2604  -3.9352  -3.7946  -2.8058  -2.4105  -2.2427  -1.1719
    -0.7192  -0.5288   0.3043   0.7460   0.8632   0.9244   0.9549   1.1529
     1.4417

     occupation numbers 
     1.0000   1.0000   1.0000   1.0000   1.0000   1.0000   1.0000   1.0000
     1.0000   1.0000   1.0000   1.0000   1.0000   1.0000   1.0000   1.0000
     1.0000   1.0000   1.0000   1.0000   1.0000   1.0000   1.0000   1.0000
     1.0000   1.0000   1.0000   1.0000   1.0000   1.0000   1.0000   1.0000
     1.0000   1.0000   1.0000   1.0000   1.0000   1.0000   1.0000   1.0000
     1.0000   1.0000   1.0000   1.0000   1.0000   1.0000   1.0000   1.0000
     1.0000   1.0000   1.0000   1.0000   1.0000   1.0000   1.0000   1.0000
     1.0000   1.0000   1.0000   1.0000   1.0000   1.0000   1.0000   1.0000
     1.0000   1.0000   1.0000   1.0000   1.0000   1.0000   1.0000   1.0000
     1.0000   1.0000   1.0000   1.0000   1.0000   1.0000   1.0000   1.0000
     1.0000   1.0000   1.0000   1.0000   1.0000   1.0000   1.0000   1.0000
     1.0000   1.0000   1.0000   1.0000   1.0000   1.0000   1.0000   1.0000
     1.0000   1.0000   1.0000   1.0000   1.0000   1.0000   1.0000   1.0005
     1.0022   1.0042   1.0111   1.0205   1.0220   1.0338   1.0377   1.0463
     1.0492   1.0510   1.0513   1.0829   1.0117   0.9892   0.9102   0.8578
     0.7665   0.7394   0.7121   0.7062   0.6565   0.5925   0.5764   0.0675
     0.0097   0.0000   0.0000   0.0000   0.0000   0.0000   0.0000   0.0000
     0.0000   0.0000   0.0000   0.0000   0.0000   0.0000   0.0000   0.0000
     0.0000

          k = 0.3125-0.5413 0.0000 ( 44465 PWs)   bands (ev):

   -11.4998 -10.6120 -10.3702 -10.3645 -10.2619 -10.1596 -10.1470  -9.9073
    -9.8663  -9.8456  -9.8122  -9.7698  -9.7597  -9.6762  -9.6690  -9.5840
    -9.5485  -9.5367  -9.5111  -9.4982  -9.4887  -9.4674  -9.4140  -9.3938
    -9.3857  -9.3590  -9.3578  -9.3169  -9.2827  -9.2415  -9.2219  -9.1951
    -9.1673  -9.1219  -9.0765  -9.0582  -9.0427  -8.9676  -8.9506  -8.9424
    -8.8264  -8.7637  -8.7296  -8.7076  -8.6218  -8.5878  -8.5541  -8.5353
    -8.4496  -8.3922  -8.3701  -8.3480  -8.2659  -8.2532  -8.2127  -8.1680
    -8.1563  -8.1200  -8.1035  -8.0903  -8.0819  -8.0811  -8.0468  -8.0186
    -8.0126  -7.9855  -7.8714  -7.7774  -7.7034  -7.6010  -7.5921  -7.5915
    -7.5749  -7.5143  -7.4993  -7.4538  -7.3257  -7.2883  -7.2726  -7.1215
    -7.0579  -7.0444  -6.9852  -6.9720  -6.9457  -6.8971  -6.8315  -6.8040
    -6.7561  -6.6946  -6.6927  -6.6221  -6.5167  -6.5079  -6.4350  -6.3767
    -6.3565  -6.3206  -6.2611  -6.2348  -6.2314  -6.2275  -6.1096  -5.9260
    -5.8643  -5.8321  -5.7777  -5.7380  -5.7330  -5.6995  -5.6901  -5.6704
    -5.6642  -5.6603  -5.6597  -5.5729  -5.4724  -5.4604  -5.4272  -5.4092
    -5.3816  -5.3740  -5.3664  -5.3648  -5.3514  -5.3344  -5.3301  -5.1319
    -5.0235  -4.2604  -3.9352  -3.7946  -2.8058  -2.4105  -2.2427  -1.1719
    -0.7192  -0.5288   0.3043   0.7460   0.8632   0.9244   0.9549   1.1529
     1.4417

     occupation numbers 
     1.0000   1.0000   1.0000   1.0000   1.0000   1.0000   1.0000   1.0000
     1.0000   1.0000   1.0000   1.0000   1.0000   1.0000   1.0000   1.0000
     1.0000   1.0000   1.0000   1.0000   1.0000   1.0000   1.0000   1.0000
     1.0000   1.0000   1.0000   1.0000   1.0000   1.0000   1.0000   1.0000
     1.0000   1.0000   1.0000   1.0000   1.0000   1.0000   1.0000   1.0000
     1.0000   1.0000   1.0000   1.0000   1.0000   1.0000   1.0000   1.0000
     1.0000   1.0000   1.0000   1.0000   1.0000   1.0000   1.0000   1.0000
     1.0000   1.0000   1.0000   1.0000   1.0000   1.0000   1.0000   1.0000
     1.0000   1.0000   1.0000   1.0000   1.0000   1.0000   1.0000   1.0000
     1.0000   1.0000   1.0000   1.0000   1.0000   1.0000   1.0000   1.0000
     1.0000   1.0000   1.0000   1.0000   1.0000   1.0000   1.0000   1.0000
     1.0000   1.0000   1.0000   1.0000   1.0000   1.0000   1.0000   1.0000
     1.0000   1.0000   1.0000   1.0000   1.0000   1.0000   1.0000   1.0005
     1.0022   1.0042   1.0111   1.0205   1.0220   1.0338   1.0377   1.0463
     1.0492   1.0510   1.0513   1.0829   1.0117   0.9892   0.9102   0.8578
     0.7665   0.7394   0.7121   0.7062   0.6565   0.5925   0.5764   0.0675
     0.0097   0.0000   0.0000   0.0000   0.0000   0.0000   0.0000   0.0000
     0.0000   0.0000   0.0000   0.0000   0.0000   0.0000   0.0000   0.0000
     0.0000

          k = 0.3125-0.4691 0.0000 ( 44485 PWs)   bands (ev):

   -11.5524 -10.8854 -10.4223 -10.4141 -10.2257 -10.1720 -10.0970 -10.0490
    -9.9546  -9.8926  -9.8724  -9.8492  -9.8064  -9.7951  -9.7461  -9.6693
    -9.6441  -9.6351  -9.5947  -9.5713  -9.5548  -9.5227  -9.4581  -9.3968
    -9.3811  -9.3634  -9.3502  -9.2792  -9.2556  -9.1877  -9.1556  -9.1471
    -9.1395  -9.1346  -9.0575  -9.0482  -9.0365  -8.8940  -8.8624  -8.8529
    -8.8473  -8.7790  -8.7510  -8.7109  -8.6816  -8.6085  -8.5832  -8.4577
    -8.4495  -8.3766  -8.3188  -8.2961  -8.2790  -8.2322  -8.1969  -8.1257
    -8.0867  -8.0716  -8.0615  -8.0309  -7.9813  -7.9558  -7.8990  -7.8845
    -7.8414  -7.8269  -7.7748  -7.7338  -7.7037  -7.6540  -7.6398  -7.6094
    -7.5477  -7.5062  -7.4402  -7.4373  -7.2741  -7.2086  -7.1562  -7.1381
    -7.0528  -7.0240  -7.0053  -6.9822  -6.9671  -6.9366  -6.9204  -6.8480
    -6.7202  -6.6947  -6.6821  -6.6255  -6.6058  -6.5426  -6.4764  -6.4275
    -6.3755  -6.3593  -6.3198  -6.2369  -6.2039  -6.1667  -6.1444  -6.1055
    -5.9955  -5.9363  -5.8644  -5.8165  -5.7250  -5.6999  -5.6762  -5.6579
    -5.6177  -5.5818  -5.5531  -5.5252  -5.5102  -5.4709  -5.4326  -5.4160
    -5.3625  -5.3506  -5.3384  -5.2887  -5.2808  -5.1318  -4.9660  -4.9136
    -4.6612  -4.4768  -3.9072  -3.4791  -3.0997  -2.3637  -1.9113  -1.5188
    -0.6671  -0.2465  -0.0882   0.0966   0.4115   0.7314   0.9491   1.1293
     1.4500

     occupation numbers 
     1.0000   1.0000   1.0000   1.0000   1.0000   1.0000   1.0000   1.0000
     1.0000   1.0000   1.0000   1.0000   1.0000   1.0000   1.0000   1.0000
     1.0000   1.0000   1.0000   1.0000   1.0000   1.0000   1.0000   1.0000
     1.0000   1.0000   1.0000   1.0000   1.0000   1.0000   1.0000   1.0000
     1.0000   1.0000   1.0000   1.0000   1.0000   1.0000   1.0000   1.0000
     1.0000   1.0000   1.0000   1.0000   1.0000   1.0000   1.0000   1.0000
     1.0000   1.0000   1.0000   1.0000   1.0000   1.0000   1.0000   1.0000
     1.0000   1.0000   1.0000   1.0000   1.0000   1.0000   1.0000   1.0000
     1.0000   1.0000   1.0000   1.0000   1.0000   1.0000   1.0000   1.0000
     1.0000   1.0000   1.0000   1.0000   1.0000   1.0000   1.0000   1.0000
     1.0000   1.0000   1.0000   1.0000   1.0000   1.0000   1.0000   1.0000
     1.0000   1.0000   1.0000   1.0000   1.0000   1.0000   1.0000   1.0000
     1.0000   1.0000   1.0000   1.0000   1.0000   1.0000   1.0000   1.0000
     1.0001   1.0004   1.0022   1.0056   1.0245   1.0336   1.0437   1.0522
     1.0704   1.0817   1.0825   1.0722   1.0609   1.0090   0.9246   0.8782
     0.6979   0.6535   0.6079   0.4247   0.3975   0.0674   0.0028   0.0008
     0.0000   0.0000   0.0000   0.0000   0.0000   0.0000   0.0000   0.0000
     0.0000   0.0000   0.0000   0.0000   0.0000   0.0000   0.0000   0.0000
     0.0000

          k = 0.3125-0.3969 0.0000 ( 44502 PWs)   bands (ev):

   -11.6452 -11.1491 -10.6022 -10.4897 -10.2364 -10.2020 -10.1793 -10.1519
   -10.1141 -10.0140  -9.9717  -9.9442  -9.8983  -9.8893  -9.8213  -9.8026
    -9.7848  -9.7117  -9.6353  -9.6327  -9.6204  -9.6077  -9.5976  -9.4667
    -9.4504  -9.4222  -9.3851  -9.2779  -9.2407  -9.2132  -9.1838  -9.1332
    -9.0926  -9.0808  -9.0711  -9.0262  -8.9896  -8.8846  -8.8688  -8.8566
    -8.8088  -8.7113  -8.6764  -8.6379  -8.6141  -8.5245  -8.4689  -8.3611
    -8.3416  -8.3301  -8.3207  -8.2529  -8.2257  -8.2053  -8.1218  -8.0586
    -8.0163  -7.9867  -7.9487  -7.9142  -7.9040  -7.8646  -7.8235  -7.8149
    -7.7607  -7.7395  -7.6908  -7.6578  -7.6362  -7.5798  -7.5148  -7.4550
    -7.4353  -7.4051  -7.3442  -7.3026  -7.2716  -7.2179  -7.1919  -7.1749
    -7.1465  -7.0781  -6.9932  -6.9316  -6.9042  -6.8925  -6.8870  -6.8299
    -6.7983  -6.7756  -6.6842  -6.6364  -6.6136  -6.5997  -6.5192  -6.4442
    -6.4251  -6.3644  -6.3105  -6.2923  -6.1897  -6.1579  -6.1024  -6.0974
    -6.0691  -6.0260  -5.8957  -5.8798  -5.7188  -5.7116  -5.6910  -5.6630
    -5.5974  -5.4872  -5.4754  -5.4641  -5.4397  -5.4340  -5.3933  -5.3693
    -5.3604  -5.3014  -5.2966  -5.1865  -5.1749  -5.1537  -4.7696  -4.5165
    -4.4182  -4.1319  -3.8747  -3.4494  -2.9879  -2.3288  -1.9345  -1.4189
    -0.7876  -0.6579  -0.5179  -0.3137   0.1260   0.3714   0.7807   1.0511
     1.3544

     occupation numbers 
     1.0000   1.0000   1.0000   1.0000   1.0000   1.0000   1.0000   1.0000
     1.0000   1.0000   1.0000   1.0000   1.0000   1.0000   1.0000   1.0000
     1.0000   1.0000   1.0000   1.0000   1.0000   1.0000   1.0000   1.0000
     1.0000   1.0000   1.0000   1.0000   1.0000   1.0000   1.0000   1.0000
     1.0000   1.0000   1.0000   1.0000   1.0000   1.0000   1.0000   1.0000
     1.0000   1.0000   1.0000   1.0000   1.0000   1.0000   1.0000   1.0000
     1.0000   1.0000   1.0000   1.0000   1.0000   1.0000   1.0000   1.0000
     1.0000   1.0000   1.0000   1.0000   1.0000   1.0000   1.0000   1.0000
     1.0000   1.0000   1.0000   1.0000   1.0000   1.0000   1.0000   1.0000
     1.0000   1.0000   1.0000   1.0000   1.0000   1.0000   1.0000   1.0000
     1.0000   1.0000   1.0000   1.0000   1.0000   1.0000   1.0000   1.0000
     1.0000   1.0000   1.0000   1.0000   1.0000   1.0000   1.0000   1.0000
     1.0000   1.0000   1.0000   1.0000   1.0000   1.0000   1.0000   1.0000
     1.0000   1.0000   1.0011   1.0016   1.0266   1.0291   1.0373   1.0498
     1.0778   1.0347   1.0166   0.9964   0.9428   0.9283   0.8066   0.7226
     0.6901   0.4700   0.4526   0.1455   0.1250   0.0933   0.0000   0.0000
     0.0000   0.0000   0.0000   0.0000   0.0000   0.0000   0.0000   0.0000
     0.0000   0.0000   0.0000   0.0000   0.0000   0.0000   0.0000   0.0000
     0.0000

          k = 0.3125-0.3248 0.0000 ( 44545 PWs)   bands (ev):

   -11.7604 -11.3819 -10.7849 -10.5562 -10.3562 -10.2929 -10.2662 -10.2237
   -10.2178 -10.1694 -10.0801 -10.0479 -10.0298 -10.0110  -9.9545  -9.9021
    -9.8457  -9.7842  -9.7798  -9.7361  -9.7006  -9.6562  -9.6458  -9.5849
    -9.5385  -9.5191  -9.4711  -9.3859  -9.3648  -9.2015  -9.1617  -9.1209
    -9.1018  -9.0714  -9.0329  -8.9652  -8.9376  -8.9272  -8.8978  -8.8234
    -8.7269  -8.6400  -8.5955  -8.5318  -8.4720  -8.4687  -8.4226  -8.3158
    -8.2854  -8.2122  -8.1850  -8.1491  -8.0749  -8.0492  -8.0283  -8.0072
    -7.9646  -7.9091  -7.8996  -7.8786  -7.8607  -7.8293  -7.8100  -7.7804
    -7.7652  -7.7011  -7.6614  -7.5295  -7.4935  -7.4798  -7.4509  -7.4110
    -7.3591  -7.3563  -7.2689  -7.2465  -7.2112  -7.1318  -7.1101  -7.0855
    -7.0774  -7.0357  -7.0273  -6.9722  -6.9471  -6.9083  -6.8414  -6.8163
    -6.7846  -6.7020  -6.6057  -6.5732  -6.5675  -6.5450  -6.4483  -6.3821
    -6.3373  -6.3320  -6.3070  -6.2176  -6.1835  -6.1754  -6.1259  -6.0355
    -6.0228  -5.9691  -5.9523  -5.9040  -5.8007  -5.7386  -5.7178  -5.6142
    -5.6019  -5.4921  -5.4426  -5.4171  -5.4010  -5.3714  -5.3444  -5.3340
    -5.2474  -5.2342  -5.2269  -5.2100  -5.0754  -5.0690  -4.9685  -4.1013
    -3.9814  -3.8107  -3.7058  -3.4486  -2.6081  -2.2579  -2.1449  -1.4474
    -1.2561  -1.0633  -0.8964  -0.6070  -0.3690   0.1831   0.8130   1.0717
     1.2110

     occupation numbers 
     1.0000   1.0000   1.0000   1.0000   1.0000   1.0000   1.0000   1.0000
     1.0000   1.0000   1.0000   1.0000   1.0000   1.0000   1.0000   1.0000
     1.0000   1.0000   1.0000   1.0000   1.0000   1.0000   1.0000   1.0000
     1.0000   1.0000   1.0000   1.0000   1.0000   1.0000   1.0000   1.0000
     1.0000   1.0000   1.0000   1.0000   1.0000   1.0000   1.0000   1.0000
     1.0000   1.0000   1.0000   1.0000   1.0000   1.0000   1.0000   1.0000
     1.0000   1.0000   1.0000   1.0000   1.0000   1.0000   1.0000   1.0000
     1.0000   1.0000   1.0000   1.0000   1.0000   1.0000   1.0000   1.0000
     1.0000   1.0000   1.0000   1.0000   1.0000   1.0000   1.0000   1.0000
     1.0000   1.0000   1.0000   1.0000   1.0000   1.0000   1.0000   1.0000
     1.0000   1.0000   1.0000   1.0000   1.0000   1.0000   1.0000   1.0000
     1.0000   1.0000   1.0000   1.0000   1.0000   1.0000   1.0000   1.0000
     1.0000   1.0000   1.0000   1.0000   1.0000   1.0000   1.0000   1.0000
     1.0000   1.0002   1.0003   1.0009   1.0075   1.0203   1.0269   1.0718
     1.0764   1.0413   0.9498   0.8815   0.8319   0.7303   0.6303   0.5911
     0.2913   0.2541   0.2348   0.1940   0.0263   0.0235   0.0029   0.0000
     0.0000   0.0000   0.0000   0.0000   0.0000   0.0000   0.0000   0.0000
     0.0000   0.0000   0.0000   0.0000   0.0000   0.0000   0.0000   0.0000
     0.0000

          k = 0.3125-0.2526 0.0000 ( 44528 PWs)   bands (ev):

   -11.8804 -11.5708 -10.9457 -10.6031 -10.4725 -10.3880 -10.3761 -10.3073
   -10.2849 -10.2499 -10.1948 -10.1590 -10.1458 -10.1027 -10.0662 -10.0301
    -9.9403  -9.9147  -9.8515  -9.8049  -9.7893  -9.7285  -9.7107  -9.6874
    -9.6537  -9.5967  -9.5700  -9.5066  -9.4529  -9.2570  -9.1750  -9.1462
    -9.1217  -9.0959  -9.0339  -8.9679  -8.8592  -8.8409  -8.8183  -8.7493
    -8.6435  -8.6155  -8.5859  -8.5100  -8.3803  -8.3588  -8.3090  -8.2245
    -8.2111  -8.1510  -8.1012  -8.0729  -8.0548  -8.0178  -7.9790  -7.9659
    -7.9434  -7.8829  -7.8633  -7.8275  -7.8119  -7.7614  -7.7332  -7.7087
    -7.6654  -7.6514  -7.6227  -7.5461  -7.5098  -7.4778  -7.4518  -7.4471
    -7.3974  -7.3312  -7.2752  -7.2673  -7.1779  -7.0638  -7.0291  -7.0023
    -6.9418  -6.9150  -6.8893  -6.8748  -6.8618  -6.8297  -6.8183  -6.7096
    -6.6606  -6.5217  -6.5019  -6.4944  -6.4821  -6.4676  -6.2932  -6.2430
    -6.2258  -6.2166  -6.1992  -6.1748  -6.1118  -6.0773  -6.0030  -5.9952
    -5.9749  -5.9501  -5.9067  -5.8861  -5.8594  -5.7656  -5.7525  -5.6556
    -5.5464  -5.4889  -5.4522  -5.4145  -5.3888  -5.3192  -5.2988  -5.2858
    -5.2585  -5.1876  -5.1708  -5.1647  -5.1338  -4.9995  -4.9950  -4.1386
    -3.8110  -3.4726  -3.2544  -2.9277  -2.6133  -2.2086  -2.1265  -1.8688
    -1.7863  -1.5424  -1.3464  -0.6242  -0.3621  -0.2010   0.5788   1.2137
     1.4095

     occupation numbers 
     1.0000   1.0000   1.0000   1.0000   1.0000   1.0000   1.0000   1.0000
     1.0000   1.0000   1.0000   1.0000   1.0000   1.0000   1.0000   1.0000
     1.0000   1.0000   1.0000   1.0000   1.0000   1.0000   1.0000   1.0000
     1.0000   1.0000   1.0000   1.0000   1.0000   1.0000   1.0000   1.0000
     1.0000   1.0000   1.0000   1.0000   1.0000   1.0000   1.0000   1.0000
     1.0000   1.0000   1.0000   1.0000   1.0000   1.0000   1.0000   1.0000
     1.0000   1.0000   1.0000   1.0000   1.0000   1.0000   1.0000   1.0000
     1.0000   1.0000   1.0000   1.0000   1.0000   1.0000   1.0000   1.0000
     1.0000   1.0000   1.0000   1.0000   1.0000   1.0000   1.0000   1.0000
     1.0000   1.0000   1.0000   1.0000   1.0000   1.0000   1.0000   1.0000
     1.0000   1.0000   1.0000   1.0000   1.0000   1.0000   1.0000   1.0000
     1.0000   1.0000   1.0000   1.0000   1.0000   1.0000   1.0000   1.0000
     1.0000   1.0000   1.0000   1.0000   1.0000   1.0000   1.0001   1.0001
     1.0001   1.0003   1.0008   1.0013   1.0024   1.0135   1.0166   1.0532
     1.0811   1.0371   0.9720   0.8736   0.7912   0.5355   0.4604   0.4145
     0.3245   0.1475   0.1184   0.1089   0.0696   0.0059   0.0053   0.0000
     0.0000   0.0000   0.0000   0.0000   0.0000   0.0000   0.0000   0.0000
     0.0000   0.0000   0.0000   0.0000   0.0000   0.0000   0.0000   0.0000
     0.0000

          k = 0.3750-0.2165 0.0000 ( 44520 PWs)   bands (ev):

   -11.8112 -11.4608 -10.8569 -10.6400 -10.4397 -10.3213 -10.3196 -10.3018
   -10.2600 -10.1421 -10.1378 -10.1359 -10.1052 -10.0159 -10.0047 -10.0024
    -9.8478  -9.8432  -9.7948  -9.7525  -9.7098  -9.7087  -9.6405  -9.6158
    -9.6147  -9.5447  -9.4775  -9.4743  -9.4191  -9.1895  -9.1588  -9.1265
    -9.0962  -9.0823  -9.0244  -8.9817  -8.9167  -8.8615  -8.7764  -8.7544
    -8.7543  -8.6841  -8.5746  -8.5481  -8.4508  -8.4038  -8.3615  -8.2774
    -8.2488  -8.1470  -8.0882  -8.0436  -8.0255  -8.0198  -8.0127  -7.9628
    -7.9549  -7.8614  -7.8580  -7.8498  -7.8207  -7.7971  -7.7774  -7.7387
    -7.7141  -7.5789  -7.5703  -7.5415  -7.5223  -7.4825  -7.4645  -7.4362
    -7.4069  -7.3814  -7.3658  -7.2119  -7.1660  -7.1545  -7.1136  -7.0596
    -7.0044  -6.9980  -6.9895  -6.9514  -6.8739  -6.8639  -6.8486  -6.7958
    -6.6549  -6.5962  -6.5858  -6.5542  -6.5409  -6.5181  -6.3395  -6.3263
    -6.3034  -6.2658  -6.2610  -6.2322  -6.2303  -6.1567  -6.1286  -6.0823
    -6.0664  -6.0301  -6.0257  -5.9507  -5.9028  -5.8563  -5.8519  -5.8258
    -5.7285  -5.5081  -5.5060  -5.4538  -5.4045  -5.3703  -5.2598  -5.2566
    -5.2308  -5.1717  -5.1563  -5.1439  -5.1176  -4.9719  -4.9708  -4.1525
    -3.8367  -2.9371  -2.7924  -2.7360  -2.5099  -2.4194  -2.2729  -2.0630
    -1.9934  -1.3610  -1.1463  -1.0364  -0.5060   0.1519   0.3168   1.0644
     1.6300

     occupation numbers 
     1.0000   1.0000   1.0000   1.0000   1.0000   1.0000   1.0000   1.0000
     1.0000   1.0000   1.0000   1.0000   1.0000   1.0000   1.0000   1.0000
     1.0000   1.0000   1.0000   1.0000   1.0000   1.0000   1.0000   1.0000
     1.0000   1.0000   1.0000   1.0000   1.0000   1.0000   1.0000   1.0000
     1.0000   1.0000   1.0000   1.0000   1.0000   1.0000   1.0000   1.0000
     1.0000   1.0000   1.0000   1.0000   1.0000   1.0000   1.0000   1.0000
     1.0000   1.0000   1.0000   1.0000   1.0000   1.0000   1.0000   1.0000
     1.0000   1.0000   1.0000   1.0000   1.0000   1.0000   1.0000   1.0000
     1.0000   1.0000   1.0000   1.0000   1.0000   1.0000   1.0000   1.0000
     1.0000   1.0000   1.0000   1.0000   1.0000   1.0000   1.0000   1.0000
     1.0000   1.0000   1.0000   1.0000   1.0000   1.0000   1.0000   1.0000
     1.0000   1.0000   1.0000   1.0000   1.0000   1.0000   1.0000   1.0000
     1.0000   1.0000   1.0000   1.0000   1.0000   1.0000   1.0000   1.0000
     1.0000   1.0000   1.0000   1.0003   1.0009   1.0026   1.0028   1.0047
     1.0234   1.0590   1.0570   0.9755   0.8430   0.7261   0.3288   0.3188
     0.2450   0.1198   0.0968   0.0809   0.0540   0.0032   0.0031   0.0000
     0.0000   0.0000   0.0000   0.0000   0.0000   0.0000   0.0000   0.0000
     0.0000   0.0000   0.0000   0.0000   0.0000   0.0000   0.0000   0.0000
     0.0000

          k = 0.3750-0.1443 0.0000 ( 44528 PWs)   bands (ev):

   -11.8804 -11.5708 -10.9457 -10.6031 -10.4725 -10.3880 -10.3761 -10.3073
   -10.2849 -10.2499 -10.1948 -10.1590 -10.1458 -10.1027 -10.0662 -10.0301
    -9.9403  -9.9147  -9.8515  -9.8049  -9.7893  -9.7285  -9.7107  -9.6874
    -9.6537  -9.5967  -9.5700  -9.5066  -9.4529  -9.2569  -9.1750  -9.1462
    -9.1217  -9.0959  -9.0339  -8.9679  -8.8592  -8.8409  -8.8183  -8.7493
    -8.6435  -8.6155  -8.5859  -8.5100  -8.3803  -8.3588  -8.3090  -8.2244
    -8.2111  -8.1510  -8.1012  -8.0729  -8.0548  -8.0178  -7.9790  -7.9659
    -7.9434  -7.8829  -7.8633  -7.8275  -7.8119  -7.7614  -7.7332  -7.7087
    -7.6654  -7.6514  -7.6227  -7.5461  -7.5098  -7.4778  -7.4518  -7.4471
    -7.3974  -7.3312  -7.2752  -7.2673  -7.1779  -7.0638  -7.0291  -7.0023
    -6.9418  -6.9150  -6.8893  -6.8748  -6.8617  -6.8297  -6.8183  -6.7096
    -6.6606  -6.5217  -6.5019  -6.4944  -6.4821  -6.4676  -6.2932  -6.2430
    -6.2258  -6.2166  -6.1992  -6.1748  -6.1118  -6.0773  -6.0030  -5.9952
    -5.9749  -5.9501  -5.9067  -5.8861  -5.8594  -5.7656  -5.7525  -5.6556
    -5.5464  -5.4889  -5.4522  -5.4145  -5.3888  -5.3192  -5.2988  -5.2858
    -5.2585  -5.1876  -5.1708  -5.1647  -5.1338  -4.9995  -4.9950  -4.1386
    -3.8110  -3.4726  -3.2544  -2.9277  -2.6133  -2.2086  -2.1265  -1.8688
    -1.7863  -1.5424  -1.3464  -0.6242  -0.3621  -0.2010   0.5788   1.2137
     1.4095

     occupation numbers 
     1.0000   1.0000   1.0000   1.0000   1.0000   1.0000   1.0000   1.0000
     1.0000   1.0000   1.0000   1.0000   1.0000   1.0000   1.0000   1.0000
     1.0000   1.0000   1.0000   1.0000   1.0000   1.0000   1.0000   1.0000
     1.0000   1.0000   1.0000   1.0000   1.0000   1.0000   1.0000   1.0000
     1.0000   1.0000   1.0000   1.0000   1.0000   1.0000   1.0000   1.0000
     1.0000   1.0000   1.0000   1.0000   1.0000   1.0000   1.0000   1.0000
     1.0000   1.0000   1.0000   1.0000   1.0000   1.0000   1.0000   1.0000
     1.0000   1.0000   1.0000   1.0000   1.0000   1.0000   1.0000   1.0000
     1.0000   1.0000   1.0000   1.0000   1.0000   1.0000   1.0000   1.0000
     1.0000   1.0000   1.0000   1.0000   1.0000   1.0000   1.0000   1.0000
     1.0000   1.0000   1.0000   1.0000   1.0000   1.0000   1.0000   1.0000
     1.0000   1.0000   1.0000   1.0000   1.0000   1.0000   1.0000   1.0000
     1.0000   1.0000   1.0000   1.0000   1.0000   1.0000   1.0001   1.0001
     1.0001   1.0003   1.0008   1.0013   1.0024   1.0135   1.0166   1.0532
     1.0811   1.0371   0.9720   0.8736   0.7912   0.5355   0.4604   0.4145
     0.3245   0.1475   0.1184   0.1089   0.0696   0.0059   0.0053   0.0000
     0.0000   0.0000   0.0000   0.0000   0.0000   0.0000   0.0000   0.0000
     0.0000   0.0000   0.0000   0.0000   0.0000   0.0000   0.0000   0.0000
     0.0000

          k = 0.3750-0.0722 0.0000 ( 44558 PWs)   bands (ev):

   -11.9268 -11.6356 -10.9996 -10.5430 -10.4750 -10.4300 -10.4190 -10.3638
   -10.3247 -10.2559 -10.2361 -10.1843 -10.1590 -10.1525 -10.0680 -10.0400
   -10.0242  -9.9652  -9.9161  -9.8846  -9.8027  -9.7717  -9.7445  -9.7180
    -9.6811  -9.6626  -9.5821  -9.5211  -9.4729  -9.3405  -9.2011  -9.1741
    -9.1446  -9.0673  -9.0106  -8.9379  -8.8913  -8.8481  -8.7841  -8.7637
    -8.6485  -8.5706  -8.4861  -8.4740  -8.3472  -8.3212  -8.3007  -8.2097
    -8.1877  -8.1763  -8.1436  -8.1176  -8.0790  -8.0210  -7.9823  -7.9449
    -7.9316  -7.9014  -7.8725  -7.8482  -7.8206  -7.7846  -7.7168  -7.6896
    -7.6799  -7.6640  -7.5753  -7.5551  -7.5288  -7.4916  -7.4519  -7.4098
    -7.3729  -7.2909  -7.2381  -7.1999  -7.1785  -7.0387  -6.9771  -6.9356
    -6.9179  -6.8856  -6.8729  -6.8447  -6.8090  -6.7405  -6.7244  -6.6960
    -6.6783  -6.5487  -6.4611  -6.4576  -6.4398  -6.4072  -6.2881  -6.2498
    -6.1956  -6.1736  -6.1611  -6.1332  -6.0874  -5.9888  -5.9637  -5.9299
    -5.8771  -5.8632  -5.8348  -5.8003  -5.7069  -5.6586  -5.6206  -5.5625
    -5.4733  -5.4416  -5.4073  -5.3888  -5.3774  -5.3404  -5.2585  -5.2368
    -5.2114  -5.2006  -5.1764  -5.0688  -5.0664  -5.0020  -4.7940  -4.2077
    -4.0826  -3.8703  -3.6235  -3.4270  -2.8248  -2.4701  -1.8828  -1.6744
    -1.5631  -1.2161  -0.9645  -0.7335  -0.1879   0.0798   0.5038   0.8165
     0.9462

     occupation numbers 
     1.0000   1.0000   1.0000   1.0000   1.0000   1.0000   1.0000   1.0000
     1.0000   1.0000   1.0000   1.0000   1.0000   1.0000   1.0000   1.0000
     1.0000   1.0000   1.0000   1.0000   1.0000   1.0000   1.0000   1.0000
     1.0000   1.0000   1.0000   1.0000   1.0000   1.0000   1.0000   1.0000
     1.0000   1.0000   1.0000   1.0000   1.0000   1.0000   1.0000   1.0000
     1.0000   1.0000   1.0000   1.0000   1.0000   1.0000   1.0000   1.0000
     1.0000   1.0000   1.0000   1.0000   1.0000   1.0000   1.0000   1.0000
     1.0000   1.0000   1.0000   1.0000   1.0000   1.0000   1.0000   1.0000
     1.0000   1.0000   1.0000   1.0000   1.0000   1.0000   1.0000   1.0000
     1.0000   1.0000   1.0000   1.0000   1.0000   1.0000   1.0000   1.0000
     1.0000   1.0000   1.0000   1.0000   1.0000   1.0000   1.0000   1.0000
     1.0000   1.0000   1.0000   1.0000   1.0000   1.0000   1.0000   1.0000
     1.0000   1.0000   1.0000   1.0000   1.0000   1.0001   1.0002   1.0005
     1.0016   1.0022   1.0040   1.0076   1.0309   1.0518   1.0692   1.0833
     1.0131   0.9473   0.8519   0.7913   0.7517   0.6154   0.3247   0.2612
     0.1972   0.1733   0.1276   0.0234   0.0224   0.0062   0.0000   0.0000
     0.0000   0.0000   0.0000   0.0000   0.0000   0.0000   0.0000   0.0000
     0.0000   0.0000   0.0000   0.0000   0.0000   0.0000   0.0000   0.0000
     0.0000

          k = 0.3750 0.0000 0.0000 ( 44577 PWs)   bands (ev):

   -11.9431 -11.6569 -11.0177 -10.4634 -10.4619 -10.4539 -10.4511 -10.4440
   -10.3315 -10.2518 -10.2321 -10.2309 -10.1555 -10.1061 -10.1010 -10.0408
   -10.0221 -10.0026  -9.9849  -9.8999  -9.7979  -9.7877  -9.7620  -9.7210
    -9.6991  -9.6849  -9.5751  -9.5202  -9.4914  -9.3699  -9.2010  -9.1940
    -9.1488  -9.0810  -8.9701  -8.9251  -8.9067  -8.8441  -8.8045  -8.7604
    -8.6531  -8.5515  -8.4781  -8.3936  -8.3671  -8.3100  -8.2591  -8.2530
    -8.2097  -8.1739  -8.1502  -8.1310  -8.0864  -8.0225  -7.9946  -7.9323
    -7.9299  -7.8934  -7.8734  -7.8570  -7.8330  -7.8219  -7.7093  -7.6936
    -7.6716  -7.6184  -7.6084  -7.5430  -7.5365  -7.4988  -7.4467  -7.3901
    -7.3629  -7.2914  -7.2126  -7.1966  -7.1253  -7.0668  -6.9400  -6.9112
    -6.9047  -6.8973  -6.8755  -6.8222  -6.7761  -6.7166  -6.6998  -6.6763
    -6.6372  -6.6209  -6.4464  -6.4439  -6.4246  -6.3758  -6.3394  -6.2116
    -6.1820  -6.1471  -6.1446  -6.1145  -6.0972  -5.9770  -5.9503  -5.9221
    -5.8883  -5.8136  -5.8073  -5.6876  -5.6226  -5.6138  -5.5419  -5.5310
    -5.4858  -5.4409  -5.4202  -5.4187  -5.3850  -5.3746  -5.3641  -5.2275
    -5.1954  -5.1529  -5.1496  -5.1190  -4.7529  -4.6980  -4.5383  -4.4468
    -4.3199  -4.1162  -4.0539  -3.2566  -2.9528  -2.7524  -1.8424  -1.5293
    -1.3113  -1.2396  -0.8422  -0.4762  -0.1154   0.2451   0.3916   0.5028
     0.6430

     occupation numbers 
     1.0000   1.0000   1.0000   1.0000   1.0000   1.0000   1.0000   1.0000
     1.0000   1.0000   1.0000   1.0000   1.0000   1.0000   1.0000   1.0000
     1.0000   1.0000   1.0000   1.0000   1.0000   1.0000   1.0000   1.0000
     1.0000   1.0000   1.0000   1.0000   1.0000   1.0000   1.0000   1.0000
     1.0000   1.0000   1.0000   1.0000   1.0000   1.0000   1.0000   1.0000
     1.0000   1.0000   1.0000   1.0000   1.0000   1.0000   1.0000   1.0000
     1.0000   1.0000   1.0000   1.0000   1.0000   1.0000   1.0000   1.0000
     1.0000   1.0000   1.0000   1.0000   1.0000   1.0000   1.0000   1.0000
     1.0000   1.0000   1.0000   1.0000   1.0000   1.0000   1.0000   1.0000
     1.0000   1.0000   1.0000   1.0000   1.0000   1.0000   1.0000   1.0000
     1.0000   1.0000   1.0000   1.0000   1.0000   1.0000   1.0000   1.0000
     1.0000   1.0000   1.0000   1.0000   1.0000   1.0000   1.0000   1.0000
     1.0000   1.0000   1.0000   1.0000   1.0000   1.0001   1.0003   1.0006
     1.0013   1.0059   1.0067   1.0387   1.0683   1.0720   1.0799   1.0754
     1.0327   0.9456   0.8905   0.8861   0.7784   0.7417   0.7038   0.2364
     0.1626   0.0922   0.0880   0.0553   0.0000   0.0000   0.0000   0.0000
     0.0000   0.0000   0.0000   0.0000   0.0000   0.0000   0.0000   0.0000
     0.0000   0.0000   0.0000   0.0000   0.0000   0.0000   0.0000   0.0000
     0.0000

          k = 0.3750 0.0722 0.0000 ( 44558 PWs)   bands (ev):

   -11.9268 -11.6356 -10.9996 -10.5430 -10.4750 -10.4300 -10.4190 -10.3638
   -10.3247 -10.2559 -10.2361 -10.1843 -10.1590 -10.1525 -10.0680 -10.0400
   -10.0242  -9.9652  -9.9161  -9.8846  -9.8027  -9.7717  -9.7445  -9.7180
    -9.6811  -9.6626  -9.5821  -9.5211  -9.4729  -9.3405  -9.2011  -9.1741
    -9.1446  -9.0673  -9.0106  -8.9379  -8.8913  -8.8481  -8.7841  -8.7637
    -8.6485  -8.5706  -8.4861  -8.4740  -8.3472  -8.3212  -8.3007  -8.2097
    -8.1877  -8.1763  -8.1436  -8.1176  -8.0790  -8.0210  -7.9823  -7.9449
    -7.9316  -7.9014  -7.8725  -7.8482  -7.8206  -7.7846  -7.7168  -7.6896
    -7.6799  -7.6640  -7.5753  -7.5551  -7.5288  -7.4916  -7.4519  -7.4098
    -7.3729  -7.2909  -7.2381  -7.1999  -7.1785  -7.0387  -6.9771  -6.9356
    -6.9179  -6.8856  -6.8729  -6.8447  -6.8090  -6.7405  -6.7244  -6.6960
    -6.6783  -6.5487  -6.4611  -6.4576  -6.4398  -6.4072  -6.2881  -6.2498
    -6.1956  -6.1736  -6.1611  -6.1332  -6.0874  -5.9888  -5.9637  -5.9299
    -5.8771  -5.8632  -5.8348  -5.8003  -5.7069  -5.6586  -5.6206  -5.5625
    -5.4733  -5.4416  -5.4073  -5.3888  -5.3774  -5.3404  -5.2585  -5.2368
    -5.2114  -5.2006  -5.1764  -5.0688  -5.0664  -5.0020  -4.7940  -4.2077
    -4.0826  -3.8703  -3.6235  -3.4270  -2.8248  -2.4701  -1.8828  -1.6744
    -1.5631  -1.2161  -0.9645  -0.7335  -0.1879   0.0798   0.5038   0.8165
     0.9462

     occupation numbers 
     1.0000   1.0000   1.0000   1.0000   1.0000   1.0000   1.0000   1.0000
     1.0000   1.0000   1.0000   1.0000   1.0000   1.0000   1.0000   1.0000
     1.0000   1.0000   1.0000   1.0000   1.0000   1.0000   1.0000   1.0000
     1.0000   1.0000   1.0000   1.0000   1.0000   1.0000   1.0000   1.0000
     1.0000   1.0000   1.0000   1.0000   1.0000   1.0000   1.0000   1.0000
     1.0000   1.0000   1.0000   1.0000   1.0000   1.0000   1.0000   1.0000
     1.0000   1.0000   1.0000   1.0000   1.0000   1.0000   1.0000   1.0000
     1.0000   1.0000   1.0000   1.0000   1.0000   1.0000   1.0000   1.0000
     1.0000   1.0000   1.0000   1.0000   1.0000   1.0000   1.0000   1.0000
     1.0000   1.0000   1.0000   1.0000   1.0000   1.0000   1.0000   1.0000
     1.0000   1.0000   1.0000   1.0000   1.0000   1.0000   1.0000   1.0000
     1.0000   1.0000   1.0000   1.0000   1.0000   1.0000   1.0000   1.0000
     1.0000   1.0000   1.0000   1.0000   1.0000   1.0001   1.0002   1.0005
     1.0016   1.0022   1.0040   1.0076   1.0309   1.0518   1.0692   1.0833
     1.0131   0.9473   0.8519   0.7913   0.7517   0.6154   0.3247   0.2612
     0.1972   0.1733   0.1276   0.0234   0.0224   0.0062   0.0000   0.0000
     0.0000   0.0000   0.0000   0.0000   0.0000   0.0000   0.0000   0.0000
     0.0000   0.0000   0.0000   0.0000   0.0000   0.0000   0.0000   0.0000
     0.0000

          k = 0.3750 0.1443 0.0000 ( 44528 PWs)   bands (ev):

   -11.8804 -11.5708 -10.9457 -10.6031 -10.4725 -10.3880 -10.3761 -10.3073
   -10.2849 -10.2499 -10.1948 -10.1590 -10.1458 -10.1027 -10.0662 -10.0301
    -9.9403  -9.9147  -9.8515  -9.8049  -9.7893  -9.7285  -9.7107  -9.6874
    -9.6537  -9.5967  -9.5700  -9.5066  -9.4529  -9.2569  -9.1750  -9.1462
    -9.1217  -9.0959  -9.0339  -8.9679  -8.8592  -8.8409  -8.8183  -8.7493
    -8.6435  -8.6155  -8.5859  -8.5100  -8.3803  -8.3588  -8.3090  -8.2244
    -8.2111  -8.1510  -8.1012  -8.0729  -8.0548  -8.0178  -7.9790  -7.9659
    -7.9434  -7.8829  -7.8633  -7.8275  -7.8119  -7.7614  -7.7332  -7.7087
    -7.6654  -7.6514  -7.6227  -7.5461  -7.5098  -7.4778  -7.4518  -7.4471
    -7.3974  -7.3312  -7.2752  -7.2673  -7.1779  -7.0638  -7.0291  -7.0023
    -6.9418  -6.9150  -6.8893  -6.8748  -6.8617  -6.8297  -6.8183  -6.7096
    -6.6606  -6.5217  -6.5019  -6.4944  -6.4821  -6.4676  -6.2932  -6.2430
    -6.2258  -6.2166  -6.1992  -6.1748  -6.1118  -6.0773  -6.0030  -5.9952
    -5.9749  -5.9501  -5.9067  -5.8861  -5.8594  -5.7656  -5.7525  -5.6556
    -5.5464  -5.4889  -5.4522  -5.4145  -5.3888  -5.3192  -5.2988  -5.2858
    -5.2585  -5.1876  -5.1708  -5.1647  -5.1338  -4.9995  -4.9950  -4.1386
    -3.8110  -3.4726  -3.2544  -2.9277  -2.6133  -2.2086  -2.1265  -1.8688
    -1.7863  -1.5424  -1.3464  -0.6242  -0.3621  -0.2010   0.5788   1.2137
     1.4095

     occupation numbers 
     1.0000   1.0000   1.0000   1.0000   1.0000   1.0000   1.0000   1.0000
     1.0000   1.0000   1.0000   1.0000   1.0000   1.0000   1.0000   1.0000
     1.0000   1.0000   1.0000   1.0000   1.0000   1.0000   1.0000   1.0000
     1.0000   1.0000   1.0000   1.0000   1.0000   1.0000   1.0000   1.0000
     1.0000   1.0000   1.0000   1.0000   1.0000   1.0000   1.0000   1.0000
     1.0000   1.0000   1.0000   1.0000   1.0000   1.0000   1.0000   1.0000
     1.0000   1.0000   1.0000   1.0000   1.0000   1.0000   1.0000   1.0000
     1.0000   1.0000   1.0000   1.0000   1.0000   1.0000   1.0000   1.0000
     1.0000   1.0000   1.0000   1.0000   1.0000   1.0000   1.0000   1.0000
     1.0000   1.0000   1.0000   1.0000   1.0000   1.0000   1.0000   1.0000
     1.0000   1.0000   1.0000   1.0000   1.0000   1.0000   1.0000   1.0000
     1.0000   1.0000   1.0000   1.0000   1.0000   1.0000   1.0000   1.0000
     1.0000   1.0000   1.0000   1.0000   1.0000   1.0000   1.0001   1.0001
     1.0001   1.0003   1.0008   1.0013   1.0024   1.0135   1.0166   1.0532
     1.0811   1.0371   0.9720   0.8736   0.7912   0.5355   0.4604   0.4145
     0.3245   0.1475   0.1184   0.1089   0.0696   0.0059   0.0053   0.0000
     0.0000   0.0000   0.0000   0.0000   0.0000   0.0000   0.0000   0.0000
     0.0000   0.0000   0.0000   0.0000   0.0000   0.0000   0.0000   0.0000
     0.0000

          k = 0.3750 0.2165 0.0000 ( 44520 PWs)   bands (ev):

   -11.8112 -11.4608 -10.8569 -10.6400 -10.4397 -10.3213 -10.3196 -10.3018
   -10.2600 -10.1421 -10.1378 -10.1359 -10.1052 -10.0159 -10.0047 -10.0024
    -9.8478  -9.8432  -9.7948  -9.7525  -9.7098  -9.7087  -9.6405  -9.6158
    -9.6147  -9.5447  -9.4775  -9.4743  -9.4191  -9.1895  -9.1588  -9.1265
    -9.0962  -9.0823  -9.0244  -8.9817  -8.9167  -8.8615  -8.7764  -8.7544
    -8.7543  -8.6841  -8.5746  -8.5481  -8.4508  -8.4038  -8.3615  -8.2774
    -8.2488  -8.1470  -8.0882  -8.0436  -8.0255  -8.0198  -8.0127  -7.9628
    -7.9549  -7.8614  -7.8580  -7.8498  -7.8207  -7.7971  -7.7774  -7.7387
    -7.7141  -7.5789  -7.5703  -7.5415  -7.5223  -7.4825  -7.4645  -7.4362
    -7.4069  -7.3814  -7.3658  -7.2119  -7.1660  -7.1545  -7.1136  -7.0596
    -7.0044  -6.9980  -6.9895  -6.9514  -6.8739  -6.8639  -6.8486  -6.7958
    -6.6549  -6.5962  -6.5858  -6.5542  -6.5409  -6.5181  -6.3395  -6.3263
    -6.3034  -6.2658  -6.2610  -6.2322  -6.2303  -6.1567  -6.1286  -6.0823
    -6.0664  -6.0301  -6.0257  -5.9507  -5.9028  -5.8563  -5.8519  -5.8258
    -5.7285  -5.5081  -5.5060  -5.4538  -5.4045  -5.3703  -5.2598  -5.2566
    -5.2308  -5.1717  -5.1563  -5.1439  -5.1176  -4.9719  -4.9708  -4.1525
    -3.8367  -2.9371  -2.7924  -2.7360  -2.5099  -2.4194  -2.2729  -2.0630
    -1.9934  -1.3610  -1.1463  -1.0364  -0.5060   0.1519   0.3168   1.0644
     1.6300

     occupation numbers 
     1.0000   1.0000   1.0000   1.0000   1.0000   1.0000   1.0000   1.0000
     1.0000   1.0000   1.0000   1.0000   1.0000   1.0000   1.0000   1.0000
     1.0000   1.0000   1.0000   1.0000   1.0000   1.0000   1.0000   1.0000
     1.0000   1.0000   1.0000   1.0000   1.0000   1.0000   1.0000   1.0000
     1.0000   1.0000   1.0000   1.0000   1.0000   1.0000   1.0000   1.0000
     1.0000   1.0000   1.0000   1.0000   1.0000   1.0000   1.0000   1.0000
     1.0000   1.0000   1.0000   1.0000   1.0000   1.0000   1.0000   1.0000
     1.0000   1.0000   1.0000   1.0000   1.0000   1.0000   1.0000   1.0000
     1.0000   1.0000   1.0000   1.0000   1.0000   1.0000   1.0000   1.0000
     1.0000   1.0000   1.0000   1.0000   1.0000   1.0000   1.0000   1.0000
     1.0000   1.0000   1.0000   1.0000   1.0000   1.0000   1.0000   1.0000
     1.0000   1.0000   1.0000   1.0000   1.0000   1.0000   1.0000   1.0000
     1.0000   1.0000   1.0000   1.0000   1.0000   1.0000   1.0000   1.0000
     1.0000   1.0000   1.0000   1.0003   1.0009   1.0026   1.0028   1.0047
     1.0234   1.0590   1.0570   0.9755   0.8430   0.7261   0.3288   0.3188
     0.2450   0.1198   0.0968   0.0809   0.0540   0.0032   0.0031   0.0000
     0.0000   0.0000   0.0000   0.0000   0.0000   0.0000   0.0000   0.0000
     0.0000   0.0000   0.0000   0.0000   0.0000   0.0000   0.0000   0.0000
     0.0000

          k = 0.3750 0.2887 0.0000 ( 44509 PWs)   bands (ev):

   -11.7290 -11.3049 -10.7366 -10.6536 -10.3851 -10.2739 -10.2468 -10.2330
   -10.1888 -10.1223 -10.0751 -10.0331 -10.0185  -9.9597  -9.9283  -9.9109
    -9.7699  -9.7334  -9.7242  -9.6944  -9.6684  -9.6407  -9.6034  -9.5382
    -9.5217  -9.4743  -9.4233  -9.3689  -9.3485  -9.2572  -9.1329  -9.0754
    -9.0575  -9.0473  -9.0230  -8.9937  -8.9628  -8.9023  -8.8675  -8.8167
    -8.7474  -8.6621  -8.6044  -8.5672  -8.5181  -8.5054  -8.4434  -8.3484
    -8.3052  -8.1716  -8.1472  -8.0978  -8.0848  -8.0459  -8.0231  -7.9946
    -7.9715  -7.9103  -7.8983  -7.8881  -7.8627  -7.8265  -7.7946  -7.7370
    -7.7007  -7.6449  -7.5964  -7.5717  -7.5242  -7.4624  -7.4556  -7.4304
    -7.4044  -7.3787  -7.3190  -7.2469  -7.2374  -7.1995  -7.1716  -7.1378
    -7.0845  -7.0663  -7.0139  -6.9883  -6.9563  -6.8830  -6.8634  -6.8453
    -6.7697  -6.6881  -6.6712  -6.6280  -6.6164  -6.4968  -6.4800  -6.4450
    -6.4139  -6.3886  -6.3675  -6.3042  -6.2755  -6.2162  -6.1982  -6.1561
    -6.1161  -6.0932  -6.0717  -5.9891  -5.9240  -5.8642  -5.8342  -5.7982
    -5.7387  -5.5803  -5.5295  -5.4471  -5.4155  -5.3771  -5.2809  -5.2585
    -5.2548  -5.2040  -5.1754  -5.1642  -5.0069  -4.9979  -4.9663  -4.2151
    -3.6941  -3.3966  -3.2229  -2.8598  -2.5188  -2.1927  -2.0869  -1.8269
    -1.7256  -1.3090  -0.9639  -0.7258  -0.3767  -0.2429   0.7590   0.9295
     1.3710

     occupation numbers 
     1.0000   1.0000   1.0000   1.0000   1.0000   1.0000   1.0000   1.0000
     1.0000   1.0000   1.0000   1.0000   1.0000   1.0000   1.0000   1.0000
     1.0000   1.0000   1.0000   1.0000   1.0000   1.0000   1.0000   1.0000
     1.0000   1.0000   1.0000   1.0000   1.0000   1.0000   1.0000   1.0000
     1.0000   1.0000   1.0000   1.0000   1.0000   1.0000   1.0000   1.0000
     1.0000   1.0000   1.0000   1.0000   1.0000   1.0000   1.0000   1.0000
     1.0000   1.0000   1.0000   1.0000   1.0000   1.0000   1.0000   1.0000
     1.0000   1.0000   1.0000   1.0000   1.0000   1.0000   1.0000   1.0000
     1.0000   1.0000   1.0000   1.0000   1.0000   1.0000   1.0000   1.0000
     1.0000   1.0000   1.0000   1.0000   1.0000   1.0000   1.0000   1.0000
     1.0000   1.0000   1.0000   1.0000   1.0000   1.0000   1.0000   1.0000
     1.0000   1.0000   1.0000   1.0000   1.0000   1.0000   1.0000   1.0000
     1.0000   1.0000   1.0000   1.0000   1.0000   1.0000   1.0000   1.0000
     1.0000   1.0000   1.0000   1.0001   1.0006   1.0022   1.0040   1.0079
     1.0203   1.0819   1.0746   0.9605   0.8768   0.7505   0.3977   0.3246
     0.3131   0.1805   0.1259   0.1081   0.0069   0.0057   0.0028   0.0000
     0.0000   0.0000   0.0000   0.0000   0.0000   0.0000   0.0000   0.0000
     0.0000   0.0000   0.0000   0.0000   0.0000   0.0000   0.0000   0.0000
     0.0000

          k = 0.3750-0.7939 0.0000 ( 44477 PWs)   bands (ev):

   -11.6448 -11.1064 -10.6529 -10.5855 -10.3351 -10.1800 -10.1531 -10.1397
   -10.1073 -10.0907  -9.9881  -9.9551  -9.9203  -9.8983  -9.8219  -9.8135
    -9.7289  -9.6506  -9.6367  -9.6240  -9.6145  -9.5866  -9.5381  -9.4435
    -9.4318  -9.4014  -9.3520  -9.3275  -9.2590  -9.2338  -9.1595  -9.1251
    -9.1112  -9.0863  -9.0328  -9.0020  -8.9246  -8.9014  -8.8731  -8.8610
    -8.8108  -8.6827  -8.6745  -8.6217  -8.5754  -8.5633  -8.4838  -8.4036
    -8.3431  -8.3155  -8.3052  -8.2064  -8.1647  -8.1366  -8.0585  -8.0175
    -8.0010  -7.9655  -7.9492  -7.9135  -7.8802  -7.8279  -7.8043  -7.7802
    -7.7234  -7.7072  -7.6506  -7.6331  -7.6063  -7.5744  -7.5263  -7.5004
    -7.4606  -7.3940  -7.3460  -7.3119  -7.2668  -7.2350  -7.2081  -7.1745
    -7.1510  -7.0861  -7.0155  -6.9530  -6.9368  -6.8940  -6.8776  -6.8150
    -6.8053  -6.7110  -6.6912  -6.6696  -6.6535  -6.6058  -6.5464  -6.5062
    -6.4862  -6.4181  -6.3733  -6.3583  -6.3128  -6.2184  -6.1790  -6.1305
    -6.1113  -6.0852  -6.0453  -5.9945  -5.9647  -5.7951  -5.7728  -5.7488
    -5.7261  -5.6151  -5.5749  -5.4432  -5.4373  -5.3967  -5.3385  -5.3175
    -5.3058  -5.2725  -5.2493  -5.2416  -5.0782  -5.0691  -4.7738  -4.2492
    -3.9550  -3.8446  -3.5306  -3.3136  -2.6867  -2.3664  -1.8596  -1.3905
    -1.1604  -0.9358  -0.7781  -0.5626  -0.4393   0.3669   0.6257   0.8755
     1.5282

     occupation numbers 
     1.0000   1.0000   1.0000   1.0000   1.0000   1.0000   1.0000   1.0000
     1.0000   1.0000   1.0000   1.0000   1.0000   1.0000   1.0000   1.0000
     1.0000   1.0000   1.0000   1.0000   1.0000   1.0000   1.0000   1.0000
     1.0000   1.0000   1.0000   1.0000   1.0000   1.0000   1.0000   1.0000
     1.0000   1.0000   1.0000   1.0000   1.0000   1.0000   1.0000   1.0000
     1.0000   1.0000   1.0000   1.0000   1.0000   1.0000   1.0000   1.0000
     1.0000   1.0000   1.0000   1.0000   1.0000   1.0000   1.0000   1.0000
     1.0000   1.0000   1.0000   1.0000   1.0000   1.0000   1.0000   1.0000
     1.0000   1.0000   1.0000   1.0000   1.0000   1.0000   1.0000   1.0000
     1.0000   1.0000   1.0000   1.0000   1.0000   1.0000   1.0000   1.0000
     1.0000   1.0000   1.0000   1.0000   1.0000   1.0000   1.0000   1.0000
     1.0000   1.0000   1.0000   1.0000   1.0000   1.0000   1.0000   1.0000
     1.0000   1.0000   1.0000   1.0000   1.0000   1.0000   1.0000   1.0000
     1.0000   1.0000   1.0000   1.0001   1.0002   1.0083   1.0121   1.0175
     1.0241   1.0715   1.0827   0.9514   0.9368   0.8178   0.6081   0.5292
     0.4860   0.3695   0.2968   0.2746   0.0277   0.0235   0.0000   0.0000
     0.0000   0.0000   0.0000   0.0000   0.0000   0.0000   0.0000   0.0000
     0.0000   0.0000   0.0000   0.0000   0.0000   0.0000   0.0000   0.0000
     0.0000

          k = 0.3750-0.7217 0.0000 ( 44484 PWs)   bands (ev):

   -11.5705 -10.8732 -10.6358 -10.4254 -10.2961 -10.1020 -10.0767 -10.0401
   -10.0300  -9.9743  -9.9192  -9.8884  -9.8418  -9.8265  -9.7374  -9.7209
    -9.6724  -9.6408  -9.5861  -9.5527  -9.5240  -9.5068  -9.4595  -9.3984
    -9.3819  -9.3226  -9.3061  -9.2901  -9.2152  -9.1997  -9.1915  -9.1829
    -9.1603  -9.1402  -9.0205  -8.9983  -8.9743  -8.9573  -8.8793  -8.8691
    -8.8383  -8.7915  -8.7511  -8.6857  -8.6128  -8.5805  -8.5601  -8.4667
    -8.4365  -8.3554  -8.3431  -8.2557  -8.1954  -8.1747  -8.1434  -8.1156
    -8.0749  -8.0299  -8.0068  -7.9718  -7.9398  -7.8930  -7.8590  -7.8481
    -7.8180  -7.8118  -7.7434  -7.7051  -7.6888  -7.6532  -7.6168  -7.6027
    -7.5512  -7.4904  -7.4720  -7.4506  -7.2415  -7.1976  -7.1607  -7.1159
    -7.0452  -7.0357  -7.0339  -7.0111  -6.9699  -6.9258  -6.8749  -6.8412
    -6.7768  -6.7147  -6.6987  -6.6134  -6.5960  -6.5566  -6.5386  -6.4536
    -6.4457  -6.3888  -6.3734  -6.3168  -6.2347  -6.2172  -6.1594  -6.1225
    -6.0602  -6.0079  -5.9490  -5.9425  -5.9363  -5.7647  -5.7307  -5.7153
    -5.6862  -5.6450  -5.5765  -5.4837  -5.4585  -5.4208  -5.4050  -5.4024
    -5.3752  -5.3716  -5.3484  -5.3450  -5.1836  -5.1729  -4.5927  -4.4618
    -4.3934  -4.2265  -4.0283  -3.1889  -2.9146  -2.6608  -1.6327  -1.3349
    -0.9935  -0.6430  -0.3201  -0.1111   0.2259   0.4001   0.5078   1.1368
     1.8892

     occupation numbers 
     1.0000   1.0000   1.0000   1.0000   1.0000   1.0000   1.0000   1.0000
     1.0000   1.0000   1.0000   1.0000   1.0000   1.0000   1.0000   1.0000
     1.0000   1.0000   1.0000   1.0000   1.0000   1.0000   1.0000   1.0000
     1.0000   1.0000   1.0000   1.0000   1.0000   1.0000   1.0000   1.0000
     1.0000   1.0000   1.0000   1.0000   1.0000   1.0000   1.0000   1.0000
     1.0000   1.0000   1.0000   1.0000   1.0000   1.0000   1.0000   1.0000
     1.0000   1.0000   1.0000   1.0000   1.0000   1.0000   1.0000   1.0000
     1.0000   1.0000   1.0000   1.0000   1.0000   1.0000   1.0000   1.0000
     1.0000   1.0000   1.0000   1.0000   1.0000   1.0000   1.0000   1.0000
     1.0000   1.0000   1.0000   1.0000   1.0000   1.0000   1.0000   1.0000
     1.0000   1.0000   1.0000   1.0000   1.0000   1.0000   1.0000   1.0000
     1.0000   1.0000   1.0000   1.0000   1.0000   1.0000   1.0000   1.0000
     1.0000   1.0000   1.0000   1.0000   1.0000   1.0000   1.0000   1.0000
     1.0000   1.0001   1.0003   1.0004   1.0004   1.0137   1.0227   1.0278
     1.0393   1.0582   1.0825   1.0297   0.9853   0.8922   0.8446   0.8362
     0.7438   0.7310   0.6456   0.6325   0.1402   0.1216   0.0000   0.0000
     0.0000   0.0000   0.0000   0.0000   0.0000   0.0000   0.0000   0.0000
     0.0000   0.0000   0.0000   0.0000   0.0000   0.0000   0.0000   0.0000
     0.0000

          k = 0.3750-0.6495 0.0000 ( 44432 PWs)   bands (ev):

   -11.5186 -10.6202 -10.6179 -10.2796 -10.2615 -10.1655 -10.0929  -9.9175
    -9.9010  -9.8884  -9.8622  -9.8478  -9.7720  -9.7566  -9.6761  -9.6295
    -9.6044  -9.6007  -9.5080  -9.4994  -9.4646  -9.4551  -9.4291  -9.4212
    -9.3452  -9.3434  -9.3374  -9.3041  -9.2551  -9.2252  -9.1992  -9.1883
    -9.1354  -9.1201  -9.0919  -9.0496  -9.0366  -8.9959  -8.8559  -8.8444
    -8.8261  -8.8200  -8.8029  -8.7669  -8.6687  -8.5933  -8.5609  -8.5363
    -8.3657  -8.3451  -8.3357  -8.3037  -8.2830  -8.2211  -8.1714  -8.1604
    -8.1343  -8.1142  -8.1027  -8.0763  -8.0485  -7.9970  -7.9831  -7.9656
    -7.9438  -7.9383  -7.8511  -7.7599  -7.7058  -7.6381  -7.6301  -7.5840
    -7.5468  -7.5225  -7.4873  -7.4705  -7.2982  -7.2385  -7.2246  -7.1136
    -7.0865  -7.0075  -6.9950  -6.9665  -6.9462  -6.9204  -6.8642  -6.8243
    -6.8156  -6.7148  -6.6210  -6.6050  -6.5415  -6.4984  -6.4830  -6.4209
    -6.3972  -6.3622  -6.3062  -6.2532  -6.2077  -6.1529  -6.1183  -6.0891
    -5.9352  -5.9160  -5.8435  -5.7696  -5.7531  -5.7171  -5.6948  -5.6889
    -5.6705  -5.6680  -5.5978  -5.5748  -5.5245  -5.5121  -5.4743  -5.4371
    -5.4263  -5.4099  -5.3860  -5.3553  -5.2940  -5.2823  -4.9404  -4.9232
    -4.6449  -4.2854  -4.1446  -3.4787  -2.8407  -2.6372  -1.9212  -1.2138
    -0.9643  -0.2063   0.1120   0.2793   0.4393   0.5434   1.0372   1.4169
     1.5685

     occupation numbers 
     1.0000   1.0000   1.0000   1.0000   1.0000   1.0000   1.0000   1.0000
     1.0000   1.0000   1.0000   1.0000   1.0000   1.0000   1.0000   1.0000
     1.0000   1.0000   1.0000   1.0000   1.0000   1.0000   1.0000   1.0000
     1.0000   1.0000   1.0000   1.0000   1.0000   1.0000   1.0000   1.0000
     1.0000   1.0000   1.0000   1.0000   1.0000   1.0000   1.0000   1.0000
     1.0000   1.0000   1.0000   1.0000   1.0000   1.0000   1.0000   1.0000
     1.0000   1.0000   1.0000   1.0000   1.0000   1.0000   1.0000   1.0000
     1.0000   1.0000   1.0000   1.0000   1.0000   1.0000   1.0000   1.0000
     1.0000   1.0000   1.0000   1.0000   1.0000   1.0000   1.0000   1.0000
     1.0000   1.0000   1.0000   1.0000   1.0000   1.0000   1.0000   1.0000
     1.0000   1.0000   1.0000   1.0000   1.0000   1.0000   1.0000   1.0000
     1.0000   1.0000   1.0000   1.0000   1.0000   1.0000   1.0000   1.0000
     1.0000   1.0000   1.0000   1.0000   1.0000   1.0000   1.0000   1.0000
     1.0004   1.0007   1.0033   1.0127   1.0164   1.0272   1.0357   1.0382
     1.0463   1.0474   1.0777   1.0827   1.0718   1.0626   1.0149   0.9361
     0.9078   0.8597   0.7818   0.6711   0.4434   0.4025   0.0015   0.0010
     0.0000   0.0000   0.0000   0.0000   0.0000   0.0000   0.0000   0.0000
     0.0000   0.0000   0.0000   0.0000   0.0000   0.0000   0.0000   0.0000
     0.0000

          k = 0.3750-0.5774 0.0000 ( 44465 PWs)   bands (ev):

   -11.4998 -10.6120 -10.3702 -10.3645 -10.2619 -10.1596 -10.1470  -9.9073
    -9.8663  -9.8456  -9.8122  -9.7698  -9.7597  -9.6762  -9.6690  -9.5840
    -9.5485  -9.5367  -9.5111  -9.4982  -9.4887  -9.4674  -9.4141  -9.3938
    -9.3857  -9.3590  -9.3578  -9.3169  -9.2827  -9.2415  -9.2219  -9.1951
    -9.1673  -9.1219  -9.0764  -9.0582  -9.0427  -8.9676  -8.9506  -8.9424
    -8.8264  -8.7637  -8.7296  -8.7076  -8.6218  -8.5878  -8.5541  -8.5353
    -8.4496  -8.3923  -8.3701  -8.3480  -8.2659  -8.2532  -8.2127  -8.1680
    -8.1563  -8.1200  -8.1035  -8.0903  -8.0819  -8.0811  -8.0468  -8.0186
    -8.0126  -7.9855  -7.8714  -7.7774  -7.7034  -7.6010  -7.5921  -7.5915
    -7.5749  -7.5143  -7.4993  -7.4538  -7.3257  -7.2883  -7.2726  -7.1215
    -7.0579  -7.0444  -6.9852  -6.9720  -6.9457  -6.8971  -6.8315  -6.8040
    -6.7561  -6.6946  -6.6927  -6.6221  -6.5167  -6.5079  -6.4350  -6.3767
    -6.3565  -6.3206  -6.2611  -6.2348  -6.2314  -6.2275  -6.1096  -5.9260
    -5.8643  -5.8321  -5.7777  -5.7380  -5.7330  -5.6995  -5.6901  -5.6704
    -5.6642  -5.6603  -5.6597  -5.5729  -5.4724  -5.4604  -5.4272  -5.4092
    -5.3816  -5.3740  -5.3664  -5.3648  -5.3514  -5.3344  -5.3301  -5.1319
    -5.0235  -4.2604  -3.9352  -3.7946  -2.8058  -2.4105  -2.2427  -1.1719
    -0.7192  -0.5288   0.3043   0.7460   0.8632   0.9244   0.9549   1.1529
     1.4417

     occupation numbers 
     1.0000   1.0000   1.0000   1.0000   1.0000   1.0000   1.0000   1.0000
     1.0000   1.0000   1.0000   1.0000   1.0000   1.0000   1.0000   1.0000
     1.0000   1.0000   1.0000   1.0000   1.0000   1.0000   1.0000   1.0000
     1.0000   1.0000   1.0000   1.0000   1.0000   1.0000   1.0000   1.0000
     1.0000   1.0000   1.0000   1.0000   1.0000   1.0000   1.0000   1.0000
     1.0000   1.0000   1.0000   1.0000   1.0000   1.0000   1.0000   1.0000
     1.0000   1.0000   1.0000   1.0000   1.0000   1.0000   1.0000   1.0000
     1.0000   1.0000   1.0000   1.0000   1.0000   1.0000   1.0000   1.0000
     1.0000   1.0000   1.0000   1.0000   1.0000   1.0000   1.0000   1.0000
     1.0000   1.0000   1.0000   1.0000   1.0000   1.0000   1.0000   1.0000
     1.0000   1.0000   1.0000   1.0000   1.0000   1.0000   1.0000   1.0000
     1.0000   1.0000   1.0000   1.0000   1.0000   1.0000   1.0000   1.0000
     1.0000   1.0000   1.0000   1.0000   1.0000   1.0000   1.0000   1.0005
     1.0022   1.0042   1.0111   1.0205   1.0220   1.0338   1.0377   1.0463
     1.0492   1.0510   1.0513   1.0829   1.0117   0.9892   0.9102   0.8578
     0.7665   0.7394   0.7121   0.7062   0.6565   0.5925   0.5764   0.0675
     0.0097   0.0000   0.0000   0.0000   0.0000   0.0000   0.0000   0.0000
     0.0000   0.0000   0.0000   0.0000   0.0000   0.0000   0.0000   0.0000
     0.0000

          k = 0.3750-0.5052 0.0000 ( 44432 PWs)   bands (ev):

   -11.5186 -10.6202 -10.6179 -10.2796 -10.2615 -10.1655 -10.0929  -9.9175
    -9.9010  -9.8884  -9.8622  -9.8478  -9.7720  -9.7566  -9.6761  -9.6295
    -9.6044  -9.6007  -9.5080  -9.4994  -9.4646  -9.4551  -9.4291  -9.4212
    -9.3452  -9.3434  -9.3374  -9.3041  -9.2551  -9.2252  -9.1992  -9.1883
    -9.1354  -9.1201  -9.0919  -9.0496  -9.0366  -8.9959  -8.8559  -8.8444
    -8.8261  -8.8200  -8.8029  -8.7669  -8.6687  -8.5933  -8.5609  -8.5363
    -8.3657  -8.3451  -8.3357  -8.3037  -8.2830  -8.2211  -8.1714  -8.1604
    -8.1343  -8.1142  -8.1027  -8.0763  -8.0485  -7.9970  -7.9831  -7.9656
    -7.9438  -7.9383  -7.8511  -7.7599  -7.7058  -7.6381  -7.6301  -7.5840
    -7.5468  -7.5225  -7.4873  -7.4705  -7.2982  -7.2385  -7.2246  -7.1136
    -7.0865  -7.0075  -6.9950  -6.9665  -6.9462  -6.9204  -6.8642  -6.8243
    -6.8156  -6.7148  -6.6210  -6.6050  -6.5415  -6.4984  -6.4830  -6.4209
    -6.3972  -6.3622  -6.3062  -6.2532  -6.2077  -6.1529  -6.1183  -6.0891
    -5.9352  -5.9160  -5.8435  -5.7696  -5.7531  -5.7171  -5.6948  -5.6889
    -5.6705  -5.6680  -5.5978  -5.5748  -5.5245  -5.5121  -5.4743  -5.4371
    -5.4263  -5.4099  -5.3860  -5.3553  -5.2940  -5.2823  -4.9404  -4.9232
    -4.6449  -4.2854  -4.1446  -3.4787  -2.8407  -2.6372  -1.9212  -1.2138
    -0.9643  -0.2063   0.1120   0.2793   0.4393   0.5434   1.0372   1.4169
     1.5685

     occupation numbers 
     1.0000   1.0000   1.0000   1.0000   1.0000   1.0000   1.0000   1.0000
     1.0000   1.0000   1.0000   1.0000   1.0000   1.0000   1.0000   1.0000
     1.0000   1.0000   1.0000   1.0000   1.0000   1.0000   1.0000   1.0000
     1.0000   1.0000   1.0000   1.0000   1.0000   1.0000   1.0000   1.0000
     1.0000   1.0000   1.0000   1.0000   1.0000   1.0000   1.0000   1.0000
     1.0000   1.0000   1.0000   1.0000   1.0000   1.0000   1.0000   1.0000
     1.0000   1.0000   1.0000   1.0000   1.0000   1.0000   1.0000   1.0000
     1.0000   1.0000   1.0000   1.0000   1.0000   1.0000   1.0000   1.0000
     1.0000   1.0000   1.0000   1.0000   1.0000   1.0000   1.0000   1.0000
     1.0000   1.0000   1.0000   1.0000   1.0000   1.0000   1.0000   1.0000
     1.0000   1.0000   1.0000   1.0000   1.0000   1.0000   1.0000   1.0000
     1.0000   1.0000   1.0000   1.0000   1.0000   1.0000   1.0000   1.0000
     1.0000   1.0000   1.0000   1.0000   1.0000   1.0000   1.0000   1.0000
     1.0004   1.0007   1.0033   1.0127   1.0164   1.0272   1.0357   1.0382
     1.0463   1.0474   1.0777   1.0827   1.0718   1.0626   1.0149   0.9361
     0.9078   0.8597   0.7818   0.6711   0.4434   0.4025   0.0015   0.0010
     0.0000   0.0000   0.0000   0.0000   0.0000   0.0000   0.0000   0.0000
     0.0000   0.0000   0.0000   0.0000   0.0000   0.0000   0.0000   0.0000
     0.0000

          k = 0.3750-0.4330 0.0000 ( 44484 PWs)   bands (ev):

   -11.5705 -10.8732 -10.6358 -10.4254 -10.2961 -10.1020 -10.0767 -10.0401
   -10.0300  -9.9743  -9.9192  -9.8884  -9.8418  -9.8265  -9.7374  -9.7209
    -9.6724  -9.6408  -9.5861  -9.5527  -9.5240  -9.5068  -9.4595  -9.3984
    -9.3819  -9.3226  -9.3061  -9.2901  -9.2152  -9.1997  -9.1915  -9.1829
    -9.1603  -9.1402  -9.0205  -8.9983  -8.9743  -8.9573  -8.8793  -8.8691
    -8.8383  -8.7915  -8.7511  -8.6857  -8.6128  -8.5805  -8.5601  -8.4667
    -8.4365  -8.3554  -8.3431  -8.2557  -8.1954  -8.1747  -8.1434  -8.1156
    -8.0749  -8.0299  -8.0068  -7.9718  -7.9398  -7.8930  -7.8590  -7.8481
    -7.8180  -7.8118  -7.7434  -7.7051  -7.6888  -7.6532  -7.6168  -7.6027
    -7.5512  -7.4904  -7.4720  -7.4506  -7.2415  -7.1976  -7.1607  -7.1159
    -7.0452  -7.0357  -7.0339  -7.0111  -6.9699  -6.9258  -6.8749  -6.8412
    -6.7768  -6.7147  -6.6987  -6.6134  -6.5960  -6.5566  -6.5386  -6.4536
    -6.4457  -6.3888  -6.3734  -6.3168  -6.2347  -6.2172  -6.1594  -6.1225
    -6.0602  -6.0079  -5.9490  -5.9425  -5.9363  -5.7647  -5.7307  -5.7153
    -5.6862  -5.6450  -5.5765  -5.4837  -5.4585  -5.4208  -5.4050  -5.4024
    -5.3752  -5.3716  -5.3484  -5.3450  -5.1836  -5.1729  -4.5927  -4.4618
    -4.3934  -4.2265  -4.0283  -3.1889  -2.9146  -2.6608  -1.6327  -1.3349
    -0.9935  -0.6430  -0.3201  -0.1111   0.2259   0.4001   0.5078   1.1368
     1.8894

     occupation numbers 
     1.0000   1.0000   1.0000   1.0000   1.0000   1.0000   1.0000   1.0000
     1.0000   1.0000   1.0000   1.0000   1.0000   1.0000   1.0000   1.0000
     1.0000   1.0000   1.0000   1.0000   1.0000   1.0000   1.0000   1.0000
     1.0000   1.0000   1.0000   1.0000   1.0000   1.0000   1.0000   1.0000
     1.0000   1.0000   1.0000   1.0000   1.0000   1.0000   1.0000   1.0000
     1.0000   1.0000   1.0000   1.0000   1.0000   1.0000   1.0000   1.0000
     1.0000   1.0000   1.0000   1.0000   1.0000   1.0000   1.0000   1.0000
     1.0000   1.0000   1.0000   1.0000   1.0000   1.0000   1.0000   1.0000
     1.0000   1.0000   1.0000   1.0000   1.0000   1.0000   1.0000   1.0000
     1.0000   1.0000   1.0000   1.0000   1.0000   1.0000   1.0000   1.0000
     1.0000   1.0000   1.0000   1.0000   1.0000   1.0000   1.0000   1.0000
     1.0000   1.0000   1.0000   1.0000   1.0000   1.0000   1.0000   1.0000
     1.0000   1.0000   1.0000   1.0000   1.0000   1.0000   1.0000   1.0000
     1.0000   1.0001   1.0003   1.0004   1.0004   1.0137   1.0227   1.0278
     1.0393   1.0582   1.0825   1.0297   0.9853   0.8922   0.8446   0.8362
     0.7438   0.7310   0.6456   0.6325   0.1402   0.1216   0.0000   0.0000
     0.0000   0.0000   0.0000   0.0000   0.0000   0.0000   0.0000   0.0000
     0.0000   0.0000   0.0000   0.0000   0.0000   0.0000   0.0000   0.0000
     0.0000

          k = 0.3750-0.3608 0.0000 ( 44477 PWs)   bands (ev):

   -11.6448 -11.1064 -10.6529 -10.5855 -10.3351 -10.1800 -10.1531 -10.1397
   -10.1073 -10.0907  -9.9881  -9.9551  -9.9203  -9.8983  -9.8219  -9.8135
    -9.7289  -9.6506  -9.6367  -9.6240  -9.6145  -9.5866  -9.5381  -9.4435
    -9.4318  -9.4014  -9.3520  -9.3275  -9.2590  -9.2338  -9.1595  -9.1251
    -9.1112  -9.0863  -9.0328  -9.0020  -8.9246  -8.9014  -8.8731  -8.8610
    -8.8108  -8.6827  -8.6745  -8.6217  -8.5754  -8.5633  -8.4838  -8.4036
    -8.3431  -8.3155  -8.3052  -8.2064  -8.1647  -8.1366  -8.0585  -8.0175
    -8.0010  -7.9655  -7.9492  -7.9135  -7.8802  -7.8279  -7.8043  -7.7802
    -7.7234  -7.7072  -7.6506  -7.6331  -7.6063  -7.5744  -7.5263  -7.5004
    -7.4606  -7.3940  -7.3460  -7.3119  -7.2668  -7.2350  -7.2081  -7.1745
    -7.1510  -7.0861  -7.0155  -6.9530  -6.9368  -6.8940  -6.8776  -6.8150
    -6.8053  -6.7110  -6.6912  -6.6696  -6.6535  -6.6058  -6.5464  -6.5062
    -6.4862  -6.4181  -6.3733  -6.3583  -6.3128  -6.2184  -6.1790  -6.1305
    -6.1113  -6.0852  -6.0453  -5.9945  -5.9647  -5.7951  -5.7728  -5.7488
    -5.7261  -5.6151  -5.5749  -5.4432  -5.4373  -5.3967  -5.3385  -5.3175
    -5.3058  -5.2725  -5.2493  -5.2416  -5.0782  -5.0691  -4.7738  -4.2492
    -3.9550  -3.8446  -3.5306  -3.3136  -2.6867  -2.3664  -1.8596  -1.3905
    -1.1604  -0.9358  -0.7781  -0.5626  -0.4393   0.3669   0.6257   0.8755
     1.5282

     occupation numbers 
     1.0000   1.0000   1.0000   1.0000   1.0000   1.0000   1.0000   1.0000
     1.0000   1.0000   1.0000   1.0000   1.0000   1.0000   1.0000   1.0000
     1.0000   1.0000   1.0000   1.0000   1.0000   1.0000   1.0000   1.0000
     1.0000   1.0000   1.0000   1.0000   1.0000   1.0000   1.0000   1.0000
     1.0000   1.0000   1.0000   1.0000   1.0000   1.0000   1.0000   1.0000
     1.0000   1.0000   1.0000   1.0000   1.0000   1.0000   1.0000   1.0000
     1.0000   1.0000   1.0000   1.0000   1.0000   1.0000   1.0000   1.0000
     1.0000   1.0000   1.0000   1.0000   1.0000   1.0000   1.0000   1.0000
     1.0000   1.0000   1.0000   1.0000   1.0000   1.0000   1.0000   1.0000
     1.0000   1.0000   1.0000   1.0000   1.0000   1.0000   1.0000   1.0000
     1.0000   1.0000   1.0000   1.0000   1.0000   1.0000   1.0000   1.0000
     1.0000   1.0000   1.0000   1.0000   1.0000   1.0000   1.0000   1.0000
     1.0000   1.0000   1.0000   1.0000   1.0000   1.0000   1.0000   1.0000
     1.0000   1.0000   1.0000   1.0001   1.0002   1.0083   1.0121   1.0175
     1.0241   1.0715   1.0827   0.9514   0.9368   0.8178   0.6081   0.5292
     0.4860   0.3695   0.2968   0.2746   0.0277   0.0235   0.0000   0.0000
     0.0000   0.0000   0.0000   0.0000   0.0000   0.0000   0.0000   0.0000
     0.0000   0.0000   0.0000   0.0000   0.0000   0.0000   0.0000   0.0000
     0.0000

          k = 0.3750-0.2887 0.0000 ( 44509 PWs)   bands (ev):

   -11.7290 -11.3049 -10.7366 -10.6536 -10.3851 -10.2739 -10.2468 -10.2330
   -10.1888 -10.1223 -10.0751 -10.0331 -10.0185  -9.9597  -9.9283  -9.9109
    -9.7699  -9.7334  -9.7242  -9.6944  -9.6684  -9.6407  -9.6034  -9.5382
    -9.5217  -9.4743  -9.4233  -9.3689  -9.3485  -9.2572  -9.1329  -9.0754
    -9.0575  -9.0473  -9.0230  -8.9937  -8.9628  -8.9023  -8.8675  -8.8167
    -8.7474  -8.6621  -8.6044  -8.5672  -8.5181  -8.5054  -8.4434  -8.3484
    -8.3052  -8.1716  -8.1472  -8.0978  -8.0848  -8.0459  -8.0231  -7.9946
    -7.9715  -7.9103  -7.8983  -7.8881  -7.8627  -7.8265  -7.7946  -7.7370
    -7.7007  -7.6449  -7.5964  -7.5717  -7.5242  -7.4624  -7.4556  -7.4304
    -7.4044  -7.3787  -7.3190  -7.2469  -7.2374  -7.1995  -7.1716  -7.1378
    -7.0845  -7.0663  -7.0139  -6.9883  -6.9563  -6.8830  -6.8634  -6.8453
    -6.7697  -6.6881  -6.6712  -6.6280  -6.6164  -6.4968  -6.4800  -6.4450
    -6.4139  -6.3886  -6.3675  -6.3042  -6.2755  -6.2162  -6.1982  -6.1561
    -6.1161  -6.0932  -6.0717  -5.9891  -5.9240  -5.8642  -5.8342  -5.7982
    -5.7387  -5.5803  -5.5295  -5.4471  -5.4155  -5.3771  -5.2809  -5.2585
    -5.2548  -5.2040  -5.1754  -5.1642  -5.0069  -4.9979  -4.9663  -4.2151
    -3.6941  -3.3966  -3.2229  -2.8598  -2.5188  -2.1927  -2.0869  -1.8269
    -1.7256  -1.3090  -0.9639  -0.7258  -0.3767  -0.2429   0.7590   0.9295
     1.3710

     occupation numbers 
     1.0000   1.0000   1.0000   1.0000   1.0000   1.0000   1.0000   1.0000
     1.0000   1.0000   1.0000   1.0000   1.0000   1.0000   1.0000   1.0000
     1.0000   1.0000   1.0000   1.0000   1.0000   1.0000   1.0000   1.0000
     1.0000   1.0000   1.0000   1.0000   1.0000   1.0000   1.0000   1.0000
     1.0000   1.0000   1.0000   1.0000   1.0000   1.0000   1.0000   1.0000
     1.0000   1.0000   1.0000   1.0000   1.0000   1.0000   1.0000   1.0000
     1.0000   1.0000   1.0000   1.0000   1.0000   1.0000   1.0000   1.0000
     1.0000   1.0000   1.0000   1.0000   1.0000   1.0000   1.0000   1.0000
     1.0000   1.0000   1.0000   1.0000   1.0000   1.0000   1.0000   1.0000
     1.0000   1.0000   1.0000   1.0000   1.0000   1.0000   1.0000   1.0000
     1.0000   1.0000   1.0000   1.0000   1.0000   1.0000   1.0000   1.0000
     1.0000   1.0000   1.0000   1.0000   1.0000   1.0000   1.0000   1.0000
     1.0000   1.0000   1.0000   1.0000   1.0000   1.0000   1.0000   1.0000
     1.0000   1.0000   1.0000   1.0001   1.0006   1.0022   1.0040   1.0079
     1.0203   1.0819   1.0746   0.9605   0.8768   0.7505   0.3977   0.3246
     0.3131   0.1805   0.1259   0.1081   0.0069   0.0057   0.0028   0.0000
     0.0000   0.0000   0.0000   0.0000   0.0000   0.0000   0.0000   0.0000
     0.0000   0.0000   0.0000   0.0000   0.0000   0.0000   0.0000   0.0000
     0.0000

          k = 0.4375-0.2526 0.0000 ( 44502 PWs)   bands (ev):

   -11.6885 -11.1884 -10.7401 -10.6572 -10.4133 -10.2683 -10.1900 -10.1845
   -10.1803 -10.0549 -10.0503 -10.0479  -9.9847  -9.9076  -9.9028  -9.8645
    -9.7111  -9.7073  -9.7018  -9.6311  -9.5950  -9.5910  -9.5389  -9.5249
    -9.4798  -9.4471  -9.3777  -9.3265  -9.3129  -9.2721  -9.1129  -9.1120
    -9.0749  -9.0051  -8.9992  -8.9812  -8.9540  -8.9140  -8.8261  -8.7885
    -8.7704  -8.7678  -8.5934  -8.5857  -8.5599  -8.5282  -8.4633  -8.3777
    -8.3628  -8.1924  -8.1543  -8.1537  -8.1339  -8.0915  -8.0106  -7.9419
    -7.9278  -7.9218  -7.8948  -7.8936  -7.8701  -7.8301  -7.7382  -7.6921
    -7.6737  -7.6332  -7.6330  -7.6035  -7.4825  -7.4689  -7.4614  -7.4422
    -7.4098  -7.4096  -7.3580  -7.3250  -7.2793  -7.2052  -7.1954  -7.1664
    -7.1355  -7.0513  -7.0141  -6.9960  -6.9642  -6.9102  -6.8863  -6.8841
    -6.7714  -6.7138  -6.6874  -6.6702  -6.6456  -6.5569  -6.5528  -6.4889
    -6.4623  -6.4559  -6.4184  -6.4145  -6.3994  -6.3896  -6.2686  -6.2227
    -6.1987  -6.1848  -6.1479  -5.9966  -5.9913  -5.9062  -5.8689  -5.8665
    -5.8308  -5.6781  -5.5106  -5.4605  -5.4038  -5.3740  -5.2285  -5.2280
    -5.2179  -5.1866  -5.1503  -5.1472  -4.9774  -4.9720  -4.9037  -4.3684
    -3.5663  -2.9160  -2.7457  -2.7267  -2.5258  -2.4872  -2.1770  -1.9450
    -1.8546  -1.2154  -0.9549  -0.8944  -0.6690   0.2346   0.4356   0.5302
     1.8100

     occupation numbers 
     1.0000   1.0000   1.0000   1.0000   1.0000   1.0000   1.0000   1.0000
     1.0000   1.0000   1.0000   1.0000   1.0000   1.0000   1.0000   1.0000
     1.0000   1.0000   1.0000   1.0000   1.0000   1.0000   1.0000   1.0000
     1.0000   1.0000   1.0000   1.0000   1.0000   1.0000   1.0000   1.0000
     1.0000   1.0000   1.0000   1.0000   1.0000   1.0000   1.0000   1.0000
     1.0000   1.0000   1.0000   1.0000   1.0000   1.0000   1.0000   1.0000
     1.0000   1.0000   1.0000   1.0000   1.0000   1.0000   1.0000   1.0000
     1.0000   1.0000   1.0000   1.0000   1.0000   1.0000   1.0000   1.0000
     1.0000   1.0000   1.0000   1.0000   1.0000   1.0000   1.0000   1.0000
     1.0000   1.0000   1.0000   1.0000   1.0000   1.0000   1.0000   1.0000
     1.0000   1.0000   1.0000   1.0000   1.0000   1.0000   1.0000   1.0000
     1.0000   1.0000   1.0000   1.0000   1.0000   1.0000   1.0000   1.0000
     1.0000   1.0000   1.0000   1.0000   1.0000   1.0000   1.0000   1.0000
     1.0000   1.0000   1.0000   1.0001   1.0001   1.0008   1.0020   1.0021
     1.0043   1.0429   1.0614   0.9893   0.8408   0.7395   0.2390   0.2378
     0.2123   0.1457   0.0888   0.0850   0.0036   0.0032   0.0006   0.0000
     0.0000   0.0000   0.0000   0.0000   0.0000   0.0000   0.0000   0.0000
     0.0000   0.0000   0.0000   0.0000   0.0000   0.0000   0.0000   0.0000
     0.0000

          k = 0.4375-0.1804 0.0000 ( 44509 PWs)   bands (ev):

   -11.7290 -11.3049 -10.7366 -10.6536 -10.3851 -10.2739 -10.2468 -10.2330
   -10.1888 -10.1223 -10.0751 -10.0331 -10.0185  -9.9597  -9.9283  -9.9109
    -9.7699  -9.7334  -9.7242  -9.6944  -9.6684  -9.6407  -9.6034  -9.5382
    -9.5217  -9.4743  -9.4233  -9.3689  -9.3485  -9.2572  -9.1329  -9.0754
    -9.0575  -9.0473  -9.0230  -8.9937  -8.9628  -8.9023  -8.8675  -8.8167
    -8.7474  -8.6621  -8.6044  -8.5672  -8.5181  -8.5054  -8.4434  -8.3484
    -8.3052  -8.1716  -8.1472  -8.0978  -8.0848  -8.0459  -8.0231  -7.9946
    -7.9715  -7.9103  -7.8983  -7.8881  -7.8627  -7.8265  -7.7946  -7.7370
    -7.7007  -7.6449  -7.5964  -7.5717  -7.5242  -7.4624  -7.4556  -7.4304
    -7.4044  -7.3787  -7.3190  -7.2469  -7.2374  -7.1995  -7.1715  -7.1378
    -7.0845  -7.0663  -7.0139  -6.9883  -6.9563  -6.8830  -6.8634  -6.8453
    -6.7697  -6.6881  -6.6712  -6.6280  -6.6164  -6.4968  -6.4800  -6.4450
    -6.4139  -6.3886  -6.3675  -6.3042  -6.2755  -6.2162  -6.1982  -6.1561
    -6.1161  -6.0932  -6.0717  -5.9891  -5.9240  -5.8642  -5.8342  -5.7982
    -5.7387  -5.5803  -5.5295  -5.4471  -5.4155  -5.3771  -5.2809  -5.2585
    -5.2548  -5.2040  -5.1754  -5.1642  -5.0069  -4.9979  -4.9663  -4.2151
    -3.6941  -3.3966  -3.2229  -2.8598  -2.5188  -2.1927  -2.0869  -1.8269
    -1.7256  -1.3090  -0.9639  -0.7258  -0.3767  -0.2429   0.7590   0.9295
     1.3710

     occupation numbers 
     1.0000   1.0000   1.0000   1.0000   1.0000   1.0000   1.0000   1.0000
     1.0000   1.0000   1.0000   1.0000   1.0000   1.0000   1.0000   1.0000
     1.0000   1.0000   1.0000   1.0000   1.0000   1.0000   1.0000   1.0000
     1.0000   1.0000   1.0000   1.0000   1.0000   1.0000   1.0000   1.0000
     1.0000   1.0000   1.0000   1.0000   1.0000   1.0000   1.0000   1.0000
     1.0000   1.0000   1.0000   1.0000   1.0000   1.0000   1.0000   1.0000
     1.0000   1.0000   1.0000   1.0000   1.0000   1.0000   1.0000   1.0000
     1.0000   1.0000   1.0000   1.0000   1.0000   1.0000   1.0000   1.0000
     1.0000   1.0000   1.0000   1.0000   1.0000   1.0000   1.0000   1.0000
     1.0000   1.0000   1.0000   1.0000   1.0000   1.0000   1.0000   1.0000
     1.0000   1.0000   1.0000   1.0000   1.0000   1.0000   1.0000   1.0000
     1.0000   1.0000   1.0000   1.0000   1.0000   1.0000   1.0000   1.0000
     1.0000   1.0000   1.0000   1.0000   1.0000   1.0000   1.0000   1.0000
     1.0000   1.0000   1.0000   1.0001   1.0006   1.0022   1.0040   1.0079
     1.0203   1.0819   1.0746   0.9605   0.8768   0.7505   0.3977   0.3246
     0.3131   0.1805   0.1259   0.1081   0.0069   0.0057   0.0028   0.0000
     0.0000   0.0000   0.0000   0.0000   0.0000   0.0000   0.0000   0.0000
     0.0000   0.0000   0.0000   0.0000   0.0000   0.0000   0.0000   0.0000
     0.0000

          k = 0.4375-0.1083 0.0000 ( 44545 PWs)   bands (ev):

   -11.7604 -11.3819 -10.7849 -10.5562 -10.3562 -10.2929 -10.2662 -10.2237
   -10.2178 -10.1694 -10.0801 -10.0479 -10.0298 -10.0110  -9.9545  -9.9021
    -9.8457  -9.7842  -9.7798  -9.7361  -9.7006  -9.6562  -9.6458  -9.5849
    -9.5385  -9.5191  -9.4711  -9.3859  -9.3648  -9.2015  -9.1617  -9.1208
    -9.1018  -9.0714  -9.0329  -8.9652  -8.9376  -8.9272  -8.8978  -8.8234
    -8.7269  -8.6400  -8.5955  -8.5318  -8.4720  -8.4687  -8.4226  -8.3158
    -8.2854  -8.2122  -8.1850  -8.1491  -8.0749  -8.0492  -8.0283  -8.0072
    -7.9646  -7.9091  -7.8996  -7.8786  -7.8607  -7.8293  -7.8100  -7.7804
    -7.7652  -7.7011  -7.6614  -7.5295  -7.4935  -7.4798  -7.4509  -7.4110
    -7.3591  -7.3563  -7.2689  -7.2465  -7.2112  -7.1318  -7.1101  -7.0855
    -7.0774  -7.0357  -7.0273  -6.9722  -6.9471  -6.9083  -6.8414  -6.8163
    -6.7846  -6.7020  -6.6057  -6.5732  -6.5675  -6.5450  -6.4483  -6.3821
    -6.3373  -6.3320  -6.3070  -6.2176  -6.1835  -6.1754  -6.1259  -6.0355
    -6.0228  -5.9691  -5.9523  -5.9040  -5.8007  -5.7386  -5.7178  -5.6142
    -5.6019  -5.4921  -5.4426  -5.4171  -5.4010  -5.3714  -5.3444  -5.3340
    -5.2474  -5.2342  -5.2269  -5.2100  -5.0754  -5.0690  -4.9685  -4.1013
    -3.9814  -3.8107  -3.7058  -3.4486  -2.6081  -2.2579  -2.1449  -1.4474
    -1.2561  -1.0633  -0.8964  -0.6070  -0.3690   0.1831   0.8130   1.0717
     1.2110

     occupation numbers 
     1.0000   1.0000   1.0000   1.0000   1.0000   1.0000   1.0000   1.0000
     1.0000   1.0000   1.0000   1.0000   1.0000   1.0000   1.0000   1.0000
     1.0000   1.0000   1.0000   1.0000   1.0000   1.0000   1.0000   1.0000
     1.0000   1.0000   1.0000   1.0000   1.0000   1.0000   1.0000   1.0000
     1.0000   1.0000   1.0000   1.0000   1.0000   1.0000   1.0000   1.0000
     1.0000   1.0000   1.0000   1.0000   1.0000   1.0000   1.0000   1.0000
     1.0000   1.0000   1.0000   1.0000   1.0000   1.0000   1.0000   1.0000
     1.0000   1.0000   1.0000   1.0000   1.0000   1.0000   1.0000   1.0000
     1.0000   1.0000   1.0000   1.0000   1.0000   1.0000   1.0000   1.0000
     1.0000   1.0000   1.0000   1.0000   1.0000   1.0000   1.0000   1.0000
     1.0000   1.0000   1.0000   1.0000   1.0000   1.0000   1.0000   1.0000
     1.0000   1.0000   1.0000   1.0000   1.0000   1.0000   1.0000   1.0000
     1.0000   1.0000   1.0000   1.0000   1.0000   1.0000   1.0000   1.0000
     1.0000   1.0002   1.0003   1.0009   1.0075   1.0203   1.0269   1.0718
     1.0764   1.0413   0.9498   0.8815   0.8319   0.7303   0.6303   0.5911
     0.2913   0.2541   0.2348   0.1940   0.0263   0.0235   0.0029   0.0000
     0.0000   0.0000   0.0000   0.0000   0.0000   0.0000   0.0000   0.0000
     0.0000   0.0000   0.0000   0.0000   0.0000   0.0000   0.0000   0.0000
     0.0000

          k = 0.4375-0.0361 0.0000 ( 44536 PWs)   bands (ev):

   -11.7776 -11.4198 -10.8090 -10.4470 -10.3332 -10.3232 -10.3168 -10.2921
   -10.1506 -10.1451 -10.0973 -10.0680 -10.0402  -9.9996  -9.9424  -9.9338
    -9.8803  -9.8731  -9.8321  -9.7454  -9.7073  -9.6895  -9.6439  -9.6114
    -9.5820  -9.5253  -9.4593  -9.3987  -9.3470  -9.2580  -9.1574  -9.1460
    -9.1135  -9.0606  -9.0173  -8.9879  -8.9743  -8.9083  -8.8868  -8.8100
    -8.7334  -8.6930  -8.5672  -8.4567  -8.4546  -8.4206  -8.4009  -8.3142
    -8.2902  -8.2657  -8.2279  -8.1949  -8.1499  -8.0543  -7.9969  -7.9726
    -7.9483  -7.9125  -7.8941  -7.8818  -7.8682  -7.8243  -7.8185  -7.8031
    -7.7785  -7.7567  -7.7193  -7.5102  -7.5037  -7.4565  -7.4423  -7.3848
    -7.3337  -7.3096  -7.2724  -7.2567  -7.1719  -7.1228  -7.0961  -7.0671
    -7.0329  -7.0238  -6.9893  -6.9759  -6.9467  -6.9255  -6.8376  -6.8034
    -6.7939  -6.6872  -6.5934  -6.5785  -6.5427  -6.5001  -6.4507  -6.3436
    -6.3143  -6.2974  -6.2839  -6.2664  -6.1294  -6.1219  -6.0549  -6.0025
    -5.9320  -5.9257  -5.8120  -5.7741  -5.6848  -5.6628  -5.6525  -5.5478
    -5.5056  -5.4953  -5.4883  -5.4493  -5.4354  -5.3926  -5.3632  -5.2465
    -5.2413  -5.1732  -5.1640  -5.1333  -5.0271  -4.9405  -4.7315  -4.5934
    -4.4355  -4.1634  -3.8085  -3.4970  -3.0245  -2.4093  -1.8808  -1.4391
    -1.2180  -0.8344  -0.5441  -0.2193   0.0086   0.2892   0.4314   0.8022
     1.2575

     occupation numbers 
     1.0000   1.0000   1.0000   1.0000   1.0000   1.0000   1.0000   1.0000
     1.0000   1.0000   1.0000   1.0000   1.0000   1.0000   1.0000   1.0000
     1.0000   1.0000   1.0000   1.0000   1.0000   1.0000   1.0000   1.0000
     1.0000   1.0000   1.0000   1.0000   1.0000   1.0000   1.0000   1.0000
     1.0000   1.0000   1.0000   1.0000   1.0000   1.0000   1.0000   1.0000
     1.0000   1.0000   1.0000   1.0000   1.0000   1.0000   1.0000   1.0000
     1.0000   1.0000   1.0000   1.0000   1.0000   1.0000   1.0000   1.0000
     1.0000   1.0000   1.0000   1.0000   1.0000   1.0000   1.0000   1.0000
     1.0000   1.0000   1.0000   1.0000   1.0000   1.0000   1.0000   1.0000
     1.0000   1.0000   1.0000   1.0000   1.0000   1.0000   1.0000   1.0000
     1.0000   1.0000   1.0000   1.0000   1.0000   1.0000   1.0000   1.0000
     1.0000   1.0000   1.0000   1.0000   1.0000   1.0000   1.0000   1.0000
     1.0000   1.0000   1.0000   1.0000   1.0000   1.0000   1.0000   1.0001
     1.0005   1.0005   1.0061   1.0118   1.0399   1.0498   1.0547   1.0815
     1.0566   1.0453   1.0362   0.9656   0.9319   0.8042   0.7004   0.2886
     0.2736   0.1222   0.1078   0.0690   0.0105   0.0015   0.0000   0.0000
     0.0000   0.0000   0.0000   0.0000   0.0000   0.0000   0.0000   0.0000
     0.0000   0.0000   0.0000   0.0000   0.0000   0.0000   0.0000   0.0000
     0.0000

          k = 0.4375 0.0361 0.0000 ( 44536 PWs)   bands (ev):

   -11.7776 -11.4198 -10.8090 -10.4470 -10.3332 -10.3232 -10.3168 -10.2921
   -10.1506 -10.1451 -10.0973 -10.0680 -10.0402  -9.9996  -9.9424  -9.9338
    -9.8803  -9.8731  -9.8321  -9.7454  -9.7073  -9.6895  -9.6439  -9.6114
    -9.5820  -9.5253  -9.4593  -9.3987  -9.3470  -9.2580  -9.1574  -9.1460
    -9.1135  -9.0606  -9.0173  -8.9879  -8.9743  -8.9083  -8.8868  -8.8100
    -8.7334  -8.6930  -8.5672  -8.4567  -8.4546  -8.4206  -8.4009  -8.3142
    -8.2902  -8.2657  -8.2279  -8.1949  -8.1499  -8.0543  -7.9969  -7.9726
    -7.9483  -7.9125  -7.8941  -7.8818  -7.8682  -7.8243  -7.8185  -7.8031
    -7.7785  -7.7567  -7.7193  -7.5102  -7.5037  -7.4565  -7.4423  -7.3848
    -7.3337  -7.3096  -7.2724  -7.2567  -7.1719  -7.1228  -7.0961  -7.0671
    -7.0329  -7.0238  -6.9893  -6.9759  -6.9467  -6.9255  -6.8376  -6.8034
    -6.7939  -6.6872  -6.5934  -6.5785  -6.5427  -6.5001  -6.4507  -6.3436
    -6.3143  -6.2974  -6.2839  -6.2664  -6.1294  -6.1219  -6.0549  -6.0025
    -5.9320  -5.9257  -5.8120  -5.7741  -5.6848  -5.6628  -5.6525  -5.5478
    -5.5056  -5.4953  -5.4883  -5.4493  -5.4354  -5.3926  -5.3632  -5.2465
    -5.2413  -5.1732  -5.1640  -5.1333  -5.0271  -4.9405  -4.7315  -4.5934
    -4.4355  -4.1634  -3.8085  -3.4970  -3.0245  -2.4093  -1.8808  -1.4391
    -1.2180  -0.8344  -0.5441  -0.2193   0.0086   0.2892   0.4314   0.8022
     1.2575

     occupation numbers 
     1.0000   1.0000   1.0000   1.0000   1.0000   1.0000   1.0000   1.0000
     1.0000   1.0000   1.0000   1.0000   1.0000   1.0000   1.0000   1.0000
     1.0000   1.0000   1.0000   1.0000   1.0000   1.0000   1.0000   1.0000
     1.0000   1.0000   1.0000   1.0000   1.0000   1.0000   1.0000   1.0000
     1.0000   1.0000   1.0000   1.0000   1.0000   1.0000   1.0000   1.0000
     1.0000   1.0000   1.0000   1.0000   1.0000   1.0000   1.0000   1.0000
     1.0000   1.0000   1.0000   1.0000   1.0000   1.0000   1.0000   1.0000
     1.0000   1.0000   1.0000   1.0000   1.0000   1.0000   1.0000   1.0000
     1.0000   1.0000   1.0000   1.0000   1.0000   1.0000   1.0000   1.0000
     1.0000   1.0000   1.0000   1.0000   1.0000   1.0000   1.0000   1.0000
     1.0000   1.0000   1.0000   1.0000   1.0000   1.0000   1.0000   1.0000
     1.0000   1.0000   1.0000   1.0000   1.0000   1.0000   1.0000   1.0000
     1.0000   1.0000   1.0000   1.0000   1.0000   1.0000   1.0000   1.0001
     1.0005   1.0005   1.0061   1.0118   1.0399   1.0498   1.0547   1.0815
     1.0566   1.0453   1.0362   0.9656   0.9319   0.8042   0.7004   0.2886
     0.2736   0.1222   0.1078   0.0690   0.0105   0.0015   0.0000   0.0000
     0.0000   0.0000   0.0000   0.0000   0.0000   0.0000   0.0000   0.0000
     0.0000   0.0000   0.0000   0.0000   0.0000   0.0000   0.0000   0.0000
     0.0000

          k = 0.4375 0.1083 0.0000 ( 44545 PWs)   bands (ev):

   -11.7604 -11.3819 -10.7849 -10.5562 -10.3562 -10.2929 -10.2662 -10.2237
   -10.2178 -10.1694 -10.0801 -10.0479 -10.0298 -10.0110  -9.9545  -9.9021
    -9.8457  -9.7842  -9.7798  -9.7361  -9.7006  -9.6562  -9.6458  -9.5849
    -9.5385  -9.5191  -9.4711  -9.3859  -9.3648  -9.2015  -9.1617  -9.1208
    -9.1018  -9.0714  -9.0329  -8.9652  -8.9376  -8.9272  -8.8978  -8.8234
    -8.7269  -8.6400  -8.5955  -8.5318  -8.4720  -8.4687  -8.4226  -8.3158
    -8.2854  -8.2122  -8.1850  -8.1491  -8.0749  -8.0492  -8.0283  -8.0072
    -7.9646  -7.9091  -7.8996  -7.8786  -7.8607  -7.8293  -7.8100  -7.7804
    -7.7652  -7.7011  -7.6614  -7.5295  -7.4935  -7.4798  -7.4509  -7.4110
    -7.3591  -7.3563  -7.2689  -7.2465  -7.2112  -7.1318  -7.1101  -7.0855
    -7.0774  -7.0357  -7.0273  -6.9722  -6.9471  -6.9083  -6.8414  -6.8163
    -6.7846  -6.7020  -6.6057  -6.5732  -6.5675  -6.5450  -6.4483  -6.3821
    -6.3373  -6.3320  -6.3070  -6.2176  -6.1835  -6.1754  -6.1259  -6.0355
    -6.0228  -5.9691  -5.9523  -5.9040  -5.8007  -5.7386  -5.7178  -5.6142
    -5.6019  -5.4921  -5.4426  -5.4171  -5.4010  -5.3714  -5.3444  -5.3340
    -5.2474  -5.2342  -5.2269  -5.2100  -5.0754  -5.0690  -4.9685  -4.1013
    -3.9814  -3.8107  -3.7058  -3.4486  -2.6081  -2.2579  -2.1449  -1.4474
    -1.2561  -1.0633  -0.8964  -0.6070  -0.3690   0.1831   0.8130   1.0717
     1.2110

     occupation numbers 
     1.0000   1.0000   1.0000   1.0000   1.0000   1.0000   1.0000   1.0000
     1.0000   1.0000   1.0000   1.0000   1.0000   1.0000   1.0000   1.0000
     1.0000   1.0000   1.0000   1.0000   1.0000   1.0000   1.0000   1.0000
     1.0000   1.0000   1.0000   1.0000   1.0000   1.0000   1.0000   1.0000
     1.0000   1.0000   1.0000   1.0000   1.0000   1.0000   1.0000   1.0000
     1.0000   1.0000   1.0000   1.0000   1.0000   1.0000   1.0000   1.0000
     1.0000   1.0000   1.0000   1.0000   1.0000   1.0000   1.0000   1.0000
     1.0000   1.0000   1.0000   1.0000   1.0000   1.0000   1.0000   1.0000
     1.0000   1.0000   1.0000   1.0000   1.0000   1.0000   1.0000   1.0000
     1.0000   1.0000   1.0000   1.0000   1.0000   1.0000   1.0000   1.0000
     1.0000   1.0000   1.0000   1.0000   1.0000   1.0000   1.0000   1.0000
     1.0000   1.0000   1.0000   1.0000   1.0000   1.0000   1.0000   1.0000
     1.0000   1.0000   1.0000   1.0000   1.0000   1.0000   1.0000   1.0000
     1.0000   1.0002   1.0003   1.0009   1.0075   1.0203   1.0269   1.0718
     1.0764   1.0413   0.9498   0.8815   0.8319   0.7303   0.6303   0.5911
     0.2913   0.2541   0.2348   0.1940   0.0263   0.0235   0.0029   0.0000
     0.0000   0.0000   0.0000   0.0000   0.0000   0.0000   0.0000   0.0000
     0.0000   0.0000   0.0000   0.0000   0.0000   0.0000   0.0000   0.0000
     0.0000

          k = 0.4375 0.1804 0.0000 ( 44509 PWs)   bands (ev):

   -11.7290 -11.3049 -10.7366 -10.6536 -10.3851 -10.2739 -10.2468 -10.2330
   -10.1888 -10.1223 -10.0751 -10.0331 -10.0185  -9.9597  -9.9283  -9.9109
    -9.7699  -9.7334  -9.7242  -9.6944  -9.6684  -9.6407  -9.6034  -9.5382
    -9.5217  -9.4743  -9.4233  -9.3689  -9.3485  -9.2572  -9.1329  -9.0754
    -9.0575  -9.0473  -9.0230  -8.9937  -8.9628  -8.9023  -8.8675  -8.8167
    -8.7474  -8.6621  -8.6044  -8.5672  -8.5181  -8.5054  -8.4434  -8.3484
    -8.3052  -8.1716  -8.1472  -8.0978  -8.0848  -8.0459  -8.0231  -7.9946
    -7.9715  -7.9103  -7.8983  -7.8881  -7.8627  -7.8265  -7.7946  -7.7370
    -7.7007  -7.6449  -7.5964  -7.5717  -7.5242  -7.4624  -7.4556  -7.4304
    -7.4044  -7.3787  -7.3190  -7.2469  -7.2374  -7.1995  -7.1715  -7.1378
    -7.0845  -7.0663  -7.0139  -6.9883  -6.9563  -6.8830  -6.8634  -6.8453
    -6.7697  -6.6881  -6.6712  -6.6280  -6.6164  -6.4968  -6.4800  -6.4450
    -6.4139  -6.3886  -6.3675  -6.3042  -6.2755  -6.2162  -6.1982  -6.1561
    -6.1161  -6.0932  -6.0717  -5.9891  -5.9240  -5.8642  -5.8342  -5.7982
    -5.7387  -5.5803  -5.5295  -5.4471  -5.4155  -5.3771  -5.2809  -5.2585
    -5.2548  -5.2040  -5.1754  -5.1642  -5.0069  -4.9979  -4.9663  -4.2151
    -3.6941  -3.3966  -3.2229  -2.8598  -2.5188  -2.1927  -2.0869  -1.8269
    -1.7256  -1.3090  -0.9639  -0.7258  -0.3767  -0.2429   0.7590   0.9295
     1.3710

     occupation numbers 
     1.0000   1.0000   1.0000   1.0000   1.0000   1.0000   1.0000   1.0000
     1.0000   1.0000   1.0000   1.0000   1.0000   1.0000   1.0000   1.0000
     1.0000   1.0000   1.0000   1.0000   1.0000   1.0000   1.0000   1.0000
     1.0000   1.0000   1.0000   1.0000   1.0000   1.0000   1.0000   1.0000
     1.0000   1.0000   1.0000   1.0000   1.0000   1.0000   1.0000   1.0000
     1.0000   1.0000   1.0000   1.0000   1.0000   1.0000   1.0000   1.0000
     1.0000   1.0000   1.0000   1.0000   1.0000   1.0000   1.0000   1.0000
     1.0000   1.0000   1.0000   1.0000   1.0000   1.0000   1.0000   1.0000
     1.0000   1.0000   1.0000   1.0000   1.0000   1.0000   1.0000   1.0000
     1.0000   1.0000   1.0000   1.0000   1.0000   1.0000   1.0000   1.0000
     1.0000   1.0000   1.0000   1.0000   1.0000   1.0000   1.0000   1.0000
     1.0000   1.0000   1.0000   1.0000   1.0000   1.0000   1.0000   1.0000
     1.0000   1.0000   1.0000   1.0000   1.0000   1.0000   1.0000   1.0000
     1.0000   1.0000   1.0000   1.0001   1.0006   1.0022   1.0040   1.0079
     1.0203   1.0819   1.0746   0.9605   0.8768   0.7505   0.3977   0.3246
     0.3131   0.1805   0.1259   0.1081   0.0069   0.0057   0.0028   0.0000
     0.0000   0.0000   0.0000   0.0000   0.0000   0.0000   0.0000   0.0000
     0.0000   0.0000   0.0000   0.0000   0.0000   0.0000   0.0000   0.0000
     0.0000

          k = 0.4375 0.2526 0.0000 ( 44502 PWs)   bands (ev):

   -11.6885 -11.1884 -10.7401 -10.6572 -10.4133 -10.2683 -10.1900 -10.1845
   -10.1803 -10.0549 -10.0503 -10.0479  -9.9847  -9.9076  -9.9028  -9.8645
    -9.7111  -9.7073  -9.7018  -9.6311  -9.5950  -9.5910  -9.5389  -9.5249
    -9.4798  -9.4471  -9.3777  -9.3265  -9.3129  -9.2721  -9.1129  -9.1120
    -9.0749  -9.0051  -8.9992  -8.9812  -8.9540  -8.9140  -8.8261  -8.7885
    -8.7704  -8.7678  -8.5934  -8.5857  -8.5599  -8.5282  -8.4633  -8.3777
    -8.3628  -8.1924  -8.1543  -8.1537  -8.1339  -8.0915  -8.0106  -7.9419
    -7.9278  -7.9218  -7.8948  -7.8936  -7.8701  -7.8301  -7.7382  -7.6921
    -7.6737  -7.6332  -7.6330  -7.6035  -7.4825  -7.4689  -7.4614  -7.4422
    -7.4098  -7.4096  -7.3580  -7.3250  -7.2793  -7.2052  -7.1954  -7.1664
    -7.1355  -7.0513  -7.0141  -6.9960  -6.9642  -6.9102  -6.8863  -6.8841
    -6.7714  -6.7138  -6.6874  -6.6702  -6.6456  -6.5569  -6.5528  -6.4889
    -6.4623  -6.4559  -6.4184  -6.4145  -6.3994  -6.3896  -6.2686  -6.2227
    -6.1987  -6.1848  -6.1479  -5.9966  -5.9913  -5.9062  -5.8689  -5.8665
    -5.8308  -5.6781  -5.5106  -5.4605  -5.4038  -5.3740  -5.2285  -5.2280
    -5.2179  -5.1866  -5.1503  -5.1472  -4.9774  -4.9720  -4.9037  -4.3684
    -3.5663  -2.9160  -2.7457  -2.7267  -2.5258  -2.4872  -2.1770  -1.9450
    -1.8546  -1.2154  -0.9549  -0.8944  -0.6690   0.2346   0.4356   0.5302
     1.8100

     occupation numbers 
     1.0000   1.0000   1.0000   1.0000   1.0000   1.0000   1.0000   1.0000
     1.0000   1.0000   1.0000   1.0000   1.0000   1.0000   1.0000   1.0000
     1.0000   1.0000   1.0000   1.0000   1.0000   1.0000   1.0000   1.0000
     1.0000   1.0000   1.0000   1.0000   1.0000   1.0000   1.0000   1.0000
     1.0000   1.0000   1.0000   1.0000   1.0000   1.0000   1.0000   1.0000
     1.0000   1.0000   1.0000   1.0000   1.0000   1.0000   1.0000   1.0000
     1.0000   1.0000   1.0000   1.0000   1.0000   1.0000   1.0000   1.0000
     1.0000   1.0000   1.0000   1.0000   1.0000   1.0000   1.0000   1.0000
     1.0000   1.0000   1.0000   1.0000   1.0000   1.0000   1.0000   1.0000
     1.0000   1.0000   1.0000   1.0000   1.0000   1.0000   1.0000   1.0000
     1.0000   1.0000   1.0000   1.0000   1.0000   1.0000   1.0000   1.0000
     1.0000   1.0000   1.0000   1.0000   1.0000   1.0000   1.0000   1.0000
     1.0000   1.0000   1.0000   1.0000   1.0000   1.0000   1.0000   1.0000
     1.0000   1.0000   1.0000   1.0001   1.0001   1.0008   1.0020   1.0021
     1.0043   1.0429   1.0614   0.9893   0.8408   0.7395   0.2390   0.2378
     0.2123   0.1457   0.0888   0.0850   0.0036   0.0032   0.0006   0.0000
     0.0000   0.0000   0.0000   0.0000   0.0000   0.0000   0.0000   0.0000
     0.0000   0.0000   0.0000   0.0000   0.0000   0.0000   0.0000   0.0000
     0.0000

          k = 0.4375-0.8299 0.0000 ( 44516 PWs)   bands (ev):

   -11.6445 -11.0340 -10.8023 -10.5575 -10.4294 -10.2087 -10.1597 -10.1163
   -10.1142 -10.0657 -10.0216 -10.0043  -9.9393  -9.8848  -9.8539  -9.7789
    -9.7025  -9.6835  -9.6463  -9.5828  -9.5655  -9.5113  -9.4779  -9.4599
    -9.4427  -9.4111  -9.3759  -9.3068  -9.2804  -9.2395  -9.1374  -9.1262
    -9.1054  -9.0496  -8.9884  -8.9663  -8.9406  -8.8929  -8.8620  -8.8352
    -8.7973  -8.7042  -8.6872  -8.5891  -8.5760  -8.5256  -8.4862  -8.4452
    -8.3950  -8.2932  -8.2790  -8.1834  -8.1561  -8.0971  -8.0343  -7.9900
    -7.9489  -7.9284  -7.9266  -7.8684  -7.8404  -7.8238  -7.7521  -7.7094
    -7.6829  -7.6491  -7.6381  -7.6001  -7.5895  -7.5468  -7.5002  -7.4895
    -7.4571  -7.4359  -7.4104  -7.3313  -7.2711  -7.2285  -7.2104  -7.1894
    -7.1242  -7.0580  -7.0404  -6.9936  -6.9518  -6.9238  -6.8761  -6.8562
    -6.7634  -6.7457  -6.6942  -6.6705  -6.6366  -6.6221  -6.5817  -6.5628
    -6.5446  -6.5143  -6.4781  -6.4335  -6.4174  -6.3574  -6.3263  -6.2354
    -6.1994  -6.1819  -6.1295  -6.0132  -5.9923  -5.9295  -5.8760  -5.8450
    -5.8007  -5.7122  -5.5254  -5.4697  -5.4150  -5.3795  -5.2553  -5.2427
    -5.2262  -5.2202  -5.1862  -5.1732  -5.0032  -4.9971  -4.7607  -4.4476
    -3.4717  -3.3429  -3.1574  -2.9273  -2.6948  -2.0983  -1.9646  -1.7182
    -1.5914  -1.2830  -1.1177  -0.4537  -0.2584  -0.1874   0.2428   1.0265
     1.4164

     occupation numbers 
     1.0000   1.0000   1.0000   1.0000   1.0000   1.0000   1.0000   1.0000
     1.0000   1.0000   1.0000   1.0000   1.0000   1.0000   1.0000   1.0000
     1.0000   1.0000   1.0000   1.0000   1.0000   1.0000   1.0000   1.0000
     1.0000   1.0000   1.0000   1.0000   1.0000   1.0000   1.0000   1.0000
     1.0000   1.0000   1.0000   1.0000   1.0000   1.0000   1.0000   1.0000
     1.0000   1.0000   1.0000   1.0000   1.0000   1.0000   1.0000   1.0000
     1.0000   1.0000   1.0000   1.0000   1.0000   1.0000   1.0000   1.0000
     1.0000   1.0000   1.0000   1.0000   1.0000   1.0000   1.0000   1.0000
     1.0000   1.0000   1.0000   1.0000   1.0000   1.0000   1.0000   1.0000
     1.0000   1.0000   1.0000   1.0000   1.0000   1.0000   1.0000   1.0000
     1.0000   1.0000   1.0000   1.0000   1.0000   1.0000   1.0000   1.0000
     1.0000   1.0000   1.0000   1.0000   1.0000   1.0000   1.0000   1.0000
     1.0000   1.0000   1.0000   1.0000   1.0000   1.0000   1.0000   1.0000
     1.0000   1.0000   1.0000   1.0001   1.0001   1.0005   1.0017   1.0032
     1.0075   1.0289   1.0723   1.0068   0.8753   0.7591   0.3148   0.2777
     0.2329   0.2180   0.1449   0.1222   0.0063   0.0056   0.0000   0.0000
     0.0000   0.0000   0.0000   0.0000   0.0000   0.0000   0.0000   0.0000
     0.0000   0.0000   0.0000   0.0000   0.0000   0.0000   0.0000   0.0000
     0.0000

          k = 0.4375-0.7578 0.0000 ( 44554 PWs)   bands (ev):

   -11.6031 -10.8521 -10.8409 -10.4461 -10.4186 -10.1124 -10.0992 -10.0759
   -10.0702 -10.0318 -10.0193  -9.9416  -9.8878  -9.8511  -9.7909  -9.6929
    -9.6834  -9.6796  -9.6464  -9.5746  -9.5127  -9.4620  -9.4529  -9.4428
    -9.3433  -9.3407  -9.3344  -9.3232  -9.3163  -9.2112  -9.1615  -9.1342
    -9.1130  -9.0948  -9.0344  -8.9749  -8.9619  -8.9296  -8.8471  -8.8406
    -8.8308  -8.8157  -8.6906  -8.5994  -8.5985  -8.5185  -8.4808  -8.4703
    -8.4240  -8.4079  -8.4022  -8.1753  -8.1581  -8.1188  -8.1026  -8.0807
    -7.9766  -7.9649  -7.9532  -7.8804  -7.8634  -7.8400  -7.8215  -7.7774
    -7.7352  -7.7098  -7.6799  -7.6569  -7.6450  -7.6320  -7.5790  -7.5646
    -7.5401  -7.4808  -7.4589  -7.4547  -7.2396  -7.2150  -7.1908  -7.0739
    -7.0674  -7.0498  -7.0382  -7.0058  -7.0012  -6.9291  -6.8734  -6.8516
    -6.7321  -6.7068  -6.6838  -6.6710  -6.6209  -6.6013  -6.5958  -6.5537
    -6.5210  -6.4506  -6.4184  -6.3986  -6.3490  -6.3172  -6.2266  -6.1939
    -6.1846  -6.0818  -6.0175  -5.9843  -5.9697  -5.9472  -5.9338  -5.7746
    -5.7365  -5.6720  -5.5532  -5.4892  -5.4427  -5.4027  -5.3174  -5.3042
    -5.2948  -5.2786  -5.2666  -5.2562  -5.0786  -5.0688  -4.6154  -4.4201
    -3.9352  -3.8454  -3.4858  -3.0967  -2.9147  -2.3811  -1.5956  -1.3545
    -1.2604  -1.0246  -0.8394  -0.4601  -0.0273   0.0863   0.4848   0.8725
     1.7023

     occupation numbers 
     1.0000   1.0000   1.0000   1.0000   1.0000   1.0000   1.0000   1.0000
     1.0000   1.0000   1.0000   1.0000   1.0000   1.0000   1.0000   1.0000
     1.0000   1.0000   1.0000   1.0000   1.0000   1.0000   1.0000   1.0000
     1.0000   1.0000   1.0000   1.0000   1.0000   1.0000   1.0000   1.0000
     1.0000   1.0000   1.0000   1.0000   1.0000   1.0000   1.0000   1.0000
     1.0000   1.0000   1.0000   1.0000   1.0000   1.0000   1.0000   1.0000
     1.0000   1.0000   1.0000   1.0000   1.0000   1.0000   1.0000   1.0000
     1.0000   1.0000   1.0000   1.0000   1.0000   1.0000   1.0000   1.0000
     1.0000   1.0000   1.0000   1.0000   1.0000   1.0000   1.0000   1.0000
     1.0000   1.0000   1.0000   1.0000   1.0000   1.0000   1.0000   1.0000
     1.0000   1.0000   1.0000   1.0000   1.0000   1.0000   1.0000   1.0000
     1.0000   1.0000   1.0000   1.0000   1.0000   1.0000   1.0000   1.0000
     1.0000   1.0000   1.0000   1.0000   1.0000   1.0000   1.0000   1.0000
     1.0000   1.0000   1.0000   1.0001   1.0002   1.0003   1.0004   1.0117
     1.0209   1.0456   1.0825   1.0374   0.9500   0.8372   0.5287   0.4803
     0.4463   0.3899   0.3503   0.3176   0.0279   0.0234   0.0000   0.0000
     0.0000   0.0000   0.0000   0.0000   0.0000   0.0000   0.0000   0.0000
     0.0000   0.0000   0.0000   0.0000   0.0000   0.0000   0.0000   0.0000
     0.0000

          k = 0.4375-0.6856 0.0000 ( 44484 PWs)   bands (ev):

   -11.5705 -10.8732 -10.6358 -10.4254 -10.2961 -10.1020 -10.0767 -10.0401
   -10.0300  -9.9743  -9.9192  -9.8884  -9.8418  -9.8265  -9.7374  -9.7209
    -9.6724  -9.6408  -9.5861  -9.5527  -9.5240  -9.5068  -9.4595  -9.3984
    -9.3819  -9.3226  -9.3061  -9.2901  -9.2152  -9.1997  -9.1915  -9.1829
    -9.1603  -9.1402  -9.0205  -8.9983  -8.9743  -8.9573  -8.8793  -8.8691
    -8.8383  -8.7915  -8.7511  -8.6857  -8.6128  -8.5805  -8.5601  -8.4667
    -8.4365  -8.3554  -8.3431  -8.2557  -8.1954  -8.1747  -8.1434  -8.1156
    -8.0749  -8.0299  -8.0068  -7.9718  -7.9398  -7.8930  -7.8590  -7.8481
    -7.8180  -7.8118  -7.7434  -7.7051  -7.6888  -7.6532  -7.6168  -7.6027
    -7.5512  -7.4904  -7.4720  -7.4506  -7.2415  -7.1976  -7.1607  -7.1159
    -7.0452  -7.0357  -7.0339  -7.0111  -6.9699  -6.9258  -6.8749  -6.8412
    -6.7768  -6.7147  -6.6987  -6.6134  -6.5960  -6.5565  -6.5386  -6.4536
    -6.4457  -6.3888  -6.3734  -6.3168  -6.2347  -6.2172  -6.1594  -6.1225
    -6.0602  -6.0079  -5.9490  -5.9425  -5.9363  -5.7647  -5.7307  -5.7153
    -5.6863  -5.6450  -5.5765  -5.4837  -5.4585  -5.4208  -5.4050  -5.4024
    -5.3752  -5.3716  -5.3484  -5.3450  -5.1836  -5.1729  -4.5927  -4.4618
    -4.3934  -4.2265  -4.0283  -3.1889  -2.9146  -2.6608  -1.6327  -1.3349
    -0.9935  -0.6430  -0.3201  -0.1111   0.2259   0.4001   0.5078   1.1368
     1.8892

     occupation numbers 
     1.0000   1.0000   1.0000   1.0000   1.0000   1.0000   1.0000   1.0000
     1.0000   1.0000   1.0000   1.0000   1.0000   1.0000   1.0000   1.0000
     1.0000   1.0000   1.0000   1.0000   1.0000   1.0000   1.0000   1.0000
     1.0000   1.0000   1.0000   1.0000   1.0000   1.0000   1.0000   1.0000
     1.0000   1.0000   1.0000   1.0000   1.0000   1.0000   1.0000   1.0000
     1.0000   1.0000   1.0000   1.0000   1.0000   1.0000   1.0000   1.0000
     1.0000   1.0000   1.0000   1.0000   1.0000   1.0000   1.0000   1.0000
     1.0000   1.0000   1.0000   1.0000   1.0000   1.0000   1.0000   1.0000
     1.0000   1.0000   1.0000   1.0000   1.0000   1.0000   1.0000   1.0000
     1.0000   1.0000   1.0000   1.0000   1.0000   1.0000   1.0000   1.0000
     1.0000   1.0000   1.0000   1.0000   1.0000   1.0000   1.0000   1.0000
     1.0000   1.0000   1.0000   1.0000   1.0000   1.0000   1.0000   1.0000
     1.0000   1.0000   1.0000   1.0000   1.0000   1.0000   1.0000   1.0000
     1.0000   1.0001   1.0003   1.0004   1.0004   1.0137   1.0227   1.0278
     1.0393   1.0582   1.0825   1.0297   0.9853   0.8922   0.8446   0.8362
     0.7438   0.7310   0.6455   0.6325   0.1402   0.1216   0.0000   0.0000
     0.0000   0.0000   0.0000   0.0000   0.0000   0.0000   0.0000   0.0000
     0.0000   0.0000   0.0000   0.0000   0.0000   0.0000   0.0000   0.0000
     0.0000

          k = 0.4375-0.6134 0.0000 ( 44485 PWs)   bands (ev):

   -11.5524 -10.8854 -10.4223 -10.4141 -10.2257 -10.1720 -10.0970 -10.0490
    -9.9546  -9.8926  -9.8724  -9.8492  -9.8064  -9.7951  -9.7461  -9.6693
    -9.6441  -9.6351  -9.5947  -9.5713  -9.5548  -9.5227  -9.4581  -9.3968
    -9.3811  -9.3634  -9.3502  -9.2792  -9.2556  -9.1877  -9.1556  -9.1471
    -9.1395  -9.1346  -9.0575  -9.0482  -9.0365  -8.8940  -8.8624  -8.8529
    -8.8473  -8.7790  -8.7510  -8.7109  -8.6816  -8.6085  -8.5832  -8.4577
    -8.4495  -8.3766  -8.3188  -8.2961  -8.2790  -8.2322  -8.1969  -8.1257
    -8.0867  -8.0716  -8.0615  -8.0309  -7.9813  -7.9558  -7.8990  -7.8845
    -7.8414  -7.8269  -7.7748  -7.7338  -7.7037  -7.6540  -7.6398  -7.6094
    -7.5477  -7.5062  -7.4402  -7.4373  -7.2741  -7.2086  -7.1562  -7.1381
    -7.0528  -7.0240  -7.0053  -6.9822  -6.9671  -6.9366  -6.9204  -6.8480
    -6.7202  -6.6947  -6.6821  -6.6255  -6.6058  -6.5426  -6.4764  -6.4275
    -6.3755  -6.3593  -6.3198  -6.2369  -6.2039  -6.1667  -6.1444  -6.1055
    -5.9955  -5.9363  -5.8644  -5.8165  -5.7250  -5.6999  -5.6762  -5.6579
    -5.6177  -5.5818  -5.5531  -5.5252  -5.5102  -5.4709  -5.4326  -5.4160
    -5.3625  -5.3506  -5.3384  -5.2887  -5.2808  -5.1318  -4.9660  -4.9136
    -4.6612  -4.4768  -3.9072  -3.4791  -3.0997  -2.3637  -1.9113  -1.5188
    -0.6671  -0.2465  -0.0882   0.0966   0.4115   0.7314   0.9491   1.1293
     1.4500

     occupation numbers 
     1.0000   1.0000   1.0000   1.0000   1.0000   1.0000   1.0000   1.0000
     1.0000   1.0000   1.0000   1.0000   1.0000   1.0000   1.0000   1.0000
     1.0000   1.0000   1.0000   1.0000   1.0000   1.0000   1.0000   1.0000
     1.0000   1.0000   1.0000   1.0000   1.0000   1.0000   1.0000   1.0000
     1.0000   1.0000   1.0000   1.0000   1.0000   1.0000   1.0000   1.0000
     1.0000   1.0000   1.0000   1.0000   1.0000   1.0000   1.0000   1.0000
     1.0000   1.0000   1.0000   1.0000   1.0000   1.0000   1.0000   1.0000
     1.0000   1.0000   1.0000   1.0000   1.0000   1.0000   1.0000   1.0000
     1.0000   1.0000   1.0000   1.0000   1.0000   1.0000   1.0000   1.0000
     1.0000   1.0000   1.0000   1.0000   1.0000   1.0000   1.0000   1.0000
     1.0000   1.0000   1.0000   1.0000   1.0000   1.0000   1.0000   1.0000
     1.0000   1.0000   1.0000   1.0000   1.0000   1.0000   1.0000   1.0000
     1.0000   1.0000   1.0000   1.0000   1.0000   1.0000   1.0000   1.0000
     1.0001   1.0004   1.0022   1.0056   1.0245   1.0336   1.0437   1.0522
     1.0704   1.0817   1.0825   1.0722   1.0609   1.0090   0.9246   0.8782
     0.6979   0.6535   0.6079   0.4247   0.3975   0.0674   0.0028   0.0008
     0.0000   0.0000   0.0000   0.0000   0.0000   0.0000   0.0000   0.0000
     0.0000   0.0000   0.0000   0.0000   0.0000   0.0000   0.0000   0.0000
     0.0000

          k = 0.4375-0.5413 0.0000 ( 44485 PWs)   bands (ev):

   -11.5524 -10.8854 -10.4223 -10.4141 -10.2257 -10.1720 -10.0970 -10.0490
    -9.9546  -9.8926  -9.8724  -9.8492  -9.8064  -9.7951  -9.7461  -9.6693
    -9.6441  -9.6351  -9.5947  -9.5713  -9.5548  -9.5227  -9.4581  -9.3968
    -9.3811  -9.3634  -9.3502  -9.2792  -9.2556  -9.1877  -9.1556  -9.1471
    -9.1395  -9.1346  -9.0575  -9.0482  -9.0365  -8.8940  -8.8624  -8.8529
    -8.8473  -8.7790  -8.7510  -8.7109  -8.6816  -8.6085  -8.5832  -8.4577
    -8.4495  -8.3766  -8.3188  -8.2961  -8.2790  -8.2322  -8.1969  -8.1257
    -8.0867  -8.0716  -8.0615  -8.0309  -7.9813  -7.9558  -7.8990  -7.8845
    -7.8414  -7.8269  -7.7748  -7.7338  -7.7037  -7.6540  -7.6398  -7.6094
    -7.5477  -7.5062  -7.4402  -7.4373  -7.2741  -7.2086  -7.1562  -7.1381
    -7.0528  -7.0240  -7.0053  -6.9822  -6.9671  -6.9366  -6.9204  -6.8480
    -6.7202  -6.6947  -6.6821  -6.6255  -6.6058  -6.5426  -6.4764  -6.4275
    -6.3755  -6.3593  -6.3198  -6.2369  -6.2039  -6.1667  -6.1444  -6.1055
    -5.9955  -5.9363  -5.8644  -5.8165  -5.7250  -5.6999  -5.6762  -5.6579
    -5.6177  -5.5818  -5.5531  -5.5252  -5.5102  -5.4709  -5.4326  -5.4160
    -5.3625  -5.3506  -5.3384  -5.2887  -5.2808  -5.1318  -4.9660  -4.9136
    -4.6612  -4.4768  -3.9072  -3.4791  -3.0997  -2.3637  -1.9113  -1.5188
    -0.6671  -0.2465  -0.0882   0.0966   0.4115   0.7314   0.9491   1.1293
     1.4500

     occupation numbers 
     1.0000   1.0000   1.0000   1.0000   1.0000   1.0000   1.0000   1.0000
     1.0000   1.0000   1.0000   1.0000   1.0000   1.0000   1.0000   1.0000
     1.0000   1.0000   1.0000   1.0000   1.0000   1.0000   1.0000   1.0000
     1.0000   1.0000   1.0000   1.0000   1.0000   1.0000   1.0000   1.0000
     1.0000   1.0000   1.0000   1.0000   1.0000   1.0000   1.0000   1.0000
     1.0000   1.0000   1.0000   1.0000   1.0000   1.0000   1.0000   1.0000
     1.0000   1.0000   1.0000   1.0000   1.0000   1.0000   1.0000   1.0000
     1.0000   1.0000   1.0000   1.0000   1.0000   1.0000   1.0000   1.0000
     1.0000   1.0000   1.0000   1.0000   1.0000   1.0000   1.0000   1.0000
     1.0000   1.0000   1.0000   1.0000   1.0000   1.0000   1.0000   1.0000
     1.0000   1.0000   1.0000   1.0000   1.0000   1.0000   1.0000   1.0000
     1.0000   1.0000   1.0000   1.0000   1.0000   1.0000   1.0000   1.0000
     1.0000   1.0000   1.0000   1.0000   1.0000   1.0000   1.0000   1.0000
     1.0001   1.0004   1.0022   1.0056   1.0245   1.0336   1.0437   1.0522
     1.0704   1.0817   1.0825   1.0722   1.0609   1.0090   0.9246   0.8782
     0.6979   0.6535   0.6079   0.4247   0.3975   0.0674   0.0028   0.0008
     0.0000   0.0000   0.0000   0.0000   0.0000   0.0000   0.0000   0.0000
     0.0000   0.0000   0.0000   0.0000   0.0000   0.0000   0.0000   0.0000
     0.0000

          k = 0.4375-0.4691 0.0000 ( 44484 PWs)   bands (ev):

   -11.5705 -10.8732 -10.6358 -10.4254 -10.2961 -10.1020 -10.0767 -10.0401
   -10.0300  -9.9743  -9.9192  -9.8884  -9.8418  -9.8265  -9.7374  -9.7209
    -9.6724  -9.6408  -9.5861  -9.5527  -9.5240  -9.5068  -9.4595  -9.3984
    -9.3819  -9.3226  -9.3061  -9.2901  -9.2152  -9.1997  -9.1915  -9.1829
    -9.1603  -9.1402  -9.0205  -8.9983  -8.9743  -8.9573  -8.8793  -8.8691
    -8.8383  -8.7915  -8.7511  -8.6857  -8.6128  -8.5805  -8.5601  -8.4667
    -8.4365  -8.3554  -8.3431  -8.2557  -8.1954  -8.1747  -8.1434  -8.1156
    -8.0749  -8.0299  -8.0068  -7.9718  -7.9398  -7.8930  -7.8590  -7.8481
    -7.8180  -7.8118  -7.7434  -7.7051  -7.6888  -7.6532  -7.6168  -7.6027
    -7.5512  -7.4904  -7.4720  -7.4506  -7.2415  -7.1976  -7.1607  -7.1159
    -7.0452  -7.0357  -7.0339  -7.0111  -6.9699  -6.9258  -6.8749  -6.8412
    -6.7768  -6.7147  -6.6987  -6.6134  -6.5960  -6.5565  -6.5386  -6.4536
    -6.4457  -6.3888  -6.3734  -6.3168  -6.2347  -6.2172  -6.1594  -6.1225
    -6.0602  -6.0079  -5.9490  -5.9425  -5.9363  -5.7647  -5.7307  -5.7153
    -5.6863  -5.6450  -5.5765  -5.4837  -5.4585  -5.4208  -5.4050  -5.4024
    -5.3752  -5.3716  -5.3484  -5.3450  -5.1836  -5.1729  -4.5927  -4.4618
    -4.3934  -4.2265  -4.0283  -3.1889  -2.9146  -2.6608  -1.6327  -1.3349
    -0.9935  -0.6430  -0.3201  -0.1111   0.2259   0.4001   0.5078   1.1368
     1.8893

     occupation numbers 
     1.0000   1.0000   1.0000   1.0000   1.0000   1.0000   1.0000   1.0000
     1.0000   1.0000   1.0000   1.0000   1.0000   1.0000   1.0000   1.0000
     1.0000   1.0000   1.0000   1.0000   1.0000   1.0000   1.0000   1.0000
     1.0000   1.0000   1.0000   1.0000   1.0000   1.0000   1.0000   1.0000
     1.0000   1.0000   1.0000   1.0000   1.0000   1.0000   1.0000   1.0000
     1.0000   1.0000   1.0000   1.0000   1.0000   1.0000   1.0000   1.0000
     1.0000   1.0000   1.0000   1.0000   1.0000   1.0000   1.0000   1.0000
     1.0000   1.0000   1.0000   1.0000   1.0000   1.0000   1.0000   1.0000
     1.0000   1.0000   1.0000   1.0000   1.0000   1.0000   1.0000   1.0000
     1.0000   1.0000   1.0000   1.0000   1.0000   1.0000   1.0000   1.0000
     1.0000   1.0000   1.0000   1.0000   1.0000   1.0000   1.0000   1.0000
     1.0000   1.0000   1.0000   1.0000   1.0000   1.0000   1.0000   1.0000
     1.0000   1.0000   1.0000   1.0000   1.0000   1.0000   1.0000   1.0000
     1.0000   1.0001   1.0003   1.0004   1.0004   1.0137   1.0227   1.0278
     1.0393   1.0582   1.0825   1.0297   0.9853   0.8922   0.8446   0.8362
     0.7438   0.7310   0.6455   0.6325   0.1402   0.1216   0.0000   0.0000
     0.0000   0.0000   0.0000   0.0000   0.0000   0.0000   0.0000   0.0000
     0.0000   0.0000   0.0000   0.0000   0.0000   0.0000   0.0000   0.0000
     0.0000

          k = 0.4375-0.3969 0.0000 ( 44554 PWs)   bands (ev):

   -11.6031 -10.8521 -10.8409 -10.4461 -10.4186 -10.1124 -10.0992 -10.0759
   -10.0702 -10.0318 -10.0193  -9.9416  -9.8878  -9.8511  -9.7909  -9.6929
    -9.6834  -9.6796  -9.6464  -9.5746  -9.5127  -9.4620  -9.4529  -9.4428
    -9.3433  -9.3407  -9.3344  -9.3232  -9.3163  -9.2112  -9.1615  -9.1342
    -9.1130  -9.0948  -9.0344  -8.9749  -8.9619  -8.9296  -8.8471  -8.8406
    -8.8308  -8.8157  -8.6906  -8.5994  -8.5985  -8.5185  -8.4808  -8.4703
    -8.4240  -8.4079  -8.4022  -8.1753  -8.1581  -8.1188  -8.1026  -8.0807
    -7.9766  -7.9649  -7.9532  -7.8804  -7.8634  -7.8400  -7.8215  -7.7774
    -7.7352  -7.7098  -7.6799  -7.6569  -7.6450  -7.6320  -7.5790  -7.5646
    -7.5401  -7.4808  -7.4589  -7.4547  -7.2396  -7.2150  -7.1908  -7.0739
    -7.0674  -7.0498  -7.0382  -7.0058  -7.0012  -6.9291  -6.8734  -6.8516
    -6.7321  -6.7068  -6.6838  -6.6710  -6.6209  -6.6013  -6.5958  -6.5537
    -6.5210  -6.4506  -6.4184  -6.3986  -6.3490  -6.3172  -6.2266  -6.1939
    -6.1846  -6.0818  -6.0175  -5.9843  -5.9697  -5.9472  -5.9338  -5.7746
    -5.7365  -5.6720  -5.5532  -5.4892  -5.4427  -5.4027  -5.3174  -5.3042
    -5.2948  -5.2786  -5.2666  -5.2562  -5.0786  -5.0688  -4.6154  -4.4201
    -3.9352  -3.8454  -3.4858  -3.0967  -2.9147  -2.3811  -1.5956  -1.3545
    -1.2604  -1.0246  -0.8394  -0.4601  -0.0273   0.0863   0.4848   0.8725
     1.7023

     occupation numbers 
     1.0000   1.0000   1.0000   1.0000   1.0000   1.0000   1.0000   1.0000
     1.0000   1.0000   1.0000   1.0000   1.0000   1.0000   1.0000   1.0000
     1.0000   1.0000   1.0000   1.0000   1.0000   1.0000   1.0000   1.0000
     1.0000   1.0000   1.0000   1.0000   1.0000   1.0000   1.0000   1.0000
     1.0000   1.0000   1.0000   1.0000   1.0000   1.0000   1.0000   1.0000
     1.0000   1.0000   1.0000   1.0000   1.0000   1.0000   1.0000   1.0000
     1.0000   1.0000   1.0000   1.0000   1.0000   1.0000   1.0000   1.0000
     1.0000   1.0000   1.0000   1.0000   1.0000   1.0000   1.0000   1.0000
     1.0000   1.0000   1.0000   1.0000   1.0000   1.0000   1.0000   1.0000
     1.0000   1.0000   1.0000   1.0000   1.0000   1.0000   1.0000   1.0000
     1.0000   1.0000   1.0000   1.0000   1.0000   1.0000   1.0000   1.0000
     1.0000   1.0000   1.0000   1.0000   1.0000   1.0000   1.0000   1.0000
     1.0000   1.0000   1.0000   1.0000   1.0000   1.0000   1.0000   1.0000
     1.0000   1.0000   1.0000   1.0001   1.0002   1.0003   1.0004   1.0117
     1.0209   1.0456   1.0825   1.0374   0.9500   0.8372   0.5287   0.4803
     0.4463   0.3899   0.3503   0.3176   0.0279   0.0234   0.0000   0.0000
     0.0000   0.0000   0.0000   0.0000   0.0000   0.0000   0.0000   0.0000
     0.0000   0.0000   0.0000   0.0000   0.0000   0.0000   0.0000   0.0000
     0.0000

          k = 0.4375-0.3248 0.0000 ( 44516 PWs)   bands (ev):

   -11.6445 -11.0340 -10.8023 -10.5575 -10.4294 -10.2087 -10.1597 -10.1163
   -10.1142 -10.0657 -10.0216 -10.0043  -9.9393  -9.8848  -9.8539  -9.7789
    -9.7025  -9.6835  -9.6463  -9.5828  -9.5655  -9.5113  -9.4779  -9.4599
    -9.4427  -9.4111  -9.3759  -9.3068  -9.2804  -9.2395  -9.1374  -9.1262
    -9.1054  -9.0496  -8.9884  -8.9663  -8.9406  -8.8929  -8.8620  -8.8352
    -8.7973  -8.7042  -8.6872  -8.5891  -8.5760  -8.5256  -8.4862  -8.4452
    -8.3950  -8.2932  -8.2790  -8.1834  -8.1561  -8.0971  -8.0343  -7.9900
    -7.9489  -7.9284  -7.9266  -7.8684  -7.8404  -7.8238  -7.7521  -7.7094
    -7.6829  -7.6491  -7.6381  -7.6001  -7.5895  -7.5468  -7.5002  -7.4895
    -7.4571  -7.4359  -7.4104  -7.3313  -7.2711  -7.2285  -7.2104  -7.1894
    -7.1242  -7.0580  -7.0404  -6.9936  -6.9518  -6.9238  -6.8761  -6.8562
    -6.7634  -6.7457  -6.6942  -6.6705  -6.6366  -6.6221  -6.5817  -6.5628
    -6.5446  -6.5143  -6.4781  -6.4335  -6.4174  -6.3574  -6.3263  -6.2354
    -6.1994  -6.1819  -6.1295  -6.0132  -5.9923  -5.9295  -5.8760  -5.8450
    -5.8007  -5.7122  -5.5254  -5.4697  -5.4150  -5.3795  -5.2553  -5.2427
    -5.2262  -5.2202  -5.1862  -5.1732  -5.0032  -4.9971  -4.7607  -4.4476
    -3.4717  -3.3429  -3.1574  -2.9273  -2.6948  -2.0983  -1.9646  -1.7182
    -1.5914  -1.2830  -1.1177  -0.4537  -0.2584  -0.1874   0.2428   1.0265
     1.4164

     occupation numbers 
     1.0000   1.0000   1.0000   1.0000   1.0000   1.0000   1.0000   1.0000
     1.0000   1.0000   1.0000   1.0000   1.0000   1.0000   1.0000   1.0000
     1.0000   1.0000   1.0000   1.0000   1.0000   1.0000   1.0000   1.0000
     1.0000   1.0000   1.0000   1.0000   1.0000   1.0000   1.0000   1.0000
     1.0000   1.0000   1.0000   1.0000   1.0000   1.0000   1.0000   1.0000
     1.0000   1.0000   1.0000   1.0000   1.0000   1.0000   1.0000   1.0000
     1.0000   1.0000   1.0000   1.0000   1.0000   1.0000   1.0000   1.0000
     1.0000   1.0000   1.0000   1.0000   1.0000   1.0000   1.0000   1.0000
     1.0000   1.0000   1.0000   1.0000   1.0000   1.0000   1.0000   1.0000
     1.0000   1.0000   1.0000   1.0000   1.0000   1.0000   1.0000   1.0000
     1.0000   1.0000   1.0000   1.0000   1.0000   1.0000   1.0000   1.0000
     1.0000   1.0000   1.0000   1.0000   1.0000   1.0000   1.0000   1.0000
     1.0000   1.0000   1.0000   1.0000   1.0000   1.0000   1.0000   1.0000
     1.0000   1.0000   1.0000   1.0001   1.0001   1.0005   1.0017   1.0032
     1.0075   1.0289   1.0723   1.0068   0.8753   0.7591   0.3148   0.2777
     0.2329   0.2180   0.1449   0.1222   0.0063   0.0056   0.0000   0.0000
     0.0000   0.0000   0.0000   0.0000   0.0000   0.0000   0.0000   0.0000
     0.0000   0.0000   0.0000   0.0000   0.0000   0.0000   0.0000   0.0000
     0.0000

          k =-0.5000 0.2887 0.0000 ( 44486 PWs)   bands (ev):

   -11.6444 -10.9390 -10.9245 -10.5208 -10.4899 -10.2081 -10.1939 -10.0810
   -10.0787 -10.0756 -10.0717 -10.0121  -9.9468  -9.8787  -9.8727  -9.7351
    -9.7209  -9.6778  -9.6744  -9.5572  -9.5350  -9.5071  -9.4846  -9.4208
    -9.4154  -9.4103  -9.3758  -9.3410  -9.3370  -9.2292  -9.1714  -9.0480
    -9.0477  -9.0445  -9.0422  -8.9341  -8.9210  -8.9049  -8.8670  -8.7791
    -8.7702  -8.7454  -8.7400  -8.5807  -8.5498  -8.5137  -8.4974  -8.4364
    -8.4321  -8.2798  -8.2705  -8.1833  -8.1445  -8.0694  -8.0429  -7.9684
    -7.9653  -7.9249  -7.9204  -7.8481  -7.8465  -7.7593  -7.7077  -7.7013
    -7.6945  -7.6156  -7.6078  -7.5949  -7.5346  -7.5209  -7.5175  -7.4809
    -7.4579  -7.4372  -7.4312  -7.3576  -7.2644  -7.2423  -7.1740  -7.1598
    -7.1231  -7.1140  -7.0105  -7.0101  -6.9764  -6.9565  -6.8522  -6.8261
    -6.8055  -6.7953  -6.7086  -6.6817  -6.6600  -6.6317  -6.6082  -6.5544
    -6.5504  -6.5116  -6.4901  -6.4787  -6.4786  -6.4700  -6.3301  -6.3261
    -6.2697  -6.2389  -6.1216  -6.1024  -5.9392  -5.9052  -5.8796  -5.8595
    -5.8371  -5.7910  -5.5114  -5.4618  -5.4032  -5.3738  -5.2149  -5.2109
    -5.2091  -5.1953  -5.1572  -5.1521  -4.9753  -4.9724  -4.7373  -4.5459
    -3.3727  -3.0180  -2.7394  -2.7311  -2.5687  -2.4785  -2.1426  -1.9280
    -1.5593  -1.3660  -1.0364  -0.9277  -0.1693  -0.0403   0.3360   0.4734
     1.8660

     occupation numbers 
     1.0000   1.0000   1.0000   1.0000   1.0000   1.0000   1.0000   1.0000
     1.0000   1.0000   1.0000   1.0000   1.0000   1.0000   1.0000   1.0000
     1.0000   1.0000   1.0000   1.0000   1.0000   1.0000   1.0000   1.0000
     1.0000   1.0000   1.0000   1.0000   1.0000   1.0000   1.0000   1.0000
     1.0000   1.0000   1.0000   1.0000   1.0000   1.0000   1.0000   1.0000
     1.0000   1.0000   1.0000   1.0000   1.0000   1.0000   1.0000   1.0000
     1.0000   1.0000   1.0000   1.0000   1.0000   1.0000   1.0000   1.0000
     1.0000   1.0000   1.0000   1.0000   1.0000   1.0000   1.0000   1.0000
     1.0000   1.0000   1.0000   1.0000   1.0000   1.0000   1.0000   1.0000
     1.0000   1.0000   1.0000   1.0000   1.0000   1.0000   1.0000   1.0000
     1.0000   1.0000   1.0000   1.0000   1.0000   1.0000   1.0000   1.0000
     1.0000   1.0000   1.0000   1.0000   1.0000   1.0000   1.0000   1.0000
     1.0000   1.0000   1.0000   1.0000   1.0000   1.0000   1.0000   1.0000
     1.0000   1.0000   1.0000   1.0000   1.0004   1.0009   1.0016   1.0024
     1.0038   1.0089   1.0620   0.9920   0.8388   0.7387   0.2053   0.1960
     0.1920   0.1624   0.0981   0.0912   0.0034   0.0032   0.0000   0.0000
     0.0000   0.0000   0.0000   0.0000   0.0000   0.0000   0.0000   0.0000
     0.0000   0.0000   0.0000   0.0000   0.0000   0.0000   0.0000   0.0000
     0.0000

          k =-0.5000 0.3608 0.0000 ( 44516 PWs)   bands (ev):

   -11.6445 -11.0340 -10.8023 -10.5575 -10.4294 -10.2087 -10.1597 -10.1163
   -10.1142 -10.0657 -10.0216 -10.0043  -9.9393  -9.8848  -9.8539  -9.7789
    -9.7025  -9.6835  -9.6463  -9.5828  -9.5655  -9.5113  -9.4779  -9.4599
    -9.4427  -9.4111  -9.3759  -9.3068  -9.2804  -9.2395  -9.1374  -9.1262
    -9.1054  -9.0496  -8.9884  -8.9663  -8.9406  -8.8929  -8.8620  -8.8352
    -8.7973  -8.7042  -8.6872  -8.5891  -8.5760  -8.5256  -8.4862  -8.4452
    -8.3950  -8.2932  -8.2790  -8.1834  -8.1561  -8.0971  -8.0343  -7.9900
    -7.9489  -7.9284  -7.9266  -7.8684  -7.8404  -7.8238  -7.7521  -7.7094
    -7.6829  -7.6491  -7.6381  -7.6001  -7.5895  -7.5468  -7.5002  -7.4895
    -7.4571  -7.4359  -7.4104  -7.3313  -7.2711  -7.2285  -7.2104  -7.1894
    -7.1242  -7.0580  -7.0404  -6.9936  -6.9518  -6.9238  -6.8761  -6.8562
    -6.7634  -6.7457  -6.6942  -6.6705  -6.6366  -6.6221  -6.5817  -6.5628
    -6.5446  -6.5143  -6.4781  -6.4335  -6.4174  -6.3574  -6.3263  -6.2354
    -6.1994  -6.1819  -6.1295  -6.0132  -5.9923  -5.9295  -5.8760  -5.8450
    -5.8007  -5.7122  -5.5254  -5.4697  -5.4150  -5.3795  -5.2553  -5.2427
    -5.2262  -5.2202  -5.1862  -5.1732  -5.0032  -4.9971  -4.7607  -4.4476
    -3.4717  -3.3429  -3.1574  -2.9273  -2.6948  -2.0983  -1.9646  -1.7182
    -1.5914  -1.2830  -1.1177  -0.4537  -0.2584  -0.1874   0.2428   1.0265
     1.4164

     occupation numbers 
     1.0000   1.0000   1.0000   1.0000   1.0000   1.0000   1.0000   1.0000
     1.0000   1.0000   1.0000   1.0000   1.0000   1.0000   1.0000   1.0000
     1.0000   1.0000   1.0000   1.0000   1.0000   1.0000   1.0000   1.0000
     1.0000   1.0000   1.0000   1.0000   1.0000   1.0000   1.0000   1.0000
     1.0000   1.0000   1.0000   1.0000   1.0000   1.0000   1.0000   1.0000
     1.0000   1.0000   1.0000   1.0000   1.0000   1.0000   1.0000   1.0000
     1.0000   1.0000   1.0000   1.0000   1.0000   1.0000   1.0000   1.0000
     1.0000   1.0000   1.0000   1.0000   1.0000   1.0000   1.0000   1.0000
     1.0000   1.0000   1.0000   1.0000   1.0000   1.0000   1.0000   1.0000
     1.0000   1.0000   1.0000   1.0000   1.0000   1.0000   1.0000   1.0000
     1.0000   1.0000   1.0000   1.0000   1.0000   1.0000   1.0000   1.0000
     1.0000   1.0000   1.0000   1.0000   1.0000   1.0000   1.0000   1.0000
     1.0000   1.0000   1.0000   1.0000   1.0000   1.0000   1.0000   1.0000
     1.0000   1.0000   1.0000   1.0001   1.0001   1.0005   1.0017   1.0032
     1.0075   1.0289   1.0723   1.0068   0.8753   0.7591   0.3148   0.2777
     0.2329   0.2180   0.1449   0.1222   0.0063   0.0056   0.0000   0.0000
     0.0000   0.0000   0.0000   0.0000   0.0000   0.0000   0.0000   0.0000
     0.0000   0.0000   0.0000   0.0000   0.0000   0.0000   0.0000   0.0000
     0.0000

          k =-0.5000 0.4330 0.0000 ( 44477 PWs)   bands (ev):

   -11.6448 -11.1064 -10.6529 -10.5855 -10.3351 -10.1800 -10.1531 -10.1397
   -10.1073 -10.0907  -9.9881  -9.9550  -9.9203  -9.8983  -9.8219  -9.8135
    -9.7289  -9.6506  -9.6367  -9.6240  -9.6145  -9.5866  -9.5381  -9.4435
    -9.4318  -9.4014  -9.3520  -9.3275  -9.2590  -9.2338  -9.1595  -9.1251
    -9.1112  -9.0863  -9.0328  -9.0020  -8.9246  -8.9014  -8.8731  -8.8610
    -8.8108  -8.6827  -8.6745  -8.6217  -8.5754  -8.5633  -8.4838  -8.4036
    -8.3431  -8.3155  -8.3052  -8.2064  -8.1647  -8.1366  -8.0585  -8.0175
    -8.0010  -7.9655  -7.9492  -7.9135  -7.8802  -7.8279  -7.8044  -7.7802
    -7.7234  -7.7072  -7.6506  -7.6331  -7.6063  -7.5744  -7.5263  -7.5004
    -7.4606  -7.3940  -7.3460  -7.3119  -7.2668  -7.2350  -7.2081  -7.1745
    -7.1510  -7.0861  -7.0155  -6.9530  -6.9368  -6.8940  -6.8776  -6.8150
    -6.8053  -6.7110  -6.6912  -6.6696  -6.6535  -6.6058  -6.5464  -6.5062
    -6.4862  -6.4181  -6.3733  -6.3583  -6.3128  -6.2184  -6.1790  -6.1305
    -6.1113  -6.0852  -6.0453  -5.9945  -5.9647  -5.7951  -5.7728  -5.7488
    -5.7261  -5.6151  -5.5749  -5.4432  -5.4373  -5.3967  -5.3385  -5.3175
    -5.3058  -5.2725  -5.2493  -5.2416  -5.0782  -5.0691  -4.7738  -4.2492
    -3.9550  -3.8446  -3.5306  -3.3136  -2.6867  -2.3664  -1.8596  -1.3905
    -1.1604  -0.9358  -0.7781  -0.5626  -0.4393   0.3669   0.6257   0.8755
     1.5282

     occupation numbers 
     1.0000   1.0000   1.0000   1.0000   1.0000   1.0000   1.0000   1.0000
     1.0000   1.0000   1.0000   1.0000   1.0000   1.0000   1.0000   1.0000
     1.0000   1.0000   1.0000   1.0000   1.0000   1.0000   1.0000   1.0000
     1.0000   1.0000   1.0000   1.0000   1.0000   1.0000   1.0000   1.0000
     1.0000   1.0000   1.0000   1.0000   1.0000   1.0000   1.0000   1.0000
     1.0000   1.0000   1.0000   1.0000   1.0000   1.0000   1.0000   1.0000
     1.0000   1.0000   1.0000   1.0000   1.0000   1.0000   1.0000   1.0000
     1.0000   1.0000   1.0000   1.0000   1.0000   1.0000   1.0000   1.0000
     1.0000   1.0000   1.0000   1.0000   1.0000   1.0000   1.0000   1.0000
     1.0000   1.0000   1.0000   1.0000   1.0000   1.0000   1.0000   1.0000
     1.0000   1.0000   1.0000   1.0000   1.0000   1.0000   1.0000   1.0000
     1.0000   1.0000   1.0000   1.0000   1.0000   1.0000   1.0000   1.0000
     1.0000   1.0000   1.0000   1.0000   1.0000   1.0000   1.0000   1.0000
     1.0000   1.0000   1.0000   1.0001   1.0002   1.0083   1.0121   1.0175
     1.0241   1.0715   1.0827   0.9514   0.9368   0.8178   0.6081   0.5292
     0.4860   0.3695   0.2968   0.2746   0.0277   0.0235   0.0000   0.0000
     0.0000   0.0000   0.0000   0.0000   0.0000   0.0000   0.0000   0.0000
     0.0000   0.0000   0.0000   0.0000   0.0000   0.0000   0.0000   0.0000
     0.0000

          k =-0.5000 0.5052 0.0000 ( 44502 PWs)   bands (ev):

   -11.6452 -11.1491 -10.6022 -10.4897 -10.2364 -10.2020 -10.1793 -10.1519
   -10.1141 -10.0140  -9.9717  -9.9442  -9.8983  -9.8893  -9.8213  -9.8026
    -9.7848  -9.7117  -9.6353  -9.6327  -9.6204  -9.6077  -9.5976  -9.4667
    -9.4504  -9.4222  -9.3851  -9.2779  -9.2407  -9.2132  -9.1838  -9.1332
    -9.0926  -9.0808  -9.0710  -9.0262  -8.9896  -8.8846  -8.8688  -8.8566
    -8.8088  -8.7113  -8.6764  -8.6379  -8.6141  -8.5245  -8.4689  -8.3611
    -8.3416  -8.3301  -8.3207  -8.2529  -8.2257  -8.2053  -8.1218  -8.0586
    -8.0163  -7.9867  -7.9487  -7.9142  -7.9040  -7.8646  -7.8235  -7.8149
    -7.7607  -7.7395  -7.6908  -7.6578  -7.6362  -7.5798  -7.5148  -7.4550
    -7.4353  -7.4051  -7.3442  -7.3026  -7.2716  -7.2179  -7.1919  -7.1749
    -7.1465  -7.0781  -6.9932  -6.9316  -6.9042  -6.8925  -6.8870  -6.8299
    -6.7983  -6.7756  -6.6842  -6.6364  -6.6136  -6.5997  -6.5192  -6.4442
    -6.4251  -6.3644  -6.3105  -6.2923  -6.1897  -6.1579  -6.1024  -6.0974
    -6.0691  -6.0260  -5.8957  -5.8798  -5.7188  -5.7116  -5.6910  -5.6630
    -5.5974  -5.4872  -5.4754  -5.4641  -5.4397  -5.4340  -5.3933  -5.3693
    -5.3604  -5.3014  -5.2966  -5.1865  -5.1749  -5.1537  -4.7696  -4.5165
    -4.4182  -4.1319  -3.8747  -3.4494  -2.9879  -2.3288  -1.9345  -1.4189
    -0.7876  -0.6579  -0.5179  -0.3137   0.1260   0.3714   0.7807   1.0511
     1.3544

     occupation numbers 
     1.0000   1.0000   1.0000   1.0000   1.0000   1.0000   1.0000   1.0000
     1.0000   1.0000   1.0000   1.0000   1.0000   1.0000   1.0000   1.0000
     1.0000   1.0000   1.0000   1.0000   1.0000   1.0000   1.0000   1.0000
     1.0000   1.0000   1.0000   1.0000   1.0000   1.0000   1.0000   1.0000
     1.0000   1.0000   1.0000   1.0000   1.0000   1.0000   1.0000   1.0000
     1.0000   1.0000   1.0000   1.0000   1.0000   1.0000   1.0000   1.0000
     1.0000   1.0000   1.0000   1.0000   1.0000   1.0000   1.0000   1.0000
     1.0000   1.0000   1.0000   1.0000   1.0000   1.0000   1.0000   1.0000
     1.0000   1.0000   1.0000   1.0000   1.0000   1.0000   1.0000   1.0000
     1.0000   1.0000   1.0000   1.0000   1.0000   1.0000   1.0000   1.0000
     1.0000   1.0000   1.0000   1.0000   1.0000   1.0000   1.0000   1.0000
     1.0000   1.0000   1.0000   1.0000   1.0000   1.0000   1.0000   1.0000
     1.0000   1.0000   1.0000   1.0000   1.0000   1.0000   1.0000   1.0000
     1.0000   1.0000   1.0011   1.0016   1.0266   1.0291   1.0373   1.0498
     1.0778   1.0347   1.0166   0.9964   0.9428   0.9283   0.8066   0.7226
     0.6901   0.4700   0.4526   0.1455   0.1250   0.0933   0.0000   0.0000
     0.0000   0.0000   0.0000   0.0000   0.0000   0.0000   0.0000   0.0000
     0.0000   0.0000   0.0000   0.0000   0.0000   0.0000   0.0000   0.0000
     0.0000

          k =-0.5000 0.5774 0.0000 ( 44491 PWs)   bands (ev):

   -11.6454 -11.1632 -10.6060 -10.3370 -10.3321 -10.1885 -10.1747 -10.1725
   -10.0223 -10.0193  -9.9716  -9.9319  -9.9173  -9.8868  -9.8581  -9.7800
    -9.7618  -9.7592  -9.6466  -9.6382  -9.6363  -9.6202  -9.6032  -9.4867
    -9.4769  -9.4189  -9.3668  -9.3047  -9.2080  -9.1850  -9.1628  -9.1327
    -9.1273  -9.1155  -9.0644  -9.0394  -8.9912  -8.8884  -8.8601  -8.8407
    -8.8086  -8.7721  -8.6416  -8.6381  -8.6119  -8.4843  -8.4469  -8.4415
    -8.3647  -8.3390  -8.3130  -8.2762  -8.2694  -8.1855  -8.1294  -8.1002
    -8.0087  -7.9802  -7.9679  -7.9143  -7.9041  -7.8553  -7.8362  -7.8244
    -7.7805  -7.7701  -7.7060  -7.6631  -7.6375  -7.5866  -7.4798  -7.4500
    -7.4381  -7.3910  -7.3772  -7.3111  -7.2368  -7.2153  -7.2015  -7.1642
    -7.1474  -7.0777  -6.9611  -6.9425  -6.9046  -6.8845  -6.8739  -6.8326
    -6.8114  -6.8019  -6.6793  -6.6248  -6.5960  -6.5956  -6.5034  -6.4191
    -6.3909  -6.3456  -6.3134  -6.2798  -6.1619  -6.1439  -6.0873  -6.0701
    -6.0185  -6.0117  -5.7833  -5.7324  -5.6958  -5.6774  -5.6464  -5.6411
    -5.5525  -5.5356  -5.5239  -5.5133  -5.5048  -5.4723  -5.4233  -5.2809
    -5.2725  -5.2658  -5.2601  -5.0780  -5.0234  -4.9591  -4.9145  -4.8148
    -4.6539  -4.5957  -3.6894  -3.3901  -3.3773  -2.1708  -1.8328  -1.7776
    -0.7721  -0.3074  -0.1323  -0.0208   0.0794   0.3166   0.6758   1.1761
     1.4306

     occupation numbers 
     1.0000   1.0000   1.0000   1.0000   1.0000   1.0000   1.0000   1.0000
     1.0000   1.0000   1.0000   1.0000   1.0000   1.0000   1.0000   1.0000
     1.0000   1.0000   1.0000   1.0000   1.0000   1.0000   1.0000   1.0000
     1.0000   1.0000   1.0000   1.0000   1.0000   1.0000   1.0000   1.0000
     1.0000   1.0000   1.0000   1.0000   1.0000   1.0000   1.0000   1.0000
     1.0000   1.0000   1.0000   1.0000   1.0000   1.0000   1.0000   1.0000
     1.0000   1.0000   1.0000   1.0000   1.0000   1.0000   1.0000   1.0000
     1.0000   1.0000   1.0000   1.0000   1.0000   1.0000   1.0000   1.0000
     1.0000   1.0000   1.0000   1.0000   1.0000   1.0000   1.0000   1.0000
     1.0000   1.0000   1.0000   1.0000   1.0000   1.0000   1.0000   1.0000
     1.0000   1.0000   1.0000   1.0000   1.0000   1.0000   1.0000   1.0000
     1.0000   1.0000   1.0000   1.0000   1.0000   1.0000   1.0000   1.0000
     1.0000   1.0000   1.0000   1.0000   1.0000   1.0000   1.0000   1.0000
     1.0000   1.0001   1.0101   1.0222   1.0353   1.0432   1.0575   1.0600
     1.0824   1.0776   1.0714   1.0637   1.0558   1.0115   0.8992   0.3976
     0.3696   0.3478   0.3296   0.0276   0.0097   0.0023   0.0008   0.0000
     0.0000   0.0000   0.0000   0.0000   0.0000   0.0000   0.0000   0.0000
     0.0000   0.0000   0.0000   0.0000   0.0000   0.0000   0.0000   0.0000
     0.0000

          k =-0.5000 0.6495 0.0000 ( 44502 PWs)   bands (ev):

   -11.6452 -11.1491 -10.6022 -10.4897 -10.2364 -10.2020 -10.1793 -10.1519
   -10.1141 -10.0140  -9.9717  -9.9442  -9.8983  -9.8893  -9.8213  -9.8026
    -9.7848  -9.7117  -9.6353  -9.6327  -9.6204  -9.6077  -9.5976  -9.4667
    -9.4504  -9.4222  -9.3851  -9.2779  -9.2407  -9.2132  -9.1838  -9.1332
    -9.0926  -9.0808  -9.0710  -9.0262  -8.9896  -8.8846  -8.8688  -8.8566
    -8.8088  -8.7113  -8.6764  -8.6379  -8.6141  -8.5245  -8.4689  -8.3611
    -8.3416  -8.3301  -8.3207  -8.2529  -8.2257  -8.2053  -8.1218  -8.0586
    -8.0163  -7.9867  -7.9487  -7.9142  -7.9040  -7.8646  -7.8235  -7.8149
    -7.7607  -7.7395  -7.6908  -7.6578  -7.6362  -7.5798  -7.5148  -7.4550
    -7.4353  -7.4051  -7.3442  -7.3026  -7.2716  -7.2179  -7.1919  -7.1749
    -7.1465  -7.0781  -6.9932  -6.9316  -6.9042  -6.8925  -6.8870  -6.8299
    -6.7983  -6.7756  -6.6842  -6.6364  -6.6136  -6.5997  -6.5192  -6.4442
    -6.4251  -6.3644  -6.3105  -6.2923  -6.1897  -6.1579  -6.1024  -6.0974
    -6.0691  -6.0260  -5.8957  -5.8798  -5.7188  -5.7116  -5.6910  -5.6630
    -5.5974  -5.4872  -5.4754  -5.4641  -5.4397  -5.4340  -5.3933  -5.3693
    -5.3604  -5.3014  -5.2966  -5.1865  -5.1749  -5.1537  -4.7696  -4.5165
    -4.4182  -4.1319  -3.8747  -3.4494  -2.9879  -2.3288  -1.9345  -1.4189
    -0.7876  -0.6579  -0.5179  -0.3137   0.1260   0.3714   0.7807   1.0511
     1.3544

     occupation numbers 
     1.0000   1.0000   1.0000   1.0000   1.0000   1.0000   1.0000   1.0000
     1.0000   1.0000   1.0000   1.0000   1.0000   1.0000   1.0000   1.0000
     1.0000   1.0000   1.0000   1.0000   1.0000   1.0000   1.0000   1.0000
     1.0000   1.0000   1.0000   1.0000   1.0000   1.0000   1.0000   1.0000
     1.0000   1.0000   1.0000   1.0000   1.0000   1.0000   1.0000   1.0000
     1.0000   1.0000   1.0000   1.0000   1.0000   1.0000   1.0000   1.0000
     1.0000   1.0000   1.0000   1.0000   1.0000   1.0000   1.0000   1.0000
     1.0000   1.0000   1.0000   1.0000   1.0000   1.0000   1.0000   1.0000
     1.0000   1.0000   1.0000   1.0000   1.0000   1.0000   1.0000   1.0000
     1.0000   1.0000   1.0000   1.0000   1.0000   1.0000   1.0000   1.0000
     1.0000   1.0000   1.0000   1.0000   1.0000   1.0000   1.0000   1.0000
     1.0000   1.0000   1.0000   1.0000   1.0000   1.0000   1.0000   1.0000
     1.0000   1.0000   1.0000   1.0000   1.0000   1.0000   1.0000   1.0000
     1.0000   1.0000   1.0011   1.0016   1.0266   1.0291   1.0373   1.0498
     1.0778   1.0347   1.0166   0.9964   0.9428   0.9283   0.8066   0.7226
     0.6901   0.4700   0.4526   0.1455   0.1250   0.0933   0.0000   0.0000
     0.0000   0.0000   0.0000   0.0000   0.0000   0.0000   0.0000   0.0000
     0.0000   0.0000   0.0000   0.0000   0.0000   0.0000   0.0000   0.0000
     0.0000

          k =-0.5000 0.7217 0.0000 ( 44477 PWs)   bands (ev):

   -11.6448 -11.1064 -10.6529 -10.5855 -10.3351 -10.1800 -10.1531 -10.1397
   -10.1073 -10.0907  -9.9881  -9.9550  -9.9203  -9.8983  -9.8219  -9.8135
    -9.7289  -9.6506  -9.6367  -9.6240  -9.6145  -9.5866  -9.5381  -9.4435
    -9.4318  -9.4014  -9.3520  -9.3275  -9.2590  -9.2338  -9.1595  -9.1251
    -9.1112  -9.0863  -9.0328  -9.0020  -8.9246  -8.9014  -8.8731  -8.8610
    -8.8108  -8.6827  -8.6745  -8.6217  -8.5754  -8.5633  -8.4838  -8.4036
    -8.3431  -8.3155  -8.3052  -8.2064  -8.1647  -8.1366  -8.0585  -8.0175
    -8.0010  -7.9655  -7.9492  -7.9135  -7.8802  -7.8279  -7.8044  -7.7802
    -7.7234  -7.7072  -7.6506  -7.6331  -7.6063  -7.5744  -7.5263  -7.5004
    -7.4606  -7.3940  -7.3460  -7.3119  -7.2668  -7.2350  -7.2081  -7.1745
    -7.1510  -7.0861  -7.0155  -6.9530  -6.9368  -6.8940  -6.8776  -6.8150
    -6.8053  -6.7110  -6.6912  -6.6696  -6.6535  -6.6058  -6.5464  -6.5062
    -6.4862  -6.4181  -6.3733  -6.3583  -6.3128  -6.2184  -6.1790  -6.1305
    -6.1113  -6.0852  -6.0453  -5.9945  -5.9647  -5.7951  -5.7728  -5.7488
    -5.7261  -5.6151  -5.5749  -5.4432  -5.4373  -5.3967  -5.3385  -5.3175
    -5.3058  -5.2725  -5.2493  -5.2416  -5.0782  -5.0691  -4.7738  -4.2492
    -3.9550  -3.8446  -3.5306  -3.3136  -2.6867  -2.3664  -1.8596  -1.3905
    -1.1604  -0.9358  -0.7781  -0.5626  -0.4393   0.3669   0.6257   0.8755
     1.5282

     occupation numbers 
     1.0000   1.0000   1.0000   1.0000   1.0000   1.0000   1.0000   1.0000
     1.0000   1.0000   1.0000   1.0000   1.0000   1.0000   1.0000   1.0000
     1.0000   1.0000   1.0000   1.0000   1.0000   1.0000   1.0000   1.0000
     1.0000   1.0000   1.0000   1.0000   1.0000   1.0000   1.0000   1.0000
     1.0000   1.0000   1.0000   1.0000   1.0000   1.0000   1.0000   1.0000
     1.0000   1.0000   1.0000   1.0000   1.0000   1.0000   1.0000   1.0000
     1.0000   1.0000   1.0000   1.0000   1.0000   1.0000   1.0000   1.0000
     1.0000   1.0000   1.0000   1.0000   1.0000   1.0000   1.0000   1.0000
     1.0000   1.0000   1.0000   1.0000   1.0000   1.0000   1.0000   1.0000
     1.0000   1.0000   1.0000   1.0000   1.0000   1.0000   1.0000   1.0000
     1.0000   1.0000   1.0000   1.0000   1.0000   1.0000   1.0000   1.0000
     1.0000   1.0000   1.0000   1.0000   1.0000   1.0000   1.0000   1.0000
     1.0000   1.0000   1.0000   1.0000   1.0000   1.0000   1.0000   1.0000
     1.0000   1.0000   1.0000   1.0001   1.0002   1.0083   1.0121   1.0175
     1.0241   1.0715   1.0827   0.9514   0.9368   0.8178   0.6081   0.5292
     0.4860   0.3695   0.2968   0.2746   0.0277   0.0235   0.0000   0.0000
     0.0000   0.0000   0.0000   0.0000   0.0000   0.0000   0.0000   0.0000
     0.0000   0.0000   0.0000   0.0000   0.0000   0.0000   0.0000   0.0000
     0.0000

          k =-0.5000 0.7939 0.0000 ( 44516 PWs)   bands (ev):

   -11.6445 -11.0340 -10.8023 -10.5575 -10.4294 -10.2087 -10.1597 -10.1163
   -10.1142 -10.0657 -10.0216 -10.0043  -9.9393  -9.8848  -9.8539  -9.7789
    -9.7025  -9.6835  -9.6463  -9.5828  -9.5655  -9.5113  -9.4779  -9.4599
    -9.4427  -9.4111  -9.3759  -9.3068  -9.2804  -9.2395  -9.1374  -9.1262
    -9.1054  -9.0496  -8.9884  -8.9663  -8.9406  -8.8929  -8.8620  -8.8352
    -8.7973  -8.7042  -8.6872  -8.5891  -8.5760  -8.5256  -8.4862  -8.4452
    -8.3950  -8.2932  -8.2790  -8.1834  -8.1561  -8.0971  -8.0343  -7.9900
    -7.9489  -7.9284  -7.9266  -7.8684  -7.8404  -7.8238  -7.7521  -7.7094
    -7.6829  -7.6491  -7.6381  -7.6001  -7.5895  -7.5468  -7.5002  -7.4895
    -7.4571  -7.4359  -7.4104  -7.3313  -7.2711  -7.2285  -7.2104  -7.1894
    -7.1242  -7.0580  -7.0404  -6.9936  -6.9518  -6.9238  -6.8761  -6.8562
    -6.7634  -6.7457  -6.6942  -6.6705  -6.6366  -6.6221  -6.5817  -6.5628
    -6.5446  -6.5143  -6.4781  -6.4335  -6.4174  -6.3574  -6.3263  -6.2354
    -6.1994  -6.1819  -6.1295  -6.0132  -5.9923  -5.9295  -5.8760  -5.8450
    -5.8007  -5.7122  -5.5254  -5.4697  -5.4150  -5.3795  -5.2553  -5.2427
    -5.2262  -5.2202  -5.1862  -5.1732  -5.0032  -4.9971  -4.7607  -4.4476
    -3.4717  -3.3429  -3.1574  -2.9273  -2.6948  -2.0983  -1.9646  -1.7182
    -1.5914  -1.2830  -1.1177  -0.4537  -0.2584  -0.1874   0.2428   1.0265
     1.4164

     occupation numbers 
     1.0000   1.0000   1.0000   1.0000   1.0000   1.0000   1.0000   1.0000
     1.0000   1.0000   1.0000   1.0000   1.0000   1.0000   1.0000   1.0000
     1.0000   1.0000   1.0000   1.0000   1.0000   1.0000   1.0000   1.0000
     1.0000   1.0000   1.0000   1.0000   1.0000   1.0000   1.0000   1.0000
     1.0000   1.0000   1.0000   1.0000   1.0000   1.0000   1.0000   1.0000
     1.0000   1.0000   1.0000   1.0000   1.0000   1.0000   1.0000   1.0000
     1.0000   1.0000   1.0000   1.0000   1.0000   1.0000   1.0000   1.0000
     1.0000   1.0000   1.0000   1.0000   1.0000   1.0000   1.0000   1.0000
     1.0000   1.0000   1.0000   1.0000   1.0000   1.0000   1.0000   1.0000
     1.0000   1.0000   1.0000   1.0000   1.0000   1.0000   1.0000   1.0000
     1.0000   1.0000   1.0000   1.0000   1.0000   1.0000   1.0000   1.0000
     1.0000   1.0000   1.0000   1.0000   1.0000   1.0000   1.0000   1.0000
     1.0000   1.0000   1.0000   1.0000   1.0000   1.0000   1.0000   1.0000
     1.0000   1.0000   1.0000   1.0001   1.0001   1.0005   1.0017   1.0032
     1.0075   1.0289   1.0723   1.0068   0.8753   0.7591   0.3148   0.2777
     0.2329   0.2180   0.1449   0.1222   0.0063   0.0056   0.0000   0.0000
     0.0000   0.0000   0.0000   0.0000   0.0000   0.0000   0.0000   0.0000
     0.0000   0.0000   0.0000   0.0000   0.0000   0.0000   0.0000   0.0000
     0.0000

          k =-0.5000-0.2887 0.0000 ( 44486 PWs)   bands (ev):

   -11.6444 -10.9390 -10.9245 -10.5208 -10.4899 -10.2081 -10.1939 -10.0810
   -10.0787 -10.0756 -10.0717 -10.0121  -9.9468  -9.8787  -9.8727  -9.7351
    -9.7209  -9.6778  -9.6744  -9.5572  -9.5350  -9.5071  -9.4846  -9.4208
    -9.4154  -9.4103  -9.3758  -9.3410  -9.3370  -9.2292  -9.1714  -9.0480
    -9.0477  -9.0445  -9.0422  -8.9341  -8.9210  -8.9049  -8.8670  -8.7791
    -8.7702  -8.7454  -8.7400  -8.5807  -8.5498  -8.5137  -8.4974  -8.4364
    -8.4321  -8.2798  -8.2705  -8.1833  -8.1445  -8.0694  -8.0429  -7.9684
    -7.9653  -7.9249  -7.9204  -7.8481  -7.8465  -7.7593  -7.7077  -7.7013
    -7.6945  -7.6156  -7.6078  -7.5949  -7.5346  -7.5209  -7.5175  -7.4809
    -7.4579  -7.4372  -7.4312  -7.3576  -7.2644  -7.2423  -7.1740  -7.1598
    -7.1231  -7.1140  -7.0105  -7.0101  -6.9764  -6.9565  -6.8522  -6.8261
    -6.8055  -6.7953  -6.7086  -6.6817  -6.6600  -6.6317  -6.6082  -6.5544
    -6.5504  -6.5116  -6.4901  -6.4787  -6.4786  -6.4700  -6.3301  -6.3261
    -6.2697  -6.2389  -6.1216  -6.1024  -5.9392  -5.9052  -5.8796  -5.8595
    -5.8371  -5.7910  -5.5114  -5.4618  -5.4032  -5.3738  -5.2149  -5.2109
    -5.2091  -5.1953  -5.1572  -5.1521  -4.9753  -4.9724  -4.7373  -4.5459
    -3.3727  -3.0180  -2.7394  -2.7311  -2.5687  -2.4785  -2.1426  -1.9280
    -1.5593  -1.3660  -1.0364  -0.9277  -0.1693  -0.0403   0.3360   0.4734
     1.8660

     occupation numbers 
     1.0000   1.0000   1.0000   1.0000   1.0000   1.0000   1.0000   1.0000
     1.0000   1.0000   1.0000   1.0000   1.0000   1.0000   1.0000   1.0000
     1.0000   1.0000   1.0000   1.0000   1.0000   1.0000   1.0000   1.0000
     1.0000   1.0000   1.0000   1.0000   1.0000   1.0000   1.0000   1.0000
     1.0000   1.0000   1.0000   1.0000   1.0000   1.0000   1.0000   1.0000
     1.0000   1.0000   1.0000   1.0000   1.0000   1.0000   1.0000   1.0000
     1.0000   1.0000   1.0000   1.0000   1.0000   1.0000   1.0000   1.0000
     1.0000   1.0000   1.0000   1.0000   1.0000   1.0000   1.0000   1.0000
     1.0000   1.0000   1.0000   1.0000   1.0000   1.0000   1.0000   1.0000
     1.0000   1.0000   1.0000   1.0000   1.0000   1.0000   1.0000   1.0000
     1.0000   1.0000   1.0000   1.0000   1.0000   1.0000   1.0000   1.0000
     1.0000   1.0000   1.0000   1.0000   1.0000   1.0000   1.0000   1.0000
     1.0000   1.0000   1.0000   1.0000   1.0000   1.0000   1.0000   1.0000
     1.0000   1.0000   1.0000   1.0000   1.0004   1.0009   1.0016   1.0024
     1.0038   1.0089   1.0620   0.9920   0.8388   0.7387   0.2053   0.1960
     0.1920   0.1624   0.0981   0.0912   0.0034   0.0032   0.0000   0.0000
     0.0000   0.0000   0.0000   0.0000   0.0000   0.0000   0.0000   0.0000
     0.0000   0.0000   0.0000   0.0000   0.0000   0.0000   0.0000   0.0000
     0.0000

     the Fermi energy is    -5.2818 ev

!    total energy              =   -7950.21028944 Ry
     total all-electron energy =   -242212.992074 Ry
     estimated scf accuracy    <          6.9E-11 Ry
     smearing contrib. (-TS)   =       0.00368675 Ry
     internal energy E=F+TS    =   -7950.21397620 Ry

     The total energy is F=E-TS. E is the sum of the following terms:
     one-electron contribution =  -58310.05606886 Ry
     hartree contribution      =   29338.73142387 Ry
     xc contribution           =    -779.78356702 Ry
     ewald contribution        =   27965.43485997 Ry
     DFT-D3 Dispersion         =      -2.83662238 Ry
     one-center paw contrib.   =   -6161.70400176 Ry
      -> PAW hartree energy AE =      58.95938913 Ry
      -> PAW hartree energy PS =     -60.37976581 Ry
      -> PAW xc energy AE      =    -287.72429621 Ry
      -> PAW xc energy PS      =      32.40908450 Ry
      -> total E_H with PAW    =   29337.31104719 Ry
      -> total E_XC with PAW   =   -1035.09877874 Ry

     total magnetization       =     3.92 Bohr mag/cell
     absolute magnetization    =     4.13 Bohr mag/cell

     convergence has been achieved in  68 iterations

     negative rho (up, down):  7.405E-06 7.412E-06

     Forces acting on atoms (cartesian axes, Ry/au):

     atom    1 type  1   force =     0.00004197    0.00002016   -0.00601975
     atom    2 type  1   force =    -0.00004194    0.00002012   -0.00601972
     atom    3 type  1   force =    -0.00000002    0.00000411   -0.00594204
     atom    4 type  1   force =    -0.00000000   -0.00004435   -0.00601932
     atom    5 type  1   force =    -0.00072862   -0.00042572    0.00580184
     atom    6 type  1   force =    -0.00000004    0.00000502    0.00662400
     atom    7 type  1   force =     0.00072858   -0.00042576    0.00580186
     atom    8 type  1   force =    -0.00000001    0.00084643    0.00580134
     atom    9 type  1   force =     0.00000001    0.00000003   -0.00030622
     atom   10 type  1   force =    -0.00000271   -0.00000156    0.00017897
     atom   11 type  1   force =     0.00000273   -0.00000163    0.00017897
     atom   12 type  1   force =     0.00000004    0.00000317    0.00017892
     atom   13 type  1   force =    -0.00001240   -0.00000726   -0.00009335
     atom   14 type  1   force =    -0.00000005    0.00000008   -0.00002300
     atom   15 type  1   force =     0.00001242   -0.00000721   -0.00009330
     atom   16 type  1   force =     0.00000002    0.00001439   -0.00009341
     atom   17 type  1   force =     0.00000663    0.00000379   -0.00014242
     atom   18 type  1   force =    -0.00000003    0.00000002    0.00055083
     atom   19 type  1   force =    -0.00000659    0.00000389   -0.00014246
     atom   20 type  1   force =     0.00000006   -0.00000767   -0.00014266
     atom   21 type  1   force =     0.00039332    0.00022715   -0.00006065
     atom   22 type  1   force =     0.00000004   -0.00000002   -0.00003704
     atom   23 type  1   force =    -0.00039337    0.00022716   -0.00006064
     atom   24 type  1   force =    -0.00000001   -0.00045427   -0.00006073
     atom   25 type  2   force =    -0.00000002   -0.00000006    0.00013997
     The non-local contrib.  to forces
     atom    1 type  1   force =    -0.00165082   -0.00095554   -0.11196377
     atom    2 type  1   force =     0.00165080   -0.00095553   -0.11196382
     atom    3 type  1   force =     0.00000000    0.00000246   -0.11046711
     atom    4 type  1   force =     0.00000001    0.00190864   -0.11196328
     atom    5 type  1   force =    -0.00028764   -0.00016842    0.01531669
     atom    6 type  1   force =     0.00000002    0.00000238    0.01616408
     atom    7 type  1   force =     0.00028764   -0.00016842    0.01531669
     atom    8 type  1   force =    -0.00000001    0.00033449    0.01531614
     atom    9 type  1   force =    -0.00000002    0.00000001   -0.00004346
     atom   10 type  1   force =     0.00108742    0.00062781    0.00031630
     atom   11 type  1   force =    -0.00108743    0.00062783    0.00031629
     atom   12 type  1   force =     0.00000000   -0.00125566    0.00031605
     atom   13 type  1   force =     0.00005330    0.00003072   -0.00167833
     atom   14 type  1   force =     0.00000001    0.00000004   -0.00446884
     atom   15 type  1   force =    -0.00005330    0.00003074   -0.00167836
     atom   16 type  1   force =     0.00000001   -0.00006151   -0.00167842
     atom   17 type  1   force =    -0.00248309   -0.00143363   -0.00778601
     atom   18 type  1   force =    -0.00000003    0.00000001   -0.00714628
     atom   19 type  1   force =     0.00248307   -0.00143362   -0.00778602
     atom   20 type  1   force =    -0.00000000    0.00286723   -0.00778612
     atom   21 type  1   force =     0.00047905    0.00027660    0.08477247
     atom   22 type  1   force =    -0.00000000   -0.00000002    0.11391763
     atom   23 type  1   force =    -0.00047904    0.00027662    0.08477241
     atom   24 type  1   force =     0.00000000   -0.00055316    0.08477238
     atom   25 type  2   force =     0.00000001    0.00000002   -0.01823187
     The ionic contribution  to forces
     atom    1 type  1   force =     0.00099980    0.00040968 -277.64610198
     atom    2 type  1   force =    -0.00099980    0.00040967 -277.64610197
     atom    3 type  1   force =     0.00000000    0.00016757 -277.64516901
     atom    4 type  1   force =    -0.00000000   -0.00098691 -277.64589334
     atom    5 type  1   force =    -0.01477111   -0.00868719 -167.39413996
     atom    6 type  1   force =     0.00000003    0.00015909 -167.37841254
     atom    7 type  1   force =     0.01477112   -0.00868729 -167.39414018
     atom    8 type  1   force =     0.00000000    0.01721530 -167.39392648
     atom    9 type  1   force =    -0.00000033   -0.00001922  -56.89083757
     atom   10 type  1   force =    -0.00066677   -0.00036610  -56.67295056
     atom   11 type  1   force =     0.00066676   -0.00036597  -56.67295011
     atom   12 type  1   force =     0.00000039    0.00075080  -56.67276736
     atom   13 type  1   force =     0.01107776    0.00640011   53.92761324
     atom   14 type  1   force =     0.00000001   -0.00000428   54.02309514
     atom   15 type  1   force =    -0.01107782    0.00639999   53.92761015
     atom   16 type  1   force =    -0.00000009   -0.01279613   53.92759174
     atom   17 type  1   force =    -0.00964022   -0.00556516  164.54701622
     atom   18 type  1   force =     0.00000008   -0.00000005  164.75112810
     atom   19 type  1   force =     0.00964025   -0.00556506  164.54701912
     atom   20 type  1   force =    -0.00000009    0.01113077  164.54704940
     atom   21 type  1   force =    -0.53513183   -0.30895710  275.26844074
     atom   22 type  1   force =    -0.00000001   -0.00000106  275.08065389
     atom   23 type  1   force =     0.53513189   -0.30895678  275.26843587
     atom   24 type  1   force =     0.00000015    0.61791607  275.26842931
     atom   25 type  2   force =    -0.00000015   -0.00000073   31.96930816
     The local contribution  to forces
     atom    1 type  1   force =     0.00065766    0.00054512  277.70893699
     atom    2 type  1   force =    -0.00065767    0.00054513  277.70893695
     atom    3 type  1   force =    -0.00000001   -0.00016543  277.70688532
     atom    4 type  1   force =     0.00000000   -0.00092481  277.70872843
     atom    5 type  1   force =     0.01440631    0.00847338  167.38110806
     atom    6 type  1   force =    -0.00000007   -0.00015592  167.36531976
     atom    7 type  1   force =    -0.01440633    0.00847352  167.38110824
     atom    8 type  1   force =     0.00000005   -0.01679091  167.38089470
     atom    9 type  1   force =     0.00000030    0.00001916   56.89088517
     atom   10 type  1   force =    -0.00044807   -0.00027753   56.67344361
     atom   11 type  1   force =     0.00044808   -0.00027764   56.67344318
     atom   12 type  1   force =    -0.00000036    0.00053647   56.67326064
     atom   13 type  1   force =    -0.01107507   -0.00639850  -53.92611268
     atom   14 type  1   force =     0.00000004    0.00000426  -54.01853068
     atom   15 type  1   force =     0.01107513   -0.00639845  -53.92610955
     atom   16 type  1   force =     0.00000003    0.01279298  -53.92609124
     atom   17 type  1   force =     0.01231683    0.00711059 -164.53603019
     atom   18 type  1   force =     0.00000000    0.00000006 -164.73690089
     atom   19 type  1   force =    -0.01231686    0.00711037 -164.53603304
     atom   20 type  1   force =    -0.00000001   -0.01422146 -164.53606341
     atom   21 type  1   force =     0.52793325    0.30480100 -275.31475117
     atom   22 type  1   force =     0.00000001    0.00000109 -275.15456095
     atom   23 type  1   force =    -0.52793326    0.30480067 -275.31474617
     atom   24 type  1   force =    -0.00000014   -0.60960381 -275.31473969
     atom   25 type  2   force =     0.00000012    0.00000063  -31.94880553
     The core correction contribution to forces
     atom    1 type  1   force =     0.00003674    0.00002191    0.01712742
     atom    2 type  1   force =    -0.00003674    0.00002191    0.01712741
     atom    3 type  1   force =     0.00000000   -0.00000069    0.01683006
     atom    4 type  1   force =     0.00000000   -0.00004311    0.01712729
     atom    5 type  1   force =    -0.00006448   -0.00003650   -0.00079006
     atom    6 type  1   force =     0.00000000   -0.00000073   -0.00079142
     atom    7 type  1   force =     0.00006448   -0.00003649   -0.00079006
     atom    8 type  1   force =    -0.00000000    0.00007372   -0.00079006
     atom    9 type  1   force =    -0.00000000    0.00000000   -0.00033277
     atom   10 type  1   force =     0.00002267    0.00001308   -0.00054915
     atom   11 type  1   force =    -0.00002268    0.00001309   -0.00054915
     atom   12 type  1   force =    -0.00000000   -0.00002618   -0.00054922
     atom   13 type  1   force =    -0.00008034   -0.00004638    0.00018296
     atom   14 type  1   force =     0.00000000   -0.00000000    0.00007822
     atom   15 type  1   force =     0.00008034   -0.00004639    0.00018296
     atom   16 type  1   force =    -0.00000000    0.00009277    0.00018298
     atom   17 type  1   force =    -0.00012513   -0.00007224    0.00028187
     atom   18 type  1   force =     0.00000000   -0.00000000   -0.00250892
     atom   19 type  1   force =     0.00012512   -0.00007225    0.00028187
     atom   20 type  1   force =    -0.00000001    0.00014449    0.00028191
     atom   21 type  1   force =     0.00674495    0.00389420   -0.01258455
     atom   22 type  1   force =    -0.00000001   -0.00000001   -0.01464037
     atom   23 type  1   force =    -0.00674495    0.00389420   -0.01258455
     atom   24 type  1   force =     0.00000000   -0.00778840   -0.01258453
     atom   25 type  2   force =     0.00000000    0.00000000    0.00000000
     The Hubbard contrib.    to forces
     atom    1 type  1   force =     0.00000000    0.00000000    0.00000000
     atom    2 type  1   force =     0.00000000    0.00000000    0.00000000
     atom    3 type  1   force =     0.00000000    0.00000000    0.00000000
     atom    4 type  1   force =     0.00000000    0.00000000    0.00000000
     atom    5 type  1   force =     0.00000000    0.00000000    0.00000000
     atom    6 type  1   force =     0.00000000    0.00000000    0.00000000
     atom    7 type  1   force =     0.00000000    0.00000000    0.00000000
     atom    8 type  1   force =     0.00000000    0.00000000    0.00000000
     atom    9 type  1   force =     0.00000000    0.00000000    0.00000000
     atom   10 type  1   force =     0.00000000    0.00000000    0.00000000
     atom   11 type  1   force =     0.00000000    0.00000000    0.00000000
     atom   12 type  1   force =     0.00000000    0.00000000    0.00000000
     atom   13 type  1   force =     0.00000000    0.00000000    0.00000000
     atom   14 type  1   force =     0.00000000    0.00000000    0.00000000
     atom   15 type  1   force =     0.00000000    0.00000000    0.00000000
     atom   16 type  1   force =     0.00000000    0.00000000    0.00000000
     atom   17 type  1   force =     0.00000000    0.00000000    0.00000000
     atom   18 type  1   force =     0.00000000    0.00000000    0.00000000
     atom   19 type  1   force =     0.00000000    0.00000000    0.00000000
     atom   20 type  1   force =     0.00000000    0.00000000    0.00000000
     atom   21 type  1   force =     0.00000000    0.00000000    0.00000000
     atom   22 type  1   force =     0.00000000    0.00000000    0.00000000
     atom   23 type  1   force =     0.00000000    0.00000000    0.00000000
     atom   24 type  1   force =     0.00000000    0.00000000    0.00000000
     atom   25 type  2   force =     0.00000000    0.00000000    0.00000000
     The SCF correction term to forces
     atom    1 type  1   force =     0.00000000    0.00000000    0.00000000
     atom    2 type  1   force =     0.00000000    0.00000000    0.00000000
     atom    3 type  1   force =     0.00000000    0.00000000    0.00000000
     atom    4 type  1   force =     0.00000000    0.00000000    0.00000000
     atom    5 type  1   force =     0.00000000    0.00000000    0.00000000
     atom    6 type  1   force =     0.00000000    0.00000000    0.00000000
     atom    7 type  1   force =     0.00000000    0.00000000    0.00000000
     atom    8 type  1   force =     0.00000000    0.00000000    0.00000000
     atom    9 type  1   force =     0.00000007    0.00000006    0.00000134
     atom   10 type  1   force =    -0.00000006   -0.00000002    0.00000141
     atom   11 type  1   force =     0.00000011   -0.00000013    0.00000139
     atom   12 type  1   force =     0.00000002    0.00000014    0.00000145
     atom   13 type  1   force =     0.00000023    0.00000003    0.00000981
     atom   14 type  1   force =    -0.00000011    0.00000005    0.00000963
     atom   15 type  1   force =    -0.00000020    0.00000012    0.00000984
     atom   16 type  1   force =     0.00000008   -0.00000019    0.00000988
     atom   17 type  1   force =     0.00000018   -0.00000001    0.00001026
     atom   18 type  1   force =    -0.00000008   -0.00000000    0.00001025
     atom   19 type  1   force =    -0.00000010    0.00000020    0.00001020
     atom   20 type  1   force =     0.00000017   -0.00000021    0.00001016
     atom   21 type  1   force =     0.00000055    0.00000035    0.00000286
     atom   22 type  1   force =     0.00000006   -0.00000002    0.00000259
     atom   23 type  1   force =    -0.00000064    0.00000034    0.00000280
     atom   24 type  1   force =    -0.00000002   -0.00000077    0.00000281
     atom   25 type  2   force =     0.00000001    0.00000002    0.00000017

     DFT-D3 dispersion contribution to forces:
     atom    1 type  1   force =    -0.00000150   -0.00000108    0.02597204
     atom    2 type  1   force =     0.00000150   -0.00000108    0.02597204
     atom    3 type  1   force =    -0.00000000    0.00000021    0.02596905
     atom    4 type  1   force =     0.00000000    0.00000194    0.02597202
     atom    5 type  1   force =    -0.00001156   -0.00000689    0.00430227
     atom    6 type  1   force =    -0.00000000    0.00000021    0.00433908
     atom    7 type  1   force =     0.00001156   -0.00000689    0.00430227
     atom    8 type  1   force =     0.00000000    0.00001356    0.00430220
     atom    9 type  1   force =    -0.00000000    0.00000003    0.00001674
     atom   10 type  1   force =     0.00000210    0.00000119   -0.00008696
     atom   11 type  1   force =    -0.00000210    0.00000119   -0.00008696
     atom   12 type  1   force =     0.00000000   -0.00000240   -0.00008696
     atom   13 type  1   force =     0.00001173    0.00000677   -0.00011268
     atom   14 type  1   force =    -0.00000000    0.00000000   -0.00021081
     atom   15 type  1   force =    -0.00001173    0.00000677   -0.00011268
     atom   16 type  1   force =    -0.00000000   -0.00001354   -0.00011268
     atom   17 type  1   force =    -0.00006193   -0.00003576   -0.00363891
     atom   18 type  1   force =     0.00000000    0.00000000   -0.00403576
     atom   19 type  1   force =     0.00006193   -0.00003576   -0.00363892
     atom   20 type  1   force =    -0.00000000    0.00007151   -0.00363893
     atom   21 type  1   force =     0.00036736    0.00021210   -0.02594534
     atom   22 type  1   force =     0.00000000    0.00000000   -0.02541417
     atom   23 type  1   force =    -0.00036736    0.00021210   -0.02594534
     atom   24 type  1   force =     0.00000000   -0.00042419   -0.02594534
     atom   25 type  2   force =     0.00000000    0.00000000   -0.00213530

     Total force =     0.001110     Total SCF correction =     0.000029

     DFT-D3 dispersion Force =     0.074155


     Computing stress (Cartesian axis) and pressure


     negative rho (up, down):  7.405E-06 7.412E-06
          total   stress  (Ry/bohr**3)                   (kbar)     P=       -7.40
  -0.00008529  -0.00000000  -0.00000000          -12.55       -0.00       -0.00
  -0.00000000  -0.00008529   0.00000000           -0.00      -12.55        0.00
  -0.00000000   0.00000000   0.00001961           -0.00        0.00        2.89

     kinetic stress (kbar)  12115.20      0.00      0.00
                                0.00  12115.20     -0.00
                                0.00     -0.00  12280.92

     local   stress (kbar)**********      0.00      0.00
                                0.00**********     -0.00
                                0.00     -0.001525932.92

     nonloc. stress (kbar)  -4437.51     -0.00     -0.00
                               -0.00  -4437.51      0.00
                               -0.00      0.00  -4490.07

     hartree stress (kbar) 756838.06     -0.00     -0.00
                               -0.00 756838.06      0.00
                               -0.00      0.00-753172.63

     exc-cor stress (kbar)   9569.57     -0.00     -0.00
                               -0.00   9569.57     -0.00
                               -0.00     -0.00   9564.33

     corecor stress (kbar) -12753.41      0.00     -0.00
                                0.00 -12753.41      0.00
                               -0.00      0.00 -12766.71

     ewald   stress (kbar) 751094.66     -0.00     -0.00
                               -0.00 751094.66      0.00
                               -0.00      0.00-777283.70

     hubbard stress (kbar)      0.00      0.00      0.00
                                0.00      0.00      0.00
                                0.00      0.00      0.00

     DFT-D   stress (kbar)    -72.13     -0.00     -0.00
                               -0.00    -72.13      0.00
                               -0.00      0.00    -62.17

     XDM     stress (kbar)      0.00      0.00      0.00
                                0.00      0.00      0.00
                                0.00      0.00      0.00

     dft-nl  stress (kbar)      0.00      0.00      0.00
                                0.00      0.00      0.00
                                0.00      0.00      0.00

     TS-vdW  stress (kbar)      0.00      0.00      0.00
                                0.00      0.00      0.00
                                0.00      0.00      0.00

     MDB     stress (kbar)      0.00      0.00      0.00
                                0.00      0.00      0.00
                                0.00      0.00      0.00

     3D-RISM stress (kbar)      0.00      0.00      0.00
                                0.00      0.00      0.00
                                0.00      0.00      0.00


     Writing all to output data dir /tmpu/isholek_g/isholek/MIGUEL/QE/Hydrogen/111_2x2/SAVE/Pd_111_H2.save/ :
     XML data file, charge density, pseudopotentials, collected wavefunctions
 
     init_run     :     61.32s CPU     66.13s WALL (       1 calls)
     electrons    :  11789.54s CPU  12798.67s WALL (       1 calls)
     forces       :     20.12s CPU     20.32s WALL (       1 calls)
     force_dftd3  :      0.14s CPU      0.19s WALL (       1 calls)
     stress       :    168.25s CPU    169.57s WALL (       1 calls)
     stres_dftd3  :      0.14s CPU      0.14s WALL (       1 calls)

     Called by init_run:
     wfcinit      :     59.58s CPU     61.77s WALL (       1 calls)
     wfcinit:atom :      0.32s CPU      0.32s WALL (      33 calls)
     wfcinit:wfcr :     58.02s CPU     60.19s WALL (      33 calls)
     potinit      :      0.99s CPU      2.83s WALL (       1 calls)
     hinit0       :      0.31s CPU      1.00s WALL (       1 calls)

     Called by electrons:
     c_bands      :  10397.27s CPU  11288.87s WALL (      68 calls)
     sum_band     :   1273.10s CPU   1377.96s WALL (      68 calls)
     v_of_rho     :     28.82s CPU     31.87s WALL (      69 calls)
     v_h          :      0.90s CPU      1.03s WALL (      69 calls)
     v_xc         :     28.77s CPU     31.70s WALL (      71 calls)
     newd         :      6.15s CPU      6.70s WALL (      69 calls)
     PAW_pot      :     17.79s CPU     20.63s WALL (      69 calls)
     mix_rho      :     59.64s CPU     66.05s WALL (      68 calls)
     energy_dftd3 :      0.07s CPU      0.07s WALL (       1 calls)

     Called by c_bands:
     init_us_2    :     43.30s CPU     46.86s WALL (    4587 calls)
     init_us_2:cp :     43.23s CPU     46.81s WALL (    4587 calls)
     cegterg      :  10166.73s CPU  11024.70s WALL (    2244 calls)

     Called by sum_band:
     sum_band:wei :      2.36s CPU      2.46s WALL (      68 calls)
     sum_band:loo :   1259.31s CPU   1363.27s WALL (      68 calls)
     sum_band:buf :     10.57s CPU     11.70s WALL (    2244 calls)
     sum_band:ini :     20.96s CPU     22.95s WALL (    2244 calls)
     sum_band:cal :    260.44s CPU    276.23s WALL (    2244 calls)
     sum_band:bec :      1.47s CPU      1.68s WALL (    2244 calls)
     addusdens    :      6.21s CPU      6.60s WALL (      68 calls)
                                        0.00s GPU  (      68 calls)
     addusd:skk   :      0.09s CPU      0.11s WALL (     136 calls)
                                        0.00s GPU  (     136 calls)

     Called by *egterg:
     cdiaghg      :    403.75s CPU    438.86s WALL (   11197 calls)
     cegterg:over :   1123.74s CPU   1178.17s WALL (    8953 calls)
     cegterg:upda :    515.24s CPU    549.28s WALL (    8953 calls)
     cegterg:last :   1165.52s CPU   1234.19s WALL (    6231 calls)
     cdiaghg:chol :     23.14s CPU     25.27s WALL (   11197 calls)
     cdiaghg:inve :      6.28s CPU      7.05s WALL (   11197 calls)
     cdiaghg:para :     86.60s CPU     93.43s WALL (   22394 calls)
     h_psi        :   6041.37s CPU   6644.39s WALL (   11230 calls)
     s_psi        :    517.91s CPU    562.51s WALL (   11230 calls)
     g_psi        :     22.39s CPU     24.71s WALL (    8953 calls)

     Called by h_psi:
     h_psi:calbec :    891.94s CPU    952.88s WALL (   11230 calls)
     vloc_psi     :   4588.37s CPU   5079.20s WALL (   11230 calls)
     add_vuspsi   :    530.87s CPU    577.24s WALL (   11230 calls)

     General routines
     calbec       :   1188.48s CPU   1265.32s WALL (   13639 calls)
     fft          :     21.85s CPU     24.66s WALL (    1763 calls)
     ffts         :     21.26s CPU     23.86s WALL (    8381 calls)
     fftw         :   4564.12s CPU   4941.46s WALL ( 2417802 calls)
     interpolate  :      1.88s CPU      2.15s WALL (     138 calls)
 
     Parallel routines

     PAW routines
     PAW_pot      :     17.79s CPU     20.63s WALL (      69 calls)
 
     PWSCF        :      3h20m CPU      3h37m WALL

 
   This run was terminated on:   4:42: 3   8May2026            

=------------------------------------------------------------------------------=
   JOB DONE.
=------------------------------------------------------------------------------=
