
     Program PWSCF v.7.3 starts on 18Mar2026 at 16:34:56 

     This program is part of the open-source Quantum ESPRESSO suite
     for quantum simulation of materials; please cite
         "P. Giannozzi et al., J. Phys.:Condens. Matter 21 395502 (2009);
         "P. Giannozzi et al., J. Phys.:Condens. Matter 29 465901 (2017);
         "P. Giannozzi et al., J. Chem. Phys. 152 154105 (2020);
          URL http://www.quantum-espresso.org", 
     in publications or presentations arising from this work. More details at
     http://www.quantum-espresso.org/quote

     Parallel version (MPI), running on    16 processors

     MPI processes distributed on     1 nodes
     248367 MiB available memory on the printing compute node when the environment starts
 
     Reading input from NiPd_vac_32.5A.in

     Current dimensions of program PWSCF are:
     Max number of different atomic species (ntypx) = 10
     Max number of k-points (npk) =  40000
     Max angular momentum in pseudopotentials (lmaxx) =  4
     file Ni.upf: wavefunction(s)  4S 3D renormalized
     file Pd.upf: wavefunction(s)  5S 4D renormalized

     IMPORTANT: XC functional enforced from input :
     Exchange-correlation= PBE
                           (   1   4   3   4   0   0   0)
     Any further DFT definition will be discarded
     Please, verify this is what you really want

 
     R & G space division:  proc/nbgrp/npool/nimage =      16
     Subspace diagonalization in iterative solution of the eigenvalue problem:
     a serial algorithm will be used

 
     Parallelization info
     --------------------
     sticks:   dense  smooth     PW     G-vecs:    dense   smooth      PW
     Min         198      98     27                56760    20036    2929
     Max         199      99     28                56777    20067    2952
     Sum        3173    1581    443               908261   320927   47037
 
     Using Slab Decomposition
 

     Title: 
     NiPd vacuum test c=32.5 A                                                  


     bravais-lattice index     =            0
     lattice parameter (alat)  =       9.7088  a.u.
     unit-cell volume          =    5115.6397 (a.u.)^3
     number of atoms/cell      =           24
     number of atomic types    =            2
     number of electrons       =       240.00
     number of Kohn-Sham states=          144
     kinetic-energy cutoff     =      60.0000  Ry
     charge density cutoff     =     480.0000  Ry
     scf convergence threshold =      1.0E-08
     mixing beta               =       0.1000
     number of iterations used =           12  local-TF  mixing
     Exchange-correlation= PBE
                           (   1   4   3   4   0   0   0)

     celldm(1)=   9.708762  celldm(2)=   0.000000  celldm(3)=   0.000000
     celldm(4)=   0.000000  celldm(5)=   0.000000  celldm(6)=   0.000000

     crystal axes: (cart. coord. in units of alat)
               a(1) = (   1.000000   0.000000   0.000000 )  
               a(2) = (   0.000000   0.883670   0.000000 )  
               a(3) = (   0.000000   0.000000   6.325843 )  

     reciprocal axes: (cart. coord. in units 2 pi/alat)
               b(1) = (  1.000000  0.000000  0.000000 )  
               b(2) = (  0.000000  1.131644  0.000000 )  
               b(3) = (  0.000000  0.000000  0.158082 )  


     PseudoPot. # 1 for Ni read from file:
     /tmpu/isholek_g/isholek/MIGUEL/PP/PAW/Ni.upf
     MD5 check sum: d88365a95a5e142bd87181c2c8b16588
     Pseudo is Projector augmented-wave + core cor, Zval = 10.0
     Generated using "atomic" code by A. Dal Corso  v.5.0.2 svn rev. 9415
     Shape of augmentation charge: PSQ
     Using radial grid of 1195 points,  6 beta functions with: 
                l(1) =   0
                l(2) =   0
                l(3) =   1
                l(4) =   1
                l(5) =   2
                l(6) =   2
     Q(r) pseudized with 0 coefficients 


     PseudoPot. # 2 for Pd read from file:
     /tmpu/isholek_g/isholek/MIGUEL/PP/PAW/Pd.upf
     MD5 check sum: e9d6f14fd83b79f8105499163af174c9
     Pseudo is Projector augmented-wave + core cor, Zval = 10.0
     Generated using "atomic" code by A. Dal Corso  v.5.0.2 svn rev. 9415
     Shape of augmentation charge: PSQ
     Using radial grid of 1235 points,  6 beta functions with: 
                l(1) =   0
                l(2) =   0
                l(3) =   1
                l(4) =   1
                l(5) =   2
                l(6) =   2
     Q(r) pseudized with 0 coefficients 


     atomic species   valence    mass     pseudopotential
     Ni               10.00    58.69340     Ni( 1.00)
     Pd               10.00   106.42000     Pd( 1.00)

     Starting magnetic structure 
     atomic species   magnetization
     Ni              0.650
     Pd              0.100

     No symmetry found



   Cartesian axes

     site n.     atom                  positions (alat units)
         1        Ni     tau(   1) = (   0.0000000   0.0000000   2.1410544  )
         2        Pd     tau(   2) = (   0.7659447   0.4418349   2.1410544  )
         3        Pd     tau(   3) = (   0.5000000   0.0000000   2.1410544  )
         4        Ni     tau(   4) = (   0.2659447   0.4418349   2.1410544  )
         5        Pd     tau(   5) = (   0.2340553   0.1600746   2.5528726  )
         6        Pd     tau(   6) = (   0.5000000   0.6019096   2.5528726  )
         7        Ni     tau(   7) = (   0.7340553   0.1600746   2.5528726  )
         8        Ni     tau(   8) = (   1.0000000   0.6019096   2.5528726  )
         9        Ni     tau(   9) = (   0.4676141   0.3204482   2.9649918  )
        10        Ni     tau(  10) = (   0.7335589   0.7622830   2.9649917  )
        11        Pd     tau(  11) = (   0.9670748   0.3207728   2.9624338  )
        12        Pd     tau(  12) = (   1.2330195   0.7626077   2.9624338  )
        13        Ni     tau(  13) = (   0.9385204   0.0370052   3.3722310  )
        14        Pd     tau(  14) = (   0.7052687   0.4783564   3.3783033  )
        15        Pd     tau(  15) = (   0.4393240   0.0365214   3.3783033  )
        16        Ni     tau(  16) = (   1.2044652   0.4788400   3.3722309  )
        17        Ni     tau(  17) = (   0.9345827   0.6412849   3.7920127  )
        18        Pd     tau(  18) = (   0.1659461   0.2010702   3.7826626  )
        19        Pd     tau(  19) = (   0.4318909   0.6429051   3.7826626  )
        20        Ni     tau(  20) = (   0.6686379   0.1994500   3.7920128  )
        21        Pd     tau(  21) = (   0.9024647   0.3596623   4.2069143  )
        22        Ni     tau(  22) = (   0.6734731   0.7984492   4.1887321  )
        23        Ni     tau(  23) = (   0.4075286   0.3566142   4.1887318  )
        24        Pd     tau(  24) = (   1.1684093   0.8014971   4.2069143  )

     number of k points=    49  Marzari-Vanderbilt smearing, width (Ry)=  0.0100
                       cart. coord. in units 2pi/alat
        k(    1) = (   0.0000000   0.0000000   0.0000000), wk =   0.0204082
        k(    2) = (   0.0000000   0.1616635   0.0000000), wk =   0.0204082
        k(    3) = (   0.0000000   0.3233270   0.0000000), wk =   0.0204082
        k(    4) = (   0.0000000   0.4849904   0.0000000), wk =   0.0204082
        k(    5) = (   0.0000000  -0.4849904   0.0000000), wk =   0.0204082
        k(    6) = (   0.0000000  -0.3233270   0.0000000), wk =   0.0204082
        k(    7) = (   0.0000000  -0.1616635   0.0000000), wk =   0.0204082
        k(    8) = (   0.1428571   0.0000000   0.0000000), wk =   0.0204082
        k(    9) = (   0.1428571   0.1616635   0.0000000), wk =   0.0204082
        k(   10) = (   0.1428571   0.3233270   0.0000000), wk =   0.0204082
        k(   11) = (   0.1428571   0.4849904   0.0000000), wk =   0.0204082
        k(   12) = (   0.1428571  -0.4849904   0.0000000), wk =   0.0204082
        k(   13) = (   0.1428571  -0.3233270   0.0000000), wk =   0.0204082
        k(   14) = (   0.1428571  -0.1616635   0.0000000), wk =   0.0204082
        k(   15) = (   0.2857143   0.0000000   0.0000000), wk =   0.0204082
        k(   16) = (   0.2857143   0.1616635   0.0000000), wk =   0.0204082
        k(   17) = (   0.2857143   0.3233270   0.0000000), wk =   0.0204082
        k(   18) = (   0.2857143   0.4849904   0.0000000), wk =   0.0204082
        k(   19) = (   0.2857143  -0.4849904   0.0000000), wk =   0.0204082
        k(   20) = (   0.2857143  -0.3233270   0.0000000), wk =   0.0204082
        k(   21) = (   0.2857143  -0.1616635   0.0000000), wk =   0.0204082
        k(   22) = (   0.4285714   0.0000000   0.0000000), wk =   0.0204082
        k(   23) = (   0.4285714   0.1616635   0.0000000), wk =   0.0204082
        k(   24) = (   0.4285714   0.3233270   0.0000000), wk =   0.0204082
        k(   25) = (   0.4285714   0.4849904   0.0000000), wk =   0.0204082
        k(   26) = (   0.4285714  -0.4849904   0.0000000), wk =   0.0204082
        k(   27) = (   0.4285714  -0.3233270   0.0000000), wk =   0.0204082
        k(   28) = (   0.4285714  -0.1616635   0.0000000), wk =   0.0204082
        k(   29) = (  -0.4285714   0.0000000   0.0000000), wk =   0.0204082
        k(   30) = (  -0.4285714   0.1616635   0.0000000), wk =   0.0204082
        k(   31) = (  -0.4285714   0.3233270   0.0000000), wk =   0.0204082
        k(   32) = (  -0.4285714   0.4849904   0.0000000), wk =   0.0204082
        k(   33) = (  -0.4285714  -0.4849904   0.0000000), wk =   0.0204082
        k(   34) = (  -0.4285714  -0.3233270   0.0000000), wk =   0.0204082
        k(   35) = (  -0.4285714  -0.1616635   0.0000000), wk =   0.0204082
        k(   36) = (  -0.2857143   0.0000000   0.0000000), wk =   0.0204082
        k(   37) = (  -0.2857143   0.1616635   0.0000000), wk =   0.0204082
        k(   38) = (  -0.2857143   0.3233270   0.0000000), wk =   0.0204082
        k(   39) = (  -0.2857143   0.4849904   0.0000000), wk =   0.0204082
        k(   40) = (  -0.2857143  -0.4849904   0.0000000), wk =   0.0204082
        k(   41) = (  -0.2857143  -0.3233270   0.0000000), wk =   0.0204082
        k(   42) = (  -0.2857143  -0.1616635   0.0000000), wk =   0.0204082
        k(   43) = (  -0.1428571   0.0000000   0.0000000), wk =   0.0204082
        k(   44) = (  -0.1428571   0.1616635   0.0000000), wk =   0.0204082
        k(   45) = (  -0.1428571   0.3233270   0.0000000), wk =   0.0204082
        k(   46) = (  -0.1428571   0.4849904   0.0000000), wk =   0.0204082
        k(   47) = (  -0.1428571  -0.4849904   0.0000000), wk =   0.0204082
        k(   48) = (  -0.1428571  -0.3233270   0.0000000), wk =   0.0204082
        k(   49) = (  -0.1428571  -0.1616635   0.0000000), wk =   0.0204082

     Dense  grid:   908261 G-vectors     FFT dimensions: (  72,  60, 432)

     Smooth grid:   320927 G-vectors     FFT dimensions: (  48,  45, 320)

     Estimated max dynamical RAM per process >     826.03 MB

     Estimated total dynamical RAM >      12.91 GB
 ----2D----2D----2D----2D----2D----2D----2D----2D----2D----2D----2D----2D
  The code is running with the 2D cutoff
  Please refer to:
  Sohier, T., Calandra, M., & Mauri, F. (2017), 
  Density functional perturbation theory for gated two-dimensional heterostructu
 res:
  Theoretical developments and application to flexural phonons in graphene.
  Physical Review B, 96(7), 75448. https://doi.org/10.1103/PhysRevB.96.075448
 ----2D----2D----2D----2D----2D----2D----2D----2D----2D----2D----2D----2D

     Check: negative core charge=   -0.000002
     Generating pointlists ...
     new r_m :   0.1991 (alat units)  1.9329 (a.u.) for type    1
     new r_m :   0.2022 (alat units)  1.9634 (a.u.) for type    2

     Initial potential from superposition of free atoms

     starting charge     239.9907, renormalised to     240.0000

     negative rho (up, down):  2.667E-04 6.084E-05
     Starting wfcs are  216 randomized atomic wfcs
     Checking if some PAW data can be deallocated... 

     total cpu time spent up to now is      139.8 secs

     Self-consistent Calculation

     iteration #  1     ecut=    60.00 Ry     beta= 0.10
     CG style diagonalization
     ethr =  1.00E-02,  avg # of iterations =  2.1

     negative rho (up, down):  2.627E-04 2.932E-04

     total cpu time spent up to now is     1602.6 secs

     total energy              =   -6197.44687741 Ry
     estimated scf accuracy    <      37.54640135 Ry

     total magnetization       =    16.42 Bohr mag/cell
     absolute magnetization    =    16.42 Bohr mag/cell

     iteration #  2     ecut=    60.00 Ry     beta= 0.10
     CG style diagonalization
     ethr =  1.00E-02,  avg # of iterations =  3.0

     negative rho (up, down):  4.998E-04 8.822E-04

     total cpu time spent up to now is     3067.9 secs

     total energy              =   -6197.39761922 Ry
     estimated scf accuracy    <      22.24860674 Ry

     total magnetization       =    18.79 Bohr mag/cell
     absolute magnetization    =    18.79 Bohr mag/cell

     iteration #  3     ecut=    60.00 Ry     beta= 0.10
     CG style diagonalization
     ethr =  9.27E-03,  avg # of iterations =  3.0

     negative rho (up, down):  4.284E-04 7.814E-04

     total cpu time spent up to now is     4527.9 secs

     total energy              =   -6199.31975616 Ry
     estimated scf accuracy    <       2.79711617 Ry

     total magnetization       =    24.11 Bohr mag/cell
     absolute magnetization    =    24.17 Bohr mag/cell

     iteration #  4     ecut=    60.00 Ry     beta= 0.10
     CG style diagonalization
     ethr =  1.17E-03,  avg # of iterations =  4.0

     negative rho (up, down):  5.188E-04 9.276E-04

     total cpu time spent up to now is     6648.1 secs

     total energy              =   -6200.35290531 Ry
     estimated scf accuracy    <       3.57434088 Ry

     total magnetization       =    23.02 Bohr mag/cell
     absolute magnetization    =    23.08 Bohr mag/cell

     iteration #  5     ecut=    60.00 Ry     beta= 0.10
     CG style diagonalization
     ethr =  1.17E-03,  avg # of iterations =  3.0

     negative rho (up, down):  5.406E-05 1.625E-04

     total cpu time spent up to now is     8130.6 secs

     total energy              =   -6200.16555746 Ry
     estimated scf accuracy    <       5.07259958 Ry

     total magnetization       =    24.15 Bohr mag/cell
     absolute magnetization    =    24.25 Bohr mag/cell

     iteration #  6     ecut=    60.00 Ry     beta= 0.10
     CG style diagonalization
     ethr =  1.17E-03,  avg # of iterations =  3.0

     negative rho (up, down):  1.734E-05 8.394E-05

     total cpu time spent up to now is     9595.6 secs

     total energy              =   -6200.83207635 Ry
     estimated scf accuracy    <       1.38858003 Ry

     total magnetization       =    16.56 Bohr mag/cell
     absolute magnetization    =    17.00 Bohr mag/cell

     iteration #  7     ecut=    60.00 Ry     beta= 0.10
     CG style diagonalization
     ethr =  5.79E-04,  avg # of iterations =  3.1

     negative rho (up, down):  9.600E-07 2.210E-05

     total cpu time spent up to now is    11116.8 secs

     total energy              =   -6200.89328358 Ry
     estimated scf accuracy    <       0.99592494 Ry

     total magnetization       =    13.59 Bohr mag/cell
     absolute magnetization    =    14.56 Bohr mag/cell

     iteration #  8     ecut=    60.00 Ry     beta= 0.10
     CG style diagonalization
     ethr =  4.15E-04,  avg # of iterations =  3.2

     negative rho (up, down):  8.097E-07 1.673E-05

     total cpu time spent up to now is    12717.2 secs

     total energy              =   -6201.19161751 Ry
     estimated scf accuracy    <       1.21393340 Ry

     total magnetization       =    15.30 Bohr mag/cell
     absolute magnetization    =    16.73 Bohr mag/cell

     iteration #  9     ecut=    60.00 Ry     beta= 0.10
     CG style diagonalization
     ethr =  4.15E-04,  avg # of iterations =  3.0

     negative rho (up, down):  6.769E-07 1.550E-05

     total cpu time spent up to now is    14184.4 secs

     total energy              =   -6201.31403479 Ry
     estimated scf accuracy    <       1.26603684 Ry

     total magnetization       =    15.30 Bohr mag/cell
     absolute magnetization    =    16.66 Bohr mag/cell

     iteration # 10     ecut=    60.00 Ry     beta= 0.10
     CG style diagonalization
     ethr =  4.15E-04,  avg # of iterations =  3.0

     negative rho (up, down):  1.127E-05 8.081E-05

     total cpu time spent up to now is    15644.5 secs

     total energy              =   -6201.50124557 Ry
     estimated scf accuracy    <       2.04446177 Ry

     total magnetization       =    15.49 Bohr mag/cell
     absolute magnetization    =    16.95 Bohr mag/cell

     iteration # 11     ecut=    60.00 Ry     beta= 0.10
     CG style diagonalization
     ethr =  4.15E-04,  avg # of iterations =  3.0

     negative rho (up, down):  7.871E-05 2.121E-04

     total cpu time spent up to now is    17104.1 secs

     total energy              =   -6201.67647527 Ry
     estimated scf accuracy    <       3.94363042 Ry

     total magnetization       =    16.39 Bohr mag/cell
     absolute magnetization    =    17.85 Bohr mag/cell

     iteration # 12     ecut=    60.00 Ry     beta= 0.10
     CG style diagonalization
     ethr =  4.15E-04,  avg # of iterations =  3.0

     negative rho (up, down):  1.114E-04 2.538E-04

     total cpu time spent up to now is    18571.8 secs

     total energy              =   -6201.74196282 Ry
     estimated scf accuracy    <       4.81347969 Ry

     total magnetization       =    16.29 Bohr mag/cell
     absolute magnetization    =    17.91 Bohr mag/cell

     iteration # 13     ecut=    60.00 Ry     beta= 0.10
     CG style diagonalization
     ethr =  4.15E-04,  avg # of iterations =  3.0

     negative rho (up, down):  3.061E-04 5.019E-04

     total cpu time spent up to now is    20030.5 secs

     total energy              =   -6201.77167631 Ry
     estimated scf accuracy    <       5.06386476 Ry

     total magnetization       =    16.20 Bohr mag/cell
     absolute magnetization    =    17.82 Bohr mag/cell

     iteration # 14     ecut=    60.00 Ry     beta= 0.10
     CG style diagonalization
     ethr =  4.15E-04,  avg # of iterations =  3.0

     negative rho (up, down):  5.226E-04 7.707E-04

     total cpu time spent up to now is    21494.1 secs

     total energy              =   -6201.79622506 Ry
     estimated scf accuracy    <       4.93282446 Ry

     total magnetization       =    16.34 Bohr mag/cell
     absolute magnetization    =    17.97 Bohr mag/cell

     iteration # 15     ecut=    60.00 Ry     beta= 0.10
     CG style diagonalization
     ethr =  4.15E-04,  avg # of iterations =  3.0

     negative rho (up, down):  9.443E-04 1.254E-03

     total cpu time spent up to now is    22955.4 secs

     total energy              =   -6201.76935232 Ry
     estimated scf accuracy    <       4.81955656 Ry

     total magnetization       =    16.12 Bohr mag/cell
     absolute magnetization    =    17.76 Bohr mag/cell

     iteration # 16     ecut=    60.00 Ry     beta= 0.10
     CG style diagonalization
     ethr =  4.15E-04,  avg # of iterations =  3.0

     negative rho (up, down):  1.162E-03 1.234E-03

     total cpu time spent up to now is    24414.1 secs

     total energy              =   -6202.18312445 Ry
     estimated scf accuracy    <       4.58582031 Ry

     total magnetization       =    16.32 Bohr mag/cell
     absolute magnetization    =    17.89 Bohr mag/cell

     iteration # 17     ecut=    60.00 Ry     beta= 0.10
     CG style diagonalization
     ethr =  4.15E-04,  avg # of iterations =  4.4

     negative rho (up, down):  3.860E-06 6.454E-06

     total cpu time spent up to now is    26813.5 secs

     total energy              =   -6200.86806174 Ry
     estimated scf accuracy    <       7.07684039 Ry

     total magnetization       =    13.93 Bohr mag/cell
     absolute magnetization    =    16.43 Bohr mag/cell

     iteration # 18     ecut=    60.00 Ry     beta= 0.10
     CG style diagonalization
     ethr =  4.15E-04,  avg # of iterations =  4.4

     negative rho (up, down):  3.305E-08 1.386E-07

     total cpu time spent up to now is    29199.8 secs

     total energy              =   -6201.25128974 Ry
     estimated scf accuracy    <       2.03540655 Ry

     total magnetization       =    15.03 Bohr mag/cell
     absolute magnetization    =    16.51 Bohr mag/cell

     iteration # 19     ecut=    60.00 Ry     beta= 0.10
     CG style diagonalization
     ethr =  4.15E-04,  avg # of iterations =  3.0

     negative rho (up, down):  6.676E-07 7.204E-07

     total cpu time spent up to now is    30691.5 secs

     total energy              =   -6201.30732696 Ry
     estimated scf accuracy    <       1.51813262 Ry

     total magnetization       =    14.83 Bohr mag/cell
     absolute magnetization    =    16.30 Bohr mag/cell

     iteration # 20     ecut=    60.00 Ry     beta= 0.10
     CG style diagonalization
     ethr =  4.15E-04,  avg # of iterations =  3.0

     negative rho (up, down):  6.707E-05 6.588E-05

     total cpu time spent up to now is    32160.9 secs

     total energy              =   -6201.29851450 Ry
     estimated scf accuracy    <       1.36378406 Ry

     total magnetization       =    14.52 Bohr mag/cell
     absolute magnetization    =    15.98 Bohr mag/cell

     iteration # 21     ecut=    60.00 Ry     beta= 0.10
     CG style diagonalization
     ethr =  4.15E-04,  avg # of iterations =  3.0

     negative rho (up, down):  3.944E-04 3.813E-04

     total cpu time spent up to now is    33632.5 secs

     total energy              =   -6201.16863422 Ry
     estimated scf accuracy    <       0.81974097 Ry

     total magnetization       =    13.70 Bohr mag/cell
     absolute magnetization    =    15.19 Bohr mag/cell

     iteration # 22     ecut=    60.00 Ry     beta= 0.10
     CG style diagonalization
     ethr =  3.42E-04,  avg # of iterations =  3.0

     negative rho (up, down):  1.414E-05 1.411E-05

     total cpu time spent up to now is    35108.9 secs

     total energy              =   -6201.20265346 Ry
     estimated scf accuracy    <       0.20328829 Ry

     total magnetization       =    13.66 Bohr mag/cell
     absolute magnetization    =    14.83 Bohr mag/cell

     iteration # 23     ecut=    60.00 Ry     beta= 0.10
     CG style diagonalization
     ethr =  8.47E-05,  avg # of iterations =  4.0

     negative rho (up, down):  9.806E-06 9.567E-06

     total cpu time spent up to now is    37267.5 secs

     total energy              =   -6201.28635827 Ry
     estimated scf accuracy    <       0.41082955 Ry

     total magnetization       =    14.63 Bohr mag/cell
     absolute magnetization    =    15.91 Bohr mag/cell

     iteration # 24     ecut=    60.00 Ry     beta= 0.10
     CG style diagonalization
     ethr =  8.47E-05,  avg # of iterations =  3.0

     negative rho (up, down):  6.488E-05 6.186E-05

     total cpu time spent up to now is    38753.7 secs

     total energy              =   -6201.26033772 Ry
     estimated scf accuracy    <       0.38974315 Ry

     total magnetization       =    14.64 Bohr mag/cell
     absolute magnetization    =    15.92 Bohr mag/cell

     iteration # 25     ecut=    60.00 Ry     beta= 0.10
     CG style diagonalization
     ethr =  8.47E-05,  avg # of iterations =  3.0

     negative rho (up, down):  3.624E-05 3.494E-05

     total cpu time spent up to now is    40224.4 secs

     total energy              =   -6201.27163529 Ry
     estimated scf accuracy    <       0.12905616 Ry

     total magnetization       =    13.73 Bohr mag/cell
     absolute magnetization    =    15.05 Bohr mag/cell

     iteration # 26     ecut=    60.00 Ry     beta= 0.10
     CG style diagonalization
     ethr =  5.38E-05,  avg # of iterations =  3.0

     negative rho (up, down):  5.536E-05 5.306E-05

     total cpu time spent up to now is    41701.7 secs

     total energy              =   -6201.27957317 Ry
     estimated scf accuracy    <       0.20911887 Ry

     total magnetization       =    13.77 Bohr mag/cell
     absolute magnetization    =    15.14 Bohr mag/cell

     iteration # 27     ecut=    60.00 Ry     beta= 0.10
     CG style diagonalization
     ethr =  5.38E-05,  avg # of iterations =  3.0

     negative rho (up, down):  3.800E-05 3.686E-05

     total cpu time spent up to now is    43167.9 secs

     total energy              =   -6201.29875255 Ry
     estimated scf accuracy    <       0.18593214 Ry

     total magnetization       =    13.70 Bohr mag/cell
     absolute magnetization    =    15.07 Bohr mag/cell

     iteration # 28     ecut=    60.00 Ry     beta= 0.10
     CG style diagonalization
     ethr =  5.38E-05,  avg # of iterations =  3.0

     negative rho (up, down):  1.962E-04 1.919E-04

     total cpu time spent up to now is    44626.7 secs

     total energy              =   -6201.30984039 Ry
     estimated scf accuracy    <       0.35409970 Ry

     total magnetization       =    14.15 Bohr mag/cell
     absolute magnetization    =    15.45 Bohr mag/cell

     iteration # 29     ecut=    60.00 Ry     beta= 0.10
     CG style diagonalization
     ethr =  5.38E-05,  avg # of iterations =  3.0

     negative rho (up, down):  2.229E-04 2.179E-04

     total cpu time spent up to now is    46091.5 secs

     total energy              =   -6201.32500479 Ry
     estimated scf accuracy    <       0.28896296 Ry

     total magnetization       =    14.08 Bohr mag/cell
     absolute magnetization    =    15.35 Bohr mag/cell

     iteration # 30     ecut=    60.00 Ry     beta= 0.10
     CG style diagonalization
     ethr =  5.38E-05,  avg # of iterations =  3.0

     negative rho (up, down):  3.106E-04 2.995E-04

     total cpu time spent up to now is    47557.4 secs

     total energy              =   -6201.30910569 Ry
     estimated scf accuracy    <       0.29595081 Ry

     total magnetization       =    14.10 Bohr mag/cell
     absolute magnetization    =    15.34 Bohr mag/cell

     iteration # 31     ecut=    60.00 Ry     beta= 0.10
     CG style diagonalization
     ethr =  5.38E-05,  avg # of iterations =  3.0

     negative rho (up, down):  1.944E-04 1.871E-04

     total cpu time spent up to now is    49020.1 secs

     total energy              =   -6201.31031557 Ry
     estimated scf accuracy    <       0.21891687 Ry

     total magnetization       =    13.66 Bohr mag/cell
     absolute magnetization    =    14.92 Bohr mag/cell

     iteration # 32     ecut=    60.00 Ry     beta= 0.10
     CG style diagonalization
     ethr =  5.38E-05,  avg # of iterations =  3.0

     negative rho (up, down):  1.367E-04 1.311E-04

     total cpu time spent up to now is    50478.6 secs

     total energy              =   -6201.32088709 Ry
     estimated scf accuracy    <       0.19574002 Ry

     total magnetization       =    13.82 Bohr mag/cell
     absolute magnetization    =    15.06 Bohr mag/cell

     iteration # 33     ecut=    60.00 Ry     beta= 0.10
     CG style diagonalization
     ethr =  5.38E-05,  avg # of iterations =  3.0

     negative rho (up, down):  3.330E-04 3.170E-04

     total cpu time spent up to now is    51939.3 secs

     total energy              =   -6201.29211293 Ry
     estimated scf accuracy    <       0.21994905 Ry

     total magnetization       =    14.06 Bohr mag/cell
     absolute magnetization    =    15.27 Bohr mag/cell

     iteration # 34     ecut=    60.00 Ry     beta= 0.10
     CG style diagonalization
     ethr =  5.38E-05,  avg # of iterations =  3.0

     negative rho (up, down):  1.852E-04 1.756E-04

     total cpu time spent up to now is    53405.4 secs

     total energy              =   -6201.32240890 Ry
     estimated scf accuracy    <       0.15685312 Ry

     total magnetization       =    13.97 Bohr mag/cell
     absolute magnetization    =    15.19 Bohr mag/cell

     iteration # 35     ecut=    60.00 Ry     beta= 0.10
     CG style diagonalization
     ethr =  5.38E-05,  avg # of iterations =  3.0

     negative rho (up, down):  1.850E-04 1.713E-04

     total cpu time spent up to now is    54865.0 secs

     total energy              =   -6201.32739043 Ry
     estimated scf accuracy    <       0.27141535 Ry

     total magnetization       =    13.97 Bohr mag/cell
     absolute magnetization    =    15.16 Bohr mag/cell

     iteration # 36     ecut=    60.00 Ry     beta= 0.10
     CG style diagonalization
     ethr =  5.38E-05,  avg # of iterations =  3.0

     negative rho (up, down):  1.420E-04 1.310E-04

     total cpu time spent up to now is    56330.7 secs

     total energy              =   -6201.32376903 Ry
     estimated scf accuracy    <       0.29042879 Ry

     total magnetization       =    14.10 Bohr mag/cell
     absolute magnetization    =    15.31 Bohr mag/cell

     iteration # 37     ecut=    60.00 Ry     beta= 0.10
     CG style diagonalization
     ethr =  5.38E-05,  avg # of iterations =  3.0

     negative rho (up, down):  3.124E-04 2.913E-04

     total cpu time spent up to now is    57789.2 secs

     total energy              =   -6201.27834428 Ry
     estimated scf accuracy    <       0.26395046 Ry

     total magnetization       =    14.20 Bohr mag/cell
     absolute magnetization    =    15.37 Bohr mag/cell

     iteration # 38     ecut=    60.00 Ry     beta= 0.10
     CG style diagonalization
     ethr =  5.38E-05,  avg # of iterations =  3.0

     negative rho (up, down):  1.243E-04 1.174E-04

     total cpu time spent up to now is    59247.9 secs

     total energy              =   -6201.28901130 Ry
     estimated scf accuracy    <       0.13048585 Ry

     total magnetization       =    13.79 Bohr mag/cell
     absolute magnetization    =    14.98 Bohr mag/cell

     iteration # 39     ecut=    60.00 Ry     beta= 0.10
     CG style diagonalization
     ethr =  5.38E-05,  avg # of iterations =  3.0

     negative rho (up, down):  3.314E-04 3.262E-04

     total cpu time spent up to now is    60710.5 secs

     total energy              =   -6201.27379783 Ry
     estimated scf accuracy    <       0.13316319 Ry

     total magnetization       =    13.89 Bohr mag/cell
     absolute magnetization    =    15.08 Bohr mag/cell

     iteration # 40     ecut=    60.00 Ry     beta= 0.10
     CG style diagonalization
     ethr =  5.38E-05,  avg # of iterations =  3.0

     negative rho (up, down):  4.985E-04 4.760E-04

     total cpu time spent up to now is    62169.6 secs

     total energy              =   -6201.26026948 Ry
     estimated scf accuracy    <       0.09814688 Ry

     total magnetization       =    13.78 Bohr mag/cell
     absolute magnetization    =    15.03 Bohr mag/cell

     iteration # 41     ecut=    60.00 Ry     beta= 0.10
     CG style diagonalization
     ethr =  4.09E-05,  avg # of iterations =  3.0

     negative rho (up, down):  3.869E-04 2.801E-04

     total cpu time spent up to now is    63632.1 secs

     total energy              =   -6201.26235931 Ry
     estimated scf accuracy    <       0.05934918 Ry

     total magnetization       =    13.53 Bohr mag/cell
     absolute magnetization    =    14.84 Bohr mag/cell

     iteration # 42     ecut=    60.00 Ry     beta= 0.10
     CG style diagonalization
     ethr =  2.47E-05,  avg # of iterations =  3.0

     negative rho (up, down):  2.945E-03 9.015E-04

     total cpu time spent up to now is    65092.9 secs

     total energy              =   -6201.24796381 Ry
     estimated scf accuracy    <       0.04843591 Ry

     total magnetization       =    13.40 Bohr mag/cell
     absolute magnetization    =    14.78 Bohr mag/cell

     iteration # 43     ecut=    60.00 Ry     beta= 0.10
     CG style diagonalization
     ethr =  2.02E-05,  avg # of iterations =  3.5

     negative rho (up, down):  3.046E-03 1.538E-03

     total cpu time spent up to now is    66876.9 secs

     total energy              =   -6201.25422738 Ry
     estimated scf accuracy    <       0.02094765 Ry

     total magnetization       =    12.87 Bohr mag/cell
     absolute magnetization    =    14.73 Bohr mag/cell

     iteration # 44     ecut=    60.00 Ry     beta= 0.10
     CG style diagonalization
     c_bands:  1 eigenvalues not converged
     c_bands:  1 eigenvalues not converged
     c_bands:  1 eigenvalues not converged
     c_bands:  1 eigenvalues not converged
     ethr =  8.73E-06,  avg # of iterations =  3.5

     negative rho (up, down):  1.185E-03 6.720E-04

     total cpu time spent up to now is    68673.6 secs

     total energy              =   -6201.25822420 Ry
     estimated scf accuracy    <       0.01453433 Ry

     total magnetization       =    13.01 Bohr mag/cell
     absolute magnetization    =    14.95 Bohr mag/cell

     iteration # 45     ecut=    60.00 Ry     beta= 0.10
     CG style diagonalization
     c_bands:  1 eigenvalues not converged
     c_bands:  1 eigenvalues not converged
     ethr =  6.06E-06,  avg # of iterations =  3.2

     negative rho (up, down):  2.271E-07 1.938E-07

     total cpu time spent up to now is    70286.9 secs

     total energy              =   -6201.26447098 Ry
     estimated scf accuracy    <       0.00998151 Ry

     total magnetization       =    12.96 Bohr mag/cell
     absolute magnetization    =    14.79 Bohr mag/cell

     iteration # 46     ecut=    60.00 Ry     beta= 0.10
     CG style diagonalization
     c_bands:  1 eigenvalues not converged
     c_bands:  1 eigenvalues not converged
     c_bands:  1 eigenvalues not converged
     c_bands:  1 eigenvalues not converged
     ethr =  4.16E-06,  avg # of iterations =  3.3

     negative rho (up, down):  3.384E-07 3.067E-07

     total cpu time spent up to now is    71924.1 secs

     total energy              =   -6201.26523717 Ry
     estimated scf accuracy    <       0.00665909 Ry

     total magnetization       =    13.13 Bohr mag/cell
     absolute magnetization    =    14.77 Bohr mag/cell

     iteration # 47     ecut=    60.00 Ry     beta= 0.10
     CG style diagonalization
     c_bands:  1 eigenvalues not converged
     c_bands:  1 eigenvalues not converged
     c_bands:  1 eigenvalues not converged
     c_bands:  1 eigenvalues not converged
     ethr =  2.77E-06,  avg # of iterations =  3.7

     negative rho (up, down):  3.997E-07 3.792E-07

     total cpu time spent up to now is    73841.6 secs

     total energy              =   -6201.26402174 Ry
     estimated scf accuracy    <       0.00853786 Ry

     total magnetization       =    13.32 Bohr mag/cell
     absolute magnetization    =    14.86 Bohr mag/cell

     iteration # 48     ecut=    60.00 Ry     beta= 0.10
     CG style diagonalization
     c_bands:  1 eigenvalues not converged
     ethr =  2.77E-06,  avg # of iterations =  3.3

     negative rho (up, down):  2.095E-06 2.094E-06

     total cpu time spent up to now is    75486.2 secs

     total energy              =   -6201.26511243 Ry
     estimated scf accuracy    <       0.00421269 Ry

     total magnetization       =    13.19 Bohr mag/cell
     absolute magnetization    =    14.73 Bohr mag/cell

     iteration # 49     ecut=    60.00 Ry     beta= 0.10
     CG style diagonalization
     c_bands:  1 eigenvalues not converged
     c_bands:  1 eigenvalues not converged
     c_bands:  1 eigenvalues not converged
     ethr =  1.76E-06,  avg # of iterations =  3.5

     negative rho (up, down):  1.175E-06 1.126E-06

     total cpu time spent up to now is    77319.1 secs

     total energy              =   -6201.26518085 Ry
     estimated scf accuracy    <       0.00535777 Ry

     total magnetization       =    13.19 Bohr mag/cell
     absolute magnetization    =    14.65 Bohr mag/cell

     iteration # 50     ecut=    60.00 Ry     beta= 0.10
     CG style diagonalization
     c_bands:  1 eigenvalues not converged
     c_bands:  1 eigenvalues not converged
     ethr =  1.76E-06,  avg # of iterations =  3.9

     negative rho (up, down):  7.194E-07 7.402E-07

     total cpu time spent up to now is    79372.3 secs

     total energy              =   -6201.26603002 Ry
     estimated scf accuracy    <       0.01021459 Ry

     total magnetization       =    13.38 Bohr mag/cell
     absolute magnetization    =    14.83 Bohr mag/cell

     iteration # 51     ecut=    60.00 Ry     beta= 0.10
     CG style diagonalization
     c_bands:  1 eigenvalues not converged
     ethr =  1.76E-06,  avg # of iterations =  3.0

     negative rho (up, down):  1.431E-06 1.471E-06

     total cpu time spent up to now is    80866.5 secs

     total energy              =   -6201.26458282 Ry
     estimated scf accuracy    <       0.00634168 Ry

     total magnetization       =    13.32 Bohr mag/cell
     absolute magnetization    =    14.76 Bohr mag/cell

     iteration # 52     ecut=    60.00 Ry     beta= 0.10
     CG style diagonalization
     ethr =  1.76E-06,  avg # of iterations =  3.1

     negative rho (up, down):  9.907E-06 1.570E-05

     total cpu time spent up to now is    82386.6 secs

     total energy              =   -6201.26429420 Ry
     estimated scf accuracy    <       0.00346486 Ry

     total magnetization       =    13.28 Bohr mag/cell
     absolute magnetization    =    14.70 Bohr mag/cell

     iteration # 53     ecut=    60.00 Ry     beta= 0.10
     CG style diagonalization
     ethr =  1.44E-06,  avg # of iterations =  3.0

     negative rho (up, down):  1.197E-05 1.832E-05

     total cpu time spent up to now is    83881.3 secs

     total energy              =   -6201.26456287 Ry
     estimated scf accuracy    <       0.00301665 Ry

     total magnetization       =    13.25 Bohr mag/cell
     absolute magnetization    =    14.67 Bohr mag/cell

     iteration # 54     ecut=    60.00 Ry     beta= 0.10
     CG style diagonalization
     ethr =  1.26E-06,  avg # of iterations =  3.0

     negative rho (up, down):  1.409E-05 1.425E-05

     total cpu time spent up to now is    85348.1 secs

     total energy              =   -6201.26710110 Ry
     estimated scf accuracy    <       0.00291603 Ry

     total magnetization       =    13.28 Bohr mag/cell
     absolute magnetization    =    14.69 Bohr mag/cell

     iteration # 55     ecut=    60.00 Ry     beta= 0.10
     CG style diagonalization
     c_bands:  1 eigenvalues not converged
     c_bands:  1 eigenvalues not converged
     ethr =  1.22E-06,  avg # of iterations =  4.3

     negative rho (up, down):  3.737E-05 3.796E-05

     total cpu time spent up to now is    87673.3 secs

     total energy              =   -6201.26049029 Ry
     estimated scf accuracy    <       0.01795848 Ry

     total magnetization       =    13.39 Bohr mag/cell
     absolute magnetization    =    14.81 Bohr mag/cell

     iteration # 56     ecut=    60.00 Ry     beta= 0.10
     CG style diagonalization
     c_bands:  1 eigenvalues not converged
     c_bands:  1 eigenvalues not converged
     ethr =  1.22E-06,  avg # of iterations =  5.3

     negative rho (up, down):  2.781E-04 2.818E-04

     total cpu time spent up to now is    90698.4 secs

     total energy              =   -6201.26447979 Ry
     estimated scf accuracy    <       0.00291359 Ry

     total magnetization       =    13.21 Bohr mag/cell
     absolute magnetization    =    14.60 Bohr mag/cell

     iteration # 57     ecut=    60.00 Ry     beta= 0.10
     CG style diagonalization
     c_bands:  1 eigenvalues not converged
     c_bands:  1 eigenvalues not converged
     ethr =  1.21E-06,  avg # of iterations =  4.1

     negative rho (up, down):  5.002E-04 5.077E-04

     total cpu time spent up to now is    92872.8 secs

     total energy              =   -6201.26477650 Ry
     estimated scf accuracy    <       0.00578556 Ry

     total magnetization       =    13.32 Bohr mag/cell
     absolute magnetization    =    14.72 Bohr mag/cell

     iteration # 58     ecut=    60.00 Ry     beta= 0.10
     CG style diagonalization
     c_bands:  1 eigenvalues not converged
     ethr =  1.21E-06,  avg # of iterations =  3.1

     negative rho (up, down):  1.586E-03 1.609E-03

     total cpu time spent up to now is    94381.1 secs

     total energy              =   -6201.26455748 Ry
     estimated scf accuracy    <       0.00248831 Ry

     total magnetization       =    13.30 Bohr mag/cell
     absolute magnetization    =    14.68 Bohr mag/cell

     iteration # 59     ecut=    60.00 Ry     beta= 0.10
     CG style diagonalization
     c_bands:  1 eigenvalues not converged
     c_bands:  1 eigenvalues not converged
     ethr =  1.04E-06,  avg # of iterations =  3.1

     negative rho (up, down):  1.451E-03 1.475E-03

     total cpu time spent up to now is    95940.2 secs

     total energy              =   -6201.26442904 Ry
     estimated scf accuracy    <       0.00126831 Ry

     total magnetization       =    13.31 Bohr mag/cell
     absolute magnetization    =    14.67 Bohr mag/cell

     iteration # 60     ecut=    60.00 Ry     beta= 0.10
     CG style diagonalization
     c_bands:  1 eigenvalues not converged
     c_bands:  1 eigenvalues not converged
     c_bands:  1 eigenvalues not converged
     c_bands:  1 eigenvalues not converged
     ethr =  5.28E-07,  avg # of iterations =  5.7

     negative rho (up, down):  1.711E-03 1.731E-03

     total cpu time spent up to now is    99190.0 secs

     total energy              =   -6201.26331149 Ry
     estimated scf accuracy    <       0.00452914 Ry

     total magnetization       =    13.24 Bohr mag/cell
     absolute magnetization    =    14.59 Bohr mag/cell

     iteration # 61     ecut=    60.00 Ry     beta= 0.10
     CG style diagonalization
     c_bands:  1 eigenvalues not converged
     c_bands:  1 eigenvalues not converged
     ethr =  5.28E-07,  avg # of iterations =  5.6

     negative rho (up, down):  1.688E-03 1.707E-03

     total cpu time spent up to now is   102367.1 secs

     total energy              =   -6201.26613633 Ry
     estimated scf accuracy    <       0.00548818 Ry

     total magnetization       =    13.38 Bohr mag/cell
     absolute magnetization    =    14.76 Bohr mag/cell

     iteration # 62     ecut=    60.00 Ry     beta= 0.10
     CG style diagonalization
     c_bands:  1 eigenvalues not converged
     ethr =  5.28E-07,  avg # of iterations =  3.0

     negative rho (up, down):  1.681E-03 1.699E-03

     total cpu time spent up to now is   103843.7 secs

     total energy              =   -6201.26623177 Ry
     estimated scf accuracy    <       0.00507062 Ry

     total magnetization       =    13.37 Bohr mag/cell
     absolute magnetization    =    14.76 Bohr mag/cell

     iteration # 63     ecut=    60.00 Ry     beta= 0.10
     CG style diagonalization
     ethr =  5.28E-07,  avg # of iterations =  3.0

     negative rho (up, down):  1.693E-03 1.721E-03

     total cpu time spent up to now is   105303.9 secs

     total energy              =   -6201.26633901 Ry
     estimated scf accuracy    <       0.00540408 Ry

     total magnetization       =    13.38 Bohr mag/cell
     absolute magnetization    =    14.76 Bohr mag/cell

     iteration # 64     ecut=    60.00 Ry     beta= 0.10
     CG style diagonalization
     ethr =  5.28E-07,  avg # of iterations =  3.0

     negative rho (up, down):  1.772E-03 1.807E-03

     total cpu time spent up to now is   106767.1 secs

     total energy              =   -6201.26562393 Ry
     estimated scf accuracy    <       0.00521413 Ry

     total magnetization       =    13.38 Bohr mag/cell
     absolute magnetization    =    14.76 Bohr mag/cell

     iteration # 65     ecut=    60.00 Ry     beta= 0.10
     CG style diagonalization
     ethr =  5.28E-07,  avg # of iterations =  3.0

     negative rho (up, down):  1.814E-03 1.821E-03

     total cpu time spent up to now is   108226.3 secs

     total energy              =   -6201.26675996 Ry
     estimated scf accuracy    <       0.00369220 Ry

     total magnetization       =    13.36 Bohr mag/cell
     absolute magnetization    =    14.74 Bohr mag/cell

     iteration # 66     ecut=    60.00 Ry     beta= 0.10
     CG style diagonalization
     ethr =  5.28E-07,  avg # of iterations =  3.0

     negative rho (up, down):  1.299E-03 1.318E-03

     total cpu time spent up to now is   109689.8 secs

     total energy              =   -6201.26679429 Ry
     estimated scf accuracy    <       0.00623192 Ry

     total magnetization       =    13.38 Bohr mag/cell
     absolute magnetization    =    14.77 Bohr mag/cell

     iteration # 67     ecut=    60.00 Ry     beta= 0.10
     CG style diagonalization
     ethr =  5.28E-07,  avg # of iterations =  3.0

     negative rho (up, down):  1.663E-03 1.678E-03

     total cpu time spent up to now is   111148.7 secs

     total energy              =   -6201.26737930 Ry
     estimated scf accuracy    <       0.00598872 Ry

     total magnetization       =    13.38 Bohr mag/cell
     absolute magnetization    =    14.77 Bohr mag/cell

     iteration # 68     ecut=    60.00 Ry     beta= 0.10
     CG style diagonalization
     ethr =  5.28E-07,  avg # of iterations =  3.0

     negative rho (up, down):  1.826E-03 1.838E-03

     total cpu time spent up to now is   112611.8 secs

     total energy              =   -6201.26676927 Ry
     estimated scf accuracy    <       0.00821576 Ry

     total magnetization       =    13.40 Bohr mag/cell
     absolute magnetization    =    14.80 Bohr mag/cell

     iteration # 69     ecut=    60.00 Ry     beta= 0.10
     CG style diagonalization
     ethr =  5.28E-07,  avg # of iterations =  3.0

     negative rho (up, down):  1.900E-03 1.913E-03

     total cpu time spent up to now is   114076.7 secs

     total energy              =   -6201.26634750 Ry
     estimated scf accuracy    <       0.00684249 Ry

     total magnetization       =    13.37 Bohr mag/cell
     absolute magnetization    =    14.77 Bohr mag/cell

     iteration # 70     ecut=    60.00 Ry     beta= 0.10
     CG style diagonalization
     ethr =  5.28E-07,  avg # of iterations =  3.0

     negative rho (up, down):  1.310E-03 1.321E-03

     total cpu time spent up to now is   115537.3 secs

     total energy              =   -6201.26598320 Ry
     estimated scf accuracy    <       0.00563029 Ry

     total magnetization       =    13.36 Bohr mag/cell
     absolute magnetization    =    14.75 Bohr mag/cell

     iteration # 71     ecut=    60.00 Ry     beta= 0.10
     CG style diagonalization
     ethr =  5.28E-07,  avg # of iterations =  3.0

     negative rho (up, down):  9.764E-04 9.810E-04

     total cpu time spent up to now is   116999.5 secs

     total energy              =   -6201.26513671 Ry
     estimated scf accuracy    <       0.00464442 Ry

     total magnetization       =    13.36 Bohr mag/cell
     absolute magnetization    =    14.74 Bohr mag/cell

     iteration # 72     ecut=    60.00 Ry     beta= 0.10
     CG style diagonalization
     ethr =  5.28E-07,  avg # of iterations =  3.0

     negative rho (up, down):  6.369E-04 6.368E-04

     total cpu time spent up to now is   118477.5 secs

     total energy              =   -6201.26494039 Ry
     estimated scf accuracy    <       0.00219987 Ry

     total magnetization       =    13.32 Bohr mag/cell
     absolute magnetization    =    14.71 Bohr mag/cell

     iteration # 73     ecut=    60.00 Ry     beta= 0.10
     CG style diagonalization
     ethr =  5.28E-07,  avg # of iterations =  3.0

     negative rho (up, down):  4.977E-04 4.956E-04

     total cpu time spent up to now is   119947.4 secs

     total energy              =   -6201.26474778 Ry
     estimated scf accuracy    <       0.00144893 Ry

     total magnetization       =    13.30 Bohr mag/cell
     absolute magnetization    =    14.69 Bohr mag/cell

     iteration # 74     ecut=    60.00 Ry     beta= 0.10
     CG style diagonalization
     ethr =  5.28E-07,  avg # of iterations =  3.2

     negative rho (up, down):  6.325E-04 6.317E-04

     total cpu time spent up to now is   121536.7 secs

     total energy              =   -6201.26506629 Ry
     estimated scf accuracy    <       0.00057726 Ry

     total magnetization       =    13.28 Bohr mag/cell
     absolute magnetization    =    14.65 Bohr mag/cell

     iteration # 75     ecut=    60.00 Ry     beta= 0.10
     CG style diagonalization
     ethr =  2.41E-07,  avg # of iterations =  3.5

     negative rho (up, down):  5.664E-04 5.647E-04

     total cpu time spent up to now is   123309.6 secs

     total energy              =   -6201.26533223 Ry
     estimated scf accuracy    <       0.00074960 Ry

     total magnetization       =    13.30 Bohr mag/cell
     absolute magnetization    =    14.67 Bohr mag/cell

     iteration # 76     ecut=    60.00 Ry     beta= 0.10
     CG style diagonalization
     ethr =  2.41E-07,  avg # of iterations =  3.0

     negative rho (up, down):  6.262E-04 6.253E-04

     total cpu time spent up to now is   124776.7 secs

     total energy              =   -6201.26550362 Ry
     estimated scf accuracy    <       0.00120753 Ry

     total magnetization       =    13.31 Bohr mag/cell
     absolute magnetization    =    14.69 Bohr mag/cell

     iteration # 77     ecut=    60.00 Ry     beta= 0.10
     CG style diagonalization
     ethr =  2.41E-07,  avg # of iterations =  3.0

     negative rho (up, down):  5.791E-04 5.767E-04

     total cpu time spent up to now is   126235.1 secs

     total energy              =   -6201.26509591 Ry
     estimated scf accuracy    <       0.00149344 Ry

     total magnetization       =    13.32 Bohr mag/cell
     absolute magnetization    =    14.70 Bohr mag/cell

     iteration # 78     ecut=    60.00 Ry     beta= 0.10
     CG style diagonalization
     ethr =  2.41E-07,  avg # of iterations =  3.0

     negative rho (up, down):  5.306E-04 5.269E-04

     total cpu time spent up to now is   127729.6 secs

     total energy              =   -6201.26509127 Ry
     estimated scf accuracy    <       0.00048976 Ry

     total magnetization       =    13.30 Bohr mag/cell
     absolute magnetization    =    14.67 Bohr mag/cell

     iteration # 79     ecut=    60.00 Ry     beta= 0.10
     CG style diagonalization
     ethr =  2.04E-07,  avg # of iterations =  3.0

     negative rho (up, down):  6.097E-04 5.995E-04

     total cpu time spent up to now is   129203.5 secs

     total energy              =   -6201.26499424 Ry
     estimated scf accuracy    <       0.00029601 Ry

     total magnetization       =    13.29 Bohr mag/cell
     absolute magnetization    =    14.66 Bohr mag/cell

     iteration # 80     ecut=    60.00 Ry     beta= 0.10
     CG style diagonalization
     ethr =  1.23E-07,  avg # of iterations =  5.5

     negative rho (up, down):  3.528E-04 3.405E-04

     total cpu time spent up to now is   132331.2 secs

     total energy              =   -6201.26524221 Ry
     estimated scf accuracy    <       0.00073103 Ry

     total magnetization       =    13.27 Bohr mag/cell
     absolute magnetization    =    14.63 Bohr mag/cell

     iteration # 81     ecut=    60.00 Ry     beta= 0.10
     CG style diagonalization
     ethr =  1.23E-07,  avg # of iterations =  3.1

     negative rho (up, down):  1.919E-04 1.790E-04

     total cpu time spent up to now is   133897.9 secs

     total energy              =   -6201.26506834 Ry
     estimated scf accuracy    <       0.00050014 Ry

     total magnetization       =    13.28 Bohr mag/cell
     absolute magnetization    =    14.64 Bohr mag/cell

     iteration # 82     ecut=    60.00 Ry     beta= 0.10
     CG style diagonalization
     ethr =  1.23E-07,  avg # of iterations =  3.4

     negative rho (up, down):  2.991E-04 2.811E-04

     total cpu time spent up to now is   135644.2 secs

     total energy              =   -6201.26516146 Ry
     estimated scf accuracy    <       0.00005343 Ry

     total magnetization       =    13.31 Bohr mag/cell
     absolute magnetization    =    14.68 Bohr mag/cell

     iteration # 83     ecut=    60.00 Ry     beta= 0.10
     CG style diagonalization
     ethr =  2.23E-08,  avg # of iterations =  4.3

     negative rho (up, down):  4.696E-04 4.492E-04

     total cpu time spent up to now is   137967.9 secs

     total energy              =   -6201.26521578 Ry
     estimated scf accuracy    <       0.00002322 Ry

     total magnetization       =    13.30 Bohr mag/cell
     absolute magnetization    =    14.67 Bohr mag/cell

     iteration # 84     ecut=    60.00 Ry     beta= 0.10
     CG style diagonalization
     ethr =  9.67E-09,  avg # of iterations =  3.4

     negative rho (up, down):  3.529E-04 3.211E-04

     total cpu time spent up to now is   139712.6 secs

     total energy              =   -6201.26523804 Ry
     estimated scf accuracy    <       0.00002644 Ry

     total magnetization       =    13.29 Bohr mag/cell
     absolute magnetization    =    14.67 Bohr mag/cell

     iteration # 85     ecut=    60.00 Ry     beta= 0.10
     CG style diagonalization
     ethr =  9.67E-09,  avg # of iterations =  4.2

     negative rho (up, down):  1.546E-04 1.196E-04

     total cpu time spent up to now is   142007.3 secs

     total energy              =   -6201.26520892 Ry
     estimated scf accuracy    <       0.00010118 Ry

     total magnetization       =    13.30 Bohr mag/cell
     absolute magnetization    =    14.69 Bohr mag/cell

     iteration # 86     ecut=    60.00 Ry     beta= 0.10
     CG style diagonalization
     ethr =  9.67E-09,  avg # of iterations =  3.8

     negative rho (up, down):  1.308E-04 9.165E-05

     total cpu time spent up to now is   144018.1 secs

     total energy              =   -6201.26522044 Ry
     estimated scf accuracy    <       0.00000467 Ry

     total magnetization       =    13.28 Bohr mag/cell
     absolute magnetization    =    14.67 Bohr mag/cell

     iteration # 87     ecut=    60.00 Ry     beta= 0.10
     CG style diagonalization
     ethr =  1.95E-09,  avg # of iterations =  5.4

     negative rho (up, down):  1.333E-04 9.212E-05

     total cpu time spent up to now is   147068.7 secs

     total energy              =   -6201.26522417 Ry
     estimated scf accuracy    <       0.00000544 Ry

     total magnetization       =    13.28 Bohr mag/cell
     absolute magnetization    =    14.67 Bohr mag/cell

     iteration # 88     ecut=    60.00 Ry     beta= 0.10
     CG style diagonalization
     ethr =  1.95E-09,  avg # of iterations =  3.1

     negative rho (up, down):  1.232E-04 8.044E-05

     total cpu time spent up to now is   148637.2 secs

     total energy              =   -6201.26522434 Ry
     estimated scf accuracy    <       0.00000189 Ry

     total magnetization       =    13.28 Bohr mag/cell
     absolute magnetization    =    14.67 Bohr mag/cell

     iteration # 89     ecut=    60.00 Ry     beta= 0.10
     CG style diagonalization
     ethr =  7.86E-10,  avg # of iterations =  4.0

     negative rho (up, down):  1.337E-04 9.039E-05

     total cpu time spent up to now is   150739.2 secs

     total energy              =   -6201.26522567 Ry
     estimated scf accuracy    <       0.00000128 Ry

     total magnetization       =    13.28 Bohr mag/cell
     absolute magnetization    =    14.68 Bohr mag/cell

     iteration # 90     ecut=    60.00 Ry     beta= 0.10
     CG style diagonalization
     ethr =  5.35E-10,  avg # of iterations =  4.7

     negative rho (up, down):  1.458E-04 1.008E-04

     total cpu time spent up to now is   153347.5 secs

     total energy              =   -6201.26522402 Ry
     estimated scf accuracy    <       0.00000653 Ry

     total magnetization       =    13.28 Bohr mag/cell
     absolute magnetization    =    14.68 Bohr mag/cell

     iteration # 91     ecut=    60.00 Ry     beta= 0.10
     CG style diagonalization
     ethr =  5.35E-10,  avg # of iterations =  4.6

     negative rho (up, down):  1.693E-04 1.222E-04

     total cpu time spent up to now is   155907.6 secs

     total energy              =   -6201.26522532 Ry
     estimated scf accuracy    <       0.00000033 Ry

     total magnetization       =    13.28 Bohr mag/cell
     absolute magnetization    =    14.68 Bohr mag/cell

     iteration # 92     ecut=    60.00 Ry     beta= 0.10
     CG style diagonalization
     ethr =  1.36E-10,  avg # of iterations =  3.9

     negative rho (up, down):  1.718E-04 1.241E-04

     total cpu time spent up to now is   157970.0 secs

     total energy              =   -6201.26522530 Ry
     estimated scf accuracy    <       0.00000039 Ry

     total magnetization       =    13.28 Bohr mag/cell
     absolute magnetization    =    14.68 Bohr mag/cell

     iteration # 93     ecut=    60.00 Ry     beta= 0.10
     CG style diagonalization
     ethr =  1.36E-10,  avg # of iterations =  3.8

     negative rho (up, down):  1.938E-04 1.451E-04

     total cpu time spent up to now is   159982.6 secs

     total energy              =   -6201.26522556 Ry
     estimated scf accuracy    <       0.00000022 Ry

     total magnetization       =    13.28 Bohr mag/cell
     absolute magnetization    =    14.68 Bohr mag/cell

     iteration # 94     ecut=    60.00 Ry     beta= 0.10
     CG style diagonalization
     ethr =  9.24E-11,  avg # of iterations =  4.3

     negative rho (up, down):  2.007E-04 1.515E-04

     total cpu time spent up to now is   162291.4 secs

     total energy              =   -6201.26522540 Ry
     estimated scf accuracy    <       0.00000055 Ry

     total magnetization       =    13.28 Bohr mag/cell
     absolute magnetization    =    14.68 Bohr mag/cell

     iteration # 95     ecut=    60.00 Ry     beta= 0.10
     CG style diagonalization
     ethr =  9.24E-11,  avg # of iterations =  4.1

     negative rho (up, down):  2.018E-04 1.524E-04

     total cpu time spent up to now is   164475.0 secs

     total energy              =   -6201.26522554 Ry
     estimated scf accuracy    <       0.00000005 Ry

     total magnetization       =    13.28 Bohr mag/cell
     absolute magnetization    =    14.68 Bohr mag/cell

     iteration # 96     ecut=    60.00 Ry     beta= 0.10
     CG style diagonalization
     ethr =  2.03E-11,  avg # of iterations =  4.5

     negative rho (up, down):  2.093E-04 1.597E-04

     total cpu time spent up to now is   166927.8 secs

     total energy              =   -6201.26522556 Ry
     estimated scf accuracy    <       0.00000008 Ry

     total magnetization       =    13.28 Bohr mag/cell
     absolute magnetization    =    14.68 Bohr mag/cell

     iteration # 97     ecut=    60.00 Ry     beta= 0.10
     CG style diagonalization
     ethr =  2.03E-11,  avg # of iterations =  3.2

     negative rho (up, down):  2.062E-04 1.567E-04

     total cpu time spent up to now is   168548.5 secs

     total energy              =   -6201.26522557 Ry
     estimated scf accuracy    <       0.00000002 Ry

     total magnetization       =    13.28 Bohr mag/cell
     absolute magnetization    =    14.68 Bohr mag/cell

     iteration # 98     ecut=    60.00 Ry     beta= 0.10
     CG style diagonalization
     ethr =  9.20E-12,  avg # of iterations =  5.7

     negative rho (up, down):  2.124E-04 1.627E-04

     total cpu time spent up to now is   171784.6 secs

     total energy              =   -6201.26522558 Ry
     estimated scf accuracy    <       0.00000011 Ry

     total magnetization       =    13.28 Bohr mag/cell
     absolute magnetization    =    14.68 Bohr mag/cell

     iteration # 99     ecut=    60.00 Ry     beta= 0.10
     CG style diagonalization
     ethr =  9.20E-12,  avg # of iterations =  3.6

     negative rho (up, down):  2.147E-04 1.650E-04

     total cpu time spent up to now is   173628.1 secs

     total energy              =   -6201.26522559 Ry
     estimated scf accuracy    <       0.00000002 Ry

     total magnetization       =    13.28 Bohr mag/cell
     absolute magnetization    =    14.68 Bohr mag/cell

     iteration #100     ecut=    60.00 Ry     beta= 0.10
     CG style diagonalization
     ethr =  6.76E-12,  avg # of iterations =  3.4

     negative rho (up, down):  2.096E-04 1.602E-04
 
     Magnetic moment per site  (integrated on atomic sphere of radius R)
     atom   1 (R=0.199)  charge=  8.5611  magn=  0.8914
     atom   2 (R=0.202)  charge=  7.9436  magn=  0.2690
     atom   3 (R=0.202)  charge=  7.9566  magn=  0.2696
     atom   4 (R=0.199)  charge=  8.5716  magn=  0.8866
     atom   5 (R=0.202)  charge=  7.9908  magn=  0.3158
     atom   6 (R=0.202)  charge=  7.9903  magn=  0.3125
     atom   7 (R=0.199)  charge=  8.6298  magn=  0.8765
     atom   8 (R=0.199)  charge=  8.6332  magn=  0.8620
     atom   9 (R=0.199)  charge=  8.6469  magn=  0.8211
     atom  10 (R=0.199)  charge=  8.6366  magn=  0.8286
     atom  11 (R=0.202)  charge=  7.9812  magn=  0.3114
     atom  12 (R=0.202)  charge=  7.9994  magn=  0.3012
     atom  13 (R=0.199)  charge=  8.6372  magn=  0.8262
     atom  14 (R=0.202)  charge=  7.9777  magn=  0.3074
     atom  15 (R=0.202)  charge=  8.0010  magn=  0.3009
     atom  16 (R=0.199)  charge=  8.6518  magn=  0.8189
     atom  17 (R=0.199)  charge=  8.6266  magn=  0.8792
     atom  18 (R=0.202)  charge=  7.9861  magn=  0.3075
     atom  19 (R=0.202)  charge=  7.9943  magn=  0.3134
     atom  20 (R=0.199)  charge=  8.6348  magn=  0.8624
     atom  21 (R=0.202)  charge=  7.9414  magn=  0.2680
     atom  22 (R=0.199)  charge=  8.5750  magn=  0.8944
     atom  23 (R=0.199)  charge=  8.5766  magn=  0.8883
     atom  24 (R=0.202)  charge=  7.9468  magn=  0.2656

     total cpu time spent up to now is   175366.6 secs

     End of self-consistent calculation

 ------ SPIN UP ------------


          k = 0.0000 0.0000 0.0000 ( 40041 PWs)   bands (ev):

   -13.3429 -12.6611 -11.7603 -11.1323 -10.8898 -10.8587 -10.8288 -10.7462
   -10.6058 -10.4641 -10.3130 -10.2257 -10.1313 -10.1101  -9.9403  -9.8909
    -9.8325  -9.7831  -9.7572  -9.7213  -9.5878  -9.5771  -9.5596  -9.5276
    -9.3743  -9.3086  -9.2373  -9.1838  -9.1427  -9.0400  -9.0191  -8.9881
    -8.9654  -8.9041  -8.8932  -8.7439  -8.7189  -8.6776  -8.5627  -8.4479
    -8.4028  -8.3725  -8.3661  -8.2953  -8.2626  -8.2448  -8.2065  -8.1363
    -8.0569  -8.0265  -7.9702  -7.9519  -7.8657  -7.8316  -7.7893  -7.7235
    -7.7084  -7.6892  -7.6430  -7.6138  -7.5618  -7.5344  -7.5203  -7.4682
    -7.4412  -7.4398  -7.4258  -7.3978  -7.3615  -7.3395  -7.2587  -7.2244
    -7.2162  -7.2080  -7.1559  -7.1354  -7.0021  -6.9212  -6.8985  -6.8442
    -6.7964  -6.7599  -6.7331  -6.6260  -6.6085  -6.5670  -6.5385  -6.5307
    -6.5101  -6.4602  -6.3932  -6.3773  -6.3517  -6.3396  -6.2896  -6.2799
    -6.2768  -6.2429  -6.2187  -6.0934  -6.0465  -6.0355  -6.0017  -5.9194
    -5.8336  -5.8136  -5.7773  -5.7283  -5.7081  -5.6733  -5.6482  -5.6359
    -5.6304  -5.5831  -5.5771  -5.5558  -5.5350  -5.5211  -5.4950  -5.4484
    -5.4225  -5.3984  -5.3490  -5.3227  -5.3186  -4.9587  -4.5002  -4.2773
    -3.4294  -3.3205  -3.2904  -3.1313  -3.0585  -2.6160  -2.5762  -2.5426
    -2.3977  -2.2509  -2.2100  -1.5248  -1.3304  -0.1073   0.0739   0.6684

          k = 0.0000 0.1617 0.0000 ( 40105 PWs)   bands (ev):

   -13.1732 -12.4986 -11.6096 -11.0354 -10.9089 -10.8593 -10.7487 -10.6641
   -10.6063 -10.4868 -10.3526 -10.2857 -10.2506 -10.1327 -10.0292  -9.9779
    -9.9187  -9.8417  -9.7791  -9.7186  -9.7103  -9.6932  -9.6083  -9.5652
    -9.4490  -9.4178  -9.3808  -9.3438  -9.3306  -9.1583  -9.1078  -9.0375
    -8.9775  -8.9409  -8.7903  -8.7357  -8.6717  -8.5584  -8.5260  -8.4765
    -8.4460  -8.3298  -8.2889  -8.2538  -8.2205  -8.1696  -8.1177  -8.0894
    -8.0234  -8.0125  -7.9561  -7.8745  -7.8303  -7.7713  -7.7591  -7.7054
    -7.6982  -7.6272  -7.5755  -7.5451  -7.5130  -7.4840  -7.4627  -7.4472
    -7.4171  -7.3881  -7.3322  -7.3138  -7.2860  -7.2783  -7.2223  -7.1899
    -7.1500  -7.1225  -7.0491  -7.0058  -6.9553  -6.9251  -6.8914  -6.8632
    -6.7981  -6.7491  -6.7167  -6.6686  -6.6132  -6.5222  -6.4726  -6.4670
    -6.4519  -6.3462  -6.3362  -6.3073  -6.2913  -6.2759  -6.2508  -6.2446
    -6.2090  -6.1437  -6.1177  -6.0934  -6.0678  -6.0479  -6.0311  -6.0054
    -5.9895  -5.8779  -5.8153  -5.7804  -5.7703  -5.7501  -5.7277  -5.6757
    -5.6507  -5.6183  -5.6072  -5.5912  -5.5684  -5.5480  -5.4840  -5.4710
    -5.4521  -5.4326  -5.4087  -5.3468  -5.3328  -5.0631  -4.3916  -4.3432
    -4.1109  -3.8381  -3.4960  -3.3921  -3.2499  -3.1265  -3.0670  -2.6397
    -2.4567  -1.7664  -1.6771  -1.4354  -0.5406  -0.3132  -0.1037   0.8083

          k = 0.0000 0.3233 0.0000 ( 40105 PWs)   bands (ev):

   -12.6864 -12.0434 -11.2253 -11.0192 -10.9185 -10.8731 -10.7344 -10.6396
   -10.5204 -10.4777 -10.4036 -10.2971 -10.2596 -10.2068 -10.1702 -10.1278
   -10.0800 -10.0597  -9.9116  -9.8879  -9.8547  -9.7661  -9.7370  -9.6598
    -9.6434  -9.5502  -9.5164  -9.4050  -9.3573  -9.2946  -9.1949  -9.1499
    -9.0644  -8.9502  -8.8531  -8.7829  -8.6475  -8.6036  -8.5318  -8.4979
    -8.3991  -8.3425  -8.2883  -8.2313  -8.1860  -8.1171  -8.0569  -8.0195
    -7.9804  -7.9515  -7.9132  -7.8822  -7.8028  -7.7557  -7.7219  -7.6766
    -7.6538  -7.6343  -7.5589  -7.5071  -7.4485  -7.4049  -7.3846  -7.3642
    -7.3081  -7.2741  -7.2395  -7.2253  -7.2018  -7.1743  -7.1055  -7.0877
    -7.0543  -7.0261  -7.0050  -6.9049  -6.8497  -6.8132  -6.7722  -6.7167
    -6.7011  -6.6863  -6.6432  -6.5525  -6.5190  -6.4862  -6.4055  -6.3667
    -6.3585  -6.3438  -6.3213  -6.2818  -6.2568  -6.2427  -6.1679  -6.1299
    -6.0919  -6.0612  -6.0403  -6.0207  -6.0031  -5.9973  -5.9731  -5.9329
    -5.9032  -5.8804  -5.8705  -5.8460  -5.8245  -5.7925  -5.7677  -5.7655
    -5.7406  -5.7191  -5.7080  -5.6616  -5.6236  -5.6150  -5.5921  -5.5749
    -5.5575  -5.4928  -5.4689  -5.4453  -5.4075  -5.3946  -5.3298  -4.7242
    -4.0389  -3.8002  -3.6258  -3.4549  -3.2025  -3.1788  -2.7722  -2.6223
    -2.5357  -2.2810  -2.0537  -1.7273  -1.0270  -0.7135  -0.4065  -0.2357

          k = 0.0000 0.4850 0.0000 ( 40064 PWs)   bands (ev):

   -11.9734 -11.4387 -11.3083 -11.0549 -10.9073 -10.8808 -10.8232 -10.6334
   -10.5939 -10.5321 -10.4129 -10.4024 -10.3793 -10.3005 -10.2460 -10.2154
   -10.0945 -10.0491  -9.9871  -9.9138  -9.8533  -9.8068  -9.7009  -9.6738
    -9.5992  -9.5615  -9.4918  -9.4422  -9.3266  -9.2798  -9.2400  -9.2204
    -9.1793  -8.9686  -8.8985  -8.7909  -8.7389  -8.6978  -8.6034  -8.5754
    -8.5083  -8.4345  -8.4053  -8.3021  -8.2037  -8.1467  -8.0808  -8.0608
    -8.0213  -7.9857  -7.9404  -7.8708  -7.8558  -7.8143  -7.7246  -7.6915
    -7.6536  -7.5899  -7.5030  -7.4610  -7.4395  -7.4146  -7.3829  -7.3028
    -7.2815  -7.2275  -7.1927  -7.1640  -7.1482  -7.1161  -7.0683  -7.0295
    -7.0098  -6.9644  -6.9014  -6.8754  -6.8307  -6.8103  -6.7622  -6.7560
    -6.7305  -6.7043  -6.6567  -6.5975  -6.5895  -6.4988  -6.4706  -6.4532
    -6.4317  -6.3994  -6.3649  -6.3482  -6.2767  -6.2556  -6.2150  -6.1982
    -6.1609  -6.1426  -6.0676  -6.0361  -5.9682  -5.9356  -5.9225  -5.9155
    -5.8817  -5.8458  -5.7764  -5.7357  -5.7063  -5.7007  -5.6402  -5.6326
    -5.6256  -5.6198  -5.5933  -5.5510  -5.5471  -5.5207  -5.5061  -5.4875
    -5.4637  -5.4424  -5.3954  -5.3739  -5.2922  -5.2834  -5.1899  -4.7020
    -4.2696  -3.9996  -3.9575  -3.2958  -3.1520  -3.1242  -2.5746  -2.4661
    -2.4206  -2.2784  -1.8985  -1.8784  -1.5575  -1.4694  -1.3232  -1.0772

          k = 0.0000-0.4850 0.0000 ( 40064 PWs)   bands (ev):

   -11.9734 -11.4387 -11.3083 -11.0549 -10.9073 -10.8808 -10.8232 -10.6334
   -10.5939 -10.5321 -10.4129 -10.4024 -10.3793 -10.3005 -10.2460 -10.2154
   -10.0945 -10.0491  -9.9871  -9.9138  -9.8533  -9.8068  -9.7009  -9.6738
    -9.5992  -9.5615  -9.4918  -9.4422  -9.3266  -9.2798  -9.2400  -9.2204
    -9.1793  -8.9686  -8.8985  -8.7909  -8.7389  -8.6978  -8.6034  -8.5754
    -8.5083  -8.4345  -8.4053  -8.3021  -8.2037  -8.1467  -8.0808  -8.0608
    -8.0213  -7.9857  -7.9404  -7.8708  -7.8558  -7.8143  -7.7246  -7.6915
    -7.6536  -7.5899  -7.5030  -7.4610  -7.4395  -7.4146  -7.3829  -7.3028
    -7.2815  -7.2275  -7.1927  -7.1640  -7.1482  -7.1161  -7.0683  -7.0295
    -7.0098  -6.9644  -6.9014  -6.8754  -6.8307  -6.8103  -6.7622  -6.7560
    -6.7305  -6.7043  -6.6567  -6.5975  -6.5895  -6.4988  -6.4706  -6.4532
    -6.4317  -6.3994  -6.3649  -6.3482  -6.2767  -6.2556  -6.2150  -6.1982
    -6.1609  -6.1426  -6.0676  -6.0361  -5.9682  -5.9356  -5.9225  -5.9155
    -5.8817  -5.8458  -5.7764  -5.7357  -5.7063  -5.7007  -5.6402  -5.6326
    -5.6256  -5.6198  -5.5933  -5.5510  -5.5471  -5.5207  -5.5061  -5.4875
    -5.4637  -5.4424  -5.3954  -5.3739  -5.2922  -5.2834  -5.1899  -4.7020
    -4.2696  -3.9996  -3.9575  -3.2958  -3.1520  -3.1242  -2.5746  -2.4661
    -2.4206  -2.2784  -1.8986  -1.8784  -1.5575  -1.4694  -1.3228  -1.0775

          k = 0.0000-0.3233 0.0000 ( 40105 PWs)   bands (ev):

   -12.6864 -12.0434 -11.2253 -11.0192 -10.9185 -10.8731 -10.7344 -10.6396
   -10.5204 -10.4777 -10.4036 -10.2971 -10.2596 -10.2068 -10.1702 -10.1278
   -10.0800 -10.0597  -9.9116  -9.8879  -9.8547  -9.7661  -9.7370  -9.6598
    -9.6434  -9.5502  -9.5164  -9.4050  -9.3573  -9.2946  -9.1949  -9.1499
    -9.0644  -8.9502  -8.8531  -8.7829  -8.6475  -8.6036  -8.5318  -8.4979
    -8.3991  -8.3425  -8.2883  -8.2313  -8.1860  -8.1171  -8.0569  -8.0195
    -7.9804  -7.9515  -7.9132  -7.8822  -7.8028  -7.7557  -7.7219  -7.6766
    -7.6538  -7.6343  -7.5589  -7.5071  -7.4485  -7.4049  -7.3846  -7.3642
    -7.3081  -7.2741  -7.2395  -7.2253  -7.2018  -7.1743  -7.1055  -7.0877
    -7.0543  -7.0261  -7.0050  -6.9049  -6.8497  -6.8132  -6.7722  -6.7167
    -6.7011  -6.6863  -6.6432  -6.5525  -6.5190  -6.4862  -6.4055  -6.3667
    -6.3585  -6.3438  -6.3213  -6.2818  -6.2568  -6.2427  -6.1679  -6.1299
    -6.0919  -6.0612  -6.0403  -6.0207  -6.0031  -5.9973  -5.9731  -5.9329
    -5.9032  -5.8804  -5.8705  -5.8460  -5.8245  -5.7925  -5.7677  -5.7655
    -5.7406  -5.7191  -5.7080  -5.6616  -5.6236  -5.6150  -5.5921  -5.5749
    -5.5575  -5.4928  -5.4689  -5.4453  -5.4075  -5.3946  -5.3298  -4.7242
    -4.0389  -3.8002  -3.6258  -3.4549  -3.2025  -3.1788  -2.7722  -2.6223
    -2.5357  -2.2810  -2.0537  -1.7273  -1.0270  -0.7134  -0.4065  -0.2359

          k = 0.0000-0.1617 0.0000 ( 40105 PWs)   bands (ev):

   -13.1732 -12.4986 -11.6096 -11.0354 -10.9089 -10.8593 -10.7487 -10.6641
   -10.6063 -10.4868 -10.3526 -10.2857 -10.2506 -10.1327 -10.0292  -9.9779
    -9.9187  -9.8417  -9.7791  -9.7186  -9.7103  -9.6932  -9.6083  -9.5652
    -9.4490  -9.4178  -9.3808  -9.3438  -9.3306  -9.1583  -9.1078  -9.0375
    -8.9775  -8.9409  -8.7903  -8.7357  -8.6717  -8.5584  -8.5260  -8.4765
    -8.4460  -8.3298  -8.2889  -8.2538  -8.2205  -8.1696  -8.1177  -8.0894
    -8.0234  -8.0125  -7.9561  -7.8745  -7.8303  -7.7713  -7.7591  -7.7054
    -7.6982  -7.6272  -7.5755  -7.5451  -7.5130  -7.4840  -7.4627  -7.4472
    -7.4171  -7.3881  -7.3322  -7.3138  -7.2860  -7.2783  -7.2223  -7.1899
    -7.1500  -7.1225  -7.0491  -7.0058  -6.9553  -6.9251  -6.8914  -6.8632
    -6.7981  -6.7491  -6.7167  -6.6686  -6.6132  -6.5222  -6.4726  -6.4670
    -6.4519  -6.3462  -6.3362  -6.3073  -6.2913  -6.2759  -6.2508  -6.2446
    -6.2090  -6.1437  -6.1177  -6.0934  -6.0678  -6.0479  -6.0311  -6.0054
    -5.9895  -5.8779  -5.8153  -5.7804  -5.7703  -5.7501  -5.7277  -5.6757
    -5.6507  -5.6183  -5.6072  -5.5912  -5.5684  -5.5480  -5.4840  -5.4710
    -5.4521  -5.4326  -5.4087  -5.3468  -5.3328  -5.0631  -4.3916  -4.3432
    -4.1109  -3.8381  -3.4960  -3.3921  -3.2499  -3.1265  -3.0670  -2.6397
    -2.4567  -1.7664  -1.6772  -1.4354  -0.5406  -0.3132  -0.1040   0.7567

          k = 0.1429 0.0000 0.0000 ( 40152 PWs)   bands (ev):

   -13.2101 -12.5337 -11.6428 -11.0439 -10.8183 -10.7838 -10.7436 -10.6538
   -10.5610 -10.4133 -10.2693 -10.2224 -10.1351 -10.0801  -9.9268  -9.8518
    -9.8126  -9.7816  -9.7062  -9.6644  -9.5941  -9.5545  -9.5296  -9.5139
    -9.3629  -9.3154  -9.2910  -9.1587  -9.1376  -9.1001  -9.0365  -9.0075
    -8.9840  -8.8805  -8.8640  -8.7679  -8.7459  -8.6137  -8.5892  -8.4681
    -8.3809  -8.3715  -8.3157  -8.2961  -8.2393  -8.2221  -8.1724  -8.1246
    -8.0478  -8.0225  -8.0100  -7.9561  -7.8792  -7.8419  -7.7873  -7.7533
    -7.7288  -7.7115  -7.6970  -7.6263  -7.5984  -7.5862  -7.5439  -7.5249
    -7.5053  -7.4658  -7.4417  -7.4188  -7.4014  -7.3477  -7.3078  -7.2534
    -7.2334  -7.2044  -7.1493  -7.1406  -7.0225  -6.9836  -6.9385  -6.9053
    -6.8700  -6.7771  -6.7584  -6.7268  -6.6635  -6.6432  -6.5990  -6.5636
    -6.5281  -6.5073  -6.4365  -6.3874  -6.3695  -6.3365  -6.2803  -6.2423
    -6.2185  -6.1940  -6.1729  -6.1544  -6.1265  -6.0619  -6.0386  -6.0056
    -5.9722  -5.9369  -5.8849  -5.8338  -5.7925  -5.7392  -5.7276  -5.7030
    -5.6847  -5.6611  -5.6472  -5.6194  -5.6103  -5.5818  -5.5685  -5.5310
    -5.5070  -5.4884  -5.4220  -5.4020  -5.3877  -4.6321  -4.5303  -4.4919
    -4.0330  -3.9692  -3.7304  -2.9906  -2.9413  -2.3590  -2.1676  -1.9908
    -1.9677  -1.7743  -1.4540  -1.3420  -0.6839   0.1953   0.3856   0.7229

          k = 0.1429 0.1617 0.0000 ( 40157 PWs)   bands (ev):

   -13.0416 -12.3735 -11.5006 -10.9733 -10.8337 -10.7969 -10.6876 -10.5913
   -10.5222 -10.4364 -10.2894 -10.2791 -10.2329 -10.0929  -9.9840  -9.9398
    -9.9023  -9.7990  -9.7779  -9.7062  -9.6694  -9.6334  -9.5859  -9.5580
    -9.4778  -9.4135  -9.3518  -9.3031  -9.2947  -9.1541  -9.1051  -8.9874
    -8.9774  -8.9452  -8.8229  -8.7739  -8.6791  -8.6343  -8.5603  -8.5019
    -8.4723  -8.3354  -8.2924  -8.2380  -8.1778  -8.1552  -8.0850  -8.0707
    -8.0477  -7.9926  -7.9432  -7.8644  -7.8309  -7.8168  -7.7921  -7.7394
    -7.6854  -7.6270  -7.5912  -7.5599  -7.5324  -7.5177  -7.4929  -7.4627
    -7.4432  -7.4214  -7.3468  -7.3339  -7.3161  -7.3107  -7.2412  -7.2166
    -7.1677  -7.1402  -7.1096  -7.0786  -7.0299  -7.0195  -6.9459  -6.9079
    -6.8672  -6.7609  -6.7346  -6.7021  -6.6788  -6.6608  -6.5786  -6.5300
    -6.4913  -6.4531  -6.3648  -6.3222  -6.2911  -6.2795  -6.2630  -6.2534
    -6.2410  -6.2164  -6.1665  -6.1574  -6.1033  -6.0856  -6.0606  -6.0438
    -5.9973  -5.9558  -5.9115  -5.8845  -5.7985  -5.7891  -5.7766  -5.7558
    -5.7446  -5.7080  -5.6701  -5.6470  -5.6350  -5.6125  -5.5867  -5.5405
    -5.5257  -5.4774  -5.4284  -5.3915  -5.1832  -4.7372  -4.5093  -4.4872
    -4.1100  -4.0557  -4.0168  -3.7103  -3.4446  -2.9966  -2.8350  -1.8351
    -1.5539  -1.4633  -1.4543  -0.9423  -0.4441  -0.2779   0.1865   0.3328

          k = 0.1429 0.3233 0.0000 ( 40126 PWs)   bands (ev):

   -12.5617 -11.9277 -11.1394 -10.9361 -10.8811 -10.8363 -10.6326 -10.5945
   -10.4940 -10.4012 -10.3632 -10.2915 -10.2232 -10.1797 -10.1219 -10.0792
   -10.0534 -10.0274  -9.8743  -9.8261  -9.8044  -9.7116  -9.6772  -9.6215
    -9.5980  -9.4992  -9.4554  -9.4401  -9.3038  -9.2496  -9.1922  -9.1228
    -9.0367  -8.8983  -8.8652  -8.8023  -8.7401  -8.6077  -8.5749  -8.5483
    -8.3762  -8.3364  -8.2885  -8.2380  -8.1848  -8.1263  -8.0878  -8.0357
    -8.0201  -7.9754  -7.9438  -7.8725  -7.8667  -7.7837  -7.7328  -7.7196
    -7.6652  -7.6026  -7.5566  -7.5438  -7.5129  -7.4758  -7.4321  -7.4065
    -7.3071  -7.2750  -7.2520  -7.2445  -7.2071  -7.1829  -7.1265  -7.1034
    -7.0885  -7.0595  -7.0062  -6.9815  -6.9090  -6.8896  -6.8208  -6.7912
    -6.7673  -6.7032  -6.6749  -6.6400  -6.6031  -6.5853  -6.5590  -6.4632
    -6.4112  -6.3775  -6.3667  -6.3374  -6.3149  -6.2791  -6.2436  -6.2254
    -6.1553  -6.1284  -6.1010  -6.0779  -6.0438  -6.0141  -6.0089  -5.9648
    -5.9337  -5.8889  -5.8602  -5.8518  -5.8377  -5.8130  -5.8021  -5.7673
    -5.7553  -5.7262  -5.7059  -5.6691  -5.6516  -5.6051  -5.5905  -5.5508
    -5.5225  -5.5113  -5.4710  -5.4466  -5.3329  -5.1843  -4.9851  -4.9248
    -4.5678  -4.5451  -4.0833  -3.7805  -3.2693  -3.0432  -2.5475  -2.3670
    -2.0979  -2.0234  -1.5449  -1.4514  -1.2719  -0.9577  -0.8879  -0.1813

          k = 0.1429 0.4850 0.0000 ( 40087 PWs)   bands (ev):

   -11.8615 -11.3385 -11.1986 -10.9682 -10.9039 -10.8056 -10.7703 -10.5913
   -10.5666 -10.4675 -10.3904 -10.3529 -10.3190 -10.2695 -10.2364 -10.1328
   -10.0569 -10.0162  -9.9066  -9.8861  -9.8590  -9.7374  -9.6768  -9.6219
    -9.5399  -9.5076  -9.4496  -9.4077  -9.3147  -9.2435  -9.1978  -9.1735
    -9.1155  -8.9316  -8.8943  -8.8336  -8.8002  -8.6968  -8.6443  -8.5638
    -8.4888  -8.4395  -8.4260  -8.3290  -8.2257  -8.2132  -8.0951  -8.0643
    -8.0415  -7.9891  -7.9710  -7.9077  -7.8860  -7.8304  -7.7692  -7.7207
    -7.6973  -7.6358  -7.5756  -7.5521  -7.5177  -7.4754  -7.4266  -7.4021
    -7.3577  -7.2875  -7.2644  -7.2000  -7.1739  -7.1270  -7.0407  -7.0146
    -6.9959  -6.9820  -6.9032  -6.8842  -6.8581  -6.8041  -6.7747  -6.7676
    -6.7511  -6.7047  -6.6797  -6.6126  -6.5831  -6.5423  -6.4498  -6.4181
    -6.3655  -6.3565  -6.3297  -6.2928  -6.2665  -6.2485  -6.1855  -6.1529
    -6.1139  -6.0902  -6.0480  -6.0203  -5.9760  -5.9579  -5.9369  -5.9136
    -5.8915  -5.8775  -5.8485  -5.8377  -5.7751  -5.7311  -5.7133  -5.6766
    -5.6703  -5.6490  -5.6386  -5.6221  -5.6072  -5.5984  -5.5739  -5.5602
    -5.5387  -5.5168  -5.4601  -5.4119  -5.3718  -5.3443  -5.1342  -5.0787
    -4.5537  -4.2498  -3.8617  -3.8396  -3.6396  -3.2152  -3.0267  -2.7907
    -2.7389  -2.3128  -2.2606  -1.4767  -1.3666  -1.1779  -1.1130  -0.8326

          k = 0.1429-0.4850 0.0000 ( 40087 PWs)   bands (ev):

   -11.8640 -11.3502 -11.2167 -10.9904 -10.8390 -10.8161 -10.7590 -10.5765
   -10.5283 -10.4963 -10.3978 -10.3698 -10.3497 -10.2960 -10.1778 -10.1499
   -10.0493  -9.9872  -9.9736  -9.8640  -9.7931  -9.7645  -9.6810  -9.6317
    -9.5576  -9.5154  -9.4432  -9.3997  -9.3209  -9.2909  -9.1944  -9.1543
    -9.1114  -8.9982  -8.8789  -8.8081  -8.7716  -8.7129  -8.6211  -8.5538
    -8.5443  -8.4419  -8.3796  -8.3034  -8.2235  -8.2154  -8.1349  -8.0760
    -8.0280  -7.9769  -7.9204  -7.9030  -7.8497  -7.8073  -7.7670  -7.7333
    -7.6700  -7.6300  -7.5936  -7.5243  -7.5119  -7.4720  -7.4481  -7.4050
    -7.3835  -7.3378  -7.2656  -7.2476  -7.1676  -7.1165  -7.0548  -7.0156
    -6.9804  -6.9441  -6.9134  -6.8724  -6.8279  -6.8101  -6.7886  -6.7500
    -6.7235  -6.7013  -6.6345  -6.6002  -6.5538  -6.5261  -6.4894  -6.4567
    -6.4350  -6.3695  -6.3471  -6.3049  -6.2729  -6.2350  -6.2261  -6.1551
    -6.1028  -6.0746  -6.0430  -6.0356  -5.9982  -5.9621  -5.9335  -5.9079
    -5.8996  -5.8380  -5.8296  -5.8197  -5.7549  -5.7330  -5.7208  -5.7084
    -5.7006  -5.6688  -5.6502  -5.6332  -5.6222  -5.6170  -5.5773  -5.5723
    -5.5259  -5.4798  -5.4656  -5.4212  -5.3694  -5.3437  -5.0682  -4.9287
    -4.5474  -4.2303  -4.0627  -3.9158  -3.8297  -3.2606  -3.0868  -2.9479
    -2.5657  -2.2896  -1.9316  -1.5890  -1.2442  -1.1468  -1.0536  -0.4200

          k = 0.1429-0.3233 0.0000 ( 40126 PWs)   bands (ev):

   -12.5671 -11.9336 -11.1372 -10.9665 -10.8648 -10.7378 -10.6973 -10.5911
   -10.4830 -10.4546 -10.3647 -10.2493 -10.2188 -10.1903 -10.1437 -10.0788
   -10.0564 -10.0000  -9.8624  -9.8476  -9.8074  -9.7415  -9.7085  -9.6153
    -9.5914  -9.5505  -9.4735  -9.3842  -9.3661  -9.2511  -9.1609  -9.1037
    -9.0073  -8.9620  -8.8321  -8.7967  -8.6495  -8.5795  -8.5547  -8.4616
    -8.4483  -8.3577  -8.3012  -8.2260  -8.1490  -8.1267  -8.0909  -8.0223
    -7.9914  -7.9485  -7.9158  -7.8817  -7.7901  -7.7709  -7.7641  -7.7545
    -7.7036  -7.6658  -7.6061  -7.5480  -7.5414  -7.4731  -7.4026  -7.3775
    -7.3407  -7.3181  -7.2503  -7.2348  -7.1846  -7.1794  -7.1740  -7.1031
    -7.0441  -7.0303  -6.9854  -6.9647  -6.9134  -6.8509  -6.8302  -6.7590
    -6.7215  -6.6994  -6.6604  -6.6448  -6.6025  -6.5751  -6.5611  -6.4848
    -6.4410  -6.4056  -6.3892  -6.3408  -6.3184  -6.2731  -6.2449  -6.2316
    -6.1570  -6.1321  -6.0956  -6.0790  -6.0440  -6.0170  -6.0082  -5.9809
    -5.9426  -5.8967  -5.8790  -5.8548  -5.8356  -5.8185  -5.7920  -5.7746
    -5.7656  -5.7284  -5.7095  -5.6946  -5.6471  -5.6292  -5.5965  -5.5630
    -5.5521  -5.5028  -5.4659  -5.4051  -5.3470  -5.1677  -4.9534  -4.8838
    -4.6286  -4.5761  -4.2258  -3.7574  -3.2856  -3.1645  -2.7795  -2.4053
    -2.1881  -2.0177  -1.5352  -1.4097  -0.9370  -0.5733  -0.2904  -0.1852

          k = 0.1429-0.1617 0.0000 ( 40157 PWs)   bands (ev):

   -13.0447 -12.3763 -11.4961 -10.9542 -10.8477 -10.7942 -10.6439 -10.5885
   -10.5578 -10.4300 -10.3578 -10.2545 -10.2119 -10.1385 -10.0051  -9.9608
    -9.8986  -9.8518  -9.7467  -9.7077  -9.6727  -9.6589  -9.5677  -9.5191
    -9.4236  -9.4013  -9.3767  -9.3483  -9.2705  -9.1580  -9.1187  -9.0165
    -8.9655  -8.9131  -8.7920  -8.6609  -8.6561  -8.5589  -8.5136  -8.4637
    -8.4457  -8.3652  -8.2934  -8.2522  -8.2241  -8.1577  -8.1261  -8.0907
    -8.0465  -8.0172  -7.9805  -7.9235  -7.8669  -7.7880  -7.7541  -7.7184
    -7.6788  -7.6484  -7.6395  -7.6049  -7.5427  -7.5216  -7.4938  -7.4727
    -7.4400  -7.4001  -7.3572  -7.3408  -7.3261  -7.2946  -7.2535  -7.2321
    -7.1679  -7.1370  -7.1060  -7.0600  -7.0479  -6.9645  -6.9277  -6.8797
    -6.8650  -6.7837  -6.7361  -6.6702  -6.6307  -6.5916  -6.5556  -6.5185
    -6.4917  -6.4195  -6.4057  -6.3515  -6.3269  -6.2854  -6.2732  -6.2635
    -6.2517  -6.2278  -6.2068  -6.1405  -6.1058  -6.0844  -6.0620  -6.0360
    -5.9867  -5.9355  -5.9180  -5.8439  -5.8154  -5.8086  -5.7888  -5.7679
    -5.7427  -5.6884  -5.6586  -5.6478  -5.6278  -5.6163  -5.5772  -5.5416
    -5.5045  -5.4839  -5.4648  -5.4349  -5.2362  -4.7131  -4.5707  -4.4768
    -4.1809  -4.0882  -3.9838  -3.7018  -3.4928  -3.0602  -2.8115  -1.9369
    -1.7091  -1.3778  -1.3585  -0.8668  -0.3655  -0.1524   0.3715   0.5328

          k = 0.2857 0.0000 0.0000 ( 40216 PWs)   bands (ev):

   -12.8236 -12.1677 -11.3152 -10.9097 -10.7210 -10.6210 -10.5956 -10.5003
   -10.4209 -10.3703 -10.2273 -10.2073 -10.0959 -10.0578  -9.9084  -9.8538
    -9.7491  -9.6816  -9.5898  -9.5428  -9.5296  -9.5049  -9.4611  -9.4225
    -9.3901  -9.2935  -9.2761  -9.2094  -9.1704  -9.0813  -9.0479  -8.9994
    -8.9635  -8.8918  -8.8132  -8.7826  -8.7265  -8.6366  -8.5551  -8.5012
    -8.4241  -8.3751  -8.3334  -8.3109  -8.2790  -8.2112  -8.1742  -8.1425
    -8.1273  -8.0623  -7.9949  -7.9401  -7.9084  -7.8799  -7.8080  -7.7607
    -7.7499  -7.7167  -7.6821  -7.6552  -7.6382  -7.6258  -7.6061  -7.5800
    -7.5576  -7.5137  -7.4932  -7.4735  -7.4357  -7.4115  -7.3902  -7.3361
    -7.2725  -7.2352  -7.1972  -7.1792  -7.1597  -7.1257  -7.0156  -6.9843
    -6.9490  -6.9057  -6.8857  -6.7771  -6.7410  -6.6862  -6.6497  -6.6281
    -6.5679  -6.5566  -6.5463  -6.5027  -6.4805  -6.4617  -6.4403  -6.4100
    -6.3629  -6.3376  -6.3079  -6.2822  -6.2535  -6.2007  -6.1013  -6.0697
    -6.0265  -5.9998  -5.9514  -5.9286  -5.9178  -5.8998  -5.8692  -5.8434
    -5.8209  -5.8112  -5.7778  -5.7701  -5.7436  -5.7030  -5.6949  -5.6671
    -5.5504  -5.5411  -5.5195  -5.5037  -5.4917  -5.4411  -5.2197  -4.9720
    -4.1306  -3.7228  -2.9869  -2.7050  -2.6163  -2.1693  -1.7943  -1.4737
    -1.2209  -1.1406  -0.8305   0.0869   0.4309   0.6170   0.7201   0.8900

          k = 0.2857 0.1617 0.0000 ( 40226 PWs)   bands (ev):

   -12.6633 -12.0211 -11.2050 -10.9478 -10.6936 -10.6143 -10.5679 -10.4848
   -10.3634 -10.3234 -10.2738 -10.2014 -10.1279 -10.1098  -9.9188  -9.8752
    -9.7783  -9.7450  -9.6958  -9.6438  -9.5961  -9.5463  -9.5090  -9.4661
    -9.3907  -9.3518  -9.2810  -9.2568  -9.2000  -9.1142  -9.0637  -9.0013
    -8.9662  -8.9371  -8.9075  -8.7552  -8.7358  -8.6430  -8.6254  -8.5410
    -8.4901  -8.4275  -8.3397  -8.2637  -8.1821  -8.1666  -8.1081  -8.0348
    -8.0268  -8.0109  -7.9621  -7.9149  -7.8782  -7.8264  -7.8079  -7.7558
    -7.6889  -7.6632  -7.6405  -7.6308  -7.5970  -7.5746  -7.5394  -7.4932
    -7.4779  -7.4517  -7.4137  -7.4027  -7.3370  -7.3277  -7.3075  -7.2921
    -7.2761  -7.2281  -7.1813  -7.1383  -7.1296  -7.0766  -7.0614  -7.0342
    -6.9987  -6.8867  -6.8292  -6.8135  -6.7869  -6.7334  -6.7221  -6.6762
    -6.6543  -6.6182  -6.5837  -6.5280  -6.4962  -6.4334  -6.3919  -6.3586
    -6.3342  -6.3150  -6.2640  -6.2571  -6.2141  -6.1611  -6.1276  -6.1004
    -6.0902  -6.0286  -6.0149  -5.9774  -5.9614  -5.9332  -5.8852  -5.8435
    -5.8163  -5.7848  -5.7638  -5.7180  -5.7132  -5.6805  -5.6567  -5.6251
    -5.5997  -5.5495  -5.5193  -5.4889  -5.4684  -5.3984  -5.2237  -4.7408
    -4.1184  -3.6468  -3.4523  -3.3439  -2.8845  -2.6132  -2.5660  -1.9895
    -1.2604  -0.8788  -0.7922  -0.7197  -0.2883   0.1546   0.3322   0.6563

          k = 0.2857 0.3233 0.0000 ( 40131 PWs)   bands (ev):

   -12.2124 -11.6180 -10.9757 -10.9156 -10.6757 -10.6256 -10.5342 -10.4695
   -10.4129 -10.3489 -10.2851 -10.1808 -10.1597 -10.0829 -10.0437  -9.9966
    -9.8986  -9.8812  -9.7633  -9.7383  -9.6843  -9.6104  -9.5465  -9.5229
    -9.4921  -9.4650  -9.4131  -9.3174  -9.1862  -9.1578  -9.1071  -9.0490
    -8.9512  -8.8972  -8.8716  -8.7930  -8.7601  -8.6779  -8.6349  -8.5692
    -8.4498  -8.4254  -8.3431  -8.2643  -8.2345  -8.1629  -8.1291  -8.0714
    -8.0232  -7.9889  -7.9472  -7.9350  -7.8641  -7.8468  -7.7926  -7.7680
    -7.7417  -7.7202  -7.6801  -7.5968  -7.5571  -7.5383  -7.5116  -7.4442
    -7.4184  -7.3587  -7.3214  -7.2756  -7.2642  -7.2322  -7.2156  -7.1601
    -7.1381  -7.0915  -7.0675  -7.0406  -6.9818  -6.9723  -6.9385  -6.9001
    -6.8697  -6.8353  -6.7961  -6.7844  -6.7585  -6.7282  -6.6660  -6.6395
    -6.6097  -6.5224  -6.4999  -6.4625  -6.4460  -6.3962  -6.3378  -6.3103
    -6.2840  -6.2408  -6.1904  -6.1862  -6.1757  -6.1506  -6.1010  -6.0825
    -6.0593  -6.0408  -6.0323  -6.0238  -5.9645  -5.9402  -5.8991  -5.8712
    -5.8386  -5.7767  -5.7375  -5.7168  -5.6752  -5.6648  -5.6516  -5.6007
    -5.5600  -5.5515  -5.5197  -5.4681  -5.4458  -5.3110  -5.2641  -4.7508
    -4.6055  -4.2269  -4.2098  -4.0231  -3.1764  -2.8332  -2.7897  -2.5053
    -2.3706  -1.9419  -1.7455  -1.5735  -1.0876  -0.5228  -0.1170   0.2882

          k = 0.2857 0.4850 0.0000 ( 40093 PWs)   bands (ev):

   -11.5605 -11.0998 -10.9264 -10.8710 -10.7716 -10.6658 -10.6186 -10.5067
   -10.4296 -10.3863 -10.3156 -10.2609 -10.2203 -10.1772 -10.1371  -9.9894
    -9.9508  -9.8923  -9.8673  -9.7992  -9.7163  -9.6459  -9.5934  -9.4954
    -9.4602  -9.4205  -9.3890  -9.3559  -9.2398  -9.1440  -9.0805  -9.0296
    -8.9807  -8.9245  -8.9147  -8.8510  -8.7362  -8.6789  -8.6283  -8.5882
    -8.5279  -8.4815  -8.4281  -8.3929  -8.3420  -8.1912  -8.1492  -8.1191
    -8.1049  -8.0640  -8.0247  -7.9665  -7.9367  -7.8862  -7.8506  -7.8060
    -7.7556  -7.7297  -7.7054  -7.6541  -7.6358  -7.5790  -7.5314  -7.4916
    -7.4170  -7.3849  -7.3535  -7.2831  -7.2341  -7.2067  -7.1621  -7.1162
    -7.0448  -7.0207  -6.9632  -6.9307  -6.9143  -6.8729  -6.8439  -6.7930
    -6.7476  -6.7098  -6.6592  -6.6220  -6.6088  -6.5520  -6.5320  -6.4498
    -6.4259  -6.3805  -6.3543  -6.3500  -6.3222  -6.3057  -6.2662  -6.2276
    -6.1993  -6.1615  -6.0887  -6.0762  -6.0625  -6.0558  -6.0234  -6.0107
    -6.0032  -5.9648  -5.9516  -5.9246  -5.8806  -5.8737  -5.8600  -5.8576
    -5.8473  -5.8221  -5.7826  -5.7662  -5.6804  -5.6566  -5.6434  -5.6213
    -5.5801  -5.5227  -5.5134  -5.4997  -5.4086  -5.3832  -5.2224  -5.0939
    -4.8675  -4.6894  -4.3080  -4.1880  -3.9793  -3.6036  -3.5093  -3.4703
    -2.6800  -2.5424  -1.9124  -1.8296  -1.1668  -0.8139  -0.6057  -0.0146

          k = 0.2857-0.4850 0.0000 ( 40093 PWs)   bands (ev):

   -11.5658 -11.1246 -10.9719 -10.8323 -10.7337 -10.6689 -10.6110 -10.4729
   -10.4390 -10.3997 -10.3788 -10.2585 -10.2246 -10.1563 -10.0687 -10.0165
    -9.9572  -9.9219  -9.8293  -9.7958  -9.6795  -9.6454  -9.5885  -9.5162
    -9.4757  -9.4461  -9.3549  -9.2527  -9.2376  -9.2234  -9.1582  -9.0973
    -9.0395  -8.9396  -8.9087  -8.8582  -8.7193  -8.6459  -8.6364  -8.5889
    -8.5338  -8.4779  -8.3728  -8.3393  -8.2520  -8.2388  -8.2163  -8.1301
    -8.0736  -8.0226  -7.9932  -7.9223  -7.8854  -7.8612  -7.8367  -7.8214
    -7.7647  -7.7383  -7.6944  -7.6618  -7.6401  -7.6109  -7.5589  -7.4650
    -7.4190  -7.3962  -7.3741  -7.2987  -7.2727  -7.2103  -7.1818  -7.1135
    -7.0357  -7.0018  -6.9594  -6.9336  -6.9096  -6.8565  -6.8361  -6.7689
    -6.7319  -6.7070  -6.6879  -6.5866  -6.5702  -6.5561  -6.5082  -6.4442
    -6.4288  -6.4174  -6.3540  -6.3436  -6.3147  -6.3022  -6.2761  -6.2302
    -6.2088  -6.1689  -6.0927  -6.0827  -6.0672  -6.0452  -6.0317  -6.0114
    -5.9944  -5.9717  -5.9685  -5.9348  -5.9035  -5.8923  -5.8649  -5.8518
    -5.8365  -5.7922  -5.7715  -5.7479  -5.7226  -5.6916  -5.6413  -5.6189
    -5.6145  -5.5612  -5.5328  -5.4773  -5.4403  -5.3380  -5.2201  -5.0659
    -4.8890  -4.8269  -4.3757  -4.1719  -3.9282  -3.7280  -3.5469  -3.3323
    -2.6427  -2.4158  -2.0022  -1.8131  -0.9777  -0.8742  -0.6817  -0.0343

          k = 0.2857-0.3233 0.0000 ( 40131 PWs)   bands (ev):

   -12.2249 -11.6261 -10.9814 -10.8297 -10.7306 -10.6339 -10.5071 -10.4889
   -10.3964 -10.3489 -10.3343 -10.1896 -10.1352 -10.0827 -10.0309  -9.9878
    -9.9331  -9.8875  -9.7757  -9.7330  -9.6825  -9.6090  -9.5668  -9.5591
    -9.4930  -9.4527  -9.4156  -9.3371  -9.2670  -9.1831  -9.1122  -9.0106
    -8.9160  -8.8639  -8.8350  -8.7833  -8.7243  -8.6328  -8.5816  -8.4968
    -8.4822  -8.3714  -8.3119  -8.2619  -8.2212  -8.1886  -8.1290  -8.0595
    -8.0255  -7.9974  -7.9466  -7.9171  -7.8937  -7.8436  -7.8146  -7.7732
    -7.7338  -7.7308  -7.6658  -7.6494  -7.5617  -7.5248  -7.5045  -7.4382
    -7.4116  -7.3894  -7.3516  -7.3287  -7.2679  -7.2432  -7.2041  -7.1339
    -7.1209  -7.0900  -7.0679  -7.0116  -6.9788  -6.9457  -6.9403  -6.9178
    -6.8637  -6.7981  -6.7752  -6.7393  -6.7177  -6.6943  -6.6664  -6.6343
    -6.6147  -6.5664  -6.5321  -6.4643  -6.4189  -6.3961  -6.3677  -6.3097
    -6.2711  -6.2450  -6.2322  -6.2073  -6.1692  -6.1401  -6.1179  -6.1022
    -6.0801  -6.0608  -6.0229  -5.9988  -5.9574  -5.9446  -5.8966  -5.8369
    -5.8165  -5.8043  -5.7685  -5.7232  -5.7086  -5.6609  -5.6529  -5.6241
    -5.6070  -5.5773  -5.5380  -5.4771  -5.4495  -5.4075  -5.2613  -4.7513
    -4.6059  -4.3430  -4.2172  -4.0218  -3.1570  -2.9166  -2.8129  -2.4357
    -2.3547  -1.8561  -1.8046  -1.5912  -0.9017  -0.4950   0.1786   0.2548

          k = 0.2857-0.1617 0.0000 ( 40226 PWs)   bands (ev):

   -12.6705 -12.0248 -11.1894 -10.9054 -10.7050 -10.6399 -10.5940 -10.4462
   -10.3786 -10.3194 -10.2932 -10.1543 -10.1521 -10.0890 -10.0213  -9.9051
    -9.8353  -9.8037  -9.7003  -9.6308  -9.5546  -9.5030  -9.4938  -9.4759
    -9.4287  -9.3666  -9.3123  -9.2582  -9.2056  -9.1223  -9.0505  -8.9597
    -8.9226  -8.8222  -8.7877  -8.6779  -8.6219  -8.6103  -8.5667  -8.5174
    -8.4753  -8.3900  -8.3568  -8.3044  -8.2657  -8.1874  -8.1463  -8.0981
    -8.0713  -8.0625  -8.0106  -7.9722  -7.8618  -7.8513  -7.7853  -7.7445
    -7.7141  -7.6943  -7.6694  -7.6159  -7.5938  -7.5755  -7.5458  -7.5281
    -7.4975  -7.4441  -7.4274  -7.4233  -7.3662  -7.3483  -7.3364  -7.2942
    -7.2792  -7.2270  -7.1694  -7.1249  -7.0783  -7.0616  -7.0515  -6.9884
    -6.9466  -6.8864  -6.8215  -6.7420  -6.7327  -6.6956  -6.6803  -6.6614
    -6.6319  -6.6146  -6.5792  -6.5282  -6.4951  -6.4547  -6.4214  -6.3873
    -6.3611  -6.3254  -6.2985  -6.2566  -6.2269  -6.1777  -6.1539  -6.0899
    -6.0694  -6.0500  -6.0197  -5.9699  -5.9598  -5.9274  -5.8686  -5.8496
    -5.8081  -5.7978  -5.7700  -5.7299  -5.7012  -5.6706  -5.6352  -5.6175
    -5.5899  -5.5448  -5.5228  -5.5145  -5.4862  -5.4305  -5.2967  -4.8189
    -4.1359  -3.6741  -3.4773  -3.3520  -2.8793  -2.6873  -2.5482  -1.9722
    -1.2474  -0.8105  -0.7781  -0.7188  -0.1967   0.2155   0.4131   0.9334

          k = 0.4286 0.0000 0.0000 ( 40252 PWs)   bands (ev):

   -12.2240 -11.6258 -11.4877 -11.0065 -10.8519 -10.5379 -10.4871 -10.3189
   -10.2830 -10.1790 -10.1230 -10.0880 -10.0349  -9.9842  -9.9119  -9.8588
    -9.6770  -9.6338  -9.5870  -9.5439  -9.4808  -9.4111  -9.3790  -9.3357
    -9.3034  -9.2679  -9.2468  -9.2078  -9.1048  -9.0268  -8.9964  -8.9778
    -8.9068  -8.8700  -8.8160  -8.7552  -8.6675  -8.6583  -8.6332  -8.5851
    -8.5358  -8.5012  -8.4537  -8.3886  -8.3724  -8.3140  -8.2435  -8.2016
    -8.0776  -8.0512  -8.0140  -7.9944  -7.9437  -7.8825  -7.8332  -7.7899
    -7.7596  -7.7309  -7.6991  -7.6719  -7.6315  -7.6026  -7.5853  -7.5589
    -7.5355  -7.5161  -7.4878  -7.4684  -7.4323  -7.4094  -7.3670  -7.3429
    -7.3228  -7.2694  -7.2098  -7.1689  -7.1592  -7.0777  -7.0668  -7.0143
    -6.9879  -6.9738  -6.9493  -6.9192  -6.8854  -6.8519  -6.8187  -6.7556
    -6.7335  -6.6943  -6.6757  -6.6507  -6.6248  -6.5897  -6.5336  -6.4745
    -6.4368  -6.4266  -6.4079  -6.3763  -6.3439  -6.3168  -6.3005  -6.2347
    -6.1941  -6.1257  -6.1109  -6.1029  -6.0780  -6.0487  -5.9891  -5.9658
    -5.9564  -5.9275  -5.8989  -5.8559  -5.8278  -5.8034  -5.7760  -5.7554
    -5.7184  -5.6913  -5.5780  -5.5518  -5.5132  -5.5101  -5.3356  -4.8944
    -4.2655  -3.5119  -2.8301  -1.9346  -1.8018  -1.5733  -1.3180  -1.0740
    -0.7655  -0.5791  -0.3604  -0.2243  -0.1603  -0.0075   0.2063   0.4851

          k = 0.4286 0.1617 0.0000 ( 40213 PWs)   bands (ev):

   -12.0850 -11.5219 -11.4233 -10.9610 -10.8077 -10.5379 -10.4191 -10.3611
   -10.2485 -10.1827 -10.1541 -10.1051 -10.0537  -9.9778  -9.8949  -9.8351
    -9.6974  -9.6629  -9.6281  -9.5877  -9.5247  -9.4918  -9.4149  -9.3831
    -9.3498  -9.2559  -9.2186  -9.1892  -9.1263  -9.0674  -9.0520  -8.9805
    -8.9290  -8.8767  -8.8269  -8.7413  -8.7316  -8.6583  -8.6289  -8.6186
    -8.5312  -8.4830  -8.4211  -8.3539  -8.3047  -8.2794  -8.1323  -8.1202
    -8.0994  -8.0722  -8.0242  -7.9442  -7.9003  -7.8447  -7.8270  -7.7768
    -7.7475  -7.7103  -7.6737  -7.6140  -7.6090  -7.5690  -7.5495  -7.5400
    -7.5029  -7.4643  -7.4486  -7.4347  -7.4004  -7.3960  -7.3426  -7.3179
    -7.2645  -7.2429  -7.2098  -7.1876  -7.1157  -7.0968  -7.0907  -7.0444
    -7.0282  -6.9834  -6.9594  -6.9107  -6.8792  -6.8543  -6.8320  -6.7734
    -6.7561  -6.7370  -6.7012  -6.6512  -6.6323  -6.5515  -6.5265  -6.4917
    -6.4570  -6.4472  -6.4190  -6.4004  -6.3551  -6.3351  -6.2863  -6.2755
    -6.2458  -6.2354  -6.1993  -6.1747  -6.1144  -6.0729  -6.0238  -6.0163
    -5.9615  -5.9235  -5.8131  -5.7760  -5.7478  -5.7235  -5.7091  -5.6812
    -5.6513  -5.6010  -5.5437  -5.5049  -5.4626  -5.4246  -5.3190  -4.8462
    -4.1176  -3.4424  -2.8285  -2.6301  -2.4997  -2.0893  -1.9284  -1.7543
    -1.6585  -1.5378  -0.9999  -0.8659  -0.4810   0.0800   0.2661   1.0557

          k = 0.4286 0.3233 0.0000 ( 40194 PWs)   bands (ev):

   -11.7079 -11.2517 -11.2031 -10.8271 -10.6710 -10.5210 -10.3988 -10.3481
   -10.2965 -10.2202 -10.1995 -10.0957 -10.0646  -9.9657  -9.9386  -9.8744
    -9.8102  -9.7634  -9.6950  -9.6579  -9.5924  -9.5597  -9.5434  -9.4555
    -9.4040  -9.3238  -9.2882  -9.2288  -9.1101  -9.0737  -9.0301  -8.9583
    -8.8913  -8.8781  -8.8209  -8.7656  -8.7523  -8.7086  -8.6384  -8.5876
    -8.5061  -8.4467  -8.4117  -8.3312  -8.2959  -8.2265  -8.1616  -8.1426
    -8.1062  -8.0361  -8.0129  -7.9760  -7.9261  -7.9026  -7.8076  -7.7853
    -7.7733  -7.7018  -7.6829  -7.6554  -7.6065  -7.5570  -7.5382  -7.5078
    -7.4783  -7.4404  -7.3954  -7.3666  -7.3324  -7.3083  -7.2642  -7.2438
    -7.2035  -7.1922  -7.1590  -7.0988  -7.0638  -7.0331  -7.0104  -6.9992
    -6.9655  -6.9051  -6.8668  -6.8567  -6.8293  -6.8052  -6.7550  -6.7102
    -6.6786  -6.6312  -6.6190  -6.5958  -6.5652  -6.5412  -6.5242  -6.5070
    -6.4901  -6.4089  -6.3935  -6.3772  -6.3418  -6.3357  -6.2911  -6.2356
    -6.2097  -6.1972  -6.1824  -6.1606  -6.1015  -6.0904  -6.0528  -6.0009
    -5.9850  -5.8888  -5.7951  -5.7593  -5.7346  -5.6804  -5.6221  -5.6142
    -5.5719  -5.5433  -5.5125  -5.4851  -5.4182  -5.4078  -5.0770  -4.6669
    -4.1412  -3.9304  -3.7203  -3.5325  -3.4563  -3.2542  -3.0987  -2.6566
    -2.3555  -2.1078  -1.5955  -1.3703  -0.8708  -0.8510  -0.2007   0.0108

          k = 0.4286 0.4850 0.0000 ( 40084 PWs)   bands (ev):

   -11.1846 -10.9151 -10.8704 -10.6661 -10.6294 -10.5839 -10.5212 -10.4197
   -10.3320 -10.2662 -10.2190 -10.1840 -10.1286 -10.0640  -9.9919  -9.9600
    -9.9049  -9.8276  -9.7930  -9.6852  -9.5910  -9.5637  -9.5101  -9.4660
    -9.4104  -9.3674  -9.3211  -9.2939  -9.1264  -9.0920  -9.0234  -8.9679
    -8.8972  -8.8572  -8.8197  -8.7961  -8.7350  -8.6804  -8.6327  -8.5575
    -8.5243  -8.4711  -8.4152  -8.4013  -8.3489  -8.2185  -8.2086  -8.1755
    -8.1423  -8.0713  -8.0498  -7.9750  -7.9440  -7.9037  -7.8704  -7.8517
    -7.8175  -7.7909  -7.7445  -7.7091  -7.6582  -7.6463  -7.5810  -7.5500
    -7.4991  -7.4369  -7.4081  -7.3575  -7.3007  -7.2480  -7.2171  -7.2047
    -7.1305  -7.1219  -7.0993  -7.0640  -7.0405  -7.0271  -6.9744  -6.9449
    -6.9216  -6.8720  -6.8253  -6.7972  -6.7371  -6.7000  -6.6448  -6.6074
    -6.5794  -6.5554  -6.5222  -6.4917  -6.4611  -6.4215  -6.3747  -6.3399
    -6.3147  -6.2841  -6.2192  -6.1984  -6.1902  -6.1584  -6.1469  -6.1286
    -6.0458  -6.0236  -6.0055  -5.9698  -5.9437  -5.9182  -5.8746  -5.8626
    -5.8501  -5.8233  -5.8012  -5.7428  -5.6837  -5.6488  -5.6353  -5.6301
    -5.6106  -5.5576  -5.5316  -5.4849  -5.4373  -5.3153  -5.1088  -5.0174
    -4.7227  -4.6603  -4.5851  -4.5304  -4.1774  -4.1476  -3.6037  -3.1852
    -2.9801  -2.5532  -2.0389  -1.5242  -1.3452  -0.6818  -0.3408   0.1537

          k = 0.4286-0.4850 0.0000 ( 40084 PWs)   bands (ev):

   -11.1975 -10.9340 -10.8131 -10.6901 -10.6642 -10.5454 -10.5308 -10.4218
   -10.3504 -10.3057 -10.2429 -10.1637 -10.1258 -10.0235  -9.9527  -9.9168
    -9.9021  -9.8269  -9.7767  -9.6856  -9.6602  -9.6055  -9.4976  -9.4374
    -9.3982  -9.3191  -9.2755  -9.2533  -9.1555  -9.1389  -9.0696  -9.0251
    -8.9844  -8.8970  -8.8528  -8.8122  -8.7419  -8.6660  -8.6057  -8.5647
    -8.4684  -8.4299  -8.4173  -8.3050  -8.2641  -8.2416  -8.2062  -8.1740
    -8.1429  -8.0761  -8.0181  -7.9959  -7.9652  -7.9154  -7.8965  -7.8495
    -7.8054  -7.7636  -7.7425  -7.7128  -7.6828  -7.6198  -7.6023  -7.5319
    -7.4670  -7.4630  -7.3838  -7.3485  -7.3193  -7.2603  -7.2344  -7.1853
    -7.1701  -7.1439  -7.1011  -7.0510  -7.0235  -7.0112  -6.9898  -6.9506
    -6.9155  -6.8883  -6.8507  -6.7825  -6.7581  -6.7080  -6.6376  -6.5944
    -6.5682  -6.5598  -6.4922  -6.4545  -6.4350  -6.3994  -6.3702  -6.3488
    -6.3207  -6.2929  -6.2637  -6.2099  -6.1883  -6.1676  -6.1513  -6.1211
    -6.0444  -6.0270  -6.0116  -5.9896  -5.9367  -5.9174  -5.8902  -5.8701
    -5.8416  -5.7991  -5.7539  -5.7489  -5.7123  -5.6896  -5.6776  -5.6466
    -5.6185  -5.5464  -5.5232  -5.4901  -5.4577  -5.3424  -5.0469  -5.0129
    -4.7579  -4.7301  -4.6053  -4.4612  -4.1670  -4.0846  -3.6822  -3.1830
    -2.9327  -2.4723  -2.1299  -1.4875  -1.3394  -0.6557  -0.3404   0.0016

          k = 0.4286-0.3233 0.0000 ( 40194 PWs)   bands (ev):

   -11.7329 -11.2274 -11.1803 -10.8516 -10.6479 -10.5773 -10.3802 -10.3375
   -10.3092 -10.2289 -10.1543 -10.0891 -10.0281  -9.9839  -9.9538  -9.8948
    -9.8481  -9.7642  -9.7343  -9.6609  -9.6354  -9.5631  -9.4947  -9.4678
    -9.3777  -9.2794  -9.2517  -9.2220  -9.1420  -9.1095  -9.0306  -8.9715
    -8.9458  -8.8923  -8.8094  -8.7568  -8.7138  -8.6695  -8.6309  -8.5404
    -8.4625  -8.4215  -8.3984  -8.3292  -8.2621  -8.2132  -8.1814  -8.1561
    -8.1322  -8.0636  -8.0239  -7.9646  -7.9198  -7.8918  -7.8558  -7.8180
    -7.7495  -7.6718  -7.6615  -7.6356  -7.5908  -7.5660  -7.5128  -7.5018
    -7.4910  -7.4635  -7.3796  -7.3637  -7.3438  -7.3148  -7.2828  -7.2643
    -7.2259  -7.1962  -7.1693  -7.1282  -7.0732  -7.0261  -7.0115  -6.9726
    -6.9433  -6.9201  -6.8992  -6.8568  -6.8289  -6.7675  -6.7409  -6.6995
    -6.6807  -6.6637  -6.6028  -6.5502  -6.5309  -6.5249  -6.5121  -6.4842
    -6.4623  -6.4461  -6.4107  -6.3975  -6.3596  -6.3497  -6.3024  -6.2421
    -6.2331  -6.2194  -6.2050  -6.1678  -6.1048  -6.0927  -6.0571  -5.9916
    -5.9607  -5.9019  -5.8017  -5.7716  -5.7352  -5.6598  -5.6401  -5.6334
    -5.5824  -5.5633  -5.5123  -5.4950  -5.4197  -5.4143  -5.0331  -4.7111
    -4.1470  -3.9629  -3.7922  -3.5242  -3.4570  -3.1875  -3.0671  -2.5879
    -2.3810  -2.1727  -1.5171  -1.3068  -0.9981  -0.9060  -0.1059   0.2205

          k = 0.4286-0.1617 0.0000 ( 40213 PWs)   bands (ev):

   -12.0995 -11.5125 -11.4038 -10.9814 -10.7598 -10.5949 -10.4550 -10.3185
   -10.2882 -10.1790 -10.1086 -10.0544 -10.0190  -9.9701  -9.9486  -9.8468
    -9.7922  -9.6978  -9.6653  -9.6176  -9.5863  -9.4489  -9.3756  -9.3621
    -9.3327  -9.2871  -9.2457  -9.1643  -9.0871  -9.0639  -8.9648  -8.9394
    -8.8715  -8.8149  -8.7975  -8.7605  -8.7345  -8.6559  -8.6422  -8.5297
    -8.5150  -8.4716  -8.4313  -8.3905  -8.3295  -8.2633  -8.2077  -8.1585
    -8.0959  -8.0686  -8.0394  -8.0053  -7.8935  -7.8735  -7.8288  -7.7711
    -7.7317  -7.7115  -7.6722  -7.6504  -7.6248  -7.6083  -7.5617  -7.5354
    -7.5241  -7.4989  -7.4554  -7.4274  -7.3973  -7.3850  -7.3748  -7.2962
    -7.2542  -7.2326  -7.2166  -7.1525  -7.1171  -7.0963  -7.0570  -7.0357
    -7.0186  -6.9834  -6.9196  -6.9040  -6.8704  -6.8396  -6.7864  -6.7671
    -6.7346  -6.7033  -6.6820  -6.6406  -6.6199  -6.5867  -6.5627  -6.5095
    -6.4628  -6.4514  -6.4344  -6.3923  -6.3716  -6.3505  -6.3147  -6.2893
    -6.2626  -6.2196  -6.1794  -6.1609  -6.1233  -6.0830  -6.0378  -6.0084
    -5.9854  -5.8780  -5.8112  -5.7833  -5.7589  -5.7275  -5.7191  -5.6946
    -5.6544  -5.6062  -5.5348  -5.4982  -5.4817  -5.4197  -5.3003  -4.8825
    -4.1615  -3.3900  -2.8761  -2.6786  -2.5448  -2.0128  -1.9127  -1.7461
    -1.6666  -1.5436  -0.9675  -0.8765  -0.3513   0.0962   0.2633   1.0325

          k =-0.4286 0.0000 0.0000 ( 40252 PWs)   bands (ev):

   -12.2240 -11.6258 -11.4877 -11.0065 -10.8519 -10.5379 -10.4871 -10.3189
   -10.2830 -10.1790 -10.1230 -10.0880 -10.0349  -9.9842  -9.9119  -9.8588
    -9.6770  -9.6338  -9.5870  -9.5439  -9.4808  -9.4111  -9.3790  -9.3357
    -9.3034  -9.2679  -9.2468  -9.2078  -9.1048  -9.0268  -8.9964  -8.9778
    -8.9068  -8.8700  -8.8160  -8.7552  -8.6675  -8.6583  -8.6332  -8.5851
    -8.5358  -8.5012  -8.4537  -8.3886  -8.3724  -8.3140  -8.2435  -8.2016
    -8.0776  -8.0512  -8.0140  -7.9944  -7.9437  -7.8825  -7.8332  -7.7899
    -7.7596  -7.7309  -7.6991  -7.6719  -7.6315  -7.6026  -7.5853  -7.5589
    -7.5355  -7.5161  -7.4878  -7.4684  -7.4323  -7.4094  -7.3670  -7.3429
    -7.3228  -7.2694  -7.2098  -7.1689  -7.1592  -7.0777  -7.0668  -7.0143
    -6.9879  -6.9738  -6.9493  -6.9192  -6.8854  -6.8519  -6.8187  -6.7556
    -6.7335  -6.6943  -6.6757  -6.6507  -6.6248  -6.5897  -6.5336  -6.4745
    -6.4368  -6.4266  -6.4079  -6.3763  -6.3439  -6.3168  -6.3005  -6.2347
    -6.1941  -6.1257  -6.1109  -6.1029  -6.0780  -6.0487  -5.9891  -5.9658
    -5.9564  -5.9275  -5.8989  -5.8559  -5.8278  -5.8034  -5.7760  -5.7554
    -5.7184  -5.6913  -5.5780  -5.5518  -5.5132  -5.5101  -5.3356  -4.8944
    -4.2655  -3.5119  -2.8301  -1.9346  -1.8019  -1.5733  -1.3180  -1.0741
    -0.7660  -0.5789  -0.3607  -0.2243  -0.1604  -0.0089   0.2066   0.4840

          k =-0.4286 0.1617 0.0000 ( 40213 PWs)   bands (ev):

   -12.0995 -11.5125 -11.4038 -10.9814 -10.7598 -10.5949 -10.4550 -10.3185
   -10.2882 -10.1790 -10.1086 -10.0544 -10.0190  -9.9701  -9.9486  -9.8468
    -9.7922  -9.6978  -9.6653  -9.6176  -9.5863  -9.4489  -9.3756  -9.3621
    -9.3327  -9.2871  -9.2457  -9.1643  -9.0871  -9.0639  -8.9648  -8.9394
    -8.8715  -8.8149  -8.7975  -8.7605  -8.7345  -8.6559  -8.6422  -8.5297
    -8.5150  -8.4716  -8.4313  -8.3905  -8.3295  -8.2633  -8.2077  -8.1585
    -8.0959  -8.0686  -8.0394  -8.0053  -7.8935  -7.8735  -7.8288  -7.7711
    -7.7317  -7.7115  -7.6722  -7.6504  -7.6248  -7.6083  -7.5617  -7.5354
    -7.5241  -7.4989  -7.4554  -7.4274  -7.3973  -7.3850  -7.3748  -7.2962
    -7.2542  -7.2326  -7.2166  -7.1525  -7.1171  -7.0963  -7.0570  -7.0357
    -7.0186  -6.9834  -6.9196  -6.9040  -6.8704  -6.8396  -6.7864  -6.7671
    -6.7346  -6.7033  -6.6820  -6.6406  -6.6199  -6.5867  -6.5627  -6.5095
    -6.4628  -6.4514  -6.4344  -6.3923  -6.3716  -6.3505  -6.3147  -6.2893
    -6.2626  -6.2196  -6.1794  -6.1609  -6.1233  -6.0830  -6.0378  -6.0084
    -5.9854  -5.8780  -5.8112  -5.7833  -5.7589  -5.7275  -5.7191  -5.6946
    -5.6544  -5.6062  -5.5348  -5.4982  -5.4817  -5.4197  -5.3003  -4.8825
    -4.1615  -3.3900  -2.8761  -2.6786  -2.5449  -2.0128  -1.9127  -1.7461
    -1.6667  -1.5435  -0.9675  -0.8765  -0.3513   0.0962   0.2632   1.0328

          k =-0.4286 0.3233 0.0000 ( 40194 PWs)   bands (ev):

   -11.7329 -11.2274 -11.1803 -10.8516 -10.6479 -10.5773 -10.3802 -10.3375
   -10.3092 -10.2289 -10.1543 -10.0891 -10.0281  -9.9839  -9.9538  -9.8948
    -9.8481  -9.7642  -9.7343  -9.6609  -9.6354  -9.5631  -9.4947  -9.4678
    -9.3777  -9.2794  -9.2517  -9.2220  -9.1420  -9.1095  -9.0306  -8.9715
    -8.9458  -8.8923  -8.8094  -8.7568  -8.7138  -8.6695  -8.6309  -8.5404
    -8.4625  -8.4215  -8.3984  -8.3292  -8.2621  -8.2132  -8.1814  -8.1561
    -8.1322  -8.0636  -8.0239  -7.9646  -7.9198  -7.8918  -7.8558  -7.8180
    -7.7495  -7.6718  -7.6615  -7.6356  -7.5908  -7.5660  -7.5128  -7.5018
    -7.4910  -7.4635  -7.3796  -7.3637  -7.3438  -7.3148  -7.2828  -7.2643
    -7.2259  -7.1962  -7.1693  -7.1282  -7.0732  -7.0261  -7.0115  -6.9726
    -6.9433  -6.9201  -6.8992  -6.8568  -6.8289  -6.7675  -6.7409  -6.6995
    -6.6807  -6.6637  -6.6028  -6.5502  -6.5309  -6.5249  -6.5121  -6.4842
    -6.4623  -6.4461  -6.4107  -6.3975  -6.3596  -6.3497  -6.3024  -6.2421
    -6.2331  -6.2194  -6.2050  -6.1678  -6.1048  -6.0927  -6.0571  -5.9916
    -5.9607  -5.9019  -5.8017  -5.7716  -5.7352  -5.6598  -5.6401  -5.6334
    -5.5824  -5.5633  -5.5123  -5.4950  -5.4197  -5.4143  -5.0331  -4.7111
    -4.1470  -3.9629  -3.7922  -3.5242  -3.4570  -3.1875  -3.0671  -2.5879
    -2.3809  -2.1727  -1.5171  -1.3070  -0.9983  -0.9060  -0.1060   0.2212

          k =-0.4286 0.4850 0.0000 ( 40084 PWs)   bands (ev):

   -11.1975 -10.9340 -10.8131 -10.6901 -10.6642 -10.5454 -10.5308 -10.4218
   -10.3504 -10.3057 -10.2429 -10.1637 -10.1258 -10.0235  -9.9527  -9.9168
    -9.9021  -9.8269  -9.7767  -9.6856  -9.6602  -9.6055  -9.4976  -9.4374
    -9.3982  -9.3191  -9.2755  -9.2533  -9.1555  -9.1389  -9.0696  -9.0251
    -8.9844  -8.8970  -8.8528  -8.8122  -8.7419  -8.6660  -8.6057  -8.5647
    -8.4684  -8.4299  -8.4173  -8.3050  -8.2641  -8.2416  -8.2062  -8.1740
    -8.1429  -8.0761  -8.0181  -7.9959  -7.9652  -7.9154  -7.8965  -7.8495
    -7.8054  -7.7636  -7.7425  -7.7128  -7.6828  -7.6198  -7.6023  -7.5319
    -7.4670  -7.4630  -7.3838  -7.3485  -7.3193  -7.2603  -7.2344  -7.1853
    -7.1701  -7.1439  -7.1011  -7.0510  -7.0235  -7.0112  -6.9898  -6.9506
    -6.9155  -6.8883  -6.8507  -6.7825  -6.7581  -6.7080  -6.6376  -6.5944
    -6.5682  -6.5598  -6.4922  -6.4545  -6.4350  -6.3994  -6.3702  -6.3488
    -6.3207  -6.2929  -6.2637  -6.2099  -6.1883  -6.1676  -6.1513  -6.1211
    -6.0444  -6.0270  -6.0116  -5.9896  -5.9367  -5.9174  -5.8902  -5.8701
    -5.8416  -5.7991  -5.7539  -5.7489  -5.7123  -5.6896  -5.6776  -5.6466
    -5.6185  -5.5464  -5.5232  -5.4901  -5.4577  -5.3424  -5.0469  -5.0129
    -4.7579  -4.7301  -4.6053  -4.4612  -4.1670  -4.0846  -3.6822  -3.1830
    -2.9327  -2.4723  -2.1299  -1.4875  -1.3394  -0.6573  -0.3402   0.0032

          k =-0.4286-0.4850 0.0000 ( 40084 PWs)   bands (ev):

   -11.1846 -10.9151 -10.8704 -10.6661 -10.6294 -10.5839 -10.5212 -10.4197
   -10.3320 -10.2662 -10.2190 -10.1840 -10.1286 -10.0640  -9.9919  -9.9600
    -9.9049  -9.8276  -9.7930  -9.6852  -9.5910  -9.5637  -9.5101  -9.4660
    -9.4104  -9.3674  -9.3211  -9.2939  -9.1264  -9.0920  -9.0234  -8.9679
    -8.8972  -8.8572  -8.8197  -8.7961  -8.7350  -8.6804  -8.6327  -8.5575
    -8.5243  -8.4711  -8.4152  -8.4013  -8.3489  -8.2185  -8.2086  -8.1755
    -8.1423  -8.0713  -8.0498  -7.9750  -7.9440  -7.9037  -7.8704  -7.8517
    -7.8175  -7.7909  -7.7445  -7.7091  -7.6582  -7.6463  -7.5810  -7.5500
    -7.4991  -7.4369  -7.4081  -7.3575  -7.3007  -7.2480  -7.2171  -7.2047
    -7.1305  -7.1219  -7.0993  -7.0640  -7.0405  -7.0271  -6.9744  -6.9449
    -6.9216  -6.8720  -6.8253  -6.7972  -6.7371  -6.7000  -6.6448  -6.6074
    -6.5794  -6.5554  -6.5222  -6.4917  -6.4611  -6.4215  -6.3747  -6.3399
    -6.3147  -6.2841  -6.2192  -6.1984  -6.1902  -6.1584  -6.1469  -6.1286
    -6.0458  -6.0236  -6.0055  -5.9698  -5.9437  -5.9182  -5.8746  -5.8626
    -5.8501  -5.8233  -5.8012  -5.7428  -5.6837  -5.6488  -5.6353  -5.6301
    -5.6106  -5.5576  -5.5316  -5.4849  -5.4373  -5.3153  -5.1088  -5.0174
    -4.7227  -4.6603  -4.5850  -4.5304  -4.1774  -4.1476  -3.6037  -3.1852
    -2.9801  -2.5532  -2.0391  -1.5242  -1.3453  -0.6820  -0.3410   0.1519

          k =-0.4286-0.3233 0.0000 ( 40194 PWs)   bands (ev):

   -11.7079 -11.2517 -11.2031 -10.8271 -10.6710 -10.5210 -10.3988 -10.3481
   -10.2965 -10.2202 -10.1995 -10.0957 -10.0646  -9.9657  -9.9386  -9.8744
    -9.8102  -9.7634  -9.6950  -9.6579  -9.5924  -9.5597  -9.5434  -9.4555
    -9.4040  -9.3238  -9.2882  -9.2288  -9.1101  -9.0737  -9.0301  -8.9583
    -8.8913  -8.8781  -8.8209  -8.7656  -8.7523  -8.7086  -8.6384  -8.5876
    -8.5061  -8.4467  -8.4117  -8.3312  -8.2959  -8.2265  -8.1616  -8.1426
    -8.1062  -8.0361  -8.0129  -7.9760  -7.9261  -7.9026  -7.8076  -7.7853
    -7.7733  -7.7018  -7.6829  -7.6554  -7.6065  -7.5570  -7.5382  -7.5078
    -7.4783  -7.4404  -7.3954  -7.3666  -7.3324  -7.3083  -7.2642  -7.2438
    -7.2035  -7.1922  -7.1590  -7.0988  -7.0638  -7.0331  -7.0104  -6.9992
    -6.9655  -6.9051  -6.8668  -6.8567  -6.8293  -6.8052  -6.7550  -6.7102
    -6.6786  -6.6312  -6.6190  -6.5958  -6.5652  -6.5412  -6.5242  -6.5070
    -6.4901  -6.4089  -6.3935  -6.3772  -6.3418  -6.3357  -6.2911  -6.2356
    -6.2097  -6.1972  -6.1824  -6.1606  -6.1015  -6.0904  -6.0528  -6.0009
    -5.9850  -5.8888  -5.7951  -5.7593  -5.7346  -5.6804  -5.6221  -5.6142
    -5.5719  -5.5433  -5.5125  -5.4851  -5.4182  -5.4078  -5.0770  -4.6669
    -4.1412  -3.9304  -3.7203  -3.5325  -3.4563  -3.2542  -3.0987  -2.6566
    -2.3555  -2.1078  -1.5955  -1.3703  -0.8708  -0.8510  -0.2009   0.0113

          k =-0.4286-0.1617 0.0000 ( 40213 PWs)   bands (ev):

   -12.0850 -11.5219 -11.4233 -10.9610 -10.8077 -10.5379 -10.4191 -10.3611
   -10.2485 -10.1827 -10.1541 -10.1051 -10.0537  -9.9778  -9.8949  -9.8351
    -9.6974  -9.6629  -9.6281  -9.5877  -9.5247  -9.4918  -9.4149  -9.3831
    -9.3498  -9.2559  -9.2186  -9.1892  -9.1263  -9.0674  -9.0520  -8.9805
    -8.9290  -8.8767  -8.8269  -8.7413  -8.7316  -8.6583  -8.6289  -8.6186
    -8.5312  -8.4830  -8.4211  -8.3539  -8.3047  -8.2794  -8.1323  -8.1202
    -8.0994  -8.0722  -8.0242  -7.9442  -7.9003  -7.8447  -7.8270  -7.7768
    -7.7475  -7.7103  -7.6737  -7.6140  -7.6090  -7.5690  -7.5495  -7.5400
    -7.5029  -7.4643  -7.4486  -7.4347  -7.4004  -7.3960  -7.3426  -7.3179
    -7.2645  -7.2429  -7.2098  -7.1876  -7.1157  -7.0968  -7.0907  -7.0444
    -7.0282  -6.9834  -6.9594  -6.9107  -6.8792  -6.8543  -6.8320  -6.7734
    -6.7561  -6.7370  -6.7012  -6.6512  -6.6323  -6.5515  -6.5265  -6.4917
    -6.4570  -6.4472  -6.4190  -6.4004  -6.3551  -6.3351  -6.2863  -6.2755
    -6.2458  -6.2354  -6.1993  -6.1747  -6.1144  -6.0729  -6.0238  -6.0163
    -5.9615  -5.9235  -5.8131  -5.7760  -5.7478  -5.7235  -5.7091  -5.6812
    -5.6513  -5.6010  -5.5437  -5.5049  -5.4626  -5.4246  -5.3190  -4.8462
    -4.1176  -3.4424  -2.8285  -2.6301  -2.4997  -2.0892  -1.9284  -1.7543
    -1.6585  -1.5378  -1.0000  -0.8659  -0.4810   0.0793   0.2647   1.0582

          k =-0.2857 0.0000 0.0000 ( 40216 PWs)   bands (ev):

   -12.8236 -12.1677 -11.3152 -10.9097 -10.7210 -10.6210 -10.5956 -10.5003
   -10.4209 -10.3703 -10.2273 -10.2073 -10.0959 -10.0578  -9.9084  -9.8538
    -9.7491  -9.6816  -9.5898  -9.5428  -9.5296  -9.5049  -9.4611  -9.4225
    -9.3901  -9.2935  -9.2761  -9.2094  -9.1704  -9.0813  -9.0479  -8.9994
    -8.9635  -8.8918  -8.8132  -8.7826  -8.7265  -8.6366  -8.5551  -8.5012
    -8.4241  -8.3751  -8.3334  -8.3109  -8.2790  -8.2112  -8.1742  -8.1425
    -8.1273  -8.0623  -7.9949  -7.9401  -7.9084  -7.8799  -7.8080  -7.7607
    -7.7499  -7.7167  -7.6821  -7.6552  -7.6382  -7.6258  -7.6061  -7.5800
    -7.5576  -7.5137  -7.4932  -7.4735  -7.4357  -7.4115  -7.3902  -7.3361
    -7.2725  -7.2352  -7.1972  -7.1792  -7.1597  -7.1257  -7.0156  -6.9843
    -6.9490  -6.9057  -6.8857  -6.7771  -6.7410  -6.6862  -6.6497  -6.6281
    -6.5679  -6.5566  -6.5463  -6.5027  -6.4805  -6.4617  -6.4403  -6.4100
    -6.3629  -6.3376  -6.3079  -6.2822  -6.2535  -6.2007  -6.1013  -6.0697
    -6.0265  -5.9998  -5.9514  -5.9286  -5.9178  -5.8998  -5.8692  -5.8434
    -5.8209  -5.8112  -5.7778  -5.7701  -5.7436  -5.7030  -5.6949  -5.6671
    -5.5504  -5.5411  -5.5195  -5.5037  -5.4917  -5.4411  -5.2197  -4.9720
    -4.1306  -3.7228  -2.9869  -2.7050  -2.6163  -2.1693  -1.7943  -1.4737
    -1.2209  -1.1406  -0.8305   0.0875   0.4299   0.6174   0.7201   0.8843

          k =-0.2857 0.1617 0.0000 ( 40226 PWs)   bands (ev):

   -12.6705 -12.0248 -11.1894 -10.9054 -10.7050 -10.6399 -10.5940 -10.4462
   -10.3786 -10.3194 -10.2932 -10.1543 -10.1521 -10.0890 -10.0213  -9.9051
    -9.8353  -9.8037  -9.7003  -9.6308  -9.5546  -9.5030  -9.4938  -9.4759
    -9.4287  -9.3666  -9.3123  -9.2582  -9.2056  -9.1223  -9.0505  -8.9597
    -8.9226  -8.8222  -8.7877  -8.6779  -8.6219  -8.6103  -8.5667  -8.5174
    -8.4753  -8.3900  -8.3568  -8.3044  -8.2657  -8.1874  -8.1463  -8.0981
    -8.0713  -8.0625  -8.0106  -7.9722  -7.8618  -7.8513  -7.7853  -7.7445
    -7.7141  -7.6943  -7.6694  -7.6159  -7.5938  -7.5755  -7.5458  -7.5281
    -7.4975  -7.4441  -7.4274  -7.4233  -7.3662  -7.3483  -7.3364  -7.2942
    -7.2792  -7.2270  -7.1694  -7.1249  -7.0783  -7.0616  -7.0515  -6.9884
    -6.9466  -6.8864  -6.8215  -6.7420  -6.7327  -6.6956  -6.6803  -6.6614
    -6.6319  -6.6146  -6.5792  -6.5282  -6.4951  -6.4547  -6.4214  -6.3873
    -6.3611  -6.3254  -6.2985  -6.2566  -6.2269  -6.1777  -6.1539  -6.0899
    -6.0694  -6.0500  -6.0197  -5.9699  -5.9598  -5.9274  -5.8686  -5.8496
    -5.8081  -5.7978  -5.7700  -5.7299  -5.7012  -5.6706  -5.6352  -5.6175
    -5.5899  -5.5448  -5.5228  -5.5145  -5.4862  -5.4305  -5.2967  -4.8189
    -4.1359  -3.6741  -3.4773  -3.3520  -2.8793  -2.6872  -2.5482  -1.9722
    -1.2474  -0.8105  -0.7781  -0.7188  -0.1970   0.2149   0.4140   0.9316

          k =-0.2857 0.3233 0.0000 ( 40131 PWs)   bands (ev):

   -12.2249 -11.6261 -10.9814 -10.8297 -10.7306 -10.6339 -10.5071 -10.4889
   -10.3964 -10.3489 -10.3343 -10.1896 -10.1352 -10.0827 -10.0309  -9.9878
    -9.9331  -9.8875  -9.7757  -9.7330  -9.6825  -9.6090  -9.5668  -9.5591
    -9.4930  -9.4527  -9.4156  -9.3371  -9.2670  -9.1831  -9.1122  -9.0106
    -8.9160  -8.8639  -8.8350  -8.7833  -8.7243  -8.6328  -8.5816  -8.4968
    -8.4822  -8.3714  -8.3119  -8.2619  -8.2212  -8.1886  -8.1290  -8.0595
    -8.0255  -7.9974  -7.9466  -7.9171  -7.8937  -7.8436  -7.8146  -7.7732
    -7.7338  -7.7308  -7.6658  -7.6494  -7.5617  -7.5248  -7.5045  -7.4382
    -7.4116  -7.3894  -7.3516  -7.3287  -7.2679  -7.2432  -7.2041  -7.1339
    -7.1209  -7.0900  -7.0679  -7.0116  -6.9788  -6.9457  -6.9403  -6.9178
    -6.8637  -6.7981  -6.7752  -6.7393  -6.7177  -6.6943  -6.6664  -6.6343
    -6.6147  -6.5664  -6.5321  -6.4643  -6.4189  -6.3961  -6.3677  -6.3097
    -6.2711  -6.2450  -6.2322  -6.2073  -6.1692  -6.1401  -6.1179  -6.1022
    -6.0801  -6.0608  -6.0229  -5.9988  -5.9574  -5.9446  -5.8966  -5.8369
    -5.8165  -5.8043  -5.7685  -5.7232  -5.7086  -5.6609  -5.6529  -5.6241
    -5.6070  -5.5773  -5.5380  -5.4771  -5.4495  -5.4075  -5.2613  -4.7513
    -4.6059  -4.3430  -4.2172  -4.0217  -3.1570  -2.9166  -2.8129  -2.4357
    -2.3547  -1.8561  -1.8046  -1.5912  -0.9016  -0.4949   0.1784   0.2553

          k =-0.2857 0.4850 0.0000 ( 40093 PWs)   bands (ev):

   -11.5658 -11.1246 -10.9719 -10.8323 -10.7337 -10.6689 -10.6110 -10.4729
   -10.4390 -10.3997 -10.3788 -10.2585 -10.2246 -10.1563 -10.0687 -10.0165
    -9.9572  -9.9219  -9.8293  -9.7958  -9.6795  -9.6454  -9.5885  -9.5162
    -9.4757  -9.4461  -9.3549  -9.2527  -9.2376  -9.2234  -9.1582  -9.0973
    -9.0395  -8.9396  -8.9087  -8.8582  -8.7193  -8.6459  -8.6364  -8.5889
    -8.5338  -8.4779  -8.3728  -8.3393  -8.2520  -8.2388  -8.2163  -8.1301
    -8.0736  -8.0226  -7.9932  -7.9223  -7.8854  -7.8612  -7.8367  -7.8214
    -7.7647  -7.7383  -7.6944  -7.6618  -7.6401  -7.6109  -7.5589  -7.4650
    -7.4190  -7.3962  -7.3741  -7.2987  -7.2727  -7.2103  -7.1818  -7.1135
    -7.0357  -7.0018  -6.9594  -6.9336  -6.9096  -6.8565  -6.8361  -6.7689
    -6.7319  -6.7070  -6.6879  -6.5866  -6.5702  -6.5561  -6.5082  -6.4442
    -6.4288  -6.4174  -6.3540  -6.3436  -6.3147  -6.3022  -6.2761  -6.2302
    -6.2088  -6.1689  -6.0927  -6.0827  -6.0672  -6.0452  -6.0317  -6.0114
    -5.9944  -5.9717  -5.9685  -5.9348  -5.9035  -5.8923  -5.8649  -5.8518
    -5.8365  -5.7922  -5.7715  -5.7479  -5.7226  -5.6916  -5.6413  -5.6189
    -5.6145  -5.5612  -5.5328  -5.4773  -5.4403  -5.3380  -5.2201  -5.0659
    -4.8890  -4.8269  -4.3757  -4.1719  -3.9282  -3.7280  -3.5469  -3.3323
    -2.6428  -2.4158  -2.0022  -1.8131  -0.9777  -0.8742  -0.6816  -0.0341

          k =-0.2857-0.4850 0.0000 ( 40093 PWs)   bands (ev):

   -11.5605 -11.0998 -10.9264 -10.8710 -10.7716 -10.6658 -10.6186 -10.5067
   -10.4296 -10.3863 -10.3156 -10.2609 -10.2203 -10.1772 -10.1371  -9.9894
    -9.9508  -9.8923  -9.8673  -9.7992  -9.7163  -9.6459  -9.5934  -9.4954
    -9.4602  -9.4205  -9.3890  -9.3559  -9.2398  -9.1440  -9.0805  -9.0296
    -8.9807  -8.9245  -8.9147  -8.8510  -8.7362  -8.6789  -8.6283  -8.5882
    -8.5279  -8.4815  -8.4281  -8.3929  -8.3420  -8.1912  -8.1492  -8.1191
    -8.1049  -8.0640  -8.0247  -7.9665  -7.9367  -7.8862  -7.8506  -7.8060
    -7.7556  -7.7297  -7.7054  -7.6541  -7.6358  -7.5790  -7.5314  -7.4916
    -7.4170  -7.3849  -7.3535  -7.2831  -7.2341  -7.2067  -7.1621  -7.1162
    -7.0448  -7.0207  -6.9632  -6.9307  -6.9143  -6.8729  -6.8439  -6.7930
    -6.7476  -6.7098  -6.6592  -6.6220  -6.6088  -6.5520  -6.5320  -6.4498
    -6.4259  -6.3805  -6.3543  -6.3500  -6.3222  -6.3057  -6.2662  -6.2276
    -6.1993  -6.1615  -6.0887  -6.0762  -6.0625  -6.0558  -6.0234  -6.0107
    -6.0032  -5.9648  -5.9516  -5.9246  -5.8806  -5.8737  -5.8600  -5.8576
    -5.8473  -5.8221  -5.7826  -5.7662  -5.6804  -5.6566  -5.6434  -5.6213
    -5.5801  -5.5227  -5.5134  -5.4997  -5.4086  -5.3832  -5.2224  -5.0939
    -4.8675  -4.6894  -4.3080  -4.1880  -3.9793  -3.6036  -3.5093  -3.4703
    -2.6800  -2.5424  -1.9124  -1.8296  -1.1669  -0.8139  -0.6060  -0.0155

          k =-0.2857-0.3233 0.0000 ( 40131 PWs)   bands (ev):

   -12.2124 -11.6180 -10.9757 -10.9156 -10.6757 -10.6256 -10.5342 -10.4695
   -10.4129 -10.3489 -10.2851 -10.1808 -10.1597 -10.0829 -10.0437  -9.9966
    -9.8986  -9.8812  -9.7633  -9.7383  -9.6843  -9.6104  -9.5465  -9.5229
    -9.4921  -9.4650  -9.4131  -9.3174  -9.1862  -9.1578  -9.1071  -9.0490
    -8.9512  -8.8972  -8.8716  -8.7930  -8.7601  -8.6779  -8.6349  -8.5692
    -8.4498  -8.4254  -8.3431  -8.2643  -8.2345  -8.1629  -8.1291  -8.0714
    -8.0232  -7.9889  -7.9472  -7.9350  -7.8641  -7.8468  -7.7926  -7.7680
    -7.7417  -7.7202  -7.6801  -7.5968  -7.5571  -7.5383  -7.5116  -7.4442
    -7.4184  -7.3587  -7.3214  -7.2756  -7.2642  -7.2322  -7.2156  -7.1601
    -7.1381  -7.0915  -7.0675  -7.0406  -6.9818  -6.9723  -6.9385  -6.9001
    -6.8697  -6.8353  -6.7961  -6.7844  -6.7585  -6.7282  -6.6660  -6.6395
    -6.6097  -6.5224  -6.4999  -6.4625  -6.4460  -6.3962  -6.3378  -6.3103
    -6.2840  -6.2408  -6.1904  -6.1862  -6.1757  -6.1506  -6.1010  -6.0825
    -6.0593  -6.0408  -6.0323  -6.0238  -5.9645  -5.9402  -5.8991  -5.8712
    -5.8386  -5.7767  -5.7375  -5.7168  -5.6752  -5.6648  -5.6516  -5.6007
    -5.5600  -5.5515  -5.5197  -5.4681  -5.4458  -5.3110  -5.2641  -4.7508
    -4.6055  -4.2269  -4.2098  -4.0231  -3.1764  -2.8332  -2.7897  -2.5053
    -2.3708  -1.9419  -1.7455  -1.5736  -1.0878  -0.5228  -0.1171   0.2860

          k =-0.2857-0.1617 0.0000 ( 40226 PWs)   bands (ev):

   -12.6633 -12.0211 -11.2050 -10.9478 -10.6936 -10.6143 -10.5679 -10.4848
   -10.3634 -10.3234 -10.2738 -10.2014 -10.1279 -10.1098  -9.9188  -9.8752
    -9.7783  -9.7450  -9.6958  -9.6438  -9.5961  -9.5463  -9.5090  -9.4661
    -9.3907  -9.3518  -9.2810  -9.2568  -9.2000  -9.1142  -9.0637  -9.0013
    -8.9662  -8.9371  -8.9075  -8.7552  -8.7358  -8.6430  -8.6254  -8.5410
    -8.4901  -8.4275  -8.3397  -8.2637  -8.1821  -8.1666  -8.1081  -8.0348
    -8.0268  -8.0109  -7.9621  -7.9149  -7.8782  -7.8264  -7.8079  -7.7558
    -7.6889  -7.6632  -7.6405  -7.6308  -7.5970  -7.5746  -7.5394  -7.4932
    -7.4779  -7.4517  -7.4137  -7.4027  -7.3370  -7.3277  -7.3075  -7.2921
    -7.2761  -7.2281  -7.1813  -7.1383  -7.1296  -7.0766  -7.0614  -7.0342
    -6.9987  -6.8867  -6.8292  -6.8135  -6.7869  -6.7334  -6.7221  -6.6762
    -6.6543  -6.6182  -6.5837  -6.5280  -6.4962  -6.4334  -6.3919  -6.3586
    -6.3342  -6.3150  -6.2640  -6.2571  -6.2141  -6.1611  -6.1276  -6.1004
    -6.0902  -6.0286  -6.0149  -5.9774  -5.9614  -5.9332  -5.8852  -5.8435
    -5.8163  -5.7848  -5.7638  -5.7180  -5.7132  -5.6805  -5.6567  -5.6251
    -5.5997  -5.5495  -5.5193  -5.4889  -5.4684  -5.3984  -5.2237  -4.7408
    -4.1184  -3.6468  -3.4523  -3.3439  -2.8845  -2.6133  -2.5660  -1.9895
    -1.2605  -0.8787  -0.7922  -0.7197  -0.2886   0.1548   0.3324   0.6554

          k =-0.1429 0.0000 0.0000 ( 40152 PWs)   bands (ev):

   -13.2101 -12.5337 -11.6428 -11.0439 -10.8183 -10.7838 -10.7436 -10.6538
   -10.5610 -10.4133 -10.2693 -10.2224 -10.1351 -10.0801  -9.9268  -9.8518
    -9.8126  -9.7816  -9.7062  -9.6644  -9.5941  -9.5545  -9.5296  -9.5139
    -9.3629  -9.3154  -9.2910  -9.1587  -9.1376  -9.1001  -9.0365  -9.0075
    -8.9840  -8.8805  -8.8640  -8.7679  -8.7459  -8.6137  -8.5892  -8.4681
    -8.3809  -8.3715  -8.3157  -8.2961  -8.2393  -8.2221  -8.1724  -8.1246
    -8.0478  -8.0225  -8.0100  -7.9561  -7.8792  -7.8419  -7.7873  -7.7533
    -7.7288  -7.7115  -7.6970  -7.6263  -7.5984  -7.5862  -7.5439  -7.5249
    -7.5053  -7.4658  -7.4417  -7.4188  -7.4014  -7.3477  -7.3078  -7.2534
    -7.2334  -7.2044  -7.1493  -7.1406  -7.0225  -6.9836  -6.9385  -6.9053
    -6.8700  -6.7771  -6.7584  -6.7268  -6.6635  -6.6432  -6.5990  -6.5636
    -6.5281  -6.5073  -6.4365  -6.3874  -6.3695  -6.3365  -6.2803  -6.2423
    -6.2185  -6.1940  -6.1729  -6.1544  -6.1265  -6.0619  -6.0386  -6.0056
    -5.9722  -5.9369  -5.8849  -5.8338  -5.7925  -5.7392  -5.7276  -5.7030
    -5.6847  -5.6611  -5.6472  -5.6194  -5.6103  -5.5818  -5.5685  -5.5310
    -5.5070  -5.4884  -5.4220  -5.4020  -5.3877  -4.6321  -4.5303  -4.4919
    -4.0330  -3.9692  -3.7304  -2.9906  -2.9413  -2.3590  -2.1676  -1.9908
    -1.9677  -1.7743  -1.4540  -1.3419  -0.6839   0.1953   0.3859   0.7227

          k =-0.1429 0.1617 0.0000 ( 40157 PWs)   bands (ev):

   -13.0447 -12.3763 -11.4961 -10.9542 -10.8477 -10.7942 -10.6439 -10.5885
   -10.5578 -10.4300 -10.3578 -10.2545 -10.2119 -10.1385 -10.0051  -9.9608
    -9.8986  -9.8518  -9.7467  -9.7077  -9.6727  -9.6589  -9.5677  -9.5191
    -9.4236  -9.4013  -9.3767  -9.3483  -9.2705  -9.1580  -9.1187  -9.0165
    -8.9655  -8.9131  -8.7920  -8.6609  -8.6561  -8.5589  -8.5136  -8.4637
    -8.4457  -8.3652  -8.2934  -8.2522  -8.2241  -8.1577  -8.1261  -8.0907
    -8.0465  -8.0172  -7.9805  -7.9235  -7.8669  -7.7880  -7.7541  -7.7184
    -7.6788  -7.6484  -7.6395  -7.6049  -7.5427  -7.5216  -7.4938  -7.4727
    -7.4400  -7.4001  -7.3572  -7.3408  -7.3261  -7.2946  -7.2535  -7.2321
    -7.1679  -7.1370  -7.1060  -7.0600  -7.0479  -6.9645  -6.9277  -6.8797
    -6.8650  -6.7837  -6.7361  -6.6702  -6.6307  -6.5916  -6.5556  -6.5185
    -6.4917  -6.4195  -6.4057  -6.3515  -6.3269  -6.2854  -6.2732  -6.2635
    -6.2517  -6.2278  -6.2068  -6.1405  -6.1058  -6.0844  -6.0620  -6.0360
    -5.9867  -5.9355  -5.9180  -5.8439  -5.8154  -5.8086  -5.7888  -5.7679
    -5.7427  -5.6884  -5.6586  -5.6478  -5.6278  -5.6163  -5.5772  -5.5416
    -5.5045  -5.4839  -5.4648  -5.4349  -5.2362  -4.7131  -4.5707  -4.4768
    -4.1809  -4.0882  -3.9838  -3.7018  -3.4928  -3.0602  -2.8115  -1.9369
    -1.7091  -1.3777  -1.3585  -0.8668  -0.3656  -0.1524   0.3715   0.5352

          k =-0.1429 0.3233 0.0000 ( 40126 PWs)   bands (ev):

   -12.5671 -11.9336 -11.1372 -10.9665 -10.8648 -10.7378 -10.6973 -10.5911
   -10.4830 -10.4546 -10.3647 -10.2493 -10.2188 -10.1903 -10.1437 -10.0788
   -10.0564 -10.0000  -9.8624  -9.8476  -9.8074  -9.7415  -9.7085  -9.6153
    -9.5914  -9.5505  -9.4735  -9.3842  -9.3661  -9.2511  -9.1609  -9.1037
    -9.0073  -8.9620  -8.8321  -8.7967  -8.6495  -8.5795  -8.5547  -8.4616
    -8.4483  -8.3577  -8.3012  -8.2260  -8.1490  -8.1267  -8.0909  -8.0223
    -7.9914  -7.9485  -7.9158  -7.8817  -7.7901  -7.7709  -7.7641  -7.7545
    -7.7036  -7.6658  -7.6061  -7.5480  -7.5414  -7.4731  -7.4026  -7.3775
    -7.3407  -7.3181  -7.2503  -7.2348  -7.1846  -7.1794  -7.1740  -7.1031
    -7.0441  -7.0303  -6.9854  -6.9647  -6.9134  -6.8509  -6.8302  -6.7590
    -6.7215  -6.6994  -6.6604  -6.6448  -6.6025  -6.5751  -6.5611  -6.4848
    -6.4410  -6.4056  -6.3892  -6.3408  -6.3184  -6.2731  -6.2449  -6.2316
    -6.1570  -6.1321  -6.0956  -6.0790  -6.0440  -6.0170  -6.0082  -5.9809
    -5.9426  -5.8967  -5.8790  -5.8548  -5.8356  -5.8185  -5.7920  -5.7746
    -5.7656  -5.7284  -5.7095  -5.6946  -5.6471  -5.6292  -5.5965  -5.5630
    -5.5521  -5.5028  -5.4659  -5.4051  -5.3470  -5.1677  -4.9534  -4.8838
    -4.6286  -4.5761  -4.2258  -3.7574  -3.2856  -3.1645  -2.7795  -2.4053
    -2.1881  -2.0177  -1.5352  -1.4097  -0.9370  -0.5733  -0.2904  -0.1826

          k =-0.1429 0.4850 0.0000 ( 40087 PWs)   bands (ev):

   -11.8640 -11.3502 -11.2167 -10.9904 -10.8390 -10.8161 -10.7590 -10.5765
   -10.5283 -10.4963 -10.3978 -10.3698 -10.3497 -10.2960 -10.1778 -10.1499
   -10.0493  -9.9872  -9.9736  -9.8640  -9.7931  -9.7645  -9.6810  -9.6317
    -9.5576  -9.5154  -9.4432  -9.3997  -9.3209  -9.2909  -9.1944  -9.1543
    -9.1114  -8.9982  -8.8789  -8.8081  -8.7716  -8.7129  -8.6211  -8.5538
    -8.5443  -8.4419  -8.3796  -8.3034  -8.2235  -8.2154  -8.1349  -8.0760
    -8.0280  -7.9769  -7.9204  -7.9030  -7.8497  -7.8073  -7.7670  -7.7333
    -7.6700  -7.6300  -7.5936  -7.5243  -7.5119  -7.4720  -7.4481  -7.4050
    -7.3835  -7.3378  -7.2656  -7.2476  -7.1676  -7.1165  -7.0548  -7.0156
    -6.9804  -6.9441  -6.9134  -6.8724  -6.8279  -6.8101  -6.7886  -6.7500
    -6.7235  -6.7013  -6.6345  -6.6002  -6.5538  -6.5261  -6.4894  -6.4567
    -6.4350  -6.3695  -6.3471  -6.3049  -6.2729  -6.2350  -6.2261  -6.1551
    -6.1028  -6.0746  -6.0430  -6.0356  -5.9982  -5.9621  -5.9335  -5.9079
    -5.8996  -5.8380  -5.8296  -5.8197  -5.7549  -5.7330  -5.7208  -5.7084
    -5.7006  -5.6688  -5.6502  -5.6332  -5.6222  -5.6170  -5.5773  -5.5723
    -5.5259  -5.4798  -5.4656  -5.4212  -5.3694  -5.3437  -5.0682  -4.9287
    -4.5474  -4.2303  -4.0627  -3.9157  -3.8296  -3.2606  -3.0870  -2.9479
    -2.5657  -2.2896  -1.9315  -1.5890  -1.2442  -1.1475  -1.0540  -0.4198

          k =-0.1429-0.4850 0.0000 ( 40087 PWs)   bands (ev):

   -11.8615 -11.3385 -11.1986 -10.9682 -10.9039 -10.8056 -10.7703 -10.5913
   -10.5666 -10.4675 -10.3904 -10.3529 -10.3190 -10.2695 -10.2364 -10.1328
   -10.0569 -10.0162  -9.9066  -9.8861  -9.8590  -9.7374  -9.6768  -9.6219
    -9.5399  -9.5076  -9.4496  -9.4077  -9.3147  -9.2435  -9.1978  -9.1735
    -9.1155  -8.9316  -8.8943  -8.8336  -8.8002  -8.6968  -8.6443  -8.5638
    -8.4888  -8.4395  -8.4260  -8.3290  -8.2257  -8.2132  -8.0951  -8.0643
    -8.0415  -7.9891  -7.9710  -7.9077  -7.8860  -7.8304  -7.7692  -7.7207
    -7.6973  -7.6358  -7.5756  -7.5521  -7.5177  -7.4754  -7.4266  -7.4021
    -7.3577  -7.2875  -7.2644  -7.2000  -7.1739  -7.1270  -7.0407  -7.0146
    -6.9959  -6.9820  -6.9032  -6.8842  -6.8581  -6.8041  -6.7747  -6.7676
    -6.7511  -6.7047  -6.6797  -6.6126  -6.5831  -6.5423  -6.4498  -6.4181
    -6.3655  -6.3565  -6.3297  -6.2928  -6.2665  -6.2485  -6.1855  -6.1529
    -6.1139  -6.0902  -6.0480  -6.0203  -5.9760  -5.9579  -5.9369  -5.9136
    -5.8915  -5.8775  -5.8485  -5.8377  -5.7751  -5.7311  -5.7133  -5.6766
    -5.6703  -5.6490  -5.6386  -5.6221  -5.6072  -5.5984  -5.5739  -5.5602
    -5.5387  -5.5168  -5.4601  -5.4119  -5.3718  -5.3443  -5.1342  -5.0787
    -4.5537  -4.2498  -3.8617  -3.8396  -3.6396  -3.2152  -3.0267  -2.7907
    -2.7389  -2.3128  -2.2606  -1.4767  -1.3666  -1.1779  -1.1129  -0.8333

          k =-0.1429-0.3233 0.0000 ( 40126 PWs)   bands (ev):

   -12.5617 -11.9277 -11.1394 -10.9361 -10.8811 -10.8363 -10.6326 -10.5945
   -10.4940 -10.4012 -10.3632 -10.2915 -10.2232 -10.1797 -10.1219 -10.0792
   -10.0534 -10.0274  -9.8743  -9.8261  -9.8044  -9.7116  -9.6772  -9.6215
    -9.5980  -9.4992  -9.4554  -9.4401  -9.3038  -9.2496  -9.1922  -9.1228
    -9.0367  -8.8983  -8.8652  -8.8023  -8.7401  -8.6077  -8.5749  -8.5483
    -8.3762  -8.3364  -8.2885  -8.2380  -8.1848  -8.1263  -8.0878  -8.0357
    -8.0201  -7.9754  -7.9438  -7.8725  -7.8667  -7.7837  -7.7328  -7.7196
    -7.6652  -7.6026  -7.5566  -7.5438  -7.5129  -7.4758  -7.4321  -7.4065
    -7.3071  -7.2750  -7.2520  -7.2445  -7.2071  -7.1829  -7.1265  -7.1034
    -7.0885  -7.0595  -7.0062  -6.9815  -6.9090  -6.8896  -6.8208  -6.7912
    -6.7673  -6.7032  -6.6749  -6.6400  -6.6031  -6.5853  -6.5590  -6.4632
    -6.4112  -6.3775  -6.3667  -6.3374  -6.3149  -6.2791  -6.2436  -6.2254
    -6.1553  -6.1284  -6.1010  -6.0779  -6.0438  -6.0141  -6.0089  -5.9648
    -5.9337  -5.8889  -5.8602  -5.8518  -5.8377  -5.8130  -5.8021  -5.7673
    -5.7553  -5.7262  -5.7059  -5.6691  -5.6516  -5.6051  -5.5905  -5.5508
    -5.5225  -5.5113  -5.4710  -5.4466  -5.3329  -5.1843  -4.9851  -4.9248
    -4.5678  -4.5451  -4.0833  -3.7805  -3.2693  -3.0432  -2.5475  -2.3670
    -2.0980  -2.0234  -1.5449  -1.4514  -1.2719  -0.9576  -0.8879  -0.1812

          k =-0.1429-0.1617 0.0000 ( 40157 PWs)   bands (ev):

   -13.0416 -12.3735 -11.5006 -10.9733 -10.8337 -10.7969 -10.6876 -10.5913
   -10.5222 -10.4364 -10.2894 -10.2791 -10.2329 -10.0929  -9.9840  -9.9398
    -9.9023  -9.7990  -9.7779  -9.7062  -9.6694  -9.6334  -9.5859  -9.5580
    -9.4778  -9.4135  -9.3518  -9.3031  -9.2947  -9.1541  -9.1051  -8.9874
    -8.9774  -8.9452  -8.8229  -8.7739  -8.6791  -8.6343  -8.5603  -8.5019
    -8.4723  -8.3354  -8.2924  -8.2380  -8.1778  -8.1552  -8.0850  -8.0707
    -8.0477  -7.9926  -7.9432  -7.8644  -7.8309  -7.8168  -7.7921  -7.7394
    -7.6854  -7.6270  -7.5912  -7.5599  -7.5324  -7.5177  -7.4929  -7.4627
    -7.4432  -7.4214  -7.3468  -7.3339  -7.3161  -7.3107  -7.2412  -7.2166
    -7.1677  -7.1402  -7.1096  -7.0786  -7.0299  -7.0195  -6.9459  -6.9079
    -6.8672  -6.7609  -6.7346  -6.7021  -6.6788  -6.6608  -6.5786  -6.5300
    -6.4913  -6.4531  -6.3648  -6.3222  -6.2911  -6.2795  -6.2630  -6.2534
    -6.2410  -6.2164  -6.1665  -6.1574  -6.1033  -6.0856  -6.0606  -6.0438
    -5.9973  -5.9558  -5.9115  -5.8845  -5.7985  -5.7891  -5.7766  -5.7558
    -5.7446  -5.7080  -5.6701  -5.6470  -5.6350  -5.6125  -5.5867  -5.5405
    -5.5257  -5.4774  -5.4284  -5.3915  -5.1832  -4.7372  -4.5093  -4.4872
    -4.1100  -4.0557  -4.0168  -3.7103  -3.4446  -2.9966  -2.8350  -1.8351
    -1.5539  -1.4633  -1.4543  -0.9421  -0.4440  -0.2777   0.1879   0.3291

 ------ SPIN DOWN ----------


          k = 0.0000 0.0000 0.0000 ( 40041 PWs)   bands (ev):

   -13.3508 -12.6641 -11.7356 -10.9966 -10.7123 -10.7029 -10.6618 -10.5529
   -10.4395 -10.2315 -10.0414 -10.0104  -9.9265  -9.9084  -9.7257  -9.6866
    -9.6405  -9.5584  -9.5265  -9.4951  -9.3468  -9.3437  -9.2920  -9.2663
    -9.1174  -9.0305  -8.9915  -8.9202  -8.8709  -8.7944  -8.7622  -8.7034
    -8.6688  -8.5929  -8.5812  -8.4891  -8.4190  -8.3754  -8.2830  -8.1245
    -8.0772  -8.0628  -8.0217  -7.9294  -7.8681  -7.8478  -7.7841  -7.7521
    -7.6982  -7.6586  -7.6082  -7.5077  -7.4226  -7.3874  -7.3472  -7.2969
    -7.2825  -7.1856  -7.1780  -7.1146  -7.0421  -7.0037  -6.9384  -6.8971
    -6.8739  -6.7982  -6.7562  -6.7473  -6.7303  -6.6985  -6.6492  -6.5859
    -6.5636  -6.5081  -6.4743  -6.4535  -6.4475  -6.3824  -6.3789  -6.3224
    -6.2547  -6.2114  -6.1562  -6.1367  -6.0358  -5.9979  -5.9632  -5.8877
    -5.8611  -5.8137  -5.7842  -5.7568  -5.7382  -5.7120  -5.6910  -5.6465
    -5.6266  -5.5982  -5.5103  -5.4120  -5.3581  -5.3306  -5.3099  -5.2190
    -5.1765  -5.1239  -5.0693  -5.0486  -5.0258  -4.9949  -4.9867  -4.9577
    -4.9145  -4.9053  -4.8975  -4.8344  -4.8266  -4.8219  -4.7982  -4.7557
    -4.7180  -4.7074  -4.6171  -4.5879  -4.5749  -4.5684  -4.4762  -4.1558
    -3.1187  -3.0170  -2.8945  -2.7543  -2.6848  -2.4912  -2.3656  -2.2861
    -2.1013  -2.0553  -1.9783  -1.3116  -1.1115   0.0646   0.2414   0.7176

          k = 0.0000 0.1617 0.0000 ( 40105 PWs)   bands (ev):

   -13.1808 -12.5013 -11.5842 -10.8900 -10.7264 -10.7088 -10.5914 -10.4894
   -10.4459 -10.2887 -10.1113 -10.0910 -10.0357  -9.8954  -9.8224  -9.7836
    -9.7044  -9.6052  -9.5318  -9.4997  -9.4343  -9.3841  -9.3375  -9.2733
    -9.1817  -9.1445  -9.1101  -9.0594  -9.0253  -8.8863  -8.8353  -8.7457
    -8.6864  -8.6590  -8.5002  -8.4746  -8.3888  -8.2808  -8.2373  -8.1706
    -8.1318  -7.9926  -7.9489  -7.9069  -7.8733  -7.7788  -7.7625  -7.6791
    -7.6491  -7.6016  -7.5579  -7.4426  -7.4071  -7.3176  -7.2724  -7.2690
    -7.1953  -7.1614  -7.0761  -7.0701  -7.0067  -6.9928  -6.8934  -6.8706
    -6.8554  -6.7685  -6.7459  -6.7114  -6.6713  -6.6544  -6.5882  -6.5597
    -6.5508  -6.5199  -6.4758  -6.4558  -6.3877  -6.3227  -6.2856  -6.2394
    -6.2154  -6.1594  -6.1209  -6.0601  -6.0084  -5.9900  -5.9230  -5.8744
    -5.8463  -5.7607  -5.7236  -5.7062  -5.6665  -5.6531  -5.6300  -5.5903
    -5.5544  -5.5333  -5.5013  -5.4460  -5.3952  -5.3809  -5.3637  -5.3055
    -5.2853  -5.2346  -5.1152  -5.0910  -5.0634  -5.0377  -5.0150  -4.9936
    -4.9797  -4.9681  -4.9111  -4.9012  -4.8781  -4.8320  -4.8123  -4.7752
    -4.7577  -4.7220  -4.7055  -4.6702  -4.5876  -4.5613  -4.1575  -4.0240
    -3.8316  -3.6539  -3.1278  -3.0717  -2.9901  -2.7839  -2.7245  -2.3634
    -2.1807  -1.6245  -1.4767  -1.2346  -0.3660  -0.1549   0.0537   0.8448

          k = 0.0000 0.3233 0.0000 ( 40105 PWs)   bands (ev):

   -12.6921 -12.0426 -11.1851 -10.8750 -10.7836 -10.6921 -10.5816 -10.4611
   -10.3410 -10.3142 -10.2260 -10.0814 -10.0491  -9.9762  -9.9643  -9.9326
    -9.8868  -9.8254  -9.6665  -9.6353  -9.5667  -9.4766  -9.4449  -9.3983
    -9.3083  -9.2547  -9.1595  -9.1440  -9.0479  -9.0098  -8.9049  -8.8469
    -8.7370  -8.6933  -8.5448  -8.5304  -8.3679  -8.3095  -8.2375  -8.2244
    -8.0602  -8.0117  -7.9413  -7.8523  -7.8421  -7.7791  -7.6798  -7.6536
    -7.6138  -7.5959  -7.5223  -7.4391  -7.4095  -7.3315  -7.2905  -7.2140
    -7.1757  -7.1262  -7.0298  -7.0035  -6.9540  -6.9199  -6.8915  -6.7857
    -6.7185  -6.6962  -6.6696  -6.6604  -6.6095  -6.5624  -6.5190  -6.4850
    -6.4666  -6.4315  -6.3978  -6.3476  -6.3230  -6.2368  -6.1752  -6.1587
    -6.1299  -6.0957  -6.0021  -5.9884  -5.9588  -5.8641  -5.8501  -5.7810
    -5.7564  -5.7165  -5.6937  -5.6607  -5.6500  -5.5911  -5.5846  -5.4861
    -5.4632  -5.4001  -5.3744  -5.3592  -5.3145  -5.2861  -5.2842  -5.2508
    -5.2400  -5.2114  -5.1968  -5.1785  -5.1345  -5.1183  -5.1006  -5.0824
    -5.0723  -5.0587  -5.0356  -5.0125  -4.9757  -4.9601  -4.9367  -4.9318
    -4.8884  -4.8367  -4.8100  -4.7532  -4.7207  -4.5992  -4.5541  -4.3435
    -3.7529  -3.4764  -3.3129  -3.2192  -2.8951  -2.8522  -2.5213  -2.4236
    -2.3112  -2.0721  -1.8928  -1.5733  -0.8866  -0.5837  -0.2247  -0.0809

          k = 0.0000 0.4850 0.0000 ( 40064 PWs)   bands (ev):

   -11.9666 -11.4139 -11.2414 -10.9548 -10.7728 -10.7238 -10.6773 -10.4713
   -10.4142 -10.3595 -10.2235 -10.1619 -10.1212 -10.0871 -10.0676 -10.0109
    -9.8668  -9.7958  -9.7550  -9.6978  -9.6249  -9.5632  -9.4632  -9.4016
    -9.3259  -9.2227  -9.1778  -9.1318  -9.0633  -9.0268  -8.9528  -8.8901
    -8.8394  -8.6681  -8.5856  -8.4860  -8.4307  -8.4123  -8.3597  -8.2452
    -8.1796  -8.1325  -8.0509  -7.9476  -7.8592  -7.8075  -7.7340  -7.6722
    -7.6574  -7.5755  -7.5333  -7.4569  -7.4379  -7.3923  -7.3127  -7.2451
    -7.1765  -7.1574  -7.0870  -7.0226  -6.9861  -6.9580  -6.8947  -6.8832
    -6.8454  -6.7291  -6.6098  -6.5801  -6.5335  -6.4854  -6.4418  -6.3924
    -6.3609  -6.3426  -6.3009  -6.2615  -6.2313  -6.2055  -6.1675  -6.1424
    -6.1015  -6.0269  -5.9944  -5.9566  -5.8974  -5.8554  -5.8032  -5.7628
    -5.7365  -5.7093  -5.7021  -5.6694  -5.6571  -5.5779  -5.5626  -5.5539
    -5.5096  -5.4455  -5.3916  -5.3778  -5.3291  -5.3048  -5.2979  -5.2659
    -5.2156  -5.1736  -5.0953  -5.0800  -5.0692  -5.0604  -5.0381  -5.0025
    -4.9423  -4.9220  -4.8920  -4.8693  -4.8641  -4.8272  -4.8013  -4.7969
    -4.7668  -4.7390  -4.7011  -4.6672  -4.5863  -4.5805  -4.5337  -4.3044
    -4.0639  -3.8211  -3.6271  -3.0913  -2.9455  -2.8598  -2.3639  -2.2821
    -2.2139  -2.1039  -1.7643  -1.7317  -1.3701  -1.3466  -1.1392  -0.9547

          k = 0.0000-0.4850 0.0000 ( 40064 PWs)   bands (ev):

   -11.9666 -11.4139 -11.2414 -10.9548 -10.7728 -10.7238 -10.6773 -10.4713
   -10.4142 -10.3595 -10.2235 -10.1619 -10.1212 -10.0871 -10.0676 -10.0109
    -9.8668  -9.7958  -9.7550  -9.6978  -9.6249  -9.5632  -9.4632  -9.4016
    -9.3259  -9.2227  -9.1778  -9.1318  -9.0633  -9.0268  -8.9528  -8.8901
    -8.8394  -8.6681  -8.5856  -8.4860  -8.4307  -8.4123  -8.3597  -8.2452
    -8.1796  -8.1325  -8.0509  -7.9476  -7.8592  -7.8075  -7.7340  -7.6722
    -7.6574  -7.5755  -7.5333  -7.4569  -7.4379  -7.3923  -7.3127  -7.2451
    -7.1765  -7.1574  -7.0870  -7.0226  -6.9861  -6.9580  -6.8947  -6.8832
    -6.8454  -6.7291  -6.6098  -6.5801  -6.5335  -6.4854  -6.4418  -6.3924
    -6.3609  -6.3426  -6.3009  -6.2615  -6.2313  -6.2055  -6.1675  -6.1424
    -6.1015  -6.0269  -5.9944  -5.9566  -5.8974  -5.8554  -5.8032  -5.7628
    -5.7365  -5.7093  -5.7021  -5.6694  -5.6571  -5.5779  -5.5626  -5.5539
    -5.5096  -5.4455  -5.3916  -5.3778  -5.3291  -5.3048  -5.2979  -5.2659
    -5.2156  -5.1736  -5.0953  -5.0800  -5.0692  -5.0604  -5.0381  -5.0025
    -4.9423  -4.9220  -4.8920  -4.8693  -4.8641  -4.8272  -4.8013  -4.7969
    -4.7668  -4.7390  -4.7011  -4.6672  -4.5863  -4.5805  -4.5337  -4.3044
    -4.0639  -3.8211  -3.6271  -3.0914  -2.9455  -2.8599  -2.3639  -2.2821
    -2.2139  -2.1039  -1.7643  -1.7315  -1.3703  -1.3467  -1.1393  -0.9606

          k = 0.0000-0.3233 0.0000 ( 40105 PWs)   bands (ev):

   -12.6921 -12.0426 -11.1851 -10.8750 -10.7836 -10.6921 -10.5816 -10.4611
   -10.3410 -10.3142 -10.2260 -10.0814 -10.0491  -9.9762  -9.9643  -9.9326
    -9.8868  -9.8254  -9.6665  -9.6353  -9.5667  -9.4766  -9.4449  -9.3983
    -9.3083  -9.2547  -9.1595  -9.1440  -9.0479  -9.0098  -8.9049  -8.8469
    -8.7370  -8.6933  -8.5448  -8.5304  -8.3679  -8.3095  -8.2375  -8.2244
    -8.0602  -8.0117  -7.9413  -7.8523  -7.8421  -7.7791  -7.6798  -7.6536
    -7.6138  -7.5959  -7.5223  -7.4391  -7.4095  -7.3315  -7.2905  -7.2140
    -7.1757  -7.1262  -7.0298  -7.0035  -6.9540  -6.9199  -6.8915  -6.7857
    -6.7185  -6.6962  -6.6696  -6.6604  -6.6095  -6.5624  -6.5190  -6.4850
    -6.4666  -6.4315  -6.3978  -6.3476  -6.3230  -6.2368  -6.1752  -6.1587
    -6.1299  -6.0957  -6.0021  -5.9884  -5.9588  -5.8641  -5.8501  -5.7810
    -5.7564  -5.7165  -5.6937  -5.6607  -5.6500  -5.5911  -5.5846  -5.4861
    -5.4632  -5.4001  -5.3744  -5.3592  -5.3145  -5.2861  -5.2842  -5.2508
    -5.2400  -5.2114  -5.1968  -5.1785  -5.1345  -5.1183  -5.1006  -5.0824
    -5.0723  -5.0587  -5.0356  -5.0125  -4.9757  -4.9601  -4.9367  -4.9318
    -4.8884  -4.8367  -4.8100  -4.7532  -4.7207  -4.5992  -4.5541  -4.3435
    -3.7529  -3.4764  -3.3129  -3.2192  -2.8951  -2.8522  -2.5213  -2.4236
    -2.3112  -2.0721  -1.8928  -1.5733  -0.8867  -0.5836  -0.2247  -0.0808

          k = 0.0000-0.1617 0.0000 ( 40105 PWs)   bands (ev):

   -13.1808 -12.5013 -11.5842 -10.8900 -10.7264 -10.7088 -10.5914 -10.4894
   -10.4459 -10.2887 -10.1113 -10.0910 -10.0357  -9.8954  -9.8224  -9.7836
    -9.7044  -9.6052  -9.5318  -9.4997  -9.4343  -9.3841  -9.3375  -9.2733
    -9.1817  -9.1445  -9.1101  -9.0594  -9.0253  -8.8863  -8.8353  -8.7457
    -8.6864  -8.6590  -8.5002  -8.4746  -8.3888  -8.2808  -8.2373  -8.1706
    -8.1318  -7.9926  -7.9489  -7.9069  -7.8733  -7.7788  -7.7625  -7.6791
    -7.6491  -7.6016  -7.5579  -7.4426  -7.4071  -7.3176  -7.2724  -7.2690
    -7.1953  -7.1614  -7.0761  -7.0701  -7.0067  -6.9928  -6.8934  -6.8706
    -6.8554  -6.7685  -6.7459  -6.7114  -6.6713  -6.6544  -6.5882  -6.5597
    -6.5508  -6.5199  -6.4758  -6.4558  -6.3877  -6.3227  -6.2856  -6.2394
    -6.2154  -6.1594  -6.1209  -6.0601  -6.0084  -5.9900  -5.9230  -5.8744
    -5.8463  -5.7607  -5.7236  -5.7062  -5.6665  -5.6531  -5.6300  -5.5903
    -5.5544  -5.5333  -5.5013  -5.4460  -5.3952  -5.3809  -5.3637  -5.3055
    -5.2853  -5.2346  -5.1152  -5.0910  -5.0634  -5.0377  -5.0150  -4.9936
    -4.9797  -4.9681  -4.9111  -4.9012  -4.8781  -4.8320  -4.8123  -4.7752
    -4.7577  -4.7220  -4.7055  -4.6702  -4.5876  -4.5613  -4.1575  -4.0240
    -3.8316  -3.6539  -3.1278  -3.0717  -2.9901  -2.7839  -2.7245  -2.3634
    -2.1807  -1.6245  -1.4767  -1.2346  -0.3660  -0.1548   0.0538   0.8297

          k = 0.1429 0.0000 0.0000 ( 40152 PWs)   bands (ev):

   -13.2178 -12.5366 -11.6182 -10.9062 -10.6417 -10.6300 -10.5847 -10.4644
   -10.4033 -10.1969 -10.0454 -10.0196  -9.9134  -9.8888  -9.7287  -9.6497
    -9.6228  -9.5689  -9.4893  -9.4412  -9.3745  -9.3123  -9.2930  -9.2401
    -9.1070  -9.0776  -9.0189  -8.9104  -8.8810  -8.8121  -8.7505  -8.7259
    -8.6772  -8.5734  -8.5596  -8.4868  -8.4517  -8.3383  -8.3159  -8.1420
    -8.0799  -8.0449  -7.9791  -7.9135  -7.8994  -7.8385  -7.8115  -7.7327
    -7.7083  -7.6756  -7.6062  -7.4863  -7.4421  -7.4146  -7.3567  -7.3134
    -7.2918  -7.2677  -7.2084  -7.1742  -7.0483  -7.0139  -6.9924  -6.9423
    -6.8773  -6.8431  -6.8144  -6.7651  -6.7370  -6.7087  -6.6858  -6.6205
    -6.5882  -6.5542  -6.5161  -6.4819  -6.4613  -6.4388  -6.3809  -6.3126
    -6.2887  -6.2364  -6.1840  -6.1015  -6.0527  -6.0271  -6.0060  -5.9585
    -5.9064  -5.8651  -5.8390  -5.7982  -5.7717  -5.7331  -5.7144  -5.6294
    -5.6142  -5.5778  -5.5478  -5.4806  -5.4588  -5.4139  -5.3719  -5.3368
    -5.3021  -5.2694  -5.1848  -5.1585  -5.1235  -5.0398  -5.0200  -5.0055
    -4.9741  -4.9363  -4.9134  -4.9053  -4.8889  -4.8712  -4.8615  -4.8367
    -4.8207  -4.7704  -4.6867  -4.6679  -4.6374  -4.2987  -4.1011  -3.9955
    -3.8228  -3.6554  -3.5310  -2.7468  -2.7128  -2.1138  -2.0263  -1.7824
    -1.7556  -1.4761  -1.2439  -1.0766  -0.4586   0.3691   0.5451   0.7834

          k = 0.1429 0.1617 0.0000 ( 40157 PWs)   bands (ev):

   -13.0489 -12.3758 -11.4738 -10.8259 -10.6662 -10.6361 -10.5412 -10.4173
   -10.3564 -10.2482 -10.0979 -10.0655 -10.0337  -9.8985  -9.7810  -9.7395
    -9.6889  -9.5473  -9.5324  -9.4673  -9.4419  -9.3564  -9.2894  -9.2806
    -9.2070  -9.1283  -9.0802  -9.0638  -8.9638  -8.8827  -8.8346  -8.7148
    -8.6879  -8.6638  -8.5684  -8.4943  -8.4221  -8.3498  -8.2996  -8.2078
    -8.1549  -7.9830  -7.9426  -7.9332  -7.8250  -7.7730  -7.7090  -7.6876
    -7.6655  -7.5491  -7.5345  -7.4943  -7.4386  -7.3412  -7.2968  -7.2566
    -7.2262  -7.1525  -7.1217  -7.1062  -7.0412  -7.0021  -6.9476  -6.8935
    -6.8524  -6.8106  -6.8012  -6.7675  -6.7045  -6.6427  -6.6335  -6.5872
    -6.5766  -6.5526  -6.5099  -6.4868  -6.4233  -6.3471  -6.3244  -6.2809
    -6.2499  -6.1882  -6.1611  -6.1185  -6.0627  -6.0314  -5.9662  -5.9313
    -5.8822  -5.8170  -5.7825  -5.7401  -5.7249  -5.6992  -5.6660  -5.6498
    -5.6222  -5.5840  -5.5461  -5.5015  -5.4784  -5.4405  -5.4081  -5.3484
    -5.3110  -5.2760  -5.1814  -5.1702  -5.1324  -5.1007  -5.0764  -5.0464
    -5.0329  -5.0066  -4.9820  -4.9622  -4.9408  -4.9109  -4.8623  -4.8253
    -4.7977  -4.7237  -4.6913  -4.6746  -4.6142  -4.2111  -4.1251  -4.0142
    -3.8462  -3.7013  -3.6465  -3.4211  -3.2516  -2.7536  -2.6788  -1.5662
    -1.3829  -1.2839  -1.2082  -0.7240  -0.2458  -0.1039   0.3696   0.4777

          k = 0.1429 0.3233 0.0000 ( 40126 PWs)   bands (ev):

   -12.5666 -11.9257 -11.0944 -10.7801 -10.7217 -10.6990 -10.4797 -10.4289
   -10.3252 -10.2371 -10.1639 -10.0945 -10.0239  -9.9856  -9.9375  -9.8663
    -9.8485  -9.7900  -9.6428  -9.5754  -9.5319  -9.4226  -9.3799  -9.3603
    -9.2845  -9.2265  -9.2095  -9.0891  -9.0038  -8.9639  -8.9282  -8.8054
    -8.7191  -8.6295  -8.5575  -8.5424  -8.4792  -8.3201  -8.2877  -8.2362
    -8.0569  -8.0131  -7.9522  -7.8650  -7.8155  -7.8026  -7.7198  -7.6780
    -7.6413  -7.6127  -7.5801  -7.4871  -7.4427  -7.3582  -7.2813  -7.2206
    -7.1871  -7.1246  -7.0548  -7.0307  -6.9880  -6.9351  -6.9160  -6.8381
    -6.7965  -6.7603  -6.6907  -6.6717  -6.6403  -6.5966  -6.5322  -6.5097
    -6.4897  -6.4800  -6.4099  -6.3686  -6.3171  -6.2670  -6.2546  -6.2251
    -6.1644  -6.1143  -6.0887  -6.0370  -6.0180  -5.9924  -5.8696  -5.8429
    -5.8058  -5.7621  -5.7563  -5.7170  -5.6863  -5.6788  -5.5953  -5.5666
    -5.5410  -5.4825  -5.4549  -5.4363  -5.4031  -5.3779  -5.3346  -5.3046
    -5.2861  -5.2535  -5.2100  -5.1795  -5.1481  -5.1013  -5.0949  -5.0543
    -5.0327  -5.0222  -4.9904  -4.9713  -4.9574  -4.9395  -4.9008  -4.8544
    -4.8290  -4.7981  -4.7577  -4.7026  -4.6731  -4.6402  -4.5105  -4.4551
    -4.1571  -4.0980  -3.7799  -3.5149  -3.0208  -2.8604  -2.3471  -2.1787
    -1.8979  -1.8077  -1.3521  -1.2588  -1.0567  -0.7660  -0.7056  -0.0242

          k = 0.1429 0.4850 0.0000 ( 40087 PWs)   bands (ev):

   -11.8534 -11.3120 -11.1328 -10.8652 -10.7279 -10.6657 -10.6575 -10.4402
   -10.3712 -10.2970 -10.1956 -10.1249 -10.1061 -10.0595 -10.0429  -9.9326
    -9.8364  -9.7715  -9.7051  -9.6653  -9.6316  -9.5061  -9.4442  -9.3650
    -9.2563  -9.1783  -9.1628  -9.1384  -9.0477  -8.9713  -8.9182  -8.8295
    -8.7663  -8.6651  -8.5565  -8.5228  -8.4815  -8.4074  -8.3712  -8.2118
    -8.1885  -8.1223  -8.0385  -7.9938  -7.8919  -7.8602  -7.7383  -7.6961
    -7.6620  -7.6125  -7.5314  -7.4876  -7.4630  -7.4290  -7.3677  -7.2912
    -7.2317  -7.2082  -7.1386  -7.0627  -7.0316  -6.9891  -6.9613  -6.9178
    -6.8878  -6.7185  -6.7041  -6.6427  -6.5725  -6.5139  -6.4551  -6.4214
    -6.3931  -6.3672  -6.2803  -6.2630  -6.2520  -6.1832  -6.1715  -6.1511
    -6.0866  -6.0561  -6.0393  -5.9678  -5.9387  -5.8712  -5.7894  -5.7758
    -5.7289  -5.7191  -5.6928  -5.6585  -5.6192  -5.5700  -5.5290  -5.5132
    -5.4772  -5.4403  -5.3843  -5.3576  -5.3277  -5.2953  -5.2718  -5.2571
    -5.2203  -5.2048  -5.1866  -5.1496  -5.1302  -5.0945  -5.0697  -5.0488
    -5.0053  -4.9768  -4.9474  -4.9365  -4.9222  -4.9044  -4.8803  -4.8747
    -4.8294  -4.7802  -4.7764  -4.7486  -4.6750  -4.6596  -4.6378  -4.5961
    -4.1864  -3.9700  -3.6307  -3.4851  -3.4093  -2.9620  -2.7833  -2.6352
    -2.5588  -2.1455  -2.0568  -1.3319  -1.2433  -1.0029  -0.9419  -0.6345

          k = 0.1429-0.4850 0.0000 ( 40087 PWs)   bands (ev):

   -11.8572 -11.3221 -11.1475 -10.8876 -10.7051 -10.6687 -10.5937 -10.4128
   -10.3878 -10.3224 -10.2286 -10.1498 -10.1036 -10.0554  -9.9837  -9.9612
    -9.8176  -9.7660  -9.7288  -9.6749  -9.5646  -9.5242  -9.4487  -9.3606
    -9.2797  -9.2082  -9.1922  -9.0714  -9.0435  -9.0139  -8.8733  -8.8602
    -8.8234  -8.6940  -8.5771  -8.4945  -8.4608  -8.4273  -8.3154  -8.2539
    -8.2036  -8.0772  -8.0733  -7.9405  -7.8872  -7.8401  -7.7872  -7.6740
    -7.6253  -7.5663  -7.5095  -7.4979  -7.4434  -7.3817  -7.3031  -7.2514
    -7.2395  -7.1989  -7.1221  -7.0872  -7.0557  -7.0439  -6.9902  -6.9534
    -6.9291  -6.7925  -6.6767  -6.6162  -6.5854  -6.4855  -6.4494  -6.4170
    -6.3660  -6.3206  -6.2999  -6.2709  -6.2600  -6.2498  -6.1894  -6.1318
    -6.0976  -6.0246  -5.9956  -5.9716  -5.9357  -5.8998  -5.8170  -5.7776
    -5.7663  -5.7227  -5.7108  -5.6298  -5.6164  -5.5815  -5.5464  -5.5107
    -5.4912  -5.4157  -5.3746  -5.3476  -5.3335  -5.3102  -5.2951  -5.2552
    -5.2354  -5.1864  -5.1556  -5.1418  -5.1263  -5.1091  -5.0649  -5.0201
    -5.0020  -4.9893  -4.9645  -4.9556  -4.9443  -4.9185  -4.8823  -4.8620
    -4.8225  -4.7649  -4.7584  -4.7171  -4.6709  -4.6585  -4.6303  -4.5833
    -4.1215  -3.9057  -3.8043  -3.6610  -3.5353  -3.0406  -2.8936  -2.7043
    -2.3584  -2.0827  -1.8015  -1.4514  -1.0413  -0.9995  -0.9227  -0.2639

          k = 0.1429-0.3233 0.0000 ( 40126 PWs)   bands (ev):

   -12.5723 -11.9324 -11.0929 -10.8278 -10.7328 -10.5529 -10.5487 -10.4100
   -10.3086 -10.2881 -10.1818 -10.0703 -10.0135  -9.9669  -9.9267  -9.8691
    -9.8653  -9.8176  -9.6250  -9.5962  -9.5332  -9.4921  -9.4033  -9.3370
    -9.2937  -9.2502  -9.1920  -9.0791  -9.0556  -8.9703  -8.8609  -8.8239
    -8.7047  -8.6479  -8.5582  -8.4887  -8.3549  -8.3248  -8.2706  -8.1710
    -8.1057  -8.0262  -7.9906  -7.8864  -7.7914  -7.7596  -7.7216  -7.6580
    -7.5928  -7.5442  -7.4869  -7.4640  -7.4049  -7.3512  -7.3207  -7.2868
    -7.2069  -7.1995  -7.1013  -7.0765  -7.0075  -6.9712  -6.8945  -6.8461
    -6.7818  -6.7629  -6.7002  -6.6615  -6.6105  -6.5828  -6.5470  -6.5272
    -6.4938  -6.4339  -6.3930  -6.3830  -6.3703  -6.3102  -6.2441  -6.1969
    -6.1759  -6.1136  -6.0689  -6.0522  -6.0144  -5.9896  -5.8708  -5.8501
    -5.8345  -5.8030  -5.7780  -5.7224  -5.7008  -5.6857  -5.5899  -5.5430
    -5.5122  -5.4838  -5.4473  -5.4203  -5.3755  -5.3704  -5.3568  -5.3306
    -5.2869  -5.2617  -5.2028  -5.1789  -5.1383  -5.1014  -5.0633  -5.0376
    -5.0228  -5.0095  -4.9999  -4.9896  -4.9707  -4.9619  -4.9365  -4.8954
    -4.8233  -4.7913  -4.7700  -4.6796  -4.6526  -4.6323  -4.5152  -4.4058
    -4.2508  -4.1072  -3.8948  -3.4626  -3.0692  -2.9678  -2.5556  -2.2401
    -1.9491  -1.8083  -1.3766  -1.2048  -0.7333  -0.3913  -0.1273  -0.0302

          k = 0.1429-0.1617 0.0000 ( 40157 PWs)   bands (ev):

   -13.0522 -12.3789 -11.4710 -10.8103 -10.6727 -10.6462 -10.4785 -10.4361
   -10.3921 -10.2410 -10.1479 -10.0691  -9.9831  -9.8961  -9.8059  -9.7689
    -9.7084  -9.6517  -9.5324  -9.4754  -9.3888  -9.3615  -9.3029  -9.2426
    -9.1614  -9.1520  -9.1073  -9.0579  -8.9643  -8.8943  -8.8515  -8.7215
    -8.6629  -8.6037  -8.5027  -8.3802  -8.3656  -8.2628  -8.2133  -8.1706
    -8.1505  -8.0542  -7.9649  -7.9219  -7.8892  -7.7892  -7.7378  -7.7230
    -7.6865  -7.6494  -7.5331  -7.4478  -7.4313  -7.3263  -7.3067  -7.2672
    -7.2146  -7.1781  -7.1504  -7.1371  -7.0699  -6.9874  -6.9517  -6.9308
    -6.8672  -6.8349  -6.7922  -6.7158  -6.6881  -6.6596  -6.6249  -6.6094
    -6.5699  -6.5458  -6.5173  -6.4793  -6.4427  -6.3671  -6.3256  -6.2656
    -6.2189  -6.1843  -6.1497  -6.0860  -6.0380  -6.0005  -5.9860  -5.9383
    -5.9196  -5.8470  -5.8341  -5.7843  -5.7496  -5.7017  -5.6705  -5.6310
    -5.6053  -5.5895  -5.5616  -5.5015  -5.4800  -5.4383  -5.3640  -5.3161
    -5.3028  -5.2777  -5.2125  -5.1508  -5.1186  -5.0780  -5.0674  -5.0552
    -5.0145  -4.9830  -4.9537  -4.9199  -4.9029  -4.8882  -4.8323  -4.8217
    -4.8011  -4.7879  -4.7596  -4.6937  -4.6566  -4.1960  -4.1175  -4.0390
    -3.9050  -3.7431  -3.6356  -3.4344  -3.3390  -2.8184  -2.6396  -1.6625
    -1.5012  -1.2141  -1.1357  -0.6566  -0.1736   0.0272   0.5155   0.7096

          k = 0.2857 0.0000 0.0000 ( 40216 PWs)   bands (ev):

   -12.8302 -12.1694 -11.2884 -10.8264 -10.5806 -10.5040 -10.4501 -10.3112
   -10.2717 -10.2071 -10.0721 -10.0034  -9.8877  -9.8428  -9.7211  -9.6585
    -9.5778  -9.5027  -9.3784  -9.3335  -9.3087  -9.2691  -9.2375  -9.1871
    -9.1152  -9.0714  -9.0092  -8.9468  -8.9260  -8.8280  -8.7293  -8.6928
    -8.6690  -8.5875  -8.5104  -8.4926  -8.4422  -8.3711  -8.2741  -8.2282
    -8.1012  -8.0598  -8.0290  -8.0151  -7.9333  -7.8825  -7.8516  -7.7854
    -7.7571  -7.6343  -7.5779  -7.5041  -7.4600  -7.3914  -7.3613  -7.3468
    -7.3382  -7.3005  -7.2404  -7.1961  -7.1287  -7.0961  -7.0396  -7.0144
    -6.9491  -6.9375  -6.8941  -6.8569  -6.7741  -6.7264  -6.7139  -6.6891
    -6.6727  -6.6203  -6.5541  -6.5317  -6.4650  -6.4170  -6.3946  -6.3764
    -6.3283  -6.2874  -6.2662  -6.2206  -6.1796  -6.1028  -6.0541  -6.0475
    -5.9741  -5.9631  -5.9448  -5.9124  -5.8613  -5.8499  -5.8435  -5.7845
    -5.7550  -5.7215  -5.7043  -5.6565  -5.6297  -5.5538  -5.4900  -5.4451
    -5.3245  -5.2489  -5.2441  -5.1770  -5.1540  -5.1460  -5.1294  -5.1167
    -5.0830  -5.0749  -5.0564  -5.0402  -5.0020  -4.9725  -4.9420  -4.9284
    -4.9153  -4.9048  -4.8797  -4.8632  -4.8456  -4.7370  -4.6910  -4.5286
    -3.7962  -3.4947  -2.8175  -2.4907  -2.3699  -1.9397  -1.5338  -1.2320
    -1.0160  -0.9613  -0.6558   0.3017   0.6157   0.7731   0.8680   0.9226

          k = 0.2857 0.1617 0.0000 ( 40226 PWs)   bands (ev):

   -12.6689 -12.0207 -11.1718 -10.8476 -10.5510 -10.4767 -10.4289 -10.3075
   -10.2027 -10.1807 -10.1103 -10.0482  -9.9443  -9.8847  -9.7138  -9.6689
    -9.5546  -9.5224  -9.4577  -9.4242  -9.3781  -9.3191  -9.2559  -9.1954
    -9.1559  -9.0866  -9.0298  -8.9979  -8.9282  -8.8408  -8.7923  -8.7627
    -8.7078  -8.6598  -8.5949  -8.4776  -8.4605  -8.3895  -8.3623  -8.2517
    -8.1576  -8.1278  -7.9746  -7.9448  -7.8534  -7.7936  -7.7547  -7.6562
    -7.5950  -7.5540  -7.5164  -7.4912  -7.4664  -7.4347  -7.3872  -7.3317
    -7.2827  -7.2095  -7.1904  -7.1226  -7.1006  -7.0478  -7.0151  -6.9920
    -6.9300  -6.8804  -6.8398  -6.7898  -6.7557  -6.7257  -6.7039  -6.6634
    -6.6382  -6.5997  -6.5487  -6.5323  -6.4760  -6.4567  -6.4211  -6.3523
    -6.3208  -6.2956  -6.2541  -6.2091  -6.1715  -6.0974  -6.0818  -6.0614
    -6.0245  -5.9912  -5.9552  -5.9175  -5.8775  -5.8345  -5.8019  -5.7662
    -5.7431  -5.7086  -5.6852  -5.6138  -5.5726  -5.5086  -5.4685  -5.4140
    -5.3870  -5.3603  -5.3106  -5.2807  -5.2049  -5.1768  -5.1654  -5.1279
    -5.1054  -5.0476  -5.0414  -5.0318  -4.9717  -4.9628  -4.9564  -4.9368
    -4.9238  -4.8966  -4.8566  -4.8475  -4.8029  -4.7680  -4.6097  -4.3178
    -3.8007  -3.3015  -3.2042  -2.9898  -2.6063  -2.4250  -2.3407  -1.7970
    -1.0146  -0.6584  -0.6145  -0.5646  -0.0906   0.3495   0.4888   0.8501

          k = 0.2857 0.3233 0.0000 ( 40131 PWs)   bands (ev):

   -12.2135 -11.6096 -10.8786 -10.8167 -10.5400 -10.4802 -10.4080 -10.3223
   -10.2624 -10.1559 -10.1273  -9.9986  -9.9550  -9.9077  -9.8502  -9.7766
    -9.7140  -9.6698  -9.5542  -9.5153  -9.4432  -9.3587  -9.3291  -9.2724
    -9.2323  -9.1979  -9.1444  -9.0328  -8.8948  -8.8769  -8.8408  -8.7418
    -8.6971  -8.5881  -8.5786  -8.5065  -8.4622  -8.3807  -8.3345  -8.2897
    -8.1394  -8.0839  -8.0511  -7.9230  -7.8478  -7.8101  -7.7447  -7.7151
    -7.6871  -7.6071  -7.5710  -7.4866  -7.4544  -7.4092  -7.3676  -7.3078
    -7.2699  -7.2395  -7.1377  -7.0738  -7.0261  -6.9973  -6.9790  -6.9300
    -6.8812  -6.8248  -6.7854  -6.7478  -6.7107  -6.6860  -6.6410  -6.6256
    -6.5718  -6.5405  -6.4736  -6.4546  -6.4182  -6.3686  -6.3473  -6.2907
    -6.2529  -6.2329  -6.1788  -6.1670  -6.1059  -6.0530  -6.0195  -5.9985
    -5.9485  -5.9144  -5.8511  -5.8248  -5.8103  -5.7746  -5.7238  -5.6544
    -5.6449  -5.6239  -5.5867  -5.5410  -5.5094  -5.4911  -5.4681  -5.4304
    -5.4033  -5.3601  -5.3427  -5.3224  -5.2781  -5.2269  -5.1874  -5.1523
    -5.1470  -5.0649  -5.0273  -4.9993  -4.9864  -4.9596  -4.9462  -4.9213
    -4.8748  -4.8623  -4.8219  -4.7979  -4.7859  -4.7779  -4.6947  -4.2708
    -4.1269  -3.8409  -3.8220  -3.7534  -2.9086  -2.5536  -2.5302  -2.2253
    -2.1767  -1.7102  -1.5608  -1.3881  -0.9016  -0.3631   0.0614   0.4328

          k = 0.2857 0.4850 0.0000 ( 40093 PWs)   bands (ev):

   -11.5456 -11.0608 -10.8579 -10.7041 -10.6588 -10.5450 -10.5029 -10.3587
   -10.2605 -10.2238 -10.1458 -10.0653 -10.0281  -9.9781  -9.9425  -9.7988
    -9.7325  -9.7040  -9.6991  -9.5839  -9.4830  -9.4233  -9.3846  -9.2667
    -9.2328  -9.1617  -9.1034  -9.0587  -8.9709  -8.8584  -8.7802  -8.7233
    -8.6695  -8.6274  -8.5816  -8.5177  -8.4473  -8.3933  -8.2596  -8.2455
    -8.2324  -8.1732  -8.1069  -7.9976  -7.9606  -7.8462  -7.7968  -7.7586
    -7.7202  -7.6591  -7.6241  -7.5754  -7.5325  -7.4616  -7.4314  -7.3745
    -7.2735  -7.2382  -7.2124  -7.1886  -7.0911  -7.0867  -7.0461  -6.9635
    -6.9192  -6.8674  -6.8058  -6.7235  -6.7058  -6.6322  -6.5736  -6.5187
    -6.4827  -6.4158  -6.3866  -6.3306  -6.2740  -6.2654  -6.2450  -6.2012
    -6.1197  -6.0921  -6.0828  -6.0196  -5.9860  -5.9087  -5.8877  -5.8406
    -5.8053  -5.7978  -5.7635  -5.7204  -5.6894  -5.6342  -5.6195  -5.5839
    -5.5555  -5.5047  -5.4313  -5.4154  -5.3986  -5.3937  -5.3453  -5.3320
    -5.2999  -5.2766  -5.2506  -5.2112  -5.1959  -5.1796  -5.1607  -5.1320
    -5.1201  -5.0991  -5.0876  -5.0739  -5.0094  -4.9781  -4.9581  -4.9501
    -4.9132  -4.8770  -4.8611  -4.8317  -4.7986  -4.7692  -4.7480  -4.6677
    -4.4148  -4.3630  -3.9119  -3.8461  -3.6111  -3.3311  -3.2806  -3.1468
    -2.4402  -2.3343  -1.7053  -1.6525  -0.9806  -0.6462  -0.4367   0.1208

          k = 0.2857-0.4850 0.0000 ( 40093 PWs)   bands (ev):

   -11.5532 -11.0798 -10.8935 -10.7236 -10.5960 -10.5250 -10.4525 -10.3591
   -10.2888 -10.2620 -10.2236 -10.0573  -9.9927  -9.9518  -9.8635  -9.8482
    -9.7188  -9.7021  -9.6337  -9.6205  -9.4735  -9.4299  -9.3528  -9.2774
    -9.2166  -9.1753  -9.0956  -9.0087  -8.9664  -8.9160  -8.8858  -8.7915
    -8.7655  -8.6510  -8.5800  -8.5616  -8.4089  -8.3523  -8.3160  -8.2370
    -8.1743  -8.1219  -8.0058  -7.9940  -7.9370  -7.8674  -7.8532  -7.7480
    -7.6251  -7.5910  -7.5638  -7.5003  -7.4678  -7.4571  -7.3798  -7.3665
    -7.3088  -7.2793  -7.2057  -7.1955  -7.1524  -7.1096  -7.0830  -7.0138
    -6.9755  -6.8895  -6.8048  -6.7639  -6.6685  -6.6157  -6.5628  -6.4994
    -6.4727  -6.4164  -6.4023  -6.3323  -6.2905  -6.2779  -6.2156  -6.2022
    -6.1625  -6.1512  -6.0473  -5.9991  -5.9748  -5.9256  -5.8720  -5.8404
    -5.8148  -5.7800  -5.7458  -5.6844  -5.6666  -5.6518  -5.6281  -5.5920
    -5.5810  -5.5293  -5.4520  -5.4308  -5.3889  -5.3817  -5.3280  -5.3091
    -5.2973  -5.2785  -5.2527  -5.2213  -5.2039  -5.1851  -5.1609  -5.1516
    -5.1334  -5.1097  -5.0679  -5.0425  -5.0227  -4.9858  -4.9793  -4.9583
    -4.9418  -4.9078  -4.8571  -4.8401  -4.8281  -4.7480  -4.6868  -4.6569
    -4.5494  -4.4171  -3.9783  -3.7721  -3.5852  -3.4249  -3.2617  -3.1034
    -2.3508  -2.2342  -1.7974  -1.6303  -0.8251  -0.6719  -0.5345   0.1274

          k = 0.2857-0.3233 0.0000 ( 40131 PWs)   bands (ev):

   -12.2261 -11.6196 -10.8912 -10.7434 -10.6132 -10.5067 -10.3378 -10.3227
   -10.2237 -10.1867 -10.1469 -10.0082  -9.9641  -9.8733  -9.8350  -9.7908
    -9.7347  -9.7108  -9.5722  -9.5012  -9.4602  -9.3601  -9.3058  -9.2804
    -9.2259  -9.2066  -9.1490  -9.0490  -8.9665  -8.9120  -8.8335  -8.7367
    -8.6519  -8.5776  -8.5556  -8.4812  -8.4140  -8.3475  -8.2948  -8.2354
    -8.1479  -8.0127  -7.9858  -7.9418  -7.8301  -7.8017  -7.7643  -7.6899
    -7.6145  -7.5797  -7.5257  -7.5068  -7.4535  -7.3875  -7.3621  -7.3130
    -7.2901  -7.2431  -7.1893  -7.1621  -7.0766  -7.0498  -7.0252  -6.9472
    -6.8753  -6.8322  -6.7859  -6.7469  -6.7039  -6.6712  -6.6333  -6.5841
    -6.5773  -6.5526  -6.5093  -6.4406  -6.4209  -6.3815  -6.3477  -6.3182
    -6.2497  -6.2198  -6.1940  -6.1383  -6.1069  -6.0599  -6.0376  -5.9745
    -5.9687  -5.9050  -5.8777  -5.8642  -5.8094  -5.7520  -5.7207  -5.7006
    -5.6712  -5.6550  -5.5465  -5.5205  -5.5142  -5.4959  -5.4710  -5.4457
    -5.4191  -5.3431  -5.3349  -5.3140  -5.2789  -5.2003  -5.1691  -5.1481
    -5.1299  -5.0503  -5.0256  -5.0158  -4.9926  -4.9571  -4.9399  -4.9295
    -4.9090  -4.8929  -4.8629  -4.8311  -4.8073  -4.7836  -4.6797  -4.2674
    -4.1320  -3.9681  -3.8384  -3.7507  -2.8601  -2.6471  -2.5820  -2.1716
    -2.1298  -1.6880  -1.5997  -1.3653  -0.7279  -0.3110   0.3446   0.4140

          k = 0.2857-0.1617 0.0000 ( 40226 PWs)   bands (ev):

   -12.6761 -12.0254 -11.1606 -10.8124 -10.5726 -10.4954 -10.4613 -10.2519
   -10.2216 -10.1696 -10.1156  -9.9811  -9.9659  -9.8407  -9.8166  -9.7206
    -9.6623  -9.6268  -9.4942  -9.4005  -9.3075  -9.2637  -9.2266  -9.2090
    -9.1799  -9.1424  -9.0455  -8.9902  -8.9030  -8.8697  -8.7899  -8.6791
    -8.5977  -8.5214  -8.4971  -8.4044  -8.3443  -8.3039  -8.2612  -8.2509
    -8.1861  -8.0733  -8.0525  -8.0029  -7.9361  -7.8456  -7.8152  -7.7160
    -7.6945  -7.6464  -7.5461  -7.4981  -7.4388  -7.4101  -7.3494  -7.3205
    -7.2487  -7.2322  -7.1919  -7.1718  -7.1347  -7.0860  -7.0240  -7.0062
    -6.9707  -6.9199  -6.8354  -6.7947  -6.7740  -6.7256  -6.7086  -6.6521
    -6.6142  -6.5778  -6.5625  -6.5153  -6.4487  -6.4161  -6.4039  -6.3752
    -6.3212  -6.3071  -6.1966  -6.1825  -6.1358  -6.1055  -6.0801  -6.0419
    -5.9984  -5.9819  -5.9711  -5.9475  -5.9186  -5.8930  -5.8310  -5.7429
    -5.7355  -5.6796  -5.6699  -5.6357  -5.5870  -5.5069  -5.4787  -5.4272
    -5.3994  -5.3776  -5.2895  -5.2653  -5.2199  -5.1977  -5.1423  -5.1242
    -5.1130  -5.0720  -5.0292  -4.9950  -4.9777  -4.9500  -4.9370  -4.9222
    -4.8709  -4.8630  -4.8247  -4.8127  -4.7972  -4.7731  -4.7489  -4.4290
    -3.8171  -3.3137  -3.2651  -3.0015  -2.6125  -2.5332  -2.3067  -1.7741
    -1.0169  -0.6244  -0.5775  -0.5341  -0.0028   0.4074   0.5948   1.1196

          k = 0.4286 0.0000 0.0000 ( 40252 PWs)   bands (ev):

   -12.2255 -11.6199 -11.4731 -10.9750 -10.8142 -10.4161 -10.3303 -10.1621
   -10.1213 -10.0235  -9.9749  -9.9157  -9.8522  -9.7837  -9.7040  -9.6868
    -9.5157  -9.4200  -9.3741  -9.3442  -9.2621  -9.1801  -9.1558  -9.1199
    -9.0893  -9.0417  -8.9860  -8.9473  -8.8732  -8.7699  -8.7343  -8.6960
    -8.6389  -8.5716  -8.5290  -8.4819  -8.4025  -8.3739  -8.3485  -8.3118
    -8.2475  -8.1976  -8.1655  -8.0889  -7.9989  -7.9296  -7.8801  -7.8101
    -7.7484  -7.6933  -7.5136  -7.4823  -7.4529  -7.3974  -7.3821  -7.3616
    -7.3388  -7.3099  -7.2740  -7.2611  -7.1397  -7.0941  -7.0742  -6.9996
    -6.9359  -6.9144  -6.9037  -6.8654  -6.8398  -6.7939  -6.7600  -6.7168
    -6.6888  -6.6710  -6.5983  -6.5537  -6.4891  -6.4426  -6.4242  -6.3822
    -6.3520  -6.3239  -6.2749  -6.2566  -6.2290  -6.2033  -6.1574  -6.1244
    -6.1086  -6.0967  -6.0553  -6.0478  -6.0097  -5.9608  -5.9109  -5.8805
    -5.8446  -5.8126  -5.7770  -5.7471  -5.7121  -5.6591  -5.6403  -5.6128
    -5.5765  -5.5393  -5.4620  -5.4304  -5.3614  -5.3148  -5.2552  -5.2038
    -5.1803  -5.1525  -5.1287  -5.1142  -5.0792  -5.0490  -5.0024  -4.9869
    -4.9815  -4.9734  -4.9597  -4.9063  -4.8700  -4.8265  -4.7712  -4.4381
    -3.9194  -3.2140  -2.6157  -1.7385  -1.6320  -1.3505  -1.0634  -0.8217
    -0.5216  -0.4357  -0.1334  -0.0200   0.0115   0.1974   0.3679   0.6613

          k = 0.4286 0.1617 0.0000 ( 40213 PWs)   bands (ev):

   -12.0835 -11.5080 -11.3968 -10.9182 -10.7551 -10.4106 -10.2672 -10.2047
   -10.0895 -10.0210  -9.9944  -9.9317  -9.8712  -9.7787  -9.7050  -9.6248
    -9.5065  -9.4709  -9.4293  -9.3417  -9.3017  -9.2891  -9.2148  -9.1876
    -9.1417  -8.9962  -8.9759  -8.9454  -8.8826  -8.8269  -8.7902  -8.7245
    -8.6461  -8.6318  -8.5389  -8.4800  -8.4473  -8.3900  -8.3566  -8.2878
    -8.2367  -8.1718  -8.1088  -7.9994  -7.9351  -7.8930  -7.7598  -7.7333
    -7.6726  -7.6051  -7.5629  -7.5289  -7.4553  -7.4313  -7.4029  -7.3668
    -7.3215  -7.2755  -7.2558  -7.2041  -7.1356  -7.0627  -7.0336  -7.0031
    -6.9427  -6.9163  -6.8637  -6.8421  -6.8225  -6.7998  -6.7636  -6.7222
    -6.6649  -6.6302  -6.6061  -6.5753  -6.5007  -6.4735  -6.4349  -6.3981
    -6.3704  -6.3520  -6.3152  -6.2894  -6.2146  -6.1798  -6.1544  -6.1269
    -6.1076  -6.0791  -6.0289  -6.0161  -5.9628  -5.9487  -5.9239  -5.8858
    -5.8599  -5.8264  -5.7990  -5.7276  -5.6864  -5.6694  -5.6559  -5.6127
    -5.5916  -5.5512  -5.4847  -5.4590  -5.4352  -5.4269  -5.3450  -5.2677
    -5.2372  -5.1901  -5.1105  -5.0775  -4.9975  -4.9620  -4.9402  -4.9244
    -4.9154  -4.9009  -4.8861  -4.8600  -4.8391  -4.8269  -4.6488  -4.4237
    -3.7629  -3.1616  -2.4988  -2.4022  -2.1942  -1.7814  -1.6728  -1.5612
    -1.3930  -1.3603  -0.7841  -0.6630  -0.3481   0.2666   0.4153   1.2157

          k = 0.4286 0.3233 0.0000 ( 40194 PWs)   bands (ev):

   -11.6947 -11.2053 -11.1559 -10.7592 -10.5847 -10.3960 -10.2481 -10.1998
   -10.1386 -10.0428 -10.0130  -9.9190  -9.8873  -9.7677  -9.7510  -9.6977
    -9.6080  -9.5580  -9.5234  -9.4779  -9.4043  -9.3506  -9.3231  -9.2551
    -9.1742  -9.1113  -9.0319  -8.9758  -8.8343  -8.8200  -8.7590  -8.6952
    -8.6121  -8.5906  -8.5416  -8.4872  -8.4592  -8.3881  -8.3705  -8.3174
    -8.2020  -8.1157  -8.0395  -7.9806  -7.8864  -7.8513  -7.7804  -7.7377
    -7.6793  -7.6498  -7.5918  -7.5622  -7.4787  -7.4422  -7.4155  -7.3494
    -7.3066  -7.2169  -7.1769  -7.1681  -7.1286  -7.1029  -7.0429  -6.9685
    -6.9478  -6.9182  -6.8857  -6.8774  -6.7956  -6.7719  -6.7269  -6.6837
    -6.6507  -6.6373  -6.5614  -6.5296  -6.5010  -6.4406  -6.4167  -6.3772
    -6.3436  -6.3152  -6.2696  -6.2309  -6.1913  -6.1656  -6.0921  -6.0661
    -6.0050  -5.9520  -5.9309  -5.9205  -5.8800  -5.8640  -5.8449  -5.8323
    -5.7963  -5.7542  -5.7319  -5.7066  -5.6743  -5.6323  -5.6185  -5.5893
    -5.5723  -5.5322  -5.4903  -5.4660  -5.4233  -5.4060  -5.3758  -5.3441
    -5.2818  -5.2660  -5.0994  -5.0383  -5.0013  -4.9821  -4.9449  -4.8778
    -4.8704  -4.8317  -4.8253  -4.7920  -4.7850  -4.6497  -4.5748  -4.3039
    -3.6994  -3.5229  -3.3662  -3.1451  -3.1055  -2.9087  -2.8569  -2.3737
    -2.1185  -1.8773  -1.3722  -1.1938  -0.6917  -0.6799  -0.0036   0.1382

          k = 0.4286 0.4850 0.0000 ( 40084 PWs)   bands (ev):

   -11.1425 -10.8100 -10.8001 -10.5623 -10.5109 -10.4997 -10.4037 -10.2880
   -10.1806 -10.1238 -10.0813 -10.0219  -9.9531  -9.8746  -9.7962  -9.7868
    -9.7047  -9.6381  -9.6023  -9.4846  -9.3999  -9.3546  -9.2709  -9.2264
    -9.1988  -9.1143  -9.0740  -9.0114  -8.8909  -8.7894  -8.7637  -8.7092
    -8.6061  -8.5680  -8.5286  -8.4806  -8.4325  -8.3866  -8.3233  -8.2667
    -8.2126  -8.0852  -8.0483  -7.9858  -7.9567  -7.9114  -7.8318  -7.8092
    -7.7697  -7.7010  -7.6363  -7.5756  -7.5377  -7.5006  -7.4416  -7.3968
    -7.3666  -7.3440  -7.2455  -7.2248  -7.1625  -7.0858  -7.0512  -7.0249
    -6.9520  -6.9242  -6.8828  -6.8599  -6.7678  -6.7097  -6.6855  -6.6332
    -6.5965  -6.5580  -6.5161  -6.4893  -6.4728  -6.4344  -6.3847  -6.3232
    -6.3016  -6.2463  -6.2150  -6.1367  -6.0938  -6.0508  -6.0192  -5.9998
    -5.9558  -5.9105  -5.8267  -5.8044  -5.7924  -5.7419  -5.7213  -5.6894
    -5.6586  -5.6066  -5.5777  -5.5630  -5.5324  -5.4874  -5.4594  -5.4285
    -5.4219  -5.3651  -5.3287  -5.2502  -5.2353  -5.2044  -5.1801  -5.1307
    -5.0959  -5.0900  -5.0492  -5.0386  -5.0334  -5.0080  -5.0011  -4.9790
    -4.9519  -4.9158  -4.8707  -4.8416  -4.8200  -4.8066  -4.6158  -4.5316
    -4.2828  -4.2497  -4.1388  -4.0853  -3.8122  -3.7998  -3.3340  -2.8514
    -2.7026  -2.3243  -1.8434  -1.2970  -1.1237  -0.5156  -0.1772   0.2943

          k = 0.4286-0.4850 0.0000 ( 40084 PWs)   bands (ev):

   -11.1564 -10.8440 -10.7346 -10.5858 -10.5764 -10.4125 -10.3930 -10.3071
   -10.2308 -10.1704 -10.0927  -9.9844  -9.9664  -9.8220  -9.7861  -9.7144
    -9.6742  -9.6255  -9.5877  -9.5013  -9.4560  -9.4026  -9.2535  -9.2111
    -9.1344  -9.0967  -9.0646  -8.9875  -8.8909  -8.8795  -8.8109  -8.7809
    -8.7094  -8.5917  -8.5512  -8.5243  -8.4271  -8.3618  -8.2766  -8.1895
    -8.1096  -8.0870  -8.0553  -7.9978  -7.9250  -7.8843  -7.8598  -7.8108
    -7.7001  -7.6666  -7.5885  -7.5448  -7.5277  -7.4805  -7.4476  -7.4172
    -7.3634  -7.3360  -7.3234  -7.2063  -7.1810  -7.1477  -7.0933  -7.0359
    -6.9557  -6.9031  -6.8685  -6.8052  -6.7859  -6.7585  -6.6958  -6.6017
    -6.5857  -6.5584  -6.5337  -6.5159  -6.4538  -6.4385  -6.4104  -6.3325
    -6.3146  -6.2746  -6.1730  -6.1456  -6.0835  -6.0534  -6.0161  -5.9981
    -5.9530  -5.8876  -5.8324  -5.7800  -5.7736  -5.7382  -5.7279  -5.7005
    -5.6783  -5.6525  -5.5857  -5.5543  -5.5325  -5.4792  -5.4598  -5.4194
    -5.4097  -5.3644  -5.3481  -5.2401  -5.2243  -5.2103  -5.1552  -5.1415
    -5.0988  -5.0833  -5.0627  -5.0515  -5.0410  -5.0134  -4.9863  -4.9817
    -4.9496  -4.9295  -4.9169  -4.8957  -4.8297  -4.7394  -4.5961  -4.5441
    -4.3038  -4.2779  -4.1737  -4.0767  -3.7836  -3.7399  -3.3247  -2.9046
    -2.7099  -2.2127  -1.8635  -1.3019  -1.1589  -0.4550  -0.1463   0.1363

          k = 0.4286-0.3233 0.0000 ( 40194 PWs)   bands (ev):

   -11.7179 -11.1956 -11.1276 -10.7829 -10.5455 -10.4836 -10.2281 -10.1615
   -10.1427 -10.0607  -9.9761  -9.9247  -9.8340  -9.7916  -9.7613  -9.7145
    -9.6541  -9.5861  -9.5549  -9.4634  -9.4134  -9.3705  -9.2846  -9.2168
    -9.1414  -9.0685  -9.0129  -8.9677  -8.8765  -8.8590  -8.7824  -8.7145
    -8.6684  -8.6181  -8.5434  -8.4874  -8.4303  -8.3780  -8.3308  -8.2532
    -8.1342  -8.0562  -8.0283  -7.9500  -7.9027  -7.8299  -7.7690  -7.7449
    -7.7103  -7.6296  -7.5934  -7.5463  -7.5070  -7.4521  -7.4170  -7.3383
    -7.2936  -7.2735  -7.1854  -7.1421  -7.1253  -7.0891  -7.0609  -7.0158
    -6.9694  -6.9422  -6.8656  -6.8452  -6.8338  -6.8046  -6.7084  -6.6801
    -6.6373  -6.6211  -6.5971  -6.5559  -6.5168  -6.4879  -6.4449  -6.3612
    -6.3484  -6.2779  -6.2551  -6.2186  -6.2072  -6.1627  -6.0958  -6.0251
    -6.0020  -5.9634  -5.9295  -5.9066  -5.8797  -5.8487  -5.8425  -5.8121
    -5.7768  -5.7754  -5.7551  -5.7364  -5.6854  -5.6740  -5.6388  -5.5755
    -5.5530  -5.5434  -5.5036  -5.4604  -5.4226  -5.4054  -5.3670  -5.3404
    -5.2853  -5.2507  -5.0705  -5.0521  -4.9983  -4.9620  -4.9152  -4.8923
    -4.8757  -4.8545  -4.8364  -4.8050  -4.7975  -4.6471  -4.6204  -4.2706
    -3.7032  -3.5463  -3.4852  -3.1425  -3.1103  -2.8566  -2.7790  -2.3186
    -2.1194  -1.9730  -1.3128  -1.1025  -0.8585  -0.6901   0.0660   0.3692

          k = 0.4286-0.1617 0.0000 ( 40213 PWs)   bands (ev):

   -12.0970 -11.5027 -11.3788 -10.9362 -10.7170 -10.4824 -10.2769 -10.1512
   -10.1348 -10.0121  -9.9310  -9.8899  -9.8286  -9.7730  -9.7406  -9.6679
    -9.6290  -9.5042  -9.4627  -9.4047  -9.3908  -9.2473  -9.1326  -9.1192
    -9.0954  -9.0529  -9.0305  -8.9144  -8.8342  -8.7965  -8.7095  -8.6929
    -8.5818  -8.5546  -8.5206  -8.4869  -8.4495  -8.4014  -8.3422  -8.2321
    -8.2137  -8.1546  -8.1355  -8.0361  -7.9830  -7.9035  -7.7937  -7.7538
    -7.7209  -7.6499  -7.5881  -7.5437  -7.4411  -7.4181  -7.3819  -7.3581
    -7.3289  -7.3017  -7.2808  -7.1957  -7.1632  -7.1346  -7.0469  -6.9743
    -6.9523  -6.9220  -6.8691  -6.8427  -6.8109  -6.7894  -6.7704  -6.6993
    -6.6535  -6.6444  -6.5910  -6.5305  -6.4893  -6.4567  -6.4488  -6.4248
    -6.3588  -6.3426  -6.3085  -6.2534  -6.2196  -6.2060  -6.1360  -6.1194
    -6.0932  -6.0561  -6.0365  -6.0193  -6.0082  -5.9624  -5.9003  -5.8689
    -5.8463  -5.8349  -5.7725  -5.7524  -5.7267  -5.6768  -5.6596  -5.6102
    -5.6027  -5.5593  -5.5010  -5.4663  -5.4455  -5.3978  -5.3557  -5.2645
    -5.2136  -5.2058  -5.1092  -5.0684  -5.0231  -4.9567  -4.9367  -4.9306
    -4.9181  -4.9123  -4.8664  -4.8149  -4.8051  -4.7889  -4.7255  -4.4348
    -3.8427  -3.0934  -2.5304  -2.4716  -2.2302  -1.7190  -1.6641  -1.5501
    -1.4805  -1.3116  -0.7636  -0.6566  -0.2031   0.2879   0.4275   1.2147

          k =-0.4286 0.0000 0.0000 ( 40252 PWs)   bands (ev):

   -12.2255 -11.6199 -11.4731 -10.9750 -10.8142 -10.4161 -10.3303 -10.1621
   -10.1213 -10.0235  -9.9749  -9.9157  -9.8522  -9.7837  -9.7040  -9.6868
    -9.5157  -9.4200  -9.3741  -9.3442  -9.2621  -9.1801  -9.1558  -9.1199
    -9.0893  -9.0417  -8.9860  -8.9473  -8.8732  -8.7699  -8.7343  -8.6960
    -8.6389  -8.5716  -8.5290  -8.4819  -8.4025  -8.3739  -8.3485  -8.3118
    -8.2475  -8.1976  -8.1655  -8.0889  -7.9989  -7.9296  -7.8801  -7.8101
    -7.7484  -7.6933  -7.5136  -7.4823  -7.4529  -7.3974  -7.3821  -7.3616
    -7.3388  -7.3099  -7.2740  -7.2611  -7.1397  -7.0941  -7.0742  -6.9996
    -6.9359  -6.9144  -6.9037  -6.8654  -6.8398  -6.7939  -6.7600  -6.7168
    -6.6888  -6.6710  -6.5983  -6.5537  -6.4891  -6.4426  -6.4242  -6.3822
    -6.3520  -6.3239  -6.2749  -6.2566  -6.2290  -6.2033  -6.1574  -6.1244
    -6.1086  -6.0967  -6.0553  -6.0478  -6.0097  -5.9608  -5.9109  -5.8805
    -5.8446  -5.8126  -5.7770  -5.7471  -5.7121  -5.6591  -5.6403  -5.6128
    -5.5765  -5.5393  -5.4620  -5.4304  -5.3614  -5.3148  -5.2552  -5.2038
    -5.1803  -5.1525  -5.1287  -5.1142  -5.0792  -5.0490  -5.0024  -4.9869
    -4.9815  -4.9734  -4.9597  -4.9063  -4.8700  -4.8265  -4.7712  -4.4381
    -3.9194  -3.2140  -2.6157  -1.7386  -1.6322  -1.3505  -1.0633  -0.8215
    -0.5214  -0.4354  -0.1335  -0.0197   0.0108   0.1958   0.3682   0.6620

          k =-0.4286 0.1617 0.0000 ( 40213 PWs)   bands (ev):

   -12.0970 -11.5027 -11.3788 -10.9362 -10.7170 -10.4824 -10.2769 -10.1512
   -10.1348 -10.0121  -9.9310  -9.8899  -9.8286  -9.7730  -9.7406  -9.6679
    -9.6290  -9.5042  -9.4627  -9.4047  -9.3908  -9.2473  -9.1326  -9.1192
    -9.0954  -9.0529  -9.0305  -8.9144  -8.8342  -8.7965  -8.7095  -8.6929
    -8.5818  -8.5546  -8.5206  -8.4869  -8.4495  -8.4014  -8.3422  -8.2321
    -8.2137  -8.1546  -8.1355  -8.0361  -7.9830  -7.9035  -7.7937  -7.7538
    -7.7209  -7.6499  -7.5881  -7.5437  -7.4411  -7.4181  -7.3819  -7.3581
    -7.3289  -7.3017  -7.2808  -7.1957  -7.1632  -7.1346  -7.0469  -6.9743
    -6.9523  -6.9220  -6.8691  -6.8427  -6.8109  -6.7894  -6.7704  -6.6993
    -6.6535  -6.6444  -6.5910  -6.5305  -6.4893  -6.4567  -6.4488  -6.4248
    -6.3588  -6.3426  -6.3085  -6.2534  -6.2196  -6.2060  -6.1360  -6.1194
    -6.0932  -6.0561  -6.0365  -6.0193  -6.0082  -5.9624  -5.9003  -5.8689
    -5.8463  -5.8349  -5.7725  -5.7524  -5.7267  -5.6768  -5.6596  -5.6102
    -5.6027  -5.5593  -5.5010  -5.4663  -5.4455  -5.3978  -5.3557  -5.2645
    -5.2136  -5.2058  -5.1092  -5.0684  -5.0231  -4.9567  -4.9367  -4.9306
    -4.9181  -4.9123  -4.8664  -4.8149  -4.8051  -4.7889  -4.7255  -4.4348
    -3.8427  -3.0934  -2.5304  -2.4716  -2.2302  -1.7190  -1.6641  -1.5501
    -1.4806  -1.3115  -0.7636  -0.6564  -0.2031   0.2878   0.4281   1.2150

          k =-0.4286 0.3233 0.0000 ( 40194 PWs)   bands (ev):

   -11.7179 -11.1956 -11.1276 -10.7829 -10.5455 -10.4836 -10.2281 -10.1615
   -10.1427 -10.0607  -9.9761  -9.9247  -9.8340  -9.7916  -9.7613  -9.7145
    -9.6541  -9.5861  -9.5549  -9.4634  -9.4134  -9.3705  -9.2846  -9.2168
    -9.1414  -9.0685  -9.0129  -8.9677  -8.8765  -8.8590  -8.7824  -8.7145
    -8.6684  -8.6181  -8.5434  -8.4874  -8.4303  -8.3780  -8.3308  -8.2532
    -8.1342  -8.0562  -8.0283  -7.9500  -7.9027  -7.8299  -7.7690  -7.7449
    -7.7103  -7.6296  -7.5934  -7.5463  -7.5070  -7.4521  -7.4170  -7.3383
    -7.2936  -7.2735  -7.1854  -7.1421  -7.1253  -7.0891  -7.0609  -7.0158
    -6.9694  -6.9422  -6.8656  -6.8452  -6.8338  -6.8046  -6.7084  -6.6801
    -6.6373  -6.6211  -6.5971  -6.5559  -6.5168  -6.4879  -6.4449  -6.3612
    -6.3484  -6.2779  -6.2551  -6.2186  -6.2072  -6.1627  -6.0958  -6.0251
    -6.0020  -5.9634  -5.9295  -5.9066  -5.8797  -5.8487  -5.8425  -5.8121
    -5.7768  -5.7754  -5.7551  -5.7364  -5.6854  -5.6740  -5.6388  -5.5755
    -5.5530  -5.5434  -5.5036  -5.4604  -5.4226  -5.4054  -5.3670  -5.3404
    -5.2853  -5.2507  -5.0705  -5.0521  -4.9983  -4.9620  -4.9152  -4.8923
    -4.8757  -4.8545  -4.8364  -4.8050  -4.7975  -4.6471  -4.6204  -4.2706
    -3.7032  -3.5463  -3.4852  -3.1425  -3.1103  -2.8566  -2.7790  -2.3186
    -2.1194  -1.9730  -1.3128  -1.1025  -0.8585  -0.6900   0.0660   0.3686

          k =-0.4286 0.4850 0.0000 ( 40084 PWs)   bands (ev):

   -11.1564 -10.8440 -10.7346 -10.5858 -10.5764 -10.4125 -10.3930 -10.3071
   -10.2308 -10.1704 -10.0927  -9.9844  -9.9664  -9.8220  -9.7861  -9.7144
    -9.6742  -9.6255  -9.5877  -9.5013  -9.4560  -9.4026  -9.2535  -9.2111
    -9.1344  -9.0967  -9.0646  -8.9875  -8.8909  -8.8795  -8.8109  -8.7809
    -8.7094  -8.5917  -8.5512  -8.5243  -8.4271  -8.3618  -8.2766  -8.1895
    -8.1096  -8.0870  -8.0553  -7.9978  -7.9250  -7.8843  -7.8598  -7.8108
    -7.7001  -7.6666  -7.5885  -7.5448  -7.5277  -7.4805  -7.4476  -7.4172
    -7.3634  -7.3360  -7.3234  -7.2063  -7.1810  -7.1477  -7.0933  -7.0359
    -6.9557  -6.9031  -6.8685  -6.8052  -6.7859  -6.7585  -6.6958  -6.6017
    -6.5857  -6.5584  -6.5337  -6.5159  -6.4538  -6.4385  -6.4104  -6.3325
    -6.3146  -6.2746  -6.1730  -6.1456  -6.0835  -6.0534  -6.0161  -5.9981
    -5.9530  -5.8876  -5.8324  -5.7800  -5.7736  -5.7382  -5.7279  -5.7005
    -5.6783  -5.6525  -5.5857  -5.5543  -5.5325  -5.4792  -5.4598  -5.4194
    -5.4097  -5.3644  -5.3481  -5.2401  -5.2243  -5.2103  -5.1552  -5.1415
    -5.0988  -5.0833  -5.0627  -5.0515  -5.0410  -5.0134  -4.9863  -4.9817
    -4.9496  -4.9295  -4.9169  -4.8957  -4.8297  -4.7394  -4.5961  -4.5441
    -4.3038  -4.2779  -4.1737  -4.0767  -3.7836  -3.7399  -3.3247  -2.9046
    -2.7099  -2.2127  -1.8635  -1.3019  -1.1589  -0.4543  -0.1437   0.1392

          k =-0.4286-0.4850 0.0000 ( 40084 PWs)   bands (ev):

   -11.1425 -10.8100 -10.8001 -10.5623 -10.5109 -10.4997 -10.4037 -10.2880
   -10.1806 -10.1238 -10.0813 -10.0219  -9.9531  -9.8746  -9.7962  -9.7868
    -9.7047  -9.6381  -9.6023  -9.4846  -9.3999  -9.3546  -9.2709  -9.2264
    -9.1988  -9.1143  -9.0740  -9.0114  -8.8909  -8.7894  -8.7637  -8.7092
    -8.6061  -8.5680  -8.5286  -8.4806  -8.4325  -8.3866  -8.3233  -8.2667
    -8.2126  -8.0852  -8.0483  -7.9858  -7.9567  -7.9114  -7.8318  -7.8092
    -7.7697  -7.7010  -7.6363  -7.5756  -7.5377  -7.5006  -7.4416  -7.3968
    -7.3666  -7.3440  -7.2455  -7.2248  -7.1625  -7.0858  -7.0512  -7.0249
    -6.9520  -6.9242  -6.8828  -6.8599  -6.7678  -6.7097  -6.6855  -6.6332
    -6.5965  -6.5580  -6.5161  -6.4893  -6.4728  -6.4344  -6.3847  -6.3232
    -6.3016  -6.2463  -6.2150  -6.1367  -6.0938  -6.0508  -6.0192  -5.9998
    -5.9558  -5.9105  -5.8267  -5.8044  -5.7924  -5.7419  -5.7213  -5.6894
    -5.6586  -5.6066  -5.5777  -5.5630  -5.5324  -5.4874  -5.4594  -5.4285
    -5.4219  -5.3651  -5.3287  -5.2502  -5.2353  -5.2044  -5.1801  -5.1307
    -5.0959  -5.0900  -5.0492  -5.0386  -5.0334  -5.0080  -5.0011  -4.9790
    -4.9519  -4.9158  -4.8707  -4.8416  -4.8200  -4.8066  -4.6158  -4.5316
    -4.2828  -4.2497  -4.1388  -4.0853  -3.8122  -3.7998  -3.3340  -2.8514
    -2.7026  -2.3243  -1.8434  -1.2970  -1.1236  -0.5155  -0.1772   0.3152

          k =-0.4286-0.3233 0.0000 ( 40194 PWs)   bands (ev):

   -11.6947 -11.2053 -11.1559 -10.7592 -10.5847 -10.3960 -10.2481 -10.1998
   -10.1386 -10.0428 -10.0130  -9.9190  -9.8873  -9.7677  -9.7510  -9.6977
    -9.6080  -9.5580  -9.5234  -9.4779  -9.4043  -9.3506  -9.3231  -9.2551
    -9.1742  -9.1113  -9.0319  -8.9758  -8.8343  -8.8200  -8.7590  -8.6952
    -8.6121  -8.5906  -8.5416  -8.4872  -8.4592  -8.3881  -8.3705  -8.3174
    -8.2020  -8.1157  -8.0395  -7.9806  -7.8864  -7.8513  -7.7804  -7.7377
    -7.6793  -7.6498  -7.5918  -7.5622  -7.4787  -7.4422  -7.4155  -7.3494
    -7.3066  -7.2169  -7.1769  -7.1681  -7.1286  -7.1029  -7.0429  -6.9685
    -6.9478  -6.9182  -6.8857  -6.8774  -6.7956  -6.7719  -6.7269  -6.6837
    -6.6507  -6.6373  -6.5614  -6.5296  -6.5010  -6.4406  -6.4167  -6.3772
    -6.3436  -6.3152  -6.2696  -6.2309  -6.1913  -6.1656  -6.0921  -6.0661
    -6.0050  -5.9520  -5.9309  -5.9205  -5.8800  -5.8640  -5.8449  -5.8323
    -5.7963  -5.7542  -5.7319  -5.7066  -5.6743  -5.6323  -5.6185  -5.5893
    -5.5723  -5.5322  -5.4903  -5.4660  -5.4233  -5.4060  -5.3758  -5.3441
    -5.2818  -5.2660  -5.0994  -5.0383  -5.0013  -4.9821  -4.9449  -4.8778
    -4.8704  -4.8317  -4.8253  -4.7920  -4.7850  -4.6497  -4.5748  -4.3040
    -3.6994  -3.5229  -3.3662  -3.1451  -3.1055  -2.9087  -2.8569  -2.3737
    -2.1185  -1.8773  -1.3722  -1.1938  -0.6917  -0.6799  -0.0036   0.1380

          k =-0.4286-0.1617 0.0000 ( 40213 PWs)   bands (ev):

   -12.0835 -11.5080 -11.3968 -10.9182 -10.7551 -10.4106 -10.2672 -10.2047
   -10.0895 -10.0210  -9.9944  -9.9317  -9.8712  -9.7787  -9.7050  -9.6248
    -9.5065  -9.4709  -9.4293  -9.3417  -9.3017  -9.2891  -9.2148  -9.1876
    -9.1417  -8.9962  -8.9759  -8.9454  -8.8826  -8.8269  -8.7902  -8.7245
    -8.6461  -8.6318  -8.5389  -8.4800  -8.4473  -8.3900  -8.3566  -8.2878
    -8.2367  -8.1718  -8.1088  -7.9994  -7.9351  -7.8930  -7.7598  -7.7333
    -7.6726  -7.6051  -7.5629  -7.5289  -7.4553  -7.4313  -7.4029  -7.3668
    -7.3215  -7.2755  -7.2558  -7.2041  -7.1356  -7.0627  -7.0336  -7.0031
    -6.9427  -6.9163  -6.8637  -6.8421  -6.8225  -6.7998  -6.7636  -6.7222
    -6.6649  -6.6302  -6.6061  -6.5753  -6.5007  -6.4735  -6.4349  -6.3981
    -6.3704  -6.3520  -6.3152  -6.2894  -6.2146  -6.1798  -6.1544  -6.1269
    -6.1076  -6.0791  -6.0289  -6.0161  -5.9628  -5.9487  -5.9239  -5.8858
    -5.8599  -5.8264  -5.7990  -5.7276  -5.6864  -5.6694  -5.6559  -5.6127
    -5.5916  -5.5512  -5.4847  -5.4590  -5.4352  -5.4269  -5.3450  -5.2677
    -5.2372  -5.1901  -5.1105  -5.0775  -4.9975  -4.9620  -4.9402  -4.9244
    -4.9154  -4.9009  -4.8861  -4.8600  -4.8391  -4.8269  -4.6488  -4.4237
    -3.7629  -3.1615  -2.4988  -2.4022  -2.1942  -1.7814  -1.6728  -1.5612
    -1.3930  -1.3603  -0.7841  -0.6630  -0.3480   0.2667   0.4153   1.2182

          k =-0.2857 0.0000 0.0000 ( 40216 PWs)   bands (ev):

   -12.8302 -12.1694 -11.2884 -10.8264 -10.5806 -10.5040 -10.4501 -10.3112
   -10.2717 -10.2071 -10.0721 -10.0034  -9.8877  -9.8428  -9.7211  -9.6585
    -9.5778  -9.5027  -9.3784  -9.3335  -9.3087  -9.2691  -9.2375  -9.1871
    -9.1152  -9.0714  -9.0092  -8.9468  -8.9260  -8.8280  -8.7293  -8.6928
    -8.6690  -8.5875  -8.5104  -8.4926  -8.4422  -8.3711  -8.2741  -8.2282
    -8.1012  -8.0598  -8.0290  -8.0151  -7.9333  -7.8825  -7.8516  -7.7854
    -7.7571  -7.6343  -7.5779  -7.5041  -7.4600  -7.3914  -7.3613  -7.3468
    -7.3382  -7.3005  -7.2404  -7.1961  -7.1287  -7.0961  -7.0396  -7.0144
    -6.9491  -6.9375  -6.8941  -6.8569  -6.7741  -6.7264  -6.7139  -6.6891
    -6.6727  -6.6203  -6.5541  -6.5317  -6.4650  -6.4170  -6.3946  -6.3764
    -6.3283  -6.2874  -6.2662  -6.2206  -6.1796  -6.1028  -6.0541  -6.0475
    -5.9741  -5.9631  -5.9448  -5.9124  -5.8613  -5.8499  -5.8435  -5.7845
    -5.7550  -5.7215  -5.7043  -5.6565  -5.6297  -5.5538  -5.4900  -5.4451
    -5.3245  -5.2489  -5.2441  -5.1770  -5.1540  -5.1460  -5.1294  -5.1167
    -5.0830  -5.0749  -5.0564  -5.0402  -5.0020  -4.9725  -4.9420  -4.9284
    -4.9153  -4.9048  -4.8797  -4.8632  -4.8456  -4.7370  -4.6910  -4.5286
    -3.7962  -3.4947  -2.8175  -2.4907  -2.3698  -1.9397  -1.5338  -1.2320
    -1.0161  -0.9612  -0.6559   0.3015   0.6160   0.7741   0.8635   0.9239

          k =-0.2857 0.1617 0.0000 ( 40226 PWs)   bands (ev):

   -12.6761 -12.0254 -11.1606 -10.8124 -10.5726 -10.4954 -10.4613 -10.2519
   -10.2216 -10.1696 -10.1156  -9.9811  -9.9659  -9.8407  -9.8166  -9.7206
    -9.6623  -9.6268  -9.4942  -9.4005  -9.3075  -9.2637  -9.2266  -9.2090
    -9.1799  -9.1424  -9.0455  -8.9902  -8.9030  -8.8697  -8.7899  -8.6791
    -8.5977  -8.5214  -8.4971  -8.4044  -8.3443  -8.3039  -8.2612  -8.2509
    -8.1861  -8.0733  -8.0525  -8.0029  -7.9361  -7.8456  -7.8152  -7.7160
    -7.6945  -7.6464  -7.5461  -7.4981  -7.4388  -7.4101  -7.3494  -7.3205
    -7.2487  -7.2322  -7.1919  -7.1718  -7.1347  -7.0860  -7.0240  -7.0062
    -6.9707  -6.9199  -6.8354  -6.7947  -6.7740  -6.7256  -6.7086  -6.6521
    -6.6142  -6.5778  -6.5625  -6.5153  -6.4487  -6.4161  -6.4039  -6.3752
    -6.3212  -6.3071  -6.1966  -6.1825  -6.1358  -6.1055  -6.0801  -6.0419
    -5.9984  -5.9819  -5.9711  -5.9475  -5.9186  -5.8930  -5.8310  -5.7429
    -5.7355  -5.6796  -5.6699  -5.6357  -5.5870  -5.5069  -5.4787  -5.4272
    -5.3994  -5.3776  -5.2895  -5.2653  -5.2199  -5.1977  -5.1423  -5.1242
    -5.1130  -5.0720  -5.0292  -4.9950  -4.9777  -4.9500  -4.9370  -4.9222
    -4.8709  -4.8630  -4.8247  -4.8127  -4.7972  -4.7731  -4.7489  -4.4290
    -3.8171  -3.3137  -3.2651  -3.0015  -2.6125  -2.5332  -2.3068  -1.7741
    -1.0168  -0.6244  -0.5776  -0.5341  -0.0027   0.4074   0.5958   1.1207

          k =-0.2857 0.3233 0.0000 ( 40131 PWs)   bands (ev):

   -12.2261 -11.6196 -10.8912 -10.7434 -10.6132 -10.5067 -10.3378 -10.3227
   -10.2237 -10.1867 -10.1469 -10.0082  -9.9641  -9.8733  -9.8350  -9.7908
    -9.7347  -9.7108  -9.5722  -9.5012  -9.4602  -9.3601  -9.3058  -9.2804
    -9.2259  -9.2066  -9.1490  -9.0490  -8.9665  -8.9120  -8.8335  -8.7367
    -8.6519  -8.5776  -8.5556  -8.4812  -8.4140  -8.3475  -8.2948  -8.2354
    -8.1479  -8.0127  -7.9858  -7.9418  -7.8301  -7.8017  -7.7643  -7.6899
    -7.6145  -7.5797  -7.5257  -7.5068  -7.4535  -7.3875  -7.3621  -7.3130
    -7.2901  -7.2431  -7.1893  -7.1621  -7.0766  -7.0498  -7.0252  -6.9472
    -6.8753  -6.8322  -6.7859  -6.7469  -6.7039  -6.6712  -6.6333  -6.5841
    -6.5773  -6.5526  -6.5093  -6.4406  -6.4209  -6.3815  -6.3477  -6.3182
    -6.2497  -6.2198  -6.1940  -6.1383  -6.1069  -6.0599  -6.0376  -5.9745
    -5.9687  -5.9050  -5.8777  -5.8642  -5.8094  -5.7520  -5.7207  -5.7006
    -5.6712  -5.6550  -5.5465  -5.5205  -5.5142  -5.4959  -5.4710  -5.4457
    -5.4191  -5.3431  -5.3349  -5.3140  -5.2789  -5.2003  -5.1691  -5.1481
    -5.1299  -5.0503  -5.0256  -5.0158  -4.9926  -4.9571  -4.9399  -4.9295
    -4.9090  -4.8929  -4.8629  -4.8311  -4.8073  -4.7836  -4.6797  -4.2674
    -4.1320  -3.9681  -3.8384  -3.7507  -2.8601  -2.6471  -2.5820  -2.1716
    -2.1298  -1.6880  -1.5997  -1.3653  -0.7280  -0.3110   0.3450   0.4146

          k =-0.2857 0.4850 0.0000 ( 40093 PWs)   bands (ev):

   -11.5532 -11.0798 -10.8935 -10.7236 -10.5960 -10.5250 -10.4525 -10.3591
   -10.2888 -10.2620 -10.2236 -10.0573  -9.9927  -9.9518  -9.8635  -9.8482
    -9.7188  -9.7021  -9.6337  -9.6205  -9.4735  -9.4299  -9.3528  -9.2774
    -9.2166  -9.1753  -9.0956  -9.0087  -8.9664  -8.9160  -8.8858  -8.7915
    -8.7655  -8.6510  -8.5800  -8.5616  -8.4089  -8.3523  -8.3160  -8.2370
    -8.1743  -8.1219  -8.0058  -7.9940  -7.9370  -7.8674  -7.8532  -7.7480
    -7.6251  -7.5910  -7.5638  -7.5003  -7.4678  -7.4571  -7.3798  -7.3665
    -7.3088  -7.2793  -7.2057  -7.1955  -7.1524  -7.1096  -7.0830  -7.0138
    -6.9755  -6.8895  -6.8048  -6.7639  -6.6685  -6.6157  -6.5628  -6.4994
    -6.4727  -6.4164  -6.4023  -6.3323  -6.2905  -6.2779  -6.2156  -6.2022
    -6.1625  -6.1512  -6.0473  -5.9991  -5.9748  -5.9256  -5.8720  -5.8404
    -5.8148  -5.7800  -5.7458  -5.6844  -5.6666  -5.6518  -5.6281  -5.5920
    -5.5810  -5.5293  -5.4520  -5.4308  -5.3889  -5.3817  -5.3280  -5.3091
    -5.2973  -5.2785  -5.2527  -5.2213  -5.2039  -5.1851  -5.1609  -5.1516
    -5.1334  -5.1097  -5.0679  -5.0425  -5.0227  -4.9858  -4.9793  -4.9583
    -4.9418  -4.9078  -4.8571  -4.8401  -4.8281  -4.7480  -4.6868  -4.6569
    -4.5494  -4.4171  -3.9783  -3.7721  -3.5852  -3.4249  -3.2617  -3.1034
    -2.3508  -2.2342  -1.7974  -1.6303  -0.8251  -0.6720  -0.5343   0.1278

          k =-0.2857-0.4850 0.0000 ( 40093 PWs)   bands (ev):

   -11.5456 -11.0608 -10.8579 -10.7041 -10.6588 -10.5450 -10.5029 -10.3587
   -10.2605 -10.2238 -10.1458 -10.0653 -10.0281  -9.9781  -9.9425  -9.7988
    -9.7325  -9.7040  -9.6991  -9.5839  -9.4830  -9.4233  -9.3846  -9.2667
    -9.2328  -9.1617  -9.1034  -9.0587  -8.9709  -8.8584  -8.7802  -8.7233
    -8.6695  -8.6274  -8.5816  -8.5177  -8.4473  -8.3933  -8.2596  -8.2455
    -8.2324  -8.1732  -8.1069  -7.9976  -7.9606  -7.8462  -7.7968  -7.7586
    -7.7202  -7.6591  -7.6241  -7.5754  -7.5325  -7.4616  -7.4314  -7.3745
    -7.2735  -7.2382  -7.2124  -7.1886  -7.0911  -7.0867  -7.0461  -6.9635
    -6.9192  -6.8674  -6.8058  -6.7235  -6.7058  -6.6322  -6.5736  -6.5187
    -6.4827  -6.4158  -6.3866  -6.3306  -6.2740  -6.2654  -6.2450  -6.2012
    -6.1197  -6.0921  -6.0828  -6.0196  -5.9860  -5.9087  -5.8877  -5.8406
    -5.8053  -5.7978  -5.7635  -5.7204  -5.6894  -5.6342  -5.6195  -5.5839
    -5.5555  -5.5047  -5.4313  -5.4154  -5.3986  -5.3937  -5.3453  -5.3320
    -5.2999  -5.2766  -5.2506  -5.2112  -5.1959  -5.1796  -5.1607  -5.1320
    -5.1201  -5.0991  -5.0876  -5.0739  -5.0094  -4.9781  -4.9581  -4.9501
    -4.9132  -4.8770  -4.8611  -4.8317  -4.7986  -4.7692  -4.7480  -4.6677
    -4.4148  -4.3630  -3.9119  -3.8461  -3.6111  -3.3311  -3.2806  -3.1468
    -2.4402  -2.3342  -1.7053  -1.6525  -0.9806  -0.6461  -0.4365   0.1205

          k =-0.2857-0.3233 0.0000 ( 40131 PWs)   bands (ev):

   -12.2135 -11.6096 -10.8786 -10.8167 -10.5400 -10.4802 -10.4080 -10.3223
   -10.2624 -10.1559 -10.1273  -9.9986  -9.9550  -9.9077  -9.8502  -9.7766
    -9.7140  -9.6698  -9.5542  -9.5153  -9.4432  -9.3587  -9.3291  -9.2724
    -9.2323  -9.1979  -9.1444  -9.0328  -8.8948  -8.8769  -8.8408  -8.7418
    -8.6971  -8.5881  -8.5786  -8.5065  -8.4622  -8.3807  -8.3345  -8.2897
    -8.1394  -8.0839  -8.0511  -7.9230  -7.8478  -7.8101  -7.7447  -7.7151
    -7.6871  -7.6071  -7.5710  -7.4866  -7.4544  -7.4092  -7.3676  -7.3078
    -7.2699  -7.2395  -7.1377  -7.0738  -7.0261  -6.9973  -6.9790  -6.9300
    -6.8812  -6.8248  -6.7854  -6.7478  -6.7107  -6.6860  -6.6410  -6.6256
    -6.5718  -6.5405  -6.4736  -6.4546  -6.4182  -6.3686  -6.3473  -6.2907
    -6.2529  -6.2329  -6.1788  -6.1670  -6.1059  -6.0530  -6.0195  -5.9985
    -5.9485  -5.9144  -5.8511  -5.8248  -5.8103  -5.7746  -5.7238  -5.6544
    -5.6449  -5.6239  -5.5867  -5.5410  -5.5094  -5.4911  -5.4681  -5.4304
    -5.4033  -5.3601  -5.3427  -5.3224  -5.2781  -5.2269  -5.1874  -5.1523
    -5.1470  -5.0649  -5.0273  -4.9993  -4.9864  -4.9596  -4.9462  -4.9213
    -4.8748  -4.8623  -4.8219  -4.7979  -4.7859  -4.7779  -4.6947  -4.2708
    -4.1269  -3.8409  -3.8220  -3.7534  -2.9086  -2.5536  -2.5301  -2.2253
    -2.1767  -1.7102  -1.5610  -1.3882  -0.9016  -0.3630   0.0617   0.4333

          k =-0.2857-0.1617 0.0000 ( 40226 PWs)   bands (ev):

   -12.6689 -12.0207 -11.1718 -10.8476 -10.5510 -10.4767 -10.4289 -10.3075
   -10.2027 -10.1807 -10.1103 -10.0482  -9.9443  -9.8847  -9.7138  -9.6689
    -9.5546  -9.5224  -9.4577  -9.4242  -9.3781  -9.3191  -9.2559  -9.1954
    -9.1559  -9.0866  -9.0298  -8.9979  -8.9282  -8.8408  -8.7923  -8.7627
    -8.7078  -8.6598  -8.5949  -8.4776  -8.4605  -8.3895  -8.3623  -8.2517
    -8.1576  -8.1278  -7.9746  -7.9448  -7.8534  -7.7936  -7.7547  -7.6562
    -7.5950  -7.5540  -7.5164  -7.4912  -7.4664  -7.4347  -7.3872  -7.3317
    -7.2827  -7.2095  -7.1904  -7.1226  -7.1006  -7.0478  -7.0151  -6.9920
    -6.9300  -6.8804  -6.8398  -6.7898  -6.7557  -6.7257  -6.7039  -6.6634
    -6.6382  -6.5997  -6.5487  -6.5323  -6.4760  -6.4567  -6.4211  -6.3523
    -6.3208  -6.2956  -6.2541  -6.2091  -6.1715  -6.0974  -6.0818  -6.0614
    -6.0245  -5.9912  -5.9552  -5.9175  -5.8775  -5.8345  -5.8019  -5.7662
    -5.7431  -5.7086  -5.6852  -5.6138  -5.5726  -5.5086  -5.4685  -5.4140
    -5.3870  -5.3603  -5.3106  -5.2807  -5.2049  -5.1768  -5.1654  -5.1279
    -5.1054  -5.0476  -5.0414  -5.0318  -4.9717  -4.9628  -4.9564  -4.9368
    -4.9238  -4.8966  -4.8566  -4.8475  -4.8029  -4.7680  -4.6097  -4.3178
    -3.8007  -3.3015  -3.2042  -2.9898  -2.6063  -2.4249  -2.3407  -1.7970
    -1.0147  -0.6584  -0.6145  -0.5646  -0.0906   0.3495   0.4889   0.8481

          k =-0.1429 0.0000 0.0000 ( 40152 PWs)   bands (ev):

   -13.2178 -12.5366 -11.6182 -10.9062 -10.6417 -10.6300 -10.5847 -10.4644
   -10.4033 -10.1969 -10.0454 -10.0196  -9.9134  -9.8888  -9.7287  -9.6497
    -9.6228  -9.5689  -9.4893  -9.4412  -9.3745  -9.3123  -9.2930  -9.2401
    -9.1070  -9.0776  -9.0189  -8.9104  -8.8810  -8.8121  -8.7505  -8.7259
    -8.6772  -8.5734  -8.5596  -8.4868  -8.4517  -8.3383  -8.3159  -8.1420
    -8.0799  -8.0449  -7.9791  -7.9135  -7.8994  -7.8385  -7.8115  -7.7327
    -7.7083  -7.6756  -7.6062  -7.4863  -7.4421  -7.4146  -7.3567  -7.3134
    -7.2918  -7.2677  -7.2084  -7.1742  -7.0483  -7.0139  -6.9924  -6.9423
    -6.8773  -6.8431  -6.8144  -6.7651  -6.7370  -6.7087  -6.6858  -6.6205
    -6.5882  -6.5542  -6.5161  -6.4819  -6.4613  -6.4388  -6.3809  -6.3126
    -6.2887  -6.2364  -6.1840  -6.1015  -6.0527  -6.0271  -6.0060  -5.9585
    -5.9064  -5.8651  -5.8390  -5.7982  -5.7717  -5.7331  -5.7144  -5.6294
    -5.6142  -5.5778  -5.5478  -5.4806  -5.4588  -5.4139  -5.3719  -5.3368
    -5.3021  -5.2694  -5.1848  -5.1585  -5.1235  -5.0398  -5.0200  -5.0055
    -4.9741  -4.9363  -4.9134  -4.9053  -4.8889  -4.8712  -4.8615  -4.8367
    -4.8207  -4.7704  -4.6867  -4.6679  -4.6374  -4.2987  -4.1011  -3.9955
    -3.8228  -3.6554  -3.5310  -2.7468  -2.7128  -2.1138  -2.0263  -1.7824
    -1.7556  -1.4761  -1.2439  -1.0766  -0.4586   0.3692   0.5417   0.7861

          k =-0.1429 0.1617 0.0000 ( 40157 PWs)   bands (ev):

   -13.0522 -12.3789 -11.4710 -10.8103 -10.6727 -10.6462 -10.4785 -10.4361
   -10.3921 -10.2410 -10.1479 -10.0691  -9.9831  -9.8961  -9.8059  -9.7689
    -9.7084  -9.6517  -9.5324  -9.4754  -9.3888  -9.3615  -9.3029  -9.2426
    -9.1614  -9.1520  -9.1073  -9.0579  -8.9643  -8.8943  -8.8515  -8.7215
    -8.6629  -8.6037  -8.5027  -8.3802  -8.3656  -8.2628  -8.2133  -8.1706
    -8.1505  -8.0542  -7.9649  -7.9219  -7.8892  -7.7892  -7.7378  -7.7230
    -7.6865  -7.6494  -7.5331  -7.4478  -7.4313  -7.3263  -7.3067  -7.2672
    -7.2146  -7.1781  -7.1504  -7.1371  -7.0699  -6.9874  -6.9517  -6.9308
    -6.8672  -6.8349  -6.7922  -6.7158  -6.6881  -6.6596  -6.6249  -6.6094
    -6.5699  -6.5458  -6.5173  -6.4793  -6.4427  -6.3671  -6.3256  -6.2656
    -6.2189  -6.1843  -6.1497  -6.0860  -6.0380  -6.0005  -5.9860  -5.9383
    -5.9196  -5.8470  -5.8341  -5.7843  -5.7496  -5.7017  -5.6705  -5.6310
    -5.6053  -5.5895  -5.5616  -5.5015  -5.4800  -5.4383  -5.3640  -5.3161
    -5.3028  -5.2777  -5.2125  -5.1508  -5.1186  -5.0780  -5.0674  -5.0552
    -5.0145  -4.9830  -4.9537  -4.9199  -4.9029  -4.8882  -4.8323  -4.8217
    -4.8011  -4.7879  -4.7596  -4.6937  -4.6566  -4.1960  -4.1175  -4.0390
    -3.9050  -3.7431  -3.6356  -3.4344  -3.3391  -2.8184  -2.6396  -1.6625
    -1.5012  -1.2141  -1.1357  -0.6564  -0.1737   0.0270   0.5155   0.7095

          k =-0.1429 0.3233 0.0000 ( 40126 PWs)   bands (ev):

   -12.5723 -11.9324 -11.0929 -10.8278 -10.7328 -10.5529 -10.5487 -10.4100
   -10.3086 -10.2881 -10.1818 -10.0703 -10.0135  -9.9669  -9.9267  -9.8691
    -9.8653  -9.8176  -9.6250  -9.5962  -9.5332  -9.4921  -9.4033  -9.3370
    -9.2937  -9.2502  -9.1920  -9.0791  -9.0556  -8.9703  -8.8609  -8.8239
    -8.7047  -8.6479  -8.5582  -8.4887  -8.3549  -8.3248  -8.2706  -8.1710
    -8.1057  -8.0262  -7.9906  -7.8864  -7.7914  -7.7596  -7.7216  -7.6580
    -7.5928  -7.5442  -7.4869  -7.4640  -7.4049  -7.3512  -7.3207  -7.2868
    -7.2069  -7.1995  -7.1013  -7.0765  -7.0075  -6.9712  -6.8945  -6.8461
    -6.7818  -6.7629  -6.7002  -6.6615  -6.6105  -6.5828  -6.5470  -6.5272
    -6.4938  -6.4339  -6.3930  -6.3830  -6.3703  -6.3102  -6.2441  -6.1969
    -6.1759  -6.1136  -6.0689  -6.0522  -6.0144  -5.9896  -5.8708  -5.8501
    -5.8345  -5.8030  -5.7780  -5.7224  -5.7008  -5.6857  -5.5899  -5.5430
    -5.5122  -5.4838  -5.4473  -5.4203  -5.3755  -5.3704  -5.3568  -5.3306
    -5.2869  -5.2617  -5.2028  -5.1789  -5.1383  -5.1014  -5.0633  -5.0376
    -5.0228  -5.0095  -4.9999  -4.9896  -4.9707  -4.9619  -4.9365  -4.8954
    -4.8233  -4.7913  -4.7700  -4.6796  -4.6526  -4.6323  -4.5152  -4.4058
    -4.2508  -4.1072  -3.8948  -3.4626  -3.0691  -2.9678  -2.5556  -2.2402
    -1.9491  -1.8083  -1.3766  -1.2048  -0.7333  -0.3913  -0.1274  -0.0300

          k =-0.1429 0.4850 0.0000 ( 40087 PWs)   bands (ev):

   -11.8572 -11.3221 -11.1475 -10.8876 -10.7051 -10.6687 -10.5937 -10.4128
   -10.3878 -10.3224 -10.2286 -10.1498 -10.1036 -10.0554  -9.9837  -9.9612
    -9.8176  -9.7660  -9.7288  -9.6749  -9.5646  -9.5242  -9.4487  -9.3606
    -9.2797  -9.2082  -9.1922  -9.0714  -9.0435  -9.0139  -8.8733  -8.8602
    -8.8234  -8.6940  -8.5771  -8.4945  -8.4608  -8.4273  -8.3154  -8.2539
    -8.2036  -8.0772  -8.0733  -7.9405  -7.8872  -7.8401  -7.7872  -7.6740
    -7.6253  -7.5663  -7.5095  -7.4979  -7.4434  -7.3817  -7.3031  -7.2514
    -7.2395  -7.1989  -7.1221  -7.0872  -7.0557  -7.0439  -6.9902  -6.9534
    -6.9291  -6.7925  -6.6767  -6.6162  -6.5854  -6.4855  -6.4494  -6.4170
    -6.3660  -6.3206  -6.2999  -6.2709  -6.2600  -6.2498  -6.1894  -6.1318
    -6.0976  -6.0246  -5.9956  -5.9716  -5.9357  -5.8998  -5.8170  -5.7776
    -5.7663  -5.7227  -5.7108  -5.6298  -5.6164  -5.5815  -5.5464  -5.5107
    -5.4912  -5.4157  -5.3746  -5.3476  -5.3335  -5.3102  -5.2951  -5.2552
    -5.2354  -5.1864  -5.1556  -5.1418  -5.1263  -5.1091  -5.0649  -5.0201
    -5.0020  -4.9893  -4.9645  -4.9556  -4.9443  -4.9185  -4.8823  -4.8620
    -4.8225  -4.7649  -4.7584  -4.7171  -4.6709  -4.6585  -4.6303  -4.5833
    -4.1215  -3.9057  -3.8043  -3.6610  -3.5353  -3.0406  -2.8936  -2.7043
    -2.3584  -2.0827  -1.8015  -1.4514  -1.0412  -0.9995  -0.9223  -0.2639

          k =-0.1429-0.4850 0.0000 ( 40087 PWs)   bands (ev):

   -11.8534 -11.3120 -11.1328 -10.8652 -10.7279 -10.6657 -10.6575 -10.4402
   -10.3712 -10.2970 -10.1956 -10.1249 -10.1061 -10.0595 -10.0429  -9.9326
    -9.8364  -9.7715  -9.7051  -9.6653  -9.6316  -9.5061  -9.4442  -9.3650
    -9.2563  -9.1783  -9.1628  -9.1384  -9.0477  -8.9713  -8.9182  -8.8295
    -8.7663  -8.6651  -8.5565  -8.5228  -8.4815  -8.4074  -8.3712  -8.2118
    -8.1885  -8.1223  -8.0385  -7.9938  -7.8919  -7.8602  -7.7383  -7.6961
    -7.6620  -7.6125  -7.5314  -7.4876  -7.4630  -7.4290  -7.3677  -7.2912
    -7.2317  -7.2082  -7.1386  -7.0627  -7.0316  -6.9891  -6.9613  -6.9178
    -6.8878  -6.7185  -6.7041  -6.6427  -6.5725  -6.5139  -6.4551  -6.4214
    -6.3931  -6.3672  -6.2803  -6.2630  -6.2520  -6.1832  -6.1715  -6.1511
    -6.0866  -6.0561  -6.0393  -5.9678  -5.9387  -5.8712  -5.7894  -5.7758
    -5.7289  -5.7191  -5.6928  -5.6585  -5.6192  -5.5700  -5.5290  -5.5132
    -5.4772  -5.4403  -5.3843  -5.3576  -5.3277  -5.2953  -5.2718  -5.2571
    -5.2203  -5.2048  -5.1866  -5.1496  -5.1302  -5.0945  -5.0697  -5.0488
    -5.0053  -4.9768  -4.9474  -4.9365  -4.9222  -4.9044  -4.8803  -4.8747
    -4.8294  -4.7802  -4.7764  -4.7486  -4.6750  -4.6596  -4.6378  -4.5961
    -4.1864  -3.9700  -3.6307  -3.4851  -3.4093  -2.9620  -2.7835  -2.6351
    -2.5588  -2.1455  -2.0567  -1.3318  -1.2432  -1.0030  -0.9419  -0.6344

          k =-0.1429-0.3233 0.0000 ( 40126 PWs)   bands (ev):

   -12.5666 -11.9257 -11.0944 -10.7801 -10.7217 -10.6990 -10.4797 -10.4289
   -10.3252 -10.2371 -10.1639 -10.0945 -10.0239  -9.9856  -9.9375  -9.8663
    -9.8485  -9.7900  -9.6428  -9.5754  -9.5319  -9.4226  -9.3799  -9.3603
    -9.2845  -9.2265  -9.2095  -9.0891  -9.0038  -8.9639  -8.9282  -8.8054
    -8.7191  -8.6295  -8.5575  -8.5424  -8.4792  -8.3201  -8.2877  -8.2362
    -8.0569  -8.0131  -7.9522  -7.8650  -7.8155  -7.8026  -7.7198  -7.6780
    -7.6413  -7.6127  -7.5801  -7.4871  -7.4427  -7.3582  -7.2813  -7.2206
    -7.1871  -7.1246  -7.0548  -7.0307  -6.9880  -6.9351  -6.9160  -6.8381
    -6.7965  -6.7603  -6.6907  -6.6717  -6.6403  -6.5966  -6.5322  -6.5097
    -6.4897  -6.4800  -6.4099  -6.3686  -6.3171  -6.2670  -6.2546  -6.2251
    -6.1644  -6.1143  -6.0887  -6.0370  -6.0180  -5.9924  -5.8696  -5.8429
    -5.8058  -5.7621  -5.7563  -5.7170  -5.6863  -5.6788  -5.5953  -5.5666
    -5.5410  -5.4825  -5.4549  -5.4363  -5.4031  -5.3779  -5.3346  -5.3046
    -5.2861  -5.2535  -5.2100  -5.1795  -5.1481  -5.1013  -5.0949  -5.0543
    -5.0327  -5.0222  -4.9904  -4.9713  -4.9574  -4.9395  -4.9008  -4.8544
    -4.8290  -4.7981  -4.7577  -4.7026  -4.6731  -4.6402  -4.5105  -4.4551
    -4.1571  -4.0980  -3.7799  -3.5149  -3.0208  -2.8604  -2.3471  -2.1787
    -1.8979  -1.8077  -1.3521  -1.2588  -1.0568  -0.7660  -0.7056  -0.0240

          k =-0.1429-0.1617 0.0000 ( 40157 PWs)   bands (ev):

   -13.0489 -12.3758 -11.4738 -10.8259 -10.6662 -10.6361 -10.5412 -10.4173
   -10.3564 -10.2482 -10.0979 -10.0655 -10.0337  -9.8985  -9.7810  -9.7395
    -9.6889  -9.5473  -9.5324  -9.4673  -9.4419  -9.3564  -9.2894  -9.2806
    -9.2070  -9.1283  -9.0802  -9.0638  -8.9638  -8.8827  -8.8346  -8.7148
    -8.6879  -8.6638  -8.5684  -8.4943  -8.4221  -8.3498  -8.2996  -8.2078
    -8.1549  -7.9830  -7.9426  -7.9332  -7.8250  -7.7730  -7.7090  -7.6876
    -7.6655  -7.5491  -7.5345  -7.4943  -7.4386  -7.3412  -7.2968  -7.2566
    -7.2262  -7.1525  -7.1217  -7.1062  -7.0412  -7.0021  -6.9476  -6.8935
    -6.8524  -6.8106  -6.8012  -6.7675  -6.7045  -6.6427  -6.6335  -6.5872
    -6.5766  -6.5526  -6.5099  -6.4868  -6.4233  -6.3471  -6.3244  -6.2809
    -6.2499  -6.1882  -6.1611  -6.1185  -6.0627  -6.0314  -5.9662  -5.9313
    -5.8822  -5.8170  -5.7825  -5.7401  -5.7249  -5.6992  -5.6660  -5.6498
    -5.6222  -5.5840  -5.5461  -5.5015  -5.4784  -5.4405  -5.4081  -5.3484
    -5.3110  -5.2760  -5.1814  -5.1702  -5.1324  -5.1007  -5.0764  -5.0464
    -5.0329  -5.0066  -4.9820  -4.9622  -4.9408  -4.9109  -4.8623  -4.8253
    -4.7977  -4.7237  -4.6913  -4.6746  -4.6142  -4.2111  -4.1251  -4.0142
    -3.8462  -3.7013  -3.6465  -3.4211  -3.2516  -2.7536  -2.6788  -1.5662
    -1.3829  -1.2839  -1.2082  -0.7239  -0.2459  -0.1036   0.3720   0.4777

     the Fermi energy is    -5.0491 ev

!    total energy              =   -6201.26522558 Ry
     total all-electron energy =   -157603.356586 Ry
     estimated scf accuracy    <          8.8E-09 Ry
     smearing contrib. (-TS)   =      -0.00227654 Ry
     internal energy E=F+TS    =   -6201.26294904 Ry

     The total energy is F=E-TS. E is the sum of the following terms:
     one-electron contribution =  -64598.95664496 Ry
     hartree contribution      =   32491.00293095 Ry
     xc contribution           =    -890.73484423 Ry
     ewald contribution        =   30899.03275619 Ry
     one-center paw contrib.   =   -4101.60714699 Ry

     total magnetization       =    13.28 Bohr mag/cell
     absolute magnetization    =    14.68 Bohr mag/cell

     convergence has been achieved in 100 iterations

     negative rho (up, down):  2.096E-04 1.602E-04

     Forces acting on atoms (cartesian axes, Ry/au):

     atom    1 type  1   force =     0.00951928   -0.00382726    0.00754131
     atom    2 type  2   force =     0.02745396   -0.00498660   -0.03231101
     atom    3 type  2   force =    -0.00653620    0.01313431   -0.06298496
     atom    4 type  1   force =    -0.02825401    0.00465894   -0.00608383
     atom    5 type  2   force =    -0.01875052    0.02117919   -0.03562104
     atom    6 type  2   force =     0.01758200   -0.01842150    0.02688695
     atom    7 type  1   force =     0.01759180   -0.00916363    0.00964165
     atom    8 type  1   force =    -0.02090766    0.00995166   -0.01910969
     atom    9 type  1   force =     0.02055375   -0.00164043   -0.00075584
     atom   10 type  1   force =    -0.01182992    0.01151267   -0.01095155
     atom   11 type  2   force =    -0.01852491   -0.00030187    0.00081056
     atom   12 type  2   force =    -0.01642268   -0.02837282    0.01224072
     atom   13 type  1   force =     0.01003702   -0.01339977    0.01311901
     atom   14 type  2   force =     0.01804373    0.00009647   -0.00089687
     atom   15 type  2   force =     0.01832872    0.03498460   -0.02071858
     atom   16 type  1   force =    -0.02022983    0.00194006    0.00100970
     atom   17 type  1   force =    -0.01969659    0.00887492   -0.01113901
     atom   18 type  2   force =    -0.01778546    0.01084571   -0.01037767
     atom   19 type  2   force =     0.01736050   -0.02454174    0.04648528
     atom   20 type  1   force =     0.01832369   -0.00665575    0.01361121
     atom   21 type  2   force =    -0.01658360    0.00040338    0.02340834
     atom   22 type  1   force =    -0.01604468    0.00657579    0.00054976
     atom   23 type  1   force =     0.02083871   -0.00206871    0.01213551
     atom   24 type  2   force =     0.01593291   -0.01077760    0.04351005

     Total force =     0.119599     Total SCF correction =     0.000323


     Computing stress (Cartesian axis) and pressure


     negative rho (up, down):  2.096E-04 1.602E-04
          total   stress  (Ry/bohr**3)                   (kbar)     P=       51.27
   0.00031831   0.00001682   0.00002745           46.82        2.47        4.04
   0.00001682   0.00032498  -0.00002966            2.47       47.81       -4.36
   0.00002745  -0.00002966   0.00040236            4.04       -4.36       59.19


     Writing all to output data dir ./tmp_NiPd_vac_32.5A/NiPd_vac_32.5A.save/ :
     XML data file, charge density, pseudopotentials, collected wavefunctions
 
     init_run     :    125.70s CPU    137.84s WALL (       1 calls)
     electrons    : 162846.68s CPU 175227.09s WALL (       1 calls)
     forces       :     49.21s CPU     52.96s WALL (       1 calls)
     stress       :    446.46s CPU    477.25s WALL (       1 calls)

     Called by init_run:
     wfcinit      :    122.79s CPU    134.10s WALL (       1 calls)
     potinit      :      1.48s CPU      1.74s WALL (       1 calls)
     hinit0       :      0.30s CPU      0.48s WALL (       1 calls)

     Called by electrons:
     c_bands      : 158952.42s CPU 170951.13s WALL (     100 calls)
     sum_band     :   3624.13s CPU   3976.89s WALL (     100 calls)
     v_of_rho     :     34.57s CPU     37.48s WALL (     101 calls)
     newd         :     61.12s CPU     73.95s WALL (     101 calls)
     PAW_pot      :     97.46s CPU    102.47s WALL (     101 calls)
     mix_rho      :     74.92s CPU     82.26s WALL (     100 calls)

     Called by c_bands:
     init_us_2    :    169.28s CPU    183.96s WALL (   19894 calls)
     init_us_2:cp :    168.98s CPU    183.71s WALL (   19894 calls)
     ccgdiagg     : 151230.43s CPU 162255.57s WALL (    9800 calls)
     wfcrot       :   7598.95s CPU   8489.92s WALL (    9800 calls)

     Called by *cgdiagg:
     h_psi        :  66746.60s CPU  72818.40s WALL ( 3445374 calls)
     s_psi        :  30317.48s CPU  32938.01s WALL ( 6880948 calls)

     Called by h_psi:
     h_psi:calbec :  30568.47s CPU  32884.37s WALL ( 3445374 calls)
     vloc_psi     :  19950.58s CPU  22219.79s WALL ( 3445374 calls)
     add_vuspsi   :  16081.68s CPU  17547.74s WALL ( 3445374 calls)
     hs_1psi      :  75626.42s CPU  82824.93s WALL ( 3435574 calls)
     s_1psi       :  43168.74s CPU  45803.56s WALL ( 3435574 calls)

     General routines
     calbec       :  59050.43s CPU  63359.45s WALL ( 6891238 calls)
     fft          :     33.83s CPU     37.15s WALL (    2563 calls)
     ffts         :     22.83s CPU     26.08s WALL (   12579 calls)
     fftw         :  19103.81s CPU  20863.68s WALL (11118860 calls)
     interpolate  :      2.08s CPU      2.30s WALL (     202 calls)
 
     Parallel routines
 
     PWSCF        :   1d21h24m CPU   2d 0h52m WALL

 
   This run was terminated on:  17:27:13  20Mar2026            

=------------------------------------------------------------------------------=
   JOB DONE.
=------------------------------------------------------------------------------=
