
     Program PWSCF v.7.3 starts on 20Apr2026 at 21:44:38 

     This program is part of the open-source Quantum ESPRESSO suite
     for quantum simulation of materials; please cite
         "P. Giannozzi et al., J. Phys.:Condens. Matter 21 395502 (2009);
         "P. Giannozzi et al., J. Phys.:Condens. Matter 29 465901 (2017);
         "P. Giannozzi et al., J. Chem. Phys. 152 154105 (2020);
          URL http://www.quantum-espresso.org", 
     in publications or presentations arising from this work. More details at
     http://www.quantum-espresso.org/quote

     Parallel version (MPI), running on    64 processors

     MPI processes distributed on     4 nodes
     58201 MiB available memory on the printing compute node when the environment starts
 
     Reading input from /tmpu/isholek_g/isholek/MIGUEL/QE/111_2x2/SCF/Pd_111-SCF.in

     Current dimensions of program PWSCF are:
     Max number of different atomic species (ntypx) = 10
     Max number of k-points (npk) =  40000
     Max angular momentum in pseudopotentials (lmaxx) =  4
     file Pd.upf: wavefunction(s)  5S 4D renormalized

     IMPORTANT: XC functional enforced from input :
     Exchange-correlation= PBE
                           (   1   4   3   4   0   0   0)
     Any further DFT definition will be discarded
     Please, verify this is what you really want

     Found identity + ( -0.5000  0.0000  0.0000) symmetry
     This is a supercell, fractional translations are disabled
     Message from routine setup:
     using ibrav=0 with symmetry is DISCOURAGED, use correct ibrav instead
 
     K-points division:     npool     =       4
     R & G space division:  proc/nbgrp/npool/nimage =      16
     Subspace diagonalization in iterative solution of the eigenvalue problem:
     a serial algorithm will be used

 
     Parallelization info
     --------------------
     sticks:   dense  smooth     PW     G-vecs:    dense   smooth      PW
     Min         216     108     31                62988    22256    3317
     Max         217     109     32                63027    22281    3334
     Sum        3463    1735    499              1008141   356271   53281
 
     Using Slab Decomposition
 

     Title: 
     Pd_111-SCF                                                                 


     bravais-lattice index     =            0
     lattice parameter (alat)  =      10.2412  a.u.
     unit-cell volume          =    5675.0250 (a.u.)^3
     number of atoms/cell      =           24
     number of atomic types    =            1
     number of electrons       =       240.00
     number of Kohn-Sham states=          144
     kinetic-energy cutoff     =      60.0000  Ry
     charge density cutoff     =     480.0000  Ry
     scf convergence threshold =      1.0E-10
     mixing beta               =       0.4000
     number of iterations used =           16  local-TF  mixing
     Exchange-correlation= PBE
                           (   1   4   3   4   0   0   0)

     celldm(1)=  10.241232  celldm(2)=   0.000000  celldm(3)=   0.000000
     celldm(4)=   0.000000  celldm(5)=   0.000000  celldm(6)=   0.000000

     crystal axes: (cart. coord. in units of alat)
               a(1) = (   1.000000   0.000000   0.000000 )  
               a(2) = (   0.500000   0.866025   0.000000 )  
               a(3) = (   0.000000   0.000000   6.100712 )  

     reciprocal axes: (cart. coord. in units 2 pi/alat)
               b(1) = (  1.000000 -0.577350  0.000000 )  
               b(2) = (  0.000000  1.154701  0.000000 )  
               b(3) = (  0.000000  0.000000  0.163915 )  


     PseudoPot. # 1 for Pd read from file:
     /tmpu/isholek_g/isholek/MIGUEL/PP/PAW/Pd.upf
     MD5 check sum: e9d6f14fd83b79f8105499163af174c9
     Pseudo is Projector augmented-wave + core cor, Zval = 10.0
     Generated using "atomic" code by A. Dal Corso  v.5.0.2 svn rev. 9415
     Shape of augmentation charge: PSQ
     Using radial grid of 1235 points,  6 beta functions with: 
                l(1) =   0
                l(2) =   0
                l(3) =   1
                l(4) =   1
                l(5) =   2
                l(6) =   2
     Q(r) pseudized with 0 coefficients 


     atomic species   valence    mass     pseudopotential
     Pd               10.00   106.42000     Pd( 1.00)

     Starting magnetic structure 
     atomic species   magnetization
     Pd              0.010

      6 Sym. Ops. (no inversion) found



   Cartesian axes

     site n.     atom                  positions (alat units)
         1        Pd     tau(   1) = (   0.7499990   0.1443381   2.0297350  )
         2        Pd     tau(   2) = (   0.2500010   0.1443381   2.0297350  )
         3        Pd     tau(   3) = (   0.5000000   0.5773491   2.0297350  )
         4        Pd     tau(   4) = (   1.0000000   0.5773503   2.0297357  )
         5        Pd     tau(   5) = (   0.7499990   0.7216884   2.4379833  )
         6        Pd     tau(   6) = (   1.0000000   0.2886740   2.4379833  )
         7        Pd     tau(   7) = (   1.2500010   0.7216884   2.4379833  )
         8        Pd     tau(   8) = (   0.5000000   0.2886751   2.4379840  )
         9        Pd     tau(   9) = (   1.0000000   0.8660254   2.8455909  )
        10        Pd     tau(  10) = (   1.2500000   0.4330127   2.8455909  )
        11        Pd     tau(  11) = (   0.7500000   0.4330127   2.8455909  )
        12        Pd     tau(  12) = (   1.0000000  -0.0000000   2.8455913  )
        13        Pd     tau(  13) = (   0.7500000   0.1443375   3.2534478  )
        14        Pd     tau(  14) = (   0.5000000   0.5773503   3.2534478  )
        15        Pd     tau(  15) = (   0.2500000   0.1443375   3.2534478  )
        16        Pd     tau(  16) = (   1.0000000   0.5773503   3.2534475  )
        17        Pd     tau(  17) = (   0.7500001   0.7216878   3.6604217  )
        18        Pd     tau(  18) = (   1.0000000   0.2886752   3.6604217  )
        19        Pd     tau(  19) = (   1.2499999   0.7216878   3.6604217  )
        20        Pd     tau(  20) = (   0.5000000   0.2886751   3.6604215  )
        21        Pd     tau(  21) = (   1.2500001   0.4330127   4.0730803  )
        22        Pd     tau(  22) = (   1.0000000   0.8660255   4.0730803  )
        23        Pd     tau(  23) = (   0.7499999   0.4330127   4.0730802  )
        24        Pd     tau(  24) = (   1.5000000   0.8660254   4.0730803  )

     --------------------------------------------
     DFT-D3 Dispersion Correction (3-body terms):
     --------------------------------------------
       Reference C6 values for interpolation: 

         atom   Coordination number   C6
         Pd         0.000          1217.01
         Pd         1.863           573.90
         Pd         5.710           531.75

       Values used:

         atom   Coordination number  R0_AB[au]  C6      C8
         Pd         6.690            3.168    531.75  48720.73
         Pd         6.690            3.168    531.75  48720.73
         Pd         6.690            3.168    531.75  48720.73
         Pd         6.690            3.168    531.75  48720.73
         Pd         8.968            3.168    531.75  48720.73
         Pd         8.968            3.168    531.75  48720.73
         Pd         8.968            3.168    531.75  48720.73
         Pd         8.968            3.168    531.75  48720.73
         Pd         8.985            3.168    531.75  48720.73
         Pd         8.985            3.168    531.75  48720.73
         Pd         8.985            3.168    531.75  48720.73
         Pd         8.985            3.168    531.75  48720.73
         Pd         8.995            3.168    531.75  48720.73
         Pd         8.995            3.168    531.75  48720.73
         Pd         8.995            3.168    531.75  48720.73
         Pd         8.995            3.168    531.75  48720.73
         Pd         8.902            3.168    531.75  48720.73
         Pd         8.902            3.168    531.75  48720.73
         Pd         8.902            3.168    531.75  48720.73
         Pd         8.902            3.168    531.75  48720.73
         Pd         6.614            3.168    531.75  48720.73
         Pd         6.614            3.168    531.75  48720.73
         Pd         6.614            3.168    531.75  48720.73
         Pd         6.614            3.168    531.75  48720.73

         Molecular C6 ( Ry / a.u.^6 ) =    306287.54


     number of k points=    30  Marzari-Vanderbilt smearing, width (Ry)=  0.0147
                       cart. coord. in units 2pi/alat
        k(    1) = (   0.0000000   0.0000000   0.0000000), wk =   0.0039062
        k(    2) = (   0.0000000   0.0721688   0.0000000), wk =   0.0234375
        k(    3) = (   0.0000000   0.1443376   0.0000000), wk =   0.0234375
        k(    4) = (   0.0000000   0.2165064   0.0000000), wk =   0.0234375
        k(    5) = (   0.0000000   0.2886751   0.0000000), wk =   0.0234375
        k(    6) = (   0.0000000   0.3608439   0.0000000), wk =   0.0234375
        k(    7) = (   0.0000000   0.4330127   0.0000000), wk =   0.0234375
        k(    8) = (   0.0000000   0.5051815   0.0000000), wk =   0.0234375
        k(    9) = (   0.0000000  -0.5773503   0.0000000), wk =   0.0117188
        k(   10) = (   0.0625000   0.1082532   0.0000000), wk =   0.0234375
        k(   11) = (   0.0625000   0.1804220   0.0000000), wk =   0.0468750
        k(   12) = (   0.0625000   0.2525907   0.0000000), wk =   0.0468750
        k(   13) = (   0.0625000   0.3247595   0.0000000), wk =   0.0468750
        k(   14) = (   0.0625000   0.3969283   0.0000000), wk =   0.0468750
        k(   15) = (   0.0625000   0.4690971   0.0000000), wk =   0.0468750
        k(   16) = (   0.0625000  -0.6134347   0.0000000), wk =   0.0468750
        k(   17) = (   0.1250000   0.2165064   0.0000000), wk =   0.0234375
        k(   18) = (   0.1250000   0.2886751   0.0000000), wk =   0.0468750
        k(   19) = (   0.1250000   0.3608439   0.0000000), wk =   0.0468750
        k(   20) = (   0.1250000   0.4330127   0.0000000), wk =   0.0468750
        k(   21) = (   0.1250000  -0.6495191   0.0000000), wk =   0.0468750
        k(   22) = (   0.1250000  -0.5773503   0.0000000), wk =   0.0234375
        k(   23) = (   0.1875000   0.3247595   0.0000000), wk =   0.0234375
        k(   24) = (   0.1875000   0.3969283   0.0000000), wk =   0.0468750
        k(   25) = (   0.1875000  -0.6856034   0.0000000), wk =   0.0468750
        k(   26) = (   0.1875000  -0.6134347   0.0000000), wk =   0.0468750
        k(   27) = (   0.2500000  -0.7216878   0.0000000), wk =   0.0234375
        k(   28) = (   0.2500000  -0.6495191   0.0000000), wk =   0.0468750
        k(   29) = (   0.2500000  -0.5773503   0.0000000), wk =   0.0234375
        k(   30) = (   0.3125000  -0.6134347   0.0000000), wk =   0.0234375

     Dense  grid:  1008141 G-vectors     FFT dimensions: (  72,  72, 450)

     Smooth grid:   356271 G-vectors     FFT dimensions: (  54,  54, 320)

     Estimated max dynamical RAM per process >     119.30 MB

     Estimated total dynamical RAM >       7.46 GB
 ----2D----2D----2D----2D----2D----2D----2D----2D----2D----2D----2D----2D
  The code is running with the 2D cutoff
  Please refer to:
  Sohier, T., Calandra, M., & Mauri, F. (2017), 
  Density functional perturbation theory for gated two-dimensional heterostructu
 res:
  Theoretical developments and application to flexural phonons in graphene.
  Physical Review B, 96(7), 75448. https://doi.org/10.1103/PhysRevB.96.075448
 ----2D----2D----2D----2D----2D----2D----2D----2D----2D----2D----2D----2D

     Check: negative core charge=   -0.000002
     Generating pointlists ...
     new r_m :   0.2058 (alat units)  2.1079 (a.u.) for type    1

     Initial potential from superposition of free atoms

     starting charge     239.9875, renormalised to     240.0000

     negative rho (up, down):  3.693E-05 3.620E-05
     Starting wfcs are  216 randomized atomic wfcs
     Checking if some PAW data can be deallocated... 

     total cpu time spent up to now is       29.4 secs

     Self-consistent Calculation

     iteration #  1     ecut=    60.00 Ry     beta= 0.40
     Davidson diagonalization with overlap
     ethr =  1.00E-02,  avg # of iterations =  6.1

     negative rho (up, down):  5.030E-03 5.055E-03

     total cpu time spent up to now is       97.3 secs

     total energy              =   -7949.06995129 Ry
     estimated scf accuracy    <       2.92301612 Ry

     total magnetization       =     1.63 Bohr mag/cell
     absolute magnetization    =     1.63 Bohr mag/cell

     iteration #  2     ecut=    60.00 Ry     beta= 0.40
     Davidson diagonalization with overlap
     ethr =  1.22E-03,  avg # of iterations =  1.8

     negative rho (up, down):  1.178E-02 1.178E-02

     total cpu time spent up to now is      152.0 secs

     total energy              =   -7948.82712554 Ry
     estimated scf accuracy    <       1.10044870 Ry

     total magnetization       =     1.64 Bohr mag/cell
     absolute magnetization    =     1.64 Bohr mag/cell

     iteration #  3     ecut=    60.00 Ry     beta= 0.40
     Davidson diagonalization with overlap
     ethr =  4.59E-04,  avg # of iterations =  3.4

     negative rho (up, down):  1.245E-02 1.244E-02

     total cpu time spent up to now is      210.6 secs

     total energy              =   -7948.93456535 Ry
     estimated scf accuracy    <       0.14695642 Ry

     total magnetization       =     1.62 Bohr mag/cell
     absolute magnetization    =     1.65 Bohr mag/cell

     iteration #  4     ecut=    60.00 Ry     beta= 0.40
     Davidson diagonalization with overlap
     ethr =  6.12E-05,  avg # of iterations =  8.3

     negative rho (up, down):  9.279E-03 9.280E-03

     total cpu time spent up to now is      298.0 secs

     total energy              =   -7948.98975539 Ry
     estimated scf accuracy    <       0.07730624 Ry

     total magnetization       =     1.63 Bohr mag/cell
     absolute magnetization    =     1.68 Bohr mag/cell

     iteration #  5     ecut=    60.00 Ry     beta= 0.40
     Davidson diagonalization with overlap
     ethr =  3.22E-05,  avg # of iterations =  2.4

     negative rho (up, down):  7.118E-03 7.120E-03

     total cpu time spent up to now is      354.0 secs

     total energy              =   -7948.99835379 Ry
     estimated scf accuracy    <       0.01790476 Ry

     total magnetization       =     1.65 Bohr mag/cell
     absolute magnetization    =     1.70 Bohr mag/cell

     iteration #  6     ecut=    60.00 Ry     beta= 0.40
     Davidson diagonalization with overlap
     ethr =  7.46E-06,  avg # of iterations =  7.0

     negative rho (up, down):  4.955E-03 4.955E-03

     total cpu time spent up to now is      419.7 secs

     total energy              =   -7948.99801196 Ry
     estimated scf accuracy    <       0.01067238 Ry

     total magnetization       =     1.67 Bohr mag/cell
     absolute magnetization    =     1.73 Bohr mag/cell

     iteration #  7     ecut=    60.00 Ry     beta= 0.40
     Davidson diagonalization with overlap
     ethr =  4.45E-06,  avg # of iterations =  3.0

     negative rho (up, down):  4.184E-03 4.184E-03

     total cpu time spent up to now is      480.1 secs

     total energy              =   -7948.99679324 Ry
     estimated scf accuracy    <       0.00714093 Ry

     total magnetization       =     1.71 Bohr mag/cell
     absolute magnetization    =     1.78 Bohr mag/cell

     iteration #  8     ecut=    60.00 Ry     beta= 0.40
     Davidson diagonalization with overlap
     ethr =  2.98E-06,  avg # of iterations =  1.2

     negative rho (up, down):  3.001E-03 3.001E-03

     total cpu time spent up to now is      532.0 secs

     total energy              =   -7948.99809163 Ry
     estimated scf accuracy    <       0.00245533 Ry

     total magnetization       =     1.74 Bohr mag/cell
     absolute magnetization    =     1.82 Bohr mag/cell

     iteration #  9     ecut=    60.00 Ry     beta= 0.40
     Davidson diagonalization with overlap
     ethr =  1.02E-06,  avg # of iterations =  2.1

     negative rho (up, down):  2.561E-03 2.561E-03

     total cpu time spent up to now is      595.2 secs

     total energy              =   -7948.99850653 Ry
     estimated scf accuracy    <       0.00297603 Ry

     total magnetization       =     1.78 Bohr mag/cell
     absolute magnetization    =     1.86 Bohr mag/cell

     iteration # 10     ecut=    60.00 Ry     beta= 0.40
     Davidson diagonalization with overlap
     ethr =  1.02E-06,  avg # of iterations =  1.0

     negative rho (up, down):  2.869E-03 2.869E-03

     total cpu time spent up to now is      648.8 secs

     total energy              =   -7948.99851582 Ry
     estimated scf accuracy    <       0.00318801 Ry

     total magnetization       =     1.80 Bohr mag/cell
     absolute magnetization    =     1.88 Bohr mag/cell

     iteration # 11     ecut=    60.00 Ry     beta= 0.40
     Davidson diagonalization with overlap
     ethr =  1.02E-06,  avg # of iterations =  1.0

     negative rho (up, down):  1.820E-03 1.820E-03

     total cpu time spent up to now is      699.8 secs

     total energy              =   -7948.99850524 Ry
     estimated scf accuracy    <       0.00302587 Ry

     total magnetization       =     1.78 Bohr mag/cell
     absolute magnetization    =     1.87 Bohr mag/cell

     iteration # 12     ecut=    60.00 Ry     beta= 0.40
     Davidson diagonalization with overlap
     ethr =  1.02E-06,  avg # of iterations =  1.0

     negative rho (up, down):  7.476E-04 7.475E-04

     total cpu time spent up to now is      750.6 secs

     total energy              =   -7948.99854446 Ry
     estimated scf accuracy    <       0.00210718 Ry

     total magnetization       =     1.85 Bohr mag/cell
     absolute magnetization    =     1.94 Bohr mag/cell

     iteration # 13     ecut=    60.00 Ry     beta= 0.40
     Davidson diagonalization with overlap
     ethr =  8.78E-07,  avg # of iterations =  1.0

     negative rho (up, down):  3.277E-05 3.277E-05

     total cpu time spent up to now is      801.7 secs

     total energy              =   -7948.99856510 Ry
     estimated scf accuracy    <       0.00181606 Ry

     total magnetization       =     1.94 Bohr mag/cell
     absolute magnetization    =     2.02 Bohr mag/cell

     iteration # 14     ecut=    60.00 Ry     beta= 0.40
     Davidson diagonalization with overlap
     ethr =  7.57E-07,  avg # of iterations =  1.1

     negative rho (up, down):  1.774E-06 1.774E-06

     total cpu time spent up to now is      853.0 secs

     total energy              =   -7948.99861555 Ry
     estimated scf accuracy    <       0.00009172 Ry

     total magnetization       =     2.09 Bohr mag/cell
     absolute magnetization    =     2.18 Bohr mag/cell

     iteration # 15     ecut=    60.00 Ry     beta= 0.40
     Davidson diagonalization with overlap
     ethr =  3.82E-08,  avg # of iterations =  1.6

     negative rho (up, down):  7.396E-05 7.397E-05

     total cpu time spent up to now is      910.7 secs

     total energy              =   -7948.99859956 Ry
     estimated scf accuracy    <       0.00006599 Ry

     total magnetization       =     2.12 Bohr mag/cell
     absolute magnetization    =     2.22 Bohr mag/cell

     iteration # 16     ecut=    60.00 Ry     beta= 0.40
     Davidson diagonalization with overlap
     ethr =  2.75E-08,  avg # of iterations =  1.0

     negative rho (up, down):  7.737E-05 7.738E-05

     total cpu time spent up to now is      962.9 secs

     total energy              =   -7948.99859052 Ry
     estimated scf accuracy    <       0.00012783 Ry

     total magnetization       =     2.17 Bohr mag/cell
     absolute magnetization    =     2.27 Bohr mag/cell

     iteration # 17     ecut=    60.00 Ry     beta= 0.40
     Davidson diagonalization with overlap
     ethr =  2.75E-08,  avg # of iterations =  1.8

     negative rho (up, down):  2.442E-05 2.442E-05

     total cpu time spent up to now is     1020.1 secs

     total energy              =   -7948.99861609 Ry
     estimated scf accuracy    <       0.00004104 Ry

     total magnetization       =     2.34 Bohr mag/cell
     absolute magnetization    =     2.45 Bohr mag/cell

     iteration # 18     ecut=    60.00 Ry     beta= 0.40
     Davidson diagonalization with overlap
     ethr =  1.71E-08,  avg # of iterations =  2.2

     negative rho (up, down):  1.374E-05 1.374E-05

     total cpu time spent up to now is     1077.6 secs

     total energy              =   -7948.99863514 Ry
     estimated scf accuracy    <       0.00000738 Ry

     total magnetization       =     2.48 Bohr mag/cell
     absolute magnetization    =     2.59 Bohr mag/cell

     iteration # 19     ecut=    60.00 Ry     beta= 0.40
     Davidson diagonalization with overlap
     ethr =  3.08E-09,  avg # of iterations =  4.8

     negative rho (up, down):  8.484E-06 8.485E-06

     total cpu time spent up to now is     1153.5 secs

     total energy              =   -7948.99864352 Ry
     estimated scf accuracy    <       0.00003508 Ry

     total magnetization       =     2.59 Bohr mag/cell
     absolute magnetization    =     2.71 Bohr mag/cell

     iteration # 20     ecut=    60.00 Ry     beta= 0.40
     Davidson diagonalization with overlap
     ethr =  3.08E-09,  avg # of iterations =  1.0

     negative rho (up, down):  3.620E-05 3.620E-05

     total cpu time spent up to now is     1208.1 secs

     total energy              =   -7948.99863841 Ry
     estimated scf accuracy    <       0.00001512 Ry

     total magnetization       =     2.57 Bohr mag/cell
     absolute magnetization    =     2.69 Bohr mag/cell

     iteration # 21     ecut=    60.00 Ry     beta= 0.40
     Davidson diagonalization with overlap
     ethr =  3.08E-09,  avg # of iterations =  2.0

     negative rho (up, down):  1.738E-04 1.738E-04

     total cpu time spent up to now is     1270.9 secs

     total energy              =   -7948.99855004 Ry
     estimated scf accuracy    <       0.00001782 Ry

     total magnetization       =     2.54 Bohr mag/cell
     absolute magnetization    =     2.66 Bohr mag/cell

     iteration # 22     ecut=    60.00 Ry     beta= 0.40
     Davidson diagonalization with overlap
     ethr =  3.08E-09,  avg # of iterations =  4.6

     negative rho (up, down):  1.842E-04 1.842E-04

     total cpu time spent up to now is     1359.2 secs

     total energy              =   -7948.99859095 Ry
     estimated scf accuracy    <       0.00004794 Ry

     total magnetization       =     2.27 Bohr mag/cell
     absolute magnetization    =     2.37 Bohr mag/cell

     iteration # 23     ecut=    60.00 Ry     beta= 0.40
     Davidson diagonalization with overlap
     ethr =  3.08E-09,  avg # of iterations =  1.9

     negative rho (up, down):  1.717E-04 1.717E-04

     total cpu time spent up to now is     1414.4 secs

     total energy              =   -7948.99859806 Ry
     estimated scf accuracy    <       0.00004033 Ry

     total magnetization       =     2.18 Bohr mag/cell
     absolute magnetization    =     2.28 Bohr mag/cell

     iteration # 24     ecut=    60.00 Ry     beta= 0.40
     Davidson diagonalization with overlap
     ethr =  3.08E-09,  avg # of iterations =  1.0

     negative rho (up, down):  1.721E-04 1.721E-04

     total cpu time spent up to now is     1465.6 secs

     total energy              =   -7948.99859697 Ry
     estimated scf accuracy    <       0.00005024 Ry

     total magnetization       =     2.20 Bohr mag/cell
     absolute magnetization    =     2.29 Bohr mag/cell

     iteration # 25     ecut=    60.00 Ry     beta= 0.40
     Davidson diagonalization with overlap
     ethr =  3.08E-09,  avg # of iterations =  2.4

     negative rho (up, down):  1.453E-04 1.453E-04

     total cpu time spent up to now is     1521.6 secs

     total energy              =   -7948.99856808 Ry
     estimated scf accuracy    <       0.00004562 Ry

     total magnetization       =     2.37 Bohr mag/cell
     absolute magnetization    =     2.47 Bohr mag/cell

     iteration # 26     ecut=    60.00 Ry     beta= 0.40
     Davidson diagonalization with overlap
     ethr =  3.08E-09,  avg # of iterations =  4.2

     negative rho (up, down):  1.667E-04 1.667E-04

     total cpu time spent up to now is     1612.5 secs

     total energy              =   -7948.99858578 Ry
     estimated scf accuracy    <       0.00002064 Ry

     total magnetization       =     2.72 Bohr mag/cell
     absolute magnetization    =     2.84 Bohr mag/cell

     iteration # 27     ecut=    60.00 Ry     beta= 0.40
     Davidson diagonalization with overlap
     ethr =  3.08E-09,  avg # of iterations =  2.5

     negative rho (up, down):  9.820E-05 9.820E-05

     total cpu time spent up to now is     1676.7 secs

     total energy              =   -7948.99863020 Ry
     estimated scf accuracy    <       0.00003444 Ry

     total magnetization       =     2.47 Bohr mag/cell
     absolute magnetization    =     2.58 Bohr mag/cell

     iteration # 28     ecut=    60.00 Ry     beta= 0.40
     Davidson diagonalization with overlap
     ethr =  3.08E-09,  avg # of iterations =  1.9

     negative rho (up, down):  9.703E-05 9.703E-05

     total cpu time spent up to now is     1731.0 secs

     total energy              =   -7948.99860173 Ry
     estimated scf accuracy    <       0.00001562 Ry

     total magnetization       =     2.63 Bohr mag/cell
     absolute magnetization    =     2.74 Bohr mag/cell

     iteration # 29     ecut=    60.00 Ry     beta= 0.40
     Davidson diagonalization with overlap
     ethr =  3.08E-09,  avg # of iterations =  2.0

     negative rho (up, down):  2.018E-04 2.018E-04

     total cpu time spent up to now is     1794.6 secs

     total energy              =   -7948.99862934 Ry
     estimated scf accuracy    <       0.00001602 Ry

     total magnetization       =     2.44 Bohr mag/cell
     absolute magnetization    =     2.55 Bohr mag/cell

     iteration # 30     ecut=    60.00 Ry     beta= 0.40
     Davidson diagonalization with overlap
     ethr =  3.08E-09,  avg # of iterations =  1.2

     negative rho (up, down):  2.145E-04 2.145E-04

     total cpu time spent up to now is     1848.4 secs

     total energy              =   -7948.99864011 Ry
     estimated scf accuracy    <       0.00003062 Ry

     total magnetization       =     2.56 Bohr mag/cell
     absolute magnetization    =     2.68 Bohr mag/cell

     iteration # 31     ecut=    60.00 Ry     beta= 0.40
     Davidson diagonalization with overlap
     ethr =  3.08E-09,  avg # of iterations =  1.1

     negative rho (up, down):  2.584E-04 2.584E-04

     total cpu time spent up to now is     1900.8 secs

     total energy              =   -7948.99863114 Ry
     estimated scf accuracy    <       0.00002993 Ry

     total magnetization       =     2.61 Bohr mag/cell
     absolute magnetization    =     2.72 Bohr mag/cell

     iteration # 32     ecut=    60.00 Ry     beta= 0.40
     Davidson diagonalization with overlap
     ethr =  3.08E-09,  avg # of iterations =  1.0

     negative rho (up, down):  1.125E-04 1.125E-04

     total cpu time spent up to now is     1952.7 secs

     total energy              =   -7948.99863687 Ry
     estimated scf accuracy    <       0.00003517 Ry

     total magnetization       =     2.54 Bohr mag/cell
     absolute magnetization    =     2.65 Bohr mag/cell

     iteration # 33     ecut=    60.00 Ry     beta= 0.40
     Davidson diagonalization with overlap
     ethr =  3.08E-09,  avg # of iterations =  1.0

     negative rho (up, down):  1.042E-04 1.042E-04

     total cpu time spent up to now is     2004.6 secs

     total energy              =   -7948.99861837 Ry
     estimated scf accuracy    <       0.00001237 Ry

     total magnetization       =     2.57 Bohr mag/cell
     absolute magnetization    =     2.68 Bohr mag/cell

     iteration # 34     ecut=    60.00 Ry     beta= 0.40
     Davidson diagonalization with overlap
     ethr =  3.08E-09,  avg # of iterations =  1.0

     negative rho (up, down):  4.145E-05 4.146E-05

     total cpu time spent up to now is     2057.1 secs

     total energy              =   -7948.99863224 Ry
     estimated scf accuracy    <       0.00001062 Ry

     total magnetization       =     2.46 Bohr mag/cell
     absolute magnetization    =     2.57 Bohr mag/cell

     iteration # 35     ecut=    60.00 Ry     beta= 0.40
     Davidson diagonalization with overlap
     ethr =  3.08E-09,  avg # of iterations =  1.0

     negative rho (up, down):  2.326E-05 2.326E-05

     total cpu time spent up to now is     2108.7 secs

     total energy              =   -7948.99864020 Ry
     estimated scf accuracy    <       0.00000722 Ry

     total magnetization       =     2.57 Bohr mag/cell
     absolute magnetization    =     2.68 Bohr mag/cell

     iteration # 36     ecut=    60.00 Ry     beta= 0.40
     Davidson diagonalization with overlap
     ethr =  3.01E-09,  avg # of iterations =  3.4

     negative rho (up, down):  2.815E-05 2.814E-05

     total cpu time spent up to now is     2177.5 secs

     total energy              =   -7948.99863245 Ry
     estimated scf accuracy    <       0.00001934 Ry

     total magnetization       =     2.74 Bohr mag/cell
     absolute magnetization    =     2.86 Bohr mag/cell

     iteration # 37     ecut=    60.00 Ry     beta= 0.40
     Davidson diagonalization with overlap
     ethr =  3.01E-09,  avg # of iterations =  3.2

     negative rho (up, down):  1.138E-06 1.136E-06

     total cpu time spent up to now is     2256.0 secs

     total energy              =   -7948.99844236 Ry
     estimated scf accuracy    <       0.00001962 Ry

     total magnetization       =     3.03 Bohr mag/cell
     absolute magnetization    =     3.17 Bohr mag/cell

     iteration # 38     ecut=    60.00 Ry     beta= 0.40
     Davidson diagonalization with overlap
     ethr =  3.01E-09,  avg # of iterations =  5.0

     negative rho (up, down):  2.836E-05 2.837E-05

     total cpu time spent up to now is     2343.7 secs

     total energy              =   -7948.99852014 Ry
     estimated scf accuracy    <       0.00001897 Ry

     total magnetization       =     2.52 Bohr mag/cell
     absolute magnetization    =     2.64 Bohr mag/cell

     iteration # 39     ecut=    60.00 Ry     beta= 0.40
     Davidson diagonalization with overlap
     ethr =  3.01E-09,  avg # of iterations =  3.2

     negative rho (up, down):  2.561E-07 2.554E-07

     total cpu time spent up to now is     2427.0 secs

     total energy              =   -7948.99815264 Ry
     estimated scf accuracy    <       0.00001458 Ry

     total magnetization       =     2.19 Bohr mag/cell
     absolute magnetization    =     2.29 Bohr mag/cell

     iteration # 40     ecut=    60.00 Ry     beta= 0.40
     Davidson diagonalization with overlap
     ethr =  3.01E-09,  avg # of iterations =  5.3

     negative rho (up, down):  4.508E-06 4.512E-06

     total cpu time spent up to now is     2525.8 secs

     total energy              =   -7948.99868440 Ry
     estimated scf accuracy    <       0.00003550 Ry

     total magnetization       =     3.06 Bohr mag/cell
     absolute magnetization    =     3.20 Bohr mag/cell

     iteration # 41     ecut=    60.00 Ry     beta= 0.40
     Davidson diagonalization with overlap
     ethr =  3.01E-09,  avg # of iterations =  1.0

     negative rho (up, down):  1.387E-07 1.386E-07

     total cpu time spent up to now is     2576.5 secs

     total energy              =   -7948.99842449 Ry
     estimated scf accuracy    <       0.00001821 Ry

     total magnetization       =     2.98 Bohr mag/cell
     absolute magnetization    =     3.12 Bohr mag/cell

     iteration # 42     ecut=    60.00 Ry     beta= 0.40
     Davidson diagonalization with overlap
     ethr =  3.01E-09,  avg # of iterations =  5.0

     negative rho (up, down):  1.250E-07 1.249E-07

     total cpu time spent up to now is     2663.4 secs

     total energy              =   -7948.99863030 Ry
     estimated scf accuracy    <       0.00004746 Ry

     total magnetization       =     2.46 Bohr mag/cell
     absolute magnetization    =     2.57 Bohr mag/cell

     iteration # 43     ecut=    60.00 Ry     beta= 0.40
     Davidson diagonalization with overlap
     ethr =  3.01E-09,  avg # of iterations =  1.4

     negative rho (up, down):  1.110E-08 1.109E-08

     total cpu time spent up to now is     2716.5 secs

     total energy              =   -7948.99863961 Ry
     estimated scf accuracy    <       0.00003717 Ry

     total magnetization       =     2.56 Bohr mag/cell
     absolute magnetization    =     2.67 Bohr mag/cell

     iteration # 44     ecut=    60.00 Ry     beta= 0.40
     Davidson diagonalization with overlap
     ethr =  3.01E-09,  avg # of iterations =  2.0

     negative rho (up, down):  1.307E-08 1.305E-08

     total cpu time spent up to now is     2771.8 secs

     total energy              =   -7948.99863766 Ry
     estimated scf accuracy    <       0.00003772 Ry

     total magnetization       =     2.56 Bohr mag/cell
     absolute magnetization    =     2.68 Bohr mag/cell

     iteration # 45     ecut=    60.00 Ry     beta= 0.40
     Davidson diagonalization with overlap
     ethr =  3.01E-09,  avg # of iterations =  1.0

     negative rho (up, down):  1.333E-07 1.328E-07

     total cpu time spent up to now is     2823.6 secs

     total energy              =   -7948.99863039 Ry
     estimated scf accuracy    <       0.00004189 Ry

     total magnetization       =     2.54 Bohr mag/cell
     absolute magnetization    =     2.66 Bohr mag/cell

     iteration # 46     ecut=    60.00 Ry     beta= 0.40
     Davidson diagonalization with overlap
     ethr =  3.01E-09,  avg # of iterations =  2.8

     negative rho (up, down):  3.386E-06 3.384E-06

     total cpu time spent up to now is     2891.7 secs

     total energy              =   -7948.99671777 Ry
     estimated scf accuracy    <       0.00004557 Ry

     total magnetization       =     2.76 Bohr mag/cell
     absolute magnetization    =     2.88 Bohr mag/cell

     iteration # 47     ecut=    60.00 Ry     beta= 0.40
     Davidson diagonalization with overlap
     ethr =  3.01E-09,  avg # of iterations =  7.0

     negative rho (up, down):  1.114E-05 1.114E-05

     total cpu time spent up to now is     3016.2 secs

     total energy              =   -7948.99877876 Ry
     estimated scf accuracy    <       0.00005982 Ry

     total magnetization       =     4.44 Bohr mag/cell
     absolute magnetization    =     4.65 Bohr mag/cell

     iteration # 48     ecut=    60.00 Ry     beta= 0.40
     Davidson diagonalization with overlap
     ethr =  3.01E-09,  avg # of iterations =  3.0

     negative rho (up, down):  3.113E-05 3.113E-05

     total cpu time spent up to now is     3086.4 secs

     total energy              =   -7948.99647354 Ry
     estimated scf accuracy    <       0.00001518 Ry

     total magnetization       =     4.18 Bohr mag/cell
     absolute magnetization    =     4.38 Bohr mag/cell

     iteration # 49     ecut=    60.00 Ry     beta= 0.40
     Davidson diagonalization with overlap
     c_bands:  1 eigenvalues not converged
     ethr =  3.01E-09,  avg # of iterations =  7.4

     negative rho (up, down):  4.537E-05 4.538E-05

     total cpu time spent up to now is     3213.1 secs

     total energy              =   -7948.99124554 Ry
     estimated scf accuracy    <       0.00009561 Ry

     total magnetization       =     5.87 Bohr mag/cell
     absolute magnetization    =     6.17 Bohr mag/cell

     iteration # 50     ecut=    60.00 Ry     beta= 0.40
     Davidson diagonalization with overlap
     ethr =  3.01E-09,  avg # of iterations =  8.3

     negative rho (up, down):  2.340E-05 2.340E-05

     total cpu time spent up to now is     3362.8 secs

     total energy              =   -7948.99824505 Ry
     estimated scf accuracy    <       0.00004283 Ry

     total magnetization       =     2.75 Bohr mag/cell
     absolute magnetization    =     2.88 Bohr mag/cell

     iteration # 51     ecut=    60.00 Ry     beta= 0.40
     Davidson diagonalization with overlap
     ethr =  3.01E-09,  avg # of iterations =  5.5

     negative rho (up, down):  1.394E-05 1.394E-05

     total cpu time spent up to now is     3458.9 secs

     total energy              =   -7948.99842373 Ry
     estimated scf accuracy    <       0.00002883 Ry

     total magnetization       =     3.59 Bohr mag/cell
     absolute magnetization    =     3.77 Bohr mag/cell

     iteration # 52     ecut=    60.00 Ry     beta= 0.40
     Davidson diagonalization with overlap
     ethr =  3.01E-09,  avg # of iterations =  5.5

     negative rho (up, down):  8.475E-06 8.460E-06

     total cpu time spent up to now is     3555.3 secs

     total energy              =   -7948.99639940 Ry
     estimated scf accuracy    <       0.00000959 Ry

     total magnetization       =     4.34 Bohr mag/cell
     absolute magnetization    =     4.55 Bohr mag/cell

     iteration # 53     ecut=    60.00 Ry     beta= 0.40
     Davidson diagonalization with overlap
     ethr =  3.01E-09,  avg # of iterations =  7.2

     negative rho (up, down):  3.675E-06 3.671E-06

     total cpu time spent up to now is     3683.1 secs

     total energy              =   -7948.99371775 Ry
     estimated scf accuracy    <       0.00005939 Ry

     total magnetization       =     6.04 Bohr mag/cell
     absolute magnetization    =     6.36 Bohr mag/cell

     iteration # 54     ecut=    60.00 Ry     beta= 0.40
     Davidson diagonalization with overlap
     ethr =  3.01E-09,  avg # of iterations =  7.7

     negative rho (up, down):  1.339E-06 1.338E-06

     total cpu time spent up to now is     3824.8 secs

     total energy              =   -7948.99861980 Ry
     estimated scf accuracy    <       0.00003320 Ry

     total magnetization       =     3.51 Bohr mag/cell
     absolute magnetization    =     3.68 Bohr mag/cell

     iteration # 55     ecut=    60.00 Ry     beta= 0.40
     Davidson diagonalization with overlap
     ethr =  3.01E-09,  avg # of iterations =  4.6

     negative rho (up, down):  7.389E-06 7.390E-06

     total cpu time spent up to now is     3910.8 secs

     total energy              =   -7948.99876386 Ry
     estimated scf accuracy    <       0.00001869 Ry

     total magnetization       =     4.02 Bohr mag/cell
     absolute magnetization    =     4.22 Bohr mag/cell

     iteration # 56     ecut=    60.00 Ry     beta= 0.40
     Davidson diagonalization with overlap
     ethr =  3.01E-09,  avg # of iterations =  3.6

     negative rho (up, down):  6.694E-06 6.692E-06

     total cpu time spent up to now is     3990.7 secs

     total energy              =   -7948.99880474 Ry
     estimated scf accuracy    <       0.00001387 Ry

     total magnetization       =     4.37 Bohr mag/cell
     absolute magnetization    =     4.58 Bohr mag/cell

     iteration # 57     ecut=    60.00 Ry     beta= 0.40
     Davidson diagonalization with overlap
     ethr =  3.01E-09,  avg # of iterations =  4.7

     negative rho (up, down):  9.854E-06 9.851E-06

     total cpu time spent up to now is     4074.4 secs

     total energy              =   -7948.99879048 Ry
     estimated scf accuracy    <       0.00000615 Ry

     total magnetization       =     4.67 Bohr mag/cell
     absolute magnetization    =     4.90 Bohr mag/cell

     iteration # 58     ecut=    60.00 Ry     beta= 0.40
     Davidson diagonalization with overlap
     ethr =  2.56E-09,  avg # of iterations =  4.9

     negative rho (up, down):  4.874E-06 4.866E-06

     total cpu time spent up to now is     4162.8 secs

     total energy              =   -7948.99889216 Ry
     estimated scf accuracy    <       0.00000075 Ry

     total magnetization       =     5.03 Bohr mag/cell
     absolute magnetization    =     5.28 Bohr mag/cell

     iteration # 59     ecut=    60.00 Ry     beta= 0.40
     Davidson diagonalization with overlap
     ethr =  3.13E-10,  avg # of iterations =  5.2

     negative rho (up, down):  5.456E-06 5.450E-06

     total cpu time spent up to now is     4252.8 secs

     total energy              =   -7948.99888723 Ry
     estimated scf accuracy    <       0.00000011 Ry

     total magnetization       =     5.08 Bohr mag/cell
     absolute magnetization    =     5.34 Bohr mag/cell

     iteration # 60     ecut=    60.00 Ry     beta= 0.40
     Davidson diagonalization with overlap
     ethr =  4.39E-11,  avg # of iterations =  5.1

     negative rho (up, down):  5.800E-06 5.793E-06

     total cpu time spent up to now is     4347.6 secs

     total energy              =   -7948.99888267 Ry
     estimated scf accuracy    <       0.00000092 Ry

     total magnetization       =     5.00 Bohr mag/cell
     absolute magnetization    =     5.25 Bohr mag/cell

     iteration # 61     ecut=    60.00 Ry     beta= 0.40
     Davidson diagonalization with overlap
     ethr =  4.39E-11,  avg # of iterations =  6.1

     negative rho (up, down):  6.434E-06 6.425E-06

     total cpu time spent up to now is     4454.8 secs

     total energy              =   -7948.99888913 Ry
     estimated scf accuracy    <       0.00000006 Ry

     total magnetization       =     5.12 Bohr mag/cell
     absolute magnetization    =     5.38 Bohr mag/cell

     iteration # 62     ecut=    60.00 Ry     beta= 0.40
     Davidson diagonalization with overlap
     ethr =  2.33E-11,  avg # of iterations =  6.1

     negative rho (up, down):  6.878E-06 6.873E-06

     total cpu time spent up to now is     4566.6 secs

     total energy              =   -7948.99889556 Ry
     estimated scf accuracy    <       0.00000007 Ry

     total magnetization       =     5.21 Bohr mag/cell
     absolute magnetization    =     5.48 Bohr mag/cell

     iteration # 63     ecut=    60.00 Ry     beta= 0.40
     Davidson diagonalization with overlap
     ethr =  2.33E-11,  avg # of iterations =  2.3

     negative rho (up, down):  6.283E-06 6.276E-06

     total cpu time spent up to now is     4628.5 secs

     total energy              =   -7948.99889561 Ry
     estimated scf accuracy    <          4.5E-09 Ry

     total magnetization       =     5.20 Bohr mag/cell
     absolute magnetization    =     5.46 Bohr mag/cell

     iteration # 64     ecut=    60.00 Ry     beta= 0.40
     Davidson diagonalization with overlap
     ethr =  1.87E-12,  avg # of iterations =  5.0

     negative rho (up, down):  6.871E-06 6.865E-06

     total cpu time spent up to now is     4720.7 secs

     total energy              =   -7948.99889519 Ry
     estimated scf accuracy    <       0.00000002 Ry

     total magnetization       =     5.21 Bohr mag/cell
     absolute magnetization    =     5.48 Bohr mag/cell

     iteration # 65     ecut=    60.00 Ry     beta= 0.40
     Davidson diagonalization with overlap
     ethr =  1.87E-12,  avg # of iterations =  6.2

     negative rho (up, down):  7.227E-06 7.221E-06

     total cpu time spent up to now is     4832.0 secs

     total energy              =   -7948.99889445 Ry
     estimated scf accuracy    <          7.6E-10 Ry

     total magnetization       =     5.18 Bohr mag/cell
     absolute magnetization    =     5.45 Bohr mag/cell

     iteration # 66     ecut=    60.00 Ry     beta= 0.40
     Davidson diagonalization with overlap
     ethr =  3.19E-13,  avg # of iterations =  9.1

     negative rho (up, down):  6.531E-06 6.524E-06

     total cpu time spent up to now is     4997.8 secs

     total energy              =   -7948.99889039 Ry
     estimated scf accuracy    <       0.00000006 Ry

     total magnetization       =     5.14 Bohr mag/cell
     absolute magnetization    =     5.41 Bohr mag/cell

     iteration # 67     ecut=    60.00 Ry     beta= 0.40
     Davidson diagonalization with overlap
     ethr =  3.19E-13,  avg # of iterations = 10.7

     negative rho (up, down):  6.383E-06 6.376E-06

     total cpu time spent up to now is     5195.3 secs

     total energy              =   -7948.99889552 Ry
     estimated scf accuracy    <       0.00000005 Ry

     total magnetization       =     5.22 Bohr mag/cell
     absolute magnetization    =     5.49 Bohr mag/cell

     iteration # 68     ecut=    60.00 Ry     beta= 0.40
     Davidson diagonalization with overlap
     ethr =  3.19E-13,  avg # of iterations =  7.0

     negative rho (up, down):  6.006E-06 5.999E-06

     total cpu time spent up to now is     5321.3 secs

     total energy              =   -7948.99889560 Ry
     estimated scf accuracy    <       0.00000002 Ry

     total magnetization       =     5.21 Bohr mag/cell
     absolute magnetization    =     5.47 Bohr mag/cell

     iteration # 69     ecut=    60.00 Ry     beta= 0.40
     Davidson diagonalization with overlap
     ethr =  3.19E-13,  avg # of iterations =  6.7

     negative rho (up, down):  6.123E-06 6.116E-06

     total cpu time spent up to now is     5446.3 secs

     total energy              =   -7948.99889578 Ry
     estimated scf accuracy    <          2.7E-09 Ry

     total magnetization       =     5.19 Bohr mag/cell
     absolute magnetization    =     5.46 Bohr mag/cell

     iteration # 70     ecut=    60.00 Ry     beta= 0.40
     Davidson diagonalization with overlap
     ethr =  3.19E-13,  avg # of iterations =  2.0

     negative rho (up, down):  6.157E-06 6.150E-06

     total cpu time spent up to now is     5502.3 secs

     total energy              =   -7948.99889566 Ry
     estimated scf accuracy    <          3.3E-09 Ry

     total magnetization       =     5.19 Bohr mag/cell
     absolute magnetization    =     5.46 Bohr mag/cell

     iteration # 71     ecut=    60.00 Ry     beta= 0.40
     Davidson diagonalization with overlap
     ethr =  3.19E-13,  avg # of iterations =  6.2

     negative rho (up, down):  6.215E-06 6.208E-06

     total cpu time spent up to now is     5613.5 secs

     total energy              =   -7948.99889577 Ry
     estimated scf accuracy    <          6.7E-10 Ry

     total magnetization       =     5.18 Bohr mag/cell
     absolute magnetization    =     5.45 Bohr mag/cell

     iteration # 72     ecut=    60.00 Ry     beta= 0.40
     Davidson diagonalization with overlap
     ethr =  2.78E-13,  avg # of iterations =  4.8

     negative rho (up, down):  6.339E-06 6.332E-06
 
     Magnetic moment per site  (integrated on atomic sphere of radius R)
     atom   1 (R=0.206)  charge=  8.3783  magn=  0.1671
     atom   2 (R=0.206)  charge=  8.3783  magn=  0.1671
     atom   3 (R=0.206)  charge=  8.3783  magn=  0.1671
     atom   4 (R=0.206)  charge=  8.3783  magn=  0.1671
     atom   5 (R=0.206)  charge=  8.4305  magn=  0.2438
     atom   6 (R=0.206)  charge=  8.4305  magn=  0.2438
     atom   7 (R=0.206)  charge=  8.4305  magn=  0.2438
     atom   8 (R=0.206)  charge=  8.4305  magn=  0.2438
     atom   9 (R=0.206)  charge=  8.4375  magn=  0.2584
     atom  10 (R=0.206)  charge=  8.4375  magn=  0.2584
     atom  11 (R=0.206)  charge=  8.4375  magn=  0.2584
     atom  12 (R=0.206)  charge=  8.4375  magn=  0.2584
     atom  13 (R=0.206)  charge=  8.4382  magn=  0.2551
     atom  14 (R=0.206)  charge=  8.4382  magn=  0.2551
     atom  15 (R=0.206)  charge=  8.4382  magn=  0.2551
     atom  16 (R=0.206)  charge=  8.4382  magn=  0.2551
     atom  17 (R=0.206)  charge=  8.4251  magn=  0.2350
     atom  18 (R=0.206)  charge=  8.4251  magn=  0.2350
     atom  19 (R=0.206)  charge=  8.4251  magn=  0.2350
     atom  20 (R=0.206)  charge=  8.4251  magn=  0.2350
     atom  21 (R=0.206)  charge=  8.3722  magn=  0.1545
     atom  22 (R=0.206)  charge=  8.3722  magn=  0.1545
     atom  23 (R=0.206)  charge=  8.3722  magn=  0.1545
     atom  24 (R=0.206)  charge=  8.3722  magn=  0.1545

     total cpu time spent up to now is     5700.9 secs

     End of self-consistent calculation

 ------ SPIN UP ------------


          k = 0.0000 0.0000 0.0000 ( 44627 PWs)   bands (ev):

   -12.5283 -11.8524 -11.1117 -10.9698 -10.9698 -10.9698 -10.9543 -10.8267
   -10.8267 -10.8267 -10.7028 -10.7028 -10.7028 -10.5936 -10.5936 -10.5936
   -10.5868 -10.5241 -10.4163 -10.4163 -10.4163 -10.2152 -10.2152 -10.2152
   -10.0991 -10.0991 -10.0991  -9.9583  -9.9583  -9.9583  -9.4410  -9.4410
    -9.4410  -8.8193  -8.8193  -8.8193  -8.5783  -8.5783  -8.5783  -8.5220
    -8.4582  -8.4551  -8.4551  -8.4551  -8.4050  -8.4050  -8.3414  -8.3414
    -8.3089  -8.3089  -8.3089  -8.2210  -8.2210  -8.1905  -8.1415  -8.1415
    -7.8533  -7.8533  -7.8087  -7.8087  -7.7926  -7.7926  -7.7926  -7.5762
    -7.5762  -7.5762  -7.5049  -7.2507  -7.2507  -7.2506  -7.1063  -7.1063
    -7.1063  -6.7063  -6.7063  -6.6463  -6.6463  -6.6463  -6.6288  -6.6288
    -6.3805  -6.3805  -6.3805  -6.3709  -6.3709  -6.1530  -6.1530  -6.1530
    -6.1402  -5.9751  -5.9751  -5.7465  -5.7465  -5.7465  -5.6821  -5.6821
    -5.6821  -5.5660  -5.5660  -5.4543  -5.4543  -5.4543  -5.4005  -5.4005
    -5.3855  -5.3855  -5.3855  -5.3193  -5.3193  -5.3193  -5.2978  -5.2978
    -5.2978  -5.2412  -5.2412  -5.2412  -5.1494  -5.1494  -5.1494  -4.9580
    -4.9580  -4.9580  -4.9381  -4.9381  -4.9381  -4.5138  -3.9904  -3.7048
    -3.7048  -3.7048  -2.6465  -2.6465  -2.6465  -1.7967  -1.7967  -1.7967
    -1.6133  -1.6132  -1.6132  -1.3481  -1.3481  -1.3481  -1.3071  -1.3071

          k = 0.0000 0.0722 0.0000 ( 44605 PWs)   bands (ev):

   -12.4957 -11.8208 -11.0807 -10.9536 -10.9480 -10.9480 -10.9281 -10.8184
   -10.8056 -10.8056 -10.6887 -10.6861 -10.6861 -10.5806 -10.5692 -10.5692
   -10.5592 -10.4948 -10.4068 -10.3923 -10.3923 -10.2012 -10.2012 -10.1994
   -10.0872 -10.0758 -10.0758  -9.9461  -9.9331  -9.9331  -9.4329  -9.4329
    -9.4304  -8.8267  -8.8267  -8.8168  -8.5928  -8.5928  -8.5616  -8.5438
    -8.5038  -8.4480  -8.4410  -8.4410  -8.4240  -8.3833  -8.3267  -8.3181
    -8.3014  -8.2960  -8.2959  -8.2411  -8.2319  -8.1990  -8.1217  -8.0919
    -7.8669  -7.8336  -7.8281  -7.8134  -7.8134  -7.7882  -7.7868  -7.6000
    -7.5799  -7.5799  -7.5419  -7.3378  -7.3378  -7.2709  -7.1034  -7.0549
    -7.0549  -6.7474  -6.7462  -6.6796  -6.6796  -6.6753  -6.6089  -6.6075
    -6.4312  -6.4312  -6.4185  -6.3817  -6.3696  -6.3075  -6.1779  -6.1513
    -6.1513  -5.9746  -5.7762  -5.7680  -5.7680  -5.7534  -5.7131  -5.7103
    -5.7103  -5.6625  -5.5654  -5.4812  -5.4812  -5.4690  -5.4690  -5.4646
    -5.4535  -5.4198  -5.3989  -5.3536  -5.3536  -5.3459  -5.3313  -5.3136
    -5.3136  -5.2759  -5.2759  -5.2652  -5.1833  -5.1833  -5.1722  -5.0165
    -5.0165  -4.9935  -4.9935  -4.9893  -4.9687  -4.3714  -3.9022  -3.8253
    -3.6182  -3.6182  -2.9129  -2.6349  -2.6349  -2.2969  -2.0254  -1.8855
    -1.8855  -1.7280  -1.7280  -1.2977  -1.2977  -1.2076  -0.8885  -0.8885

          k = 0.0000 0.1443 0.0000 ( 44584 PWs)   bands (ev):

   -12.3990 -11.7274 -10.9896 -10.9057 -10.8847 -10.8847 -10.8511 -10.7947
   -10.7435 -10.7435 -10.6465 -10.6351 -10.6351 -10.5422 -10.4971 -10.4971
   -10.4787 -10.4086 -10.3789 -10.3217 -10.3217 -10.1597 -10.1597 -10.1535
   -10.0520 -10.0080 -10.0080  -9.9102  -9.8578  -9.8578  -9.4094  -9.4094
    -9.3991  -8.8523  -8.8523  -8.8074  -8.6283  -8.6283  -8.6239  -8.5864
    -8.5150  -8.4794  -8.4270  -8.3999  -8.3999  -8.3186  -8.3176  -8.2841
    -8.2792  -8.2771  -8.2632  -8.2632  -8.2572  -8.1337  -8.0632  -8.0483
    -7.9025  -7.8743  -7.8731  -7.8731  -7.7757  -7.7698  -7.7274  -7.6697
    -7.6330  -7.5943  -7.5943  -7.4871  -7.4871  -7.3304  -7.0952  -7.0141
    -7.0141  -6.8187  -6.8150  -6.7776  -6.7776  -6.7649  -6.7460  -6.5935
    -6.5838  -6.5572  -6.5572  -6.3868  -6.3644  -6.2496  -6.2260  -6.1745
    -6.1745  -5.9736  -5.8954  -5.8630  -5.8630  -5.8189  -5.8117  -5.8111
    -5.8111  -5.7797  -5.6733  -5.6733  -5.5638  -5.5486  -5.5486  -5.5193
    -5.4977  -5.4371  -5.4371  -5.4277  -5.4240  -5.3942  -5.3852  -5.3852
    -5.3562  -5.3562  -5.3358  -5.2985  -5.2985  -5.2486  -5.2329  -5.1498
    -5.1498  -5.0798  -5.0743  -5.0743  -5.0546  -4.3843  -4.0465  -3.5252
    -3.4354  -3.4256  -3.4256  -3.1069  -2.6141  -2.6141  -2.3810  -2.0663
    -2.0663  -1.6993  -1.6993  -1.0336  -0.9451  -0.9451  -0.3440  -0.3440

          k = 0.0000 0.2165 0.0000 ( 44580 PWs)   bands (ev):

   -12.2414 -11.5769 -10.8446 -10.8288 -10.7863 -10.7863 -10.7591 -10.7285
   -10.6438 -10.6438 -10.5779 -10.5472 -10.5472 -10.4811 -10.3819 -10.3819
   -10.3518 -10.3351 -10.2717 -10.2093 -10.2093 -10.0915 -10.0915 -10.0822
    -9.9936  -9.9019  -9.9019  -9.8518  -9.7343  -9.7343  -9.3724  -9.3724
    -9.3491  -8.9007  -8.9007  -8.7874  -8.7575  -8.6765  -8.6727  -8.6727
    -8.5664  -8.4491  -8.3919  -8.3870  -8.3396  -8.3396  -8.3247  -8.2583
    -8.2433  -8.2221  -8.2221  -8.2187  -8.2123  -8.0496  -8.0267  -7.9691
    -7.9668  -7.9668  -7.9402  -7.9029  -7.7808  -7.7426  -7.7420  -7.6827
    -7.6812  -7.6811  -7.6282  -7.5798  -7.5798  -7.4236  -7.0836  -7.0822
    -7.0822  -7.0705  -6.9215  -6.8950  -6.8934  -6.8934  -6.8813  -6.7298
    -6.7298  -6.5980  -6.5885  -6.4015  -6.3626  -6.3556  -6.2935  -6.2456
    -6.2456  -6.1476  -6.1476  -6.1192  -5.9897  -5.9726  -5.9675  -5.9675
    -5.8497  -5.8497  -5.8457  -5.8063  -5.6835  -5.6835  -5.6690  -5.6024
    -5.6024  -5.5795  -5.5715  -5.5615  -5.5530  -5.5530  -5.5374  -5.4460
    -5.4303  -5.4303  -5.4154  -5.4154  -5.3868  -5.3224  -5.2330  -5.2330
    -5.2191  -5.1678  -5.1083  -5.1083  -4.9734  -4.9019  -4.2339  -3.8755
    -3.6464  -3.2217  -3.2217  -2.9423  -2.7877  -2.5978  -2.5978  -2.1516
    -2.1516  -1.5276  -1.5276  -1.1511  -0.5467  -0.5467   0.2468   0.2468

          k = 0.0000 0.2887 0.0000 ( 44592 PWs)   bands (ev):

   -12.0292 -11.3784 -10.7286 -10.7180 -10.6641 -10.6641 -10.6601 -10.5695
   -10.5134 -10.5134 -10.4872 -10.4190 -10.4190 -10.4024 -10.2793 -10.2337
   -10.2337 -10.1918 -10.0956 -10.0659 -10.0659  -9.9956  -9.9947  -9.9947
    -9.9101  -9.7728  -9.7715  -9.7715  -9.5684  -9.5684  -9.3236  -9.3236
    -9.2838  -8.9627  -8.9627  -8.9186  -8.7684  -8.7548  -8.7235  -8.7235
    -8.6800  -8.5023  -8.4285  -8.3919  -8.3304  -8.3020  -8.3020  -8.2504
    -8.1955  -8.1838  -8.1838  -8.1381  -8.0768  -8.0682  -8.0669  -8.0669
    -7.9808  -7.9261  -7.8811  -7.8792  -7.8462  -7.8380  -7.8380  -7.8340
    -7.7072  -7.5800  -7.5800  -7.5621  -7.5369  -7.4944  -7.3663  -7.3174
    -7.3174  -7.1487  -7.0721  -7.0052  -7.0051  -6.9659  -6.9570  -6.8891
    -6.8891  -6.6690  -6.6118  -6.5212  -6.4884  -6.4884  -6.4684  -6.4390
    -6.3601  -6.3601  -6.3460  -6.2911  -6.2911  -6.2453  -6.2387  -5.9765
    -5.9725  -5.9593  -5.9593  -5.8694  -5.8694  -5.8575  -5.8445  -5.8445
    -5.8098  -5.7765  -5.7765  -5.7230  -5.6490  -5.6188  -5.5643  -5.5591
    -5.5347  -5.4674  -5.4616  -5.4616  -5.4388  -5.4388  -5.3840  -5.3772
    -5.2554  -5.2554  -5.2468  -5.1175  -5.1175  -4.9307  -4.5624  -4.5377
    -3.2133  -3.2115  -3.0535  -3.0535  -2.5851  -2.5851  -2.3978  -2.1260
    -2.1260  -1.4591  -1.3247  -1.3247  -0.1722  -0.1722   0.4044   0.8474

          k = 0.0000 0.3608 0.0000 ( 44550 PWs)   bands (ev):

   -11.7724 -11.1471 -10.6887 -10.6101 -10.5305 -10.5305 -10.4682 -10.3937
   -10.3859 -10.3651 -10.3651 -10.3115 -10.2536 -10.2536 -10.2113 -10.0734
   -10.0734 -10.0210  -9.9117  -9.9117  -9.9053  -9.8981  -9.8638  -9.8638
    -9.8002  -9.6745  -9.6413  -9.6413  -9.3761  -9.3761  -9.2567  -9.2567
    -9.2089  -9.0955  -9.0135  -9.0135  -8.8478  -8.8190  -8.7827  -8.7827
    -8.7088  -8.6527  -8.5431  -8.3825  -8.3825  -8.3737  -8.2522  -8.2343
    -8.2261  -8.2261  -8.1389  -8.1096  -8.0755  -8.0729  -8.0729  -8.0569
    -8.0160  -7.9203  -7.9103  -7.9103  -7.8903  -7.7845  -7.7179  -7.6939
    -7.6663  -7.6576  -7.6442  -7.6442  -7.6194  -7.5272  -7.5272  -7.4279
    -7.4279  -7.3317  -7.2513  -7.2513  -7.0746  -7.0669  -6.9754  -6.9432
    -6.9432  -6.8207  -6.8166  -6.8166  -6.7630  -6.6803  -6.6803  -6.6188
    -6.6174  -6.5228  -6.4961  -6.4755  -6.4755  -6.3348  -6.2245  -6.2045
    -6.1761  -6.1761  -6.1712  -6.1386  -6.1386  -6.0662  -6.0006  -6.0006
    -5.9734  -5.9531  -5.9028  -5.8914  -5.8914  -5.8134  -5.6987  -5.6517
    -5.5695  -5.5571  -5.5042  -5.4747  -5.4747  -5.4250  -5.4250  -5.3873
    -5.3662  -5.2833  -5.2560  -5.2560  -5.1213  -5.1213  -5.1052  -4.1677
    -3.6153  -2.9337  -2.9337  -2.7583  -2.5631  -2.5631  -2.0518  -2.0518
    -1.8431  -1.8247  -1.1438  -1.1438   0.0276   0.1327   0.1327   1.4057

          k = 0.0000 0.4330 0.0000 ( 44520 PWs)   bands (ev):

   -11.4872 -10.9071 -10.6919 -10.4936 -10.3944 -10.3944 -10.3513 -10.3203
   -10.2241 -10.2241 -10.2049 -10.2033 -10.1117 -10.0822 -10.0822  -9.9142
    -9.9141  -9.8719  -9.8131  -9.7904  -9.7904  -9.7085  -9.7085  -9.7006
    -9.6740  -9.5572  -9.5184  -9.5184  -9.2814  -9.2057  -9.2057  -9.1585
    -9.1585  -9.1310  -9.0344  -9.0344  -8.9860  -8.8945  -8.8367  -8.8367
    -8.7909  -8.6504  -8.6447  -8.5233  -8.5233  -8.4580  -8.3586  -8.3585
    -8.2368  -8.1923  -8.1267  -8.0897  -8.0897  -8.0880  -8.0779  -8.0735
    -7.9935  -7.9133  -7.9133  -7.8843  -7.8672  -7.8526  -7.8088  -7.8088
    -7.6871  -7.6419  -7.6296  -7.6242  -7.6037  -7.5398  -7.5398  -7.4878
    -7.4797  -7.4797  -7.2920  -7.2021  -7.1646  -7.1646  -7.1477  -7.0799
    -7.0693  -7.0324  -7.0324  -6.9601  -6.9277  -6.9277  -6.9078  -6.7716
    -6.6942  -6.6723  -6.6233  -6.6233  -6.6197  -6.5937  -6.4183  -6.4183
    -6.4107  -6.3439  -6.3439  -6.3219  -6.3149  -6.2851  -6.1523  -6.1523
    -6.1360  -6.1154  -6.0899  -5.9984  -5.9745  -5.9287  -5.9287  -5.8934
    -5.8180  -5.5558  -5.5420  -5.4776  -5.4776  -5.4615  -5.3943  -5.3943
    -5.3544  -5.3035  -5.2589  -5.2589  -5.1377  -5.1227  -5.1227  -3.9775
    -3.7942  -2.8584  -2.8584  -2.5333  -2.5333  -2.2948  -2.2452  -1.9779
    -1.9779  -1.2357  -1.0085  -1.0085  -0.4185   0.3441   0.3441   1.1384

          k = 0.0000 0.5052 0.0000 ( 44502 PWs)   bands (ev):

   -11.1985 -10.7680 -10.6910 -10.4424 -10.3330 -10.2650 -10.2650 -10.2530
   -10.1405 -10.1405 -10.1102 -10.0826  -9.9748  -9.9748  -9.9691  -9.7886
    -9.7756  -9.7756  -9.7165  -9.6752  -9.6752  -9.6017  -9.6017  -9.5520
    -9.5357  -9.4626  -9.4254  -9.3738  -9.3738  -9.1822  -9.1822  -9.1514
    -9.0606  -9.0606  -9.0568  -9.0257  -9.0257  -8.9084  -8.8941  -8.8354
    -8.8354  -8.6773  -8.6773  -8.6226  -8.6226  -8.5544  -8.4587  -8.4587
    -8.2583  -8.2378  -8.2378  -8.2327  -8.1598  -8.1138  -8.0221  -8.0204
    -7.9973  -7.9969  -7.9969  -7.9655  -7.9556  -7.7480  -7.7165  -7.7165
    -7.6959  -7.6842  -7.6842  -7.5863  -7.5603  -7.5135  -7.4955  -7.4955
    -7.4638  -7.4452  -7.4452  -7.3315  -7.3023  -7.2672  -7.2447  -7.2447
    -7.1335  -7.1322  -7.1254  -7.0204  -6.9817  -6.9708  -6.9707  -6.9496
    -6.8678  -6.7655  -6.7655  -6.7477  -6.6962  -6.6695  -6.6441  -6.5425
    -6.5425  -6.5180  -6.5136  -6.4887  -6.4887  -6.4818  -6.3053  -6.2728
    -6.2705  -6.2705  -6.1918  -6.0666  -6.0144  -5.9726  -5.9438  -5.9438
    -5.9199  -5.6928  -5.5553  -5.5522  -5.4774  -5.4774  -5.3589  -5.3589
    -5.3424  -5.3179  -5.2720  -5.2720  -5.1223  -5.1223  -4.8752  -4.3021
    -3.4168  -2.8181  -2.8181  -2.6439  -2.5085  -2.5085  -1.9276  -1.9276
    -1.8260  -0.9267  -0.9267  -0.8842  -0.6392   0.4629   0.4629   0.5530

          k = 0.0000-0.5774 0.0000 ( 44486 PWs)   bands (ev):

   -10.9439 -10.9439 -10.5292 -10.5292 -10.2697 -10.2697 -10.1649 -10.1649
   -10.1635 -10.1635 -10.0589 -10.0589  -9.9453  -9.9453  -9.8285  -9.8285
    -9.7363  -9.7363  -9.6120  -9.6120  -9.5869  -9.5869  -9.5080  -9.5080
    -9.4756  -9.4756  -9.3997  -9.3997  -9.2929  -9.2929  -9.1346  -9.1346
    -9.0859  -9.0859  -8.9939  -8.9939  -8.9879  -8.9879  -8.8354  -8.8353
    -8.8282  -8.8282  -8.6388  -8.6388  -8.5821  -8.5821  -8.5192  -8.5192
    -8.3382  -8.3382  -8.2636  -8.2636  -8.1512  -8.1512  -8.0604  -8.0604
    -8.0122  -8.0122  -7.9779  -7.9778  -7.7783  -7.7783  -7.7060  -7.7060
    -7.6535  -7.6535  -7.5868  -7.5868  -7.5636  -7.5636  -7.5605  -7.5605
    -7.5398  -7.5398  -7.3812  -7.3812  -7.2651  -7.2651  -7.2638  -7.2638
    -7.2036  -7.2036  -7.1026  -7.1026  -7.0646  -7.0646  -6.9212  -6.9212
    -6.9147  -6.9147  -6.7672  -6.7672  -6.7385  -6.7385  -6.6342  -6.6342
    -6.5893  -6.5892  -6.5432  -6.5432  -6.5348  -6.5348  -6.3784  -6.3784
    -6.3160  -6.3160  -6.1931  -6.1931  -5.9603  -5.9603  -5.9481  -5.9481
    -5.8682  -5.8682  -5.5548  -5.5548  -5.4770  -5.4770  -5.3386  -5.3386
    -5.3304  -5.3304  -5.2842  -5.2842  -5.1217  -5.1217  -4.5985  -4.5985
    -3.0341  -3.0341  -2.8054  -2.8054  -2.4991  -2.4991  -1.9100  -1.9100
    -1.3550  -1.3550  -0.8995  -0.8995  -0.0414  -0.0414   0.5006   0.5006

          k = 0.0625 0.1083 0.0000 ( 44583 PWs)   bands (ev):

   -12.4310 -11.7583 -11.0196 -10.9156 -10.9156 -10.9012 -10.8765 -10.7893
   -10.7893 -10.7517 -10.6582 -10.6582 -10.6487 -10.5432 -10.5432 -10.5104
   -10.5052 -10.4370 -10.3735 -10.3735 -10.3309 -10.1751 -10.1701 -10.1701
   -10.0525 -10.0525 -10.0193  -9.9088  -9.9088  -9.8701  -9.4188  -9.4124
    -9.4124  -8.8512  -8.8230  -8.8230  -8.6477  -8.5918  -8.5682  -8.5592
    -8.5592  -8.4614  -8.4273  -8.4273  -8.4057  -8.3403  -8.3104  -8.2971
    -8.2803  -8.2803  -8.2720  -8.2675  -8.2547  -8.1555  -8.0824  -8.0558
    -7.8926  -7.8684  -7.8619  -7.8102  -7.8102  -7.7947  -7.7470  -7.6196
    -7.6196  -7.6050  -7.5781  -7.4814  -7.3643  -7.3643  -7.0629  -7.0629
    -7.0030  -6.7997  -6.7917  -6.7471  -6.7396  -6.7396  -6.6700  -6.6027
    -6.5763  -6.5491  -6.4405  -6.4405  -6.3370  -6.2639  -6.1954  -6.1954
    -6.1539  -6.0123  -5.8347  -5.8004  -5.7923  -5.7923  -5.7792  -5.7792
    -5.7709  -5.7532  -5.6576  -5.5986  -5.5280  -5.5280  -5.5262  -5.5038
    -5.5038  -5.4155  -5.4155  -5.4128  -5.4073  -5.3686  -5.3686  -5.3623
    -5.3295  -5.3295  -5.3275  -5.3155  -5.2529  -5.2300  -5.2300  -5.1262
    -5.0893  -5.0893  -5.0676  -5.0410  -5.0410  -4.1436  -3.9708  -3.9708
    -3.5535  -3.2321  -3.1133  -3.1133  -2.6344  -2.6344  -2.3382  -2.1122
    -2.1122  -1.5820  -1.2819  -1.1515  -1.0742  -1.0202  -1.0202  -0.0858

          k = 0.0625 0.1804 0.0000 ( 44578 PWs)   bands (ev):

   -12.3038 -11.6362 -10.9011 -10.8524 -10.8359 -10.8195 -10.7764 -10.7590
   -10.7198 -10.6596 -10.6031 -10.5948 -10.5727 -10.4928 -10.4581 -10.4086
   -10.4012 -10.3374 -10.3253 -10.2944 -10.2268 -10.1208 -10.1150 -10.1109
   -10.0065  -9.9745  -9.9229  -9.8613  -9.8215  -9.7587  -9.3879  -9.3817
    -9.3726  -8.8956  -8.8508  -8.8112  -8.7138  -8.6959  -8.6559  -8.5766
    -8.5333  -8.4997  -8.4006  -8.3825  -8.3580  -8.3454  -8.2965  -8.2712
    -8.2503  -8.2497  -8.2427  -8.2395  -8.2382  -8.0731  -8.0373  -8.0058
    -7.9440  -7.9286  -7.9055  -7.8925  -7.8200  -7.7349  -7.6890  -7.6820
    -7.6626  -7.6436  -7.6413  -7.5932  -7.5021  -7.4208  -7.0743  -7.0497
    -7.0316  -6.9649  -6.8659  -6.8658  -6.8625  -6.8528  -6.8486  -6.7100
    -6.6057  -6.5838  -6.5674  -6.4667  -6.3466  -6.2734  -6.2301  -6.2244
    -6.2084  -6.1181  -6.0335  -6.0131  -5.9758  -5.9525  -5.9269  -5.8449
    -5.8200  -5.8127  -5.7639  -5.7485  -5.6290  -5.6233  -5.6227  -5.5998
    -5.5862  -5.5326  -5.5158  -5.5100  -5.4716  -5.4638  -5.4550  -5.4321
    -5.4302  -5.4127  -5.4125  -5.3807  -5.3734  -5.3213  -5.2297  -5.2152
    -5.2133  -5.1335  -5.1190  -5.1135  -5.0172  -4.4925  -3.8800  -3.7930
    -3.7854  -3.4090  -3.2200  -3.1246  -2.8521  -2.8115  -2.4985  -2.0957
    -2.0648  -1.4921  -1.1793  -1.0039  -0.7984  -0.7835  -0.5147   0.3774

          k = 0.0625 0.2526 0.0000 ( 44582 PWs)   bands (ev):

   -12.1186 -11.4611 -10.7618 -10.7345 -10.7210 -10.7197 -10.7129 -10.6350
   -10.6141 -10.5349 -10.5231 -10.4970 -10.4542 -10.4219 -10.3298 -10.2874
   -10.2739 -10.2567 -10.1754 -10.1682 -10.0892 -10.0363 -10.0348 -10.0303
    -9.9377  -9.8613  -9.7979  -9.7920  -9.6862  -9.6037  -9.3422  -9.3404
    -9.3162  -8.9616  -8.8995  -8.8411  -8.7877  -8.7816  -8.7474  -8.6339
    -8.6047  -8.4530  -8.4295  -8.3792  -8.3583  -8.3283  -8.2834  -8.2639
    -8.2179  -8.2092  -8.1901  -8.1653  -8.1269  -8.0692  -8.0378  -8.0073
    -7.9691  -7.9395  -7.9093  -7.8939  -7.8889  -7.8135  -7.7909  -7.7594
    -7.7179  -7.6106  -7.6008  -7.5507  -7.5464  -7.4975  -7.2549  -7.2089
    -7.2039  -7.1189  -7.0197  -6.9627  -6.9355  -6.9345  -6.9182  -6.8854
    -6.7701  -6.6424  -6.5859  -6.5344  -6.4262  -6.3676  -6.3489  -6.3443
    -6.3049  -6.3043  -6.3023  -6.2335  -6.1856  -6.1838  -6.1082  -5.9834
    -5.9245  -5.9083  -5.9009  -5.8269  -5.7915  -5.7698  -5.7690  -5.7379
    -5.7141  -5.6994  -5.6910  -5.6906  -5.6165  -5.5729  -5.5539  -5.5473
    -5.4711  -5.4691  -5.4543  -5.4543  -5.4349  -5.4093  -5.3895  -5.2737
    -5.2631  -5.2262  -5.1393  -5.1371  -5.0055  -4.6748  -4.4730  -4.1204
    -3.7472  -3.3853  -3.2601  -2.9320  -2.8430  -2.6167  -2.5425  -1.9553
    -1.9515  -1.4746  -1.2431  -0.9441  -0.5859  -0.2713   0.1553   0.5614

          k = 0.0625 0.3248 0.0000 ( 44578 PWs)   bands (ev):

   -11.8832 -11.2447 -10.6822 -10.6496 -10.5912 -10.5845 -10.5404 -10.4803
   -10.4626 -10.4255 -10.3876 -10.3615 -10.3382 -10.2943 -10.2273 -10.1691
   -10.1256 -10.0890 -10.0284  -9.9804  -9.9397  -9.9366  -9.9340  -9.9080
    -9.8441  -9.7303  -9.7027  -9.6650  -9.5113  -9.4162  -9.2951  -9.2734
    -9.2476  -9.0312  -9.0074  -8.9528  -8.8511  -8.8338  -8.7590  -8.7507
    -8.6443  -8.5896  -8.4957  -8.3821  -8.3323  -8.3290  -8.2877  -8.2608
    -8.1961  -8.1881  -8.1722  -8.1054  -8.0960  -8.0838  -8.0662  -8.0205
    -8.0141  -7.9628  -7.9102  -7.9074  -7.8839  -7.8498  -7.7739  -7.7552
    -7.7403  -7.6025  -7.5679  -7.5573  -7.5309  -7.4750  -7.4627  -7.4604
    -7.3862  -7.3457  -7.1495  -7.1227  -7.0609  -7.0156  -6.9639  -6.9431
    -6.9038  -6.7606  -6.6976  -6.6816  -6.6671  -6.6446  -6.5327  -6.5209
    -6.5199  -6.4808  -6.4237  -6.4234  -6.4092  -6.3178  -6.2694  -6.1625
    -6.0960  -6.0741  -6.0706  -6.0559  -5.9539  -5.9507  -5.9351  -5.9351
    -5.9153  -5.9064  -5.8869  -5.7627  -5.7596  -5.7175  -5.6259  -5.6210
    -5.5588  -5.4915  -5.4684  -5.4625  -5.4567  -5.4321  -5.3920  -5.3777
    -5.2828  -5.2825  -5.2709  -5.1475  -5.1437  -5.0871  -4.7318  -4.3167
    -3.6255  -3.3616  -3.2585  -2.9480  -2.7979  -2.3330  -2.0657  -1.8814
    -1.8345  -1.6076  -1.3889  -0.6594  -0.4095   0.2408   0.2621   0.8472

          k = 0.0625 0.3969 0.0000 ( 44528 PWs)   bands (ev):

   -11.6102 -11.0062 -10.6632 -10.5286 -10.4605 -10.4428 -10.3628 -10.3448
   -10.3344 -10.2733 -10.2456 -10.2363 -10.1931 -10.1483 -10.1146  -9.9991
    -9.9781  -9.9260  -9.8788  -9.8478  -9.8045  -9.8027  -9.7820  -9.7467
    -9.7273  -9.6088  -9.5944  -9.5424  -9.3210  -9.2270  -9.2270  -9.1859
    -9.1810  -9.1733  -9.0722  -8.9888  -8.9173  -8.9134  -8.8956  -8.7378
    -8.6991  -8.6962  -8.6095  -8.4624  -8.4517  -8.4087  -8.3124  -8.2943
    -8.2387  -8.2377  -8.1726  -8.1426  -8.0713  -8.0693  -8.0522  -8.0416
    -8.0123  -7.9315  -7.9084  -7.8727  -7.8347  -7.8221  -7.8130  -7.7622
    -7.7537  -7.7259  -7.6272  -7.6257  -7.5607  -7.5553  -7.5540  -7.4702
    -7.4096  -7.3890  -7.3292  -7.2160  -7.1249  -7.0944  -7.0606  -6.9984
    -6.9610  -6.9522  -6.9425  -6.9112  -6.9008  -6.8835  -6.8638  -6.7170
    -6.6873  -6.5876  -6.5547  -6.5523  -6.5514  -6.5392  -6.4116  -6.3044
    -6.2985  -6.2902  -6.2805  -6.2239  -6.1942  -6.1672  -6.1223  -6.0879
    -6.0445  -6.0414  -5.9741  -5.9363  -5.9310  -5.8427  -5.8227  -5.7339
    -5.5948  -5.5561  -5.5263  -5.4982  -5.4700  -5.4497  -5.4283  -5.3941
    -5.3140  -5.2863  -5.2709  -5.2095  -5.1980  -5.1514  -5.1458  -3.9506
    -3.7552  -3.5322  -3.2353  -2.7338  -2.4943  -2.2149  -2.0109  -1.8335
    -1.7304  -1.4902  -1.2788  -0.4132  -0.2799  -0.1630   0.6888   1.3708

          k = 0.0625 0.4691 0.0000 ( 44509 PWs)   bands (ev):

   -11.3196 -10.7743 -10.6964 -10.4273 -10.3282 -10.3262 -10.3090 -10.2507
   -10.2075 -10.1402 -10.1221 -10.1117 -10.0328 -10.0297  -9.9816  -9.8425
    -9.8069  -9.8048  -9.7636  -9.7527  -9.7205  -9.6758  -9.6006  -9.5988
    -9.5952  -9.4776  -9.4700  -9.4074  -9.3684  -9.1991  -9.1513  -9.1277
    -9.1048  -9.1002  -9.0767  -9.0447  -8.9996  -8.9271  -8.9232  -8.8586
    -8.7366  -8.6952  -8.6444  -8.5915  -8.5757  -8.5659  -8.4463  -8.3958
    -8.2481  -8.2378  -8.1850  -8.1576  -8.1148  -8.1017  -8.0892  -8.0717
    -8.0066  -7.9852  -7.9796  -7.9454  -7.9452  -7.8560  -7.7746  -7.7664
    -7.7241  -7.6613  -7.6405  -7.6277  -7.5665  -7.5542  -7.5328  -7.4791
    -7.4630  -7.3746  -7.3447  -7.2788  -7.2727  -7.2330  -7.2064  -7.1783
    -7.1599  -7.1128  -7.0487  -7.0071  -6.9955  -6.9523  -6.9273  -6.8824
    -6.8054  -6.7593  -6.7226  -6.7205  -6.7019  -6.6025  -6.5633  -6.5124
    -6.4694  -6.4693  -6.4291  -6.3962  -6.3642  -6.3276  -6.2782  -6.2102
    -6.1843  -6.1356  -6.1337  -6.0413  -5.9940  -5.9159  -5.9113  -5.8785
    -5.8264  -5.6019  -5.5807  -5.4994  -5.4886  -5.4723  -5.4167  -5.3887
    -5.3803  -5.3327  -5.2975  -5.2800  -5.1522  -5.1453  -4.9673  -4.1055
    -3.5784  -3.4712  -3.2088  -2.6805  -2.4166  -2.1573  -2.0313  -1.7945
    -1.6566  -1.1915  -0.9013  -0.6236  -0.2436  -0.1971   0.8768   1.0071

          k = 0.0625-0.6134 0.0000 ( 44516 PWs)   bands (ev):

   -11.0422 -10.8213 -10.5825 -10.4541 -10.2759 -10.2270 -10.2000 -10.1998
   -10.1528 -10.1119 -10.0602 -10.0394  -9.9533  -9.9246  -9.8824  -9.7791
    -9.7622  -9.7109  -9.6531  -9.6380  -9.5906  -9.5573  -9.5367  -9.5361
    -9.4882  -9.4641  -9.3689  -9.3453  -9.3436  -9.2246  -9.1976  -9.1813
    -9.1092  -9.0413  -9.0337  -9.0285  -8.9663  -8.9618  -8.9022  -8.8870
    -8.7882  -8.7414  -8.6686  -8.6619  -8.5944  -8.5675  -8.5308  -8.4773
    -8.3565  -8.3474  -8.2763  -8.2506  -8.1856  -8.1253  -8.0875  -8.0361
    -8.0269  -8.0247  -7.9845  -7.9645  -7.9010  -7.7594  -7.7226  -7.7172
    -7.6949  -7.6937  -7.6475  -7.6361  -7.5864  -7.5849  -7.5847  -7.5097
    -7.4905  -7.4811  -7.4590  -7.3431  -7.3106  -7.2789  -7.2687  -7.2686
    -7.2045  -7.1367  -7.1206  -7.0838  -7.0140  -7.0131  -6.9798  -6.9597
    -6.8332  -6.8256  -6.7881  -6.7497  -6.7333  -6.6793  -6.6600  -6.6425
    -6.5958  -6.5600  -6.5228  -6.5043  -6.4996  -6.4109  -6.3651  -6.2804
    -6.2747  -6.2448  -6.2114  -6.0840  -6.0369  -6.0024  -5.9536  -5.8927
    -5.8674  -5.7553  -5.5695  -5.5541  -5.4992  -5.4724  -5.3861  -5.3659
    -5.3513  -5.3506  -5.3148  -5.3001  -5.1515  -5.1438  -4.7037  -4.4186
    -3.4415  -3.2000  -3.1922  -2.8133  -2.6514  -2.1340  -1.7724  -1.6187
    -1.5633  -1.1455  -1.0930  -0.3068  -0.1597  -0.1572   0.2875   1.1623

          k = 0.1250 0.2165 0.0000 ( 44571 PWs)   bands (ev):

   -12.1486 -11.4890 -10.7596 -10.7569 -10.7569 -10.7293 -10.6841 -10.6841
   -10.6570 -10.5423 -10.5291 -10.5291 -10.4661 -10.3960 -10.3960 -10.2874
   -10.2788 -10.2516 -10.2516 -10.1928 -10.0967 -10.0491 -10.0453 -10.0453
    -9.9202  -9.9202  -9.8069  -9.7622  -9.7622  -9.6157  -9.3459  -9.3376
    -9.3376  -8.9585  -8.8394  -8.8394  -8.8043  -8.7978  -8.7577  -8.6195
    -8.5047  -8.5047  -8.4388  -8.3566  -8.3542  -8.3542  -8.2768  -8.2708
    -8.2396  -8.2030  -8.2030  -8.1716  -8.1444  -8.0691  -8.0238  -7.9671
    -7.9480  -7.9399  -7.9399  -7.9341  -7.9027  -7.8096  -7.7779  -7.7154
    -7.7154  -7.6200  -7.6064  -7.5610  -7.5147  -7.5147  -7.2171  -7.1726
    -7.1436  -7.1436  -6.9757  -6.9757  -6.9275  -6.9010  -6.8941  -6.8938
    -6.6461  -6.6378  -6.6378  -6.5594  -6.4195  -6.3165  -6.3145  -6.3145
    -6.2944  -6.2808  -6.2340  -6.2340  -6.1550  -6.1496  -6.0558  -5.9544
    -5.9544  -5.9106  -5.8807  -5.8807  -5.7635  -5.7635  -5.7366  -5.6627
    -5.6627  -5.6210  -5.6041  -5.6041  -5.6021  -5.5988  -5.5551  -5.5551
    -5.5517  -5.5046  -5.4495  -5.4372  -5.4341  -5.4341  -5.3149  -5.3149
    -5.2825  -5.1885  -5.1885  -5.1682  -4.7177  -4.4042  -4.4042  -3.8953
    -3.8953  -3.5189  -3.5189  -3.4463  -2.6938  -2.5047  -2.5047  -2.3097
    -1.6338  -1.0567  -0.9508  -0.9508  -0.6943  -0.4598  -0.4159   0.7100

          k = 0.1250 0.2887 0.0000 ( 44582 PWs)   bands (ev):

   -11.9393 -11.2945 -10.6530 -10.6424 -10.6264 -10.6221 -10.5771 -10.5747
   -10.5011 -10.4408 -10.4241 -10.3993 -10.3168 -10.3149 -10.2561 -10.1980
   -10.1525 -10.1287 -10.1241 -10.0228  -9.9606  -9.9584  -9.9487  -9.9326
    -9.8455  -9.8032  -9.6818  -9.6774  -9.6162  -9.4373  -9.2994  -9.2805
    -9.2795  -9.0405  -8.9358  -8.8893  -8.8853  -8.8544  -8.8145  -8.7312
    -8.5583  -8.5227  -8.4621  -8.4298  -8.3189  -8.3142  -8.2966  -8.2896
    -8.2028  -8.1829  -8.1822  -8.1187  -8.0986  -8.0929  -8.0393  -8.0250
    -8.0128  -7.9712  -7.9197  -7.9085  -7.8609  -7.8594  -7.8043  -7.8015
    -7.7720  -7.6310  -7.5203  -7.5109  -7.5033  -7.4685  -7.4004  -7.3972
    -7.3841  -7.3540  -7.1025  -7.0523  -7.0453  -6.9804  -6.9453  -6.9368
    -6.8379  -6.7490  -6.7413  -6.6329  -6.5760  -6.5739  -6.4996  -6.4936
    -6.4459  -6.4077  -6.3918  -6.3914  -6.3776  -6.3443  -6.2457  -6.1769
    -6.0370  -6.0234  -6.0159  -6.0146  -5.9966  -5.9560  -5.9248  -5.8903
    -5.8539  -5.7931  -5.7488  -5.7426  -5.6758  -5.6487  -5.6482  -5.5537
    -5.5511  -5.5034  -5.5007  -5.4604  -5.4594  -5.4555  -5.4137  -5.3394
    -5.3101  -5.2695  -5.2086  -5.2030  -4.8867  -4.5267  -4.3886  -4.2819
    -4.1637  -3.9148  -3.5069  -3.0477  -2.9725  -2.4545  -2.1930  -1.8681
    -1.3196  -1.2923  -0.8912  -0.8433  -0.4044   0.0116   0.2239   0.5386

          k = 0.1250 0.3608 0.0000 ( 44558 PWs)   bands (ev):

   -11.6853 -11.0672 -10.6101 -10.5297 -10.5018 -10.4775 -10.4404 -10.3818
   -10.3399 -10.3192 -10.2842 -10.2437 -10.2355 -10.1341 -10.1316 -10.0847
   -10.0213  -9.9834  -9.9596  -9.8652  -9.8588  -9.8333  -9.8088  -9.7743
    -9.7491  -9.6780  -9.5817  -9.5537  -9.4348  -9.2562  -9.2444  -9.2158
    -9.1884  -9.1126  -9.0954  -8.9650  -8.9345  -8.9299  -8.8633  -8.7740
    -8.7051  -8.5756  -8.5555  -8.4154  -8.4009  -8.3967  -8.3120  -8.2712
    -8.2667  -8.2651  -8.2336  -8.1783  -8.0735  -8.0625  -8.0253  -8.0229
    -8.0206  -7.9669  -7.9447  -7.8830  -7.8767  -7.8730  -7.7897  -7.7696
    -7.7486  -7.6629  -7.6463  -7.6303  -7.6020  -7.5588  -7.4893  -7.4411
    -7.3296  -7.3171  -7.2982  -7.2402  -7.1320  -7.0428  -6.9902  -6.9814
    -6.9471  -6.9426  -6.8710  -6.8637  -6.8383  -6.7843  -6.7588  -6.7377
    -6.7038  -6.5997  -6.5160  -6.5148  -6.5099  -6.4915  -6.3560  -6.3448
    -6.2808  -6.2475  -6.2143  -6.2018  -6.1678  -6.0718  -6.0224  -6.0018
    -5.9381  -5.9323  -5.9178  -5.9137  -5.7930  -5.7377  -5.6632  -5.6564
    -5.5571  -5.5466  -5.5246  -5.5207  -5.4787  -5.4555  -5.3398  -5.3328
    -5.3292  -5.2835  -5.2203  -5.2188  -5.2155  -5.0629  -4.7221  -4.1727
    -4.0420  -3.8950  -3.4519  -3.4180  -2.6191  -2.3883  -1.7030  -1.6503
    -1.5942  -1.1627  -0.8369  -0.6623  -0.0355   0.1446   0.5730   0.9366

          k = 0.1250 0.4330 0.0000 ( 44545 PWs)   bands (ev):

   -11.4019 -10.8303 -10.6087 -10.4071 -10.3712 -10.3344 -10.2996 -10.2747
   -10.2266 -10.1553 -10.1317 -10.1138 -10.1038 -10.0408  -9.9733  -9.9122
    -9.8609  -9.8437  -9.8183  -9.7703  -9.7400  -9.7303  -9.6454  -9.6330
    -9.6035  -9.5691  -9.4646  -9.4315  -9.2653  -9.2592  -9.1892  -9.1838
    -9.1508  -9.1081  -9.0606  -9.0163  -8.9855  -8.9846  -8.9579  -8.8313
    -8.7155  -8.6918  -8.6189  -8.5444  -8.5374  -8.5333  -8.4121  -8.3641
    -8.3056  -8.2802  -8.2287  -8.1681  -8.1226  -8.1116  -8.0871  -8.0624
    -7.9922  -7.9900  -7.9812  -7.9491  -7.9152  -7.8980  -7.8546  -7.8275
    -7.7923  -7.7676  -7.6006  -7.5971  -7.5866  -7.5620  -7.4957  -7.4405
    -7.4314  -7.3702  -7.2978  -7.2931  -7.1764  -7.1509  -7.1448  -7.1330
    -7.1187  -7.0868  -7.0729  -6.9953  -6.9943  -6.9759  -6.8940  -6.8613
    -6.8136  -6.7415  -6.6851  -6.6688  -6.6475  -6.6396  -6.5316  -6.4512
    -6.3992  -6.3902  -6.3735  -6.2677  -6.2637  -6.2267  -6.2180  -6.1294
    -6.0839  -6.0647  -6.0313  -5.9737  -5.8521  -5.8103  -5.7985  -5.6888
    -5.6572  -5.5461  -5.5292  -5.5148  -5.4947  -5.4878  -5.4828  -5.4504
    -5.3689  -5.3513  -5.3435  -5.2260  -5.2164  -5.1682  -4.9950  -4.0906
    -3.8658  -3.8171  -3.6830  -3.3959  -2.3296  -2.1724  -2.1245  -1.4737
    -1.0829  -1.0749  -0.7947  -0.4918  -0.3109   0.3106   0.9505   1.1396

          k = 0.1250-0.6495 0.0000 ( 44477 PWs)   bands (ev):

   -11.1132 -10.6805 -10.6159 -10.3613 -10.2438 -10.2368 -10.2176 -10.1878
   -10.1535 -10.0551 -10.0476 -10.0062  -9.9667  -9.9142  -9.8926  -9.7960
    -9.7408  -9.7004  -9.6990  -9.6721  -9.6708  -9.6208  -9.5214  -9.5082
    -9.4822  -9.4272  -9.4155  -9.3441  -9.3070  -9.2302  -9.2113  -9.1677
    -9.1624  -9.0988  -9.0926  -8.9938  -8.9740  -8.9532  -8.9237  -8.9160
    -8.7632  -8.7622  -8.6811  -8.6450  -8.6374  -8.5710  -8.4994  -8.4173
    -8.3841  -8.3774  -8.2984  -8.2420  -8.2110  -8.1394  -8.0986  -8.0719
    -8.0709  -8.0688  -8.0102  -7.9855  -7.9500  -7.8764  -7.8006  -7.7772
    -7.7572  -7.7043  -7.6889  -7.6856  -7.6373  -7.6208  -7.5499  -7.5482
    -7.4376  -7.4322  -7.3833  -7.3701  -7.3159  -7.2761  -7.2717  -7.2250
    -7.2225  -7.1579  -7.0673  -7.0315  -7.0174  -6.9938  -6.9626  -6.9008
    -6.8989  -6.7996  -6.7625  -6.7534  -6.7064  -6.6491  -6.5935  -6.5765
    -6.5391  -6.4605  -6.4456  -6.4371  -6.3747  -6.3219  -6.2019  -6.1943
    -6.1627  -6.1559  -6.1518  -6.0567  -6.0244  -5.8641  -5.8308  -5.8155
    -5.8064  -5.6590  -5.6282  -5.5303  -5.4906  -5.4775  -5.4595  -5.4400
    -5.4379  -5.4000  -5.3795  -5.3614  -5.2264  -5.2141  -4.7473  -4.1663
    -4.0405  -3.8432  -3.3573  -3.3131  -2.5356  -2.2906  -1.7146  -1.4309
    -1.0244  -0.7802  -0.7683  -0.5019  -0.3826   0.5386   0.6719   0.9641

          k = 0.1250-0.5774 0.0000 ( 44554 PWs)   bands (ev):

   -10.8567 -10.8567 -10.4542 -10.4542 -10.1715 -10.1715 -10.1578 -10.1541
   -10.1177 -10.1112  -9.9897  -9.9897  -9.9192  -9.8633  -9.7841  -9.7841
    -9.7457  -9.6899  -9.6415  -9.5666  -9.5666  -9.5485  -9.5350  -9.4254
    -9.4091  -9.4091  -9.3984  -9.3888  -9.2665  -9.2665  -9.2066  -9.1794
    -9.1608  -9.0816  -9.0480  -9.0284  -9.0284  -8.9271  -8.9271  -8.9149
    -8.8944  -8.7361  -8.6751  -8.6751  -8.5848  -8.5700  -8.5258  -8.4936
    -8.4880  -8.4880  -8.2711  -8.2336  -8.2022  -8.1770  -8.1770  -8.0634
    -8.0600  -8.0600  -7.9880  -7.9880  -7.8989  -7.8989  -7.7940  -7.7465
    -7.7456  -7.7149  -7.7149  -7.7049  -7.6865  -7.6455  -7.6455  -7.5952
    -7.5275  -7.5078  -7.5078  -7.4929  -7.3044  -7.2618  -7.2618  -7.1597
    -7.1597  -7.1387  -7.1303  -7.0745  -7.0745  -7.0236  -6.9437  -6.9437
    -6.8144  -6.7965  -6.7773  -6.7773  -6.7090  -6.6989  -6.6989  -6.5902
    -6.5221  -6.4870  -6.4870  -6.4699  -6.3658  -6.3658  -6.2555  -6.2451
    -6.2451  -6.1862  -6.0636  -6.0573  -6.0573  -6.0134  -6.0134  -5.8408
    -5.7514  -5.7514  -5.5755  -5.5755  -5.5306  -5.4912  -5.4535  -5.4241
    -5.4241  -5.4026  -5.3995  -5.3872  -5.2260  -5.2127  -4.4733  -4.4733
    -4.0238  -3.8349  -3.3438  -2.9313  -2.9313  -2.2771  -1.4204  -1.2496
    -1.2496  -1.0079  -0.7594  -0.3465   0.0849   0.0849   0.6145   0.9677

          k = 0.1875 0.3248 0.0000 ( 44577 PWs)   bands (ev):

   -11.7106 -11.0877 -10.5346 -10.5346 -10.5158 -10.5071 -10.5071 -10.3857
   -10.3364 -10.3321 -10.3321 -10.2462 -10.1705 -10.1705 -10.1364 -10.0755
   -10.0755 -10.0368  -9.9709  -9.8728  -9.8728  -9.8509  -9.8106  -9.7844
    -9.7291  -9.7291  -9.5565  -9.5257  -9.5257  -9.2508  -9.2477  -9.2477
    -9.1851  -9.1351  -9.0385  -8.9796  -8.9731  -8.8559  -8.8559  -8.8485
    -8.6950  -8.5541  -8.4424  -8.4424  -8.3967  -8.3521  -8.3521  -8.3486
    -8.2615  -8.2378  -8.2378  -8.1995  -8.0757  -8.0598  -8.0249  -8.0152
    -8.0152  -7.9506  -7.9402  -7.9368  -7.9368  -7.8711  -7.7997  -7.7448
    -7.6895  -7.6895  -7.6554  -7.6289  -7.6182  -7.5561  -7.4454  -7.4454
    -7.3279  -7.2940  -7.2440  -7.2001  -7.2001  -6.9872  -6.9860  -6.9692
    -6.9582  -6.9582  -6.8508  -6.8301  -6.7641  -6.7641  -6.7348  -6.7246
    -6.6836  -6.6836  -6.5000  -6.4974  -6.4974  -6.4599  -6.4047  -6.2930
    -6.2930  -6.2218  -6.2218  -6.1791  -6.1417  -6.0403  -6.0019  -6.0019
    -5.9568  -5.8720  -5.8720  -5.7792  -5.7132  -5.6670  -5.6670  -5.6648
    -5.5987  -5.5499  -5.5081  -5.5081  -5.4938  -5.4700  -5.4700  -5.3353
    -5.2981  -5.2981  -5.2755  -5.2184  -4.7672  -4.7672  -4.5067  -4.5067
    -4.1217  -4.1217  -4.0713  -2.9585  -2.9585  -2.6616  -1.7051  -1.3129
    -1.3129  -1.2551  -0.7878  -0.3804  -0.0126   0.3670   0.5055   0.5055

          k = 0.1875 0.3969 0.0000 ( 44536 PWs)   bands (ev):

   -11.4435 -10.8583 -10.5092 -10.4037 -10.3947 -10.3753 -10.3501 -10.2336
   -10.1948 -10.1912 -10.1508 -10.1072 -10.0922 -10.0032 -10.0015  -9.9500
    -9.9339  -9.9115  -9.8264  -9.7807  -9.7768  -9.7306  -9.6760  -9.6368
    -9.6152  -9.6077  -9.4397  -9.4168  -9.3414  -9.2272  -9.2123  -9.1940
    -9.1684  -9.0922  -9.0674  -9.0610  -9.0236  -8.9765  -8.8932  -8.8326
    -8.8085  -8.6467  -8.5417  -8.5332  -8.5043  -8.4698  -8.4101  -8.3648
    -8.3551  -8.3353  -8.2864  -8.2461  -8.1512  -8.0549  -8.0542  -8.0529
    -7.9950  -7.9791  -7.9770  -7.9662  -7.9189  -7.9061  -7.8685  -7.8658
    -7.8482  -7.8384  -7.6098  -7.6042  -7.5649  -7.5281  -7.4801  -7.4117
    -7.3837  -7.3745  -7.3442  -7.2139  -7.1662  -7.1531  -7.1037  -7.0915
    -7.0886  -7.0531  -7.0378  -7.0175  -7.0073  -6.9901  -6.8749  -6.8635
    -6.8132  -6.7296  -6.6817  -6.6726  -6.6107  -6.5884  -6.5411  -6.4044
    -6.3712  -6.3564  -6.3523  -6.3383  -6.2104  -6.1607  -6.1019  -6.0756
    -6.0019  -5.9848  -5.8867  -5.8579  -5.7933  -5.7458  -5.6943  -5.6435
    -5.6306  -5.6108  -5.5752  -5.5674  -5.5230  -5.5103  -5.4683  -5.3801
    -5.3762  -5.3175  -5.3122  -5.1860  -5.0172  -4.9994  -4.6686  -4.6675
    -4.4717  -4.0638  -3.7332  -3.4251  -2.9256  -2.2444  -1.7602  -1.3175
    -1.1760  -0.8499  -0.4640  -0.0366   0.0548   0.4037   0.4750   0.8625

          k = 0.1875-0.6856 0.0000 ( 44502 PWs)   bands (ev):

   -11.1560 -10.6335 -10.5321 -10.2726 -10.2708 -10.2622 -10.2210 -10.1733
   -10.0649 -10.0510 -10.0173  -9.9842  -9.9773  -9.8927  -9.8729  -9.8535
    -9.7758  -9.7230  -9.7097  -9.6937  -9.6855  -9.6850  -9.5253  -9.5193
    -9.5111  -9.4932  -9.3308  -9.3224  -9.2994  -9.2460  -9.2086  -9.1587
    -9.1531  -9.1470  -9.1218  -9.0921  -8.9484  -8.9372  -8.9223  -8.9124
    -8.7662  -8.7627  -8.7249  -8.6953  -8.5810  -8.5514  -8.4282  -8.4166
    -8.4155  -8.3956  -8.3337  -8.3110  -8.2964  -8.1886  -8.1382  -8.1322
    -8.0732  -8.0231  -8.0230  -7.9858  -7.9825  -7.9380  -7.8450  -7.8231
    -7.8107  -7.7864  -7.7451  -7.6872  -7.6711  -7.5899  -7.5445  -7.4924
    -7.4593  -7.3994  -7.3743  -7.3734  -7.3067  -7.2489  -7.2430  -7.2403
    -7.2057  -7.1402  -7.0431  -7.0119  -6.9797  -6.9727  -6.9719  -6.9328
    -6.8981  -6.8797  -6.7176  -6.7030  -6.6922  -6.6279  -6.5696  -6.4955
    -6.4764  -6.4075  -6.3826  -6.3406  -6.2507  -6.2349  -6.1738  -6.1565
    -6.1400  -6.0869  -5.9957  -5.9704  -5.7860  -5.7714  -5.7482  -5.7182
    -5.6809  -5.5915  -5.5857  -5.5656  -5.5329  -5.5317  -5.5107  -5.4761
    -5.4594  -5.4355  -5.4187  -5.3269  -5.3163  -5.1206  -4.7595  -4.5990
    -4.4430  -4.0170  -3.8354  -3.3776  -2.8947  -2.1969  -1.8064  -1.3156
    -0.7123  -0.6213  -0.4184  -0.2953   0.2753   0.4531   0.8854   1.1035

          k = 0.1875-0.6134 0.0000 ( 44484 PWs)   bands (ev):

   -10.8769 -10.6525 -10.4465 -10.3181 -10.1718 -10.1514 -10.1270 -10.0909
   -10.0330 -10.0112  -9.9601  -9.9125  -9.8959  -9.7945  -9.7869  -9.7682
    -9.6900  -9.6853  -9.6352  -9.6064  -9.5845  -9.5392  -9.4759  -9.4738
    -9.4012  -9.3748  -9.3654  -9.2885  -9.2690  -9.2530  -9.2522  -9.2512
    -9.1907  -9.0901  -9.0803  -9.0673  -9.0227  -8.9511  -8.9476  -8.9081
    -8.8776  -8.8359  -8.7352  -8.6850  -8.6358  -8.6272  -8.5250  -8.5154
    -8.4365  -8.4260  -8.3443  -8.2685  -8.2414  -8.2136  -8.1983  -8.1538
    -8.1035  -8.0951  -8.0686  -8.0553  -7.9865  -7.9343  -7.9144  -7.8940
    -7.8355  -7.7855  -7.7846  -7.7285  -7.7248  -7.6957  -7.6556  -7.6198
    -7.5529  -7.5307  -7.5195  -7.4858  -7.3190  -7.2488  -7.2100  -7.1736
    -7.1360  -7.1255  -7.1111  -7.1092  -7.0527  -7.0042  -6.9660  -6.9240
    -6.8603  -6.8024  -6.7954  -6.7016  -6.6964  -6.5960  -6.5936  -6.5166
    -6.4658  -6.4308  -6.4305  -6.3518  -6.3149  -6.2468  -6.2112  -6.1758
    -6.1285  -6.0629  -6.0571  -6.0258  -5.9991  -5.8173  -5.8087  -5.7898
    -5.7365  -5.7011  -5.6171  -5.5631  -5.5505  -5.5452  -5.5329  -5.5001
    -5.4988  -5.4906  -5.4793  -5.4339  -5.3290  -5.3161  -4.5628  -4.4924
    -4.4278  -4.1882  -3.9917  -3.0045  -2.8769  -2.6119  -1.3539  -1.3131
    -0.8902  -0.6802  -0.2293  -0.0516   0.4338   0.4418   0.5254   1.2715

          k = 0.2500-0.7217 0.0000 ( 44491 PWs)   bands (ev):

   -11.1702 -10.6388 -10.3903 -10.3903 -10.2711 -10.2267 -10.2267 -10.0931
   -10.0931 -10.0079  -9.9848  -9.9848  -9.9767  -9.9534  -9.8367  -9.8367
    -9.8264  -9.7360  -9.7259  -9.7207  -9.6931  -9.6931  -9.5414  -9.5342
    -9.5342  -9.4749  -9.3501  -9.2665  -9.2380  -9.2380  -9.2262  -9.2055
    -9.1772  -9.1772  -9.1372  -9.0678  -8.9477  -8.9473  -8.9463  -8.8502
    -8.8502  -8.7225  -8.7225  -8.6798  -8.5417  -8.5215  -8.4912  -8.4912
    -8.3944  -8.3825  -8.3630  -8.3630  -8.2479  -8.2231  -8.2231  -8.0773
    -8.0727  -8.0579  -7.9948  -7.9860  -7.9860  -7.9416  -7.8593  -7.8593
    -7.8382  -7.8215  -7.7205  -7.7205  -7.6905  -7.5435  -7.5222  -7.5222
    -7.4328  -7.4328  -7.4057  -7.3232  -7.3077  -7.2540  -7.2234  -7.2234
    -7.2084  -7.1384  -7.0324  -7.0009  -6.9806  -6.9514  -6.9514  -6.9395
    -6.9206  -6.9206  -6.7018  -6.6841  -6.6841  -6.6191  -6.5528  -6.4735
    -6.4145  -6.4145  -6.3587  -6.3555  -6.2438  -6.1694  -6.1694  -6.1275
    -6.0779  -6.0779  -5.8594  -5.8025  -5.7861  -5.7634  -5.7634  -5.7024
    -5.6368  -5.6368  -5.6258  -5.6051  -5.5981  -5.5981  -5.5461  -5.4281
    -5.4103  -5.4103  -5.4033  -5.1065  -5.1065  -4.9807  -4.9807  -4.7615
    -4.6152  -4.6152  -3.4130  -3.4130  -3.3983  -1.8372  -1.7918  -1.7918
    -0.6615  -0.1705  -0.0076  -0.0076   0.0730   0.3853   0.7761   1.2574

          k = 0.2500-0.6495 0.0000 ( 44485 PWs)   bands (ev):

   -10.8858 -10.4479 -10.4397 -10.2741 -10.2031 -10.1530 -10.1357 -10.0010
    -9.9416  -9.9314  -9.9073  -9.9009  -9.8700  -9.8369  -9.7521  -9.7220
    -9.7118  -9.6711  -9.6499  -9.6270  -9.6063  -9.5384  -9.4752  -9.4535
    -9.4354  -9.4330  -9.3763  -9.3056  -9.2618  -9.2372  -9.2229  -9.2094
    -9.1927  -9.1360  -9.1292  -9.1253  -8.9904  -8.9244  -8.9199  -8.9049
    -8.8684  -8.7985  -8.7867  -8.7503  -8.6595  -8.6372  -8.5341  -8.5115
    -8.4396  -8.4048  -8.3658  -8.3618  -8.2994  -8.2807  -8.2030  -8.1708
    -8.1462  -8.1331  -8.1324  -8.0806  -8.0417  -7.9871  -7.9429  -7.9383
    -7.8536  -7.8338  -7.8112  -7.7574  -7.7452  -7.7288  -7.7053  -7.5917
    -7.5557  -7.5357  -7.5034  -7.4730  -7.3188  -7.2708  -7.2133  -7.1735
    -7.1569  -7.1061  -7.0999  -7.0832  -7.0319  -7.0180  -7.0080  -6.9376
    -6.7985  -6.7846  -6.7710  -6.7142  -6.7020  -6.5868  -6.4975  -6.4552
    -6.4115  -6.3915  -6.3371  -6.2934  -6.2736  -6.2293  -6.2191  -6.1649
    -6.0479  -6.0217  -5.9475  -5.9136  -5.7853  -5.7693  -5.7664  -5.7250
    -5.7157  -5.6503  -5.6376  -5.6177  -5.6091  -5.6016  -5.5505  -5.5165
    -5.5061  -5.4645  -5.4281  -5.4239  -5.4154  -5.0821  -5.0537  -4.9601
    -4.5803  -4.4970  -3.8354  -3.3997  -3.0392  -2.2387  -1.8069  -1.4059
    -0.4882  -0.1203  -0.0442   0.0675   0.4756   0.8421   1.0051   1.2241

          k = 0.2500-0.5774 0.0000 ( 44432 PWs)   bands (ev):

   -10.6253 -10.6253 -10.2919 -10.2919 -10.2086 -10.1492 -10.0052  -9.9933
    -9.9176  -9.9176  -9.8938  -9.8564  -9.8564  -9.7389  -9.7240  -9.6782
    -9.6517  -9.5931  -9.5931  -9.5629  -9.5231  -9.5231  -9.4998  -9.4239
    -9.4040  -9.3929  -9.3929  -9.3138  -9.2929  -9.2929  -9.2501  -9.2115
    -9.1794  -9.1655  -9.1250  -9.1250  -9.0796  -8.9321  -8.9321  -8.9056
    -8.8691  -8.8691  -8.8529  -8.6973  -8.6367  -8.6035  -8.6035  -8.4500
    -8.4148  -8.4105  -8.3694  -8.3694  -8.3105  -8.2507  -8.2064  -8.2054
    -8.2053  -8.1702  -8.1127  -8.1127  -8.0660  -8.0660  -8.0592  -8.0151
    -8.0151  -7.9922  -7.7789  -7.7424  -7.7221  -7.7221  -7.6178  -7.6087
    -7.6062  -7.5816  -7.5512  -7.5512  -7.3843  -7.2962  -7.2962  -7.1449
    -7.1449  -7.0935  -7.0582  -7.0582  -7.0281  -7.0263  -6.9602  -6.9138
    -6.9138  -6.8188  -6.7148  -6.6290  -6.5694  -6.5647  -6.5647  -6.4760
    -6.4760  -6.3990  -6.3293  -6.3293  -6.2328  -6.2163  -6.1677  -6.1677
    -5.9856  -5.9856  -5.9426  -5.8110  -5.8110  -5.7728  -5.7710  -5.7710
    -5.7471  -5.7471  -5.6985  -5.6683  -5.6261  -5.6118  -5.5875  -5.5760
    -5.5358  -5.5358  -5.4354  -5.4273  -5.4174  -5.4174  -5.0347  -4.9541
    -4.5682  -4.1931  -4.1931  -3.3943  -2.6537  -2.6537  -1.8113  -0.9554
    -0.9554  -0.0562   0.0928   0.4377   0.4377   0.5740   1.1888   1.4965

          k = 0.3125-0.6134 0.0000 ( 44465 PWs)   bands (ev):

   -10.6139 -10.3842 -10.3842 -10.2833 -10.1882 -10.1882  -9.9970  -9.9001
    -9.9001  -9.8678  -9.8676  -9.8497  -9.7491  -9.7491  -9.6745  -9.6277
    -9.6104  -9.5814  -9.5813  -9.5450  -9.5450  -9.4877  -9.4718  -9.4610
    -9.4356  -9.4356  -9.4056  -9.3668  -9.2978  -9.2942  -9.2942  -9.2225
    -9.1647  -9.1455  -9.1455  -9.1263  -9.0644  -9.0344  -9.0343  -8.9130
    -8.8475  -8.7443  -8.7443  -8.6507  -8.6224  -8.6144  -8.6144  -8.4956
    -8.4554  -8.4554  -8.4406  -8.3580  -8.3194  -8.2767  -8.2353  -8.2353
    -8.1873  -8.1873  -8.1657  -8.1470  -8.1128  -8.1128  -8.1107  -8.0727
    -8.0607  -8.0607  -7.7677  -7.7420  -7.6961  -7.6675  -7.6675  -7.6486
    -7.6255  -7.5702  -7.5702  -7.5384  -7.3716  -7.3623  -7.3623  -7.1550
    -7.1023  -7.1023  -7.0636  -7.0636  -7.0324  -7.0027  -6.9305  -6.9071
    -6.8596  -6.7901  -6.7901  -6.6342  -6.5881  -6.5437  -6.4831  -6.3944
    -6.3944  -6.3440  -6.3283  -6.3283  -6.3010  -6.3010  -6.1587  -5.9828
    -5.9264  -5.9264  -5.8431  -5.8117  -5.7946  -5.7851  -5.7683  -5.7683
    -5.7546  -5.7410  -5.7410  -5.6867  -5.5971  -5.5678  -5.5546  -5.5128
    -5.5127  -5.4993  -5.4445  -5.4445  -5.4116  -5.4098  -5.4098  -5.0614
    -5.0614  -4.1935  -3.8321  -3.8321  -2.6670  -2.2575  -2.2575  -0.9769
    -0.5224  -0.5224   0.4085   0.8298   0.9017   0.9563   0.9563   1.2558

 ------ SPIN DOWN ----------


          k = 0.0000 0.0000 0.0000 ( 44627 PWs)   bands (ev):

   -12.5149 -11.8361 -11.0705 -10.8726 -10.8726 -10.8726 -10.8369 -10.6989
   -10.6989 -10.6989 -10.5449 -10.5449 -10.5449 -10.5059 -10.4889 -10.4889
   -10.4889 -10.4596 -10.2892 -10.2892 -10.2892 -10.0784 -10.0784 -10.0784
   -10.0065 -10.0065 -10.0065  -9.8640  -9.8640  -9.8640  -9.3326  -9.3326
    -9.3326  -8.7059  -8.7059  -8.7059  -8.4540  -8.4540  -8.4540  -8.3387
    -8.3155  -8.3155  -8.3155  -8.3036  -8.2473  -8.2473  -8.1479  -8.1479
    -8.1433  -8.1433  -8.1433  -8.0633  -8.0633  -8.0614  -7.9617  -7.9617
    -7.7311  -7.7311  -7.6889  -7.6889  -7.6374  -7.6374  -7.6374  -7.4389
    -7.4389  -7.4389  -7.4184  -7.1137  -7.1137  -7.1137  -6.9601  -6.9601
    -6.9601  -6.5438  -6.5438  -6.5221  -6.5221  -6.5221  -6.4738  -6.4738
    -6.2398  -6.2398  -6.2398  -6.2187  -6.2187  -6.0873  -6.0040  -6.0040
    -6.0040  -5.8238  -5.8238  -5.6064  -5.6064  -5.6064  -5.5157  -5.5157
    -5.5157  -5.4188  -5.4188  -5.2965  -5.2965  -5.2965  -5.2213  -5.2213
    -5.1852  -5.1852  -5.1852  -5.1228  -5.1228  -5.1228  -5.1009  -5.1009
    -5.1009  -5.0445  -5.0445  -5.0445  -4.9422  -4.9422  -4.9422  -4.8166
    -4.8166  -4.8166  -4.7983  -4.7983  -4.7983  -4.4749  -3.9754  -3.6811
    -3.6811  -3.6811  -2.5942  -2.5942  -2.5942  -1.7304  -1.7304  -1.7304
    -1.5846  -1.5846  -1.5846  -1.2767  -1.2767  -1.2767  -1.2476  -1.2476

          k = 0.0000 0.0722 0.0000 ( 44605 PWs)   bands (ev):

   -12.4823 -11.8045 -11.0394 -10.8564 -10.8510 -10.8510 -10.8103 -10.6912
   -10.6778 -10.6778 -10.5314 -10.5281 -10.5281 -10.4780 -10.4751 -10.4648
   -10.4648 -10.4301 -10.2805 -10.2652 -10.2652 -10.0638 -10.0638 -10.0630
    -9.9945  -9.9830  -9.9830  -9.8516  -9.8386  -9.8386  -9.3243  -9.3243
    -9.3219  -8.7129  -8.7129  -8.7032  -8.4658  -8.4658  -8.4377  -8.3635
    -8.3418  -8.3076  -8.3011  -8.3011  -8.2671  -8.2255  -8.1356  -8.1337
    -8.1337  -8.1335  -8.1331  -8.0912  -8.0775  -8.0413  -7.9415  -7.9282
    -7.7435  -7.7114  -7.7087  -7.6680  -7.6602  -7.6602  -7.6315  -7.4636
    -7.4513  -7.4420  -7.4420  -7.1980  -7.1980  -7.1346  -6.9571  -6.9126
    -6.9126  -6.5876  -6.5858  -6.5555  -6.5555  -6.5518  -6.4530  -6.4520
    -6.3194  -6.2888  -6.2888  -6.2410  -6.2173  -6.1665  -6.0300  -6.0058
    -6.0058  -5.8233  -5.6660  -5.6275  -5.6275  -5.6133  -5.5481  -5.5466
    -5.5466  -5.5233  -5.4180  -5.3203  -5.3203  -5.3074  -5.2853  -5.2853
    -5.2846  -5.2196  -5.2195  -5.1573  -5.1573  -5.1500  -5.1351  -5.1228
    -5.1228  -5.0808  -5.0808  -5.0691  -4.9745  -4.9745  -4.9665  -4.8744
    -4.8744  -4.8490  -4.8477  -4.8477  -4.8272  -4.3221  -3.8709  -3.7974
    -3.5828  -3.5828  -2.8507  -2.5777  -2.5777  -2.2214  -1.9932  -1.8139
    -1.8139  -1.6839  -1.6839  -1.2545  -1.2545  -1.1653  -0.8192  -0.8192

          k = 0.0000 0.1443 0.0000 ( 44584 PWs)   bands (ev):

   -12.3855 -11.7112 -10.9480 -10.8083 -10.7877 -10.7877 -10.7322 -10.6691
   -10.6154 -10.6154 -10.4916 -10.4770 -10.4770 -10.4344 -10.3965 -10.3940
   -10.3940 -10.3435 -10.2552 -10.1948 -10.1948 -10.0206 -10.0206 -10.0185
    -9.9584  -9.9146  -9.9146  -9.8146  -9.7624  -9.7624  -9.3003  -9.3003
    -9.2905  -8.7372  -8.7372  -8.6931  -8.4966  -8.4966  -8.4514  -8.4176
    -8.3925  -8.3249  -8.2840  -8.2594  -8.2594  -8.1607  -8.1475  -8.1202
    -8.1128  -8.1083  -8.1082  -8.0988  -8.0900  -7.9758  -7.8941  -7.8819
    -7.7735  -7.7527  -7.7250  -7.7250  -7.6531  -7.6140  -7.6060  -7.5354
    -7.5335  -7.4546  -7.4546  -7.3468  -7.3468  -7.1967  -6.9486  -6.8770
    -6.8770  -6.6651  -6.6603  -6.6524  -6.6524  -6.6434  -6.6307  -6.4388
    -6.4336  -6.4136  -6.4136  -6.2459  -6.2120  -6.1055  -6.0967  -6.0355
    -6.0355  -5.8222  -5.7758  -5.7157  -5.7157  -5.6785  -5.6603  -5.6603
    -5.6514  -5.6390  -5.5147  -5.5147  -5.4158  -5.3893  -5.3893  -5.3451
    -5.3165  -5.2415  -5.2415  -5.2333  -5.2293  -5.2142  -5.2044  -5.2044
    -5.1675  -5.1675  -5.1412  -5.1155  -5.1083  -5.1083  -5.0360  -5.0033
    -5.0033  -4.9426  -4.9042  -4.8925  -4.8925  -4.3368  -3.9851  -3.4471
    -3.3910  -3.3689  -3.3689  -3.0377  -2.5456  -2.5456  -2.3438  -1.9899
    -1.9899  -1.6566  -1.6566  -0.9871  -0.8990  -0.8990  -0.2751  -0.2751

          k = 0.0000 0.2165 0.0000 ( 44580 PWs)   bands (ev):

   -12.2278 -11.5606 -10.8023 -10.7310 -10.6883 -10.6883 -10.6370 -10.6079
   -10.5152 -10.5152 -10.4285 -10.3900 -10.3900 -10.3683 -10.2813 -10.2813
   -10.2680 -10.2163 -10.2054 -10.0825 -10.0825  -9.9520  -9.9498  -9.9498
    -9.8961  -9.8075  -9.8075  -9.7541  -9.6372  -9.6372  -9.2625  -9.2625
    -9.2402  -8.7837  -8.7837  -8.6723  -8.5887  -8.5373  -8.5373  -8.5079
    -8.4161  -8.3292  -8.2440  -8.2233  -8.1989  -8.1989  -8.1782  -8.1009
    -8.0759  -8.0745  -8.0745  -8.0547  -8.0235  -7.9033  -7.8684  -7.8255
    -7.8255  -7.8096  -7.7862  -7.7622  -7.6484  -7.6349  -7.5860  -7.5593
    -7.5386  -7.5386  -7.5047  -7.4412  -7.4412  -7.2953  -6.9554  -6.9550
    -6.9550  -6.9364  -6.8031  -6.7602  -6.7602  -6.7392  -6.7291  -6.5889
    -6.5889  -6.4482  -6.4456  -6.2601  -6.2251  -6.2034  -6.1789  -6.1128
    -6.1128  -6.0067  -6.0067  -5.9981  -5.8373  -5.8246  -5.8246  -5.8213
    -5.7053  -5.7053  -5.7008  -5.6559  -5.5276  -5.5276  -5.4712  -5.4223
    -5.4223  -5.4142  -5.4124  -5.3888  -5.3801  -5.3801  -5.3488  -5.2542
    -5.2484  -5.2484  -5.2288  -5.2288  -5.2058  -5.1529  -5.0847  -5.0657
    -5.0657  -4.9940  -4.9072  -4.9062  -4.9062  -4.7812  -4.1381  -3.8114
    -3.5780  -3.1451  -3.1451  -2.8884  -2.7368  -2.5160  -2.5160  -2.0781
    -2.0781  -1.4782  -1.4782  -1.0953  -0.4967  -0.4967   0.3141   0.3141

          k = 0.0000 0.2887 0.0000 ( 44592 PWs)   bands (ev):

   -12.0150 -11.3613 -10.6297 -10.6153 -10.6024 -10.5622 -10.5622 -10.4478
   -10.3841 -10.3841 -10.3507 -10.2797 -10.2660 -10.2660 -10.1676 -10.1362
   -10.1362 -10.1054 -10.0267  -9.9381  -9.9381  -9.8752  -9.8499  -9.8499
    -9.8036  -9.6759  -9.6759  -9.6716  -9.4687  -9.4687  -9.2121  -9.2121
    -9.1741  -8.8451  -8.8451  -8.7537  -8.6386  -8.6019  -8.5855  -8.5855
    -8.5352  -8.3456  -8.2900  -8.2699  -8.1815  -8.1627  -8.1627  -8.1006
    -8.0425  -8.0425  -8.0266  -7.9427  -7.9315  -7.9312  -7.9312  -7.9103
    -7.8450  -7.7940  -7.7461  -7.7221  -7.7029  -7.6977  -7.6976  -7.6619
    -7.5493  -7.4397  -7.4397  -7.4361  -7.4178  -7.3674  -7.2453  -7.1924
    -7.1924  -7.0332  -6.9241  -6.8664  -6.8664  -6.8202  -6.8052  -6.7568
    -6.7568  -6.5487  -6.4619  -6.3940  -6.3605  -6.3605  -6.3525  -6.2960
    -6.2321  -6.2321  -6.1946  -6.1550  -6.1550  -6.1089  -6.0969  -5.8223
    -5.8212  -5.8196  -5.8196  -5.7064  -5.7064  -5.6797  -5.6797  -5.6605
    -5.6431  -5.6057  -5.6057  -5.5526  -5.4822  -5.4727  -5.4332  -5.4088
    -5.3856  -5.3229  -5.2889  -5.2889  -5.2448  -5.2424  -5.2424  -5.1951
    -5.0789  -5.0789  -5.0553  -4.9090  -4.9090  -4.8163  -4.4965  -4.4225
    -3.1453  -3.1394  -2.9599  -2.9599  -2.4935  -2.4935  -2.3391  -2.0538
    -2.0538  -1.3924  -1.2684  -1.2684  -0.1181  -0.1181   0.4658   0.9120

          k = 0.0000 0.3608 0.0000 ( 44550 PWs)   bands (ev):

   -11.7566 -11.1277 -10.5829 -10.5112 -10.4214 -10.4214 -10.4131 -10.2824
   -10.2691 -10.2344 -10.2344 -10.1780 -10.1106 -10.1106 -10.1000  -9.9743
    -9.9743  -9.9303  -9.8241  -9.7939  -9.7827  -9.7827  -9.7182  -9.7182
    -9.6847  -9.5685  -9.5452  -9.5452  -9.2726  -9.2726  -9.1416  -9.1416
    -9.0975  -8.9370  -8.8978  -8.8978  -8.6868  -8.6786  -8.6434  -8.6434
    -8.5904  -8.5053  -8.4027  -8.2494  -8.2494  -8.2474  -8.1049  -8.0952
    -8.0877  -8.0877  -7.9678  -7.9637  -7.9408  -7.9379  -7.9379  -7.8895
    -7.8617  -7.7907  -7.7757  -7.7757  -7.7328  -7.6334  -7.5534  -7.5420
    -7.5262  -7.5133  -7.5133  -7.5068  -7.4919  -7.3874  -7.3874  -7.3094
    -7.2941  -7.1995  -7.1186  -7.1186  -6.9405  -6.9182  -6.8300  -6.8128
    -6.8128  -6.7082  -6.6992  -6.6992  -6.6449  -6.5569  -6.5569  -6.4961
    -6.4701  -6.3760  -6.3722  -6.3411  -6.3410  -6.1847  -6.0829  -6.0793
    -6.0242  -6.0242  -6.0075  -5.9722  -5.9722  -5.8729  -5.8542  -5.8542
    -5.8222  -5.8044  -5.7314  -5.7226  -5.7226  -5.6595  -5.5535  -5.5062
    -5.4399  -5.4053  -5.3485  -5.3033  -5.3033  -5.2462  -5.2274  -5.2274
    -5.1827  -5.0901  -5.0753  -5.0753  -5.0193  -4.9104  -4.9104  -4.0565
    -3.5299  -2.8264  -2.8264  -2.6842  -2.4674  -2.4674  -1.9782  -1.9782
    -1.7662  -1.7641  -1.0813  -1.0813   0.0934   0.1913   0.1913   1.4670

          k = 0.0000 0.4330 0.0000 ( 44520 PWs)   bands (ev):

   -11.4679 -10.8825 -10.6034 -10.3992 -10.2767 -10.2767 -10.2605 -10.2431
   -10.1005 -10.0910 -10.0910 -10.0850  -9.9793  -9.9572  -9.9572  -9.8008
    -9.8008  -9.7733  -9.7072  -9.6630  -9.6630  -9.6182  -9.5716  -9.5716
    -9.5514  -9.4474  -9.4182  -9.4182  -9.1337  -9.0947  -9.0947  -9.0360
    -9.0360  -9.0168  -8.9216  -8.9216  -8.8481  -8.7424  -8.7015  -8.7015
    -8.6501  -8.5264  -8.5029  -8.3972  -8.3972  -8.3350  -8.2195  -8.2195
    -8.0888  -8.0620  -7.9794  -7.9572  -7.9572  -7.9532  -7.9462  -7.9039
    -7.8002  -7.7848  -7.7848  -7.7758  -7.7486  -7.7232  -7.6764  -7.6764
    -7.5305  -7.5025  -7.4958  -7.4626  -7.4211  -7.4029  -7.4028  -7.3456
    -7.3456  -7.3334  -7.1396  -7.0819  -7.0573  -7.0573  -7.0083  -6.9558
    -6.9305  -6.9156  -6.9156  -6.8433  -6.7937  -6.7937  -6.7709  -6.6746
    -6.5614  -6.5193  -6.5091  -6.4823  -6.4823  -6.4494  -6.2579  -6.2578
    -6.2399  -6.1878  -6.1878  -6.1659  -6.1643  -6.1004  -6.0077  -6.0077
    -5.9895  -5.9743  -5.9245  -5.8609  -5.8234  -5.7634  -5.7634  -5.7546
    -5.6674  -5.4027  -5.3829  -5.3462  -5.3063  -5.3063  -5.1978  -5.1978
    -5.1695  -5.1120  -5.0742  -5.0742  -5.0018  -4.9118  -4.9118  -3.8766
    -3.6865  -2.7416  -2.7416  -2.4362  -2.4362  -2.2199  -2.1594  -1.9022
    -1.9022  -1.1750  -0.9412  -0.9412  -0.3491   0.4074   0.4074   1.1907

          k = 0.0000 0.5052 0.0000 ( 44502 PWs)   bands (ev):

   -11.1718 -10.7041 -10.6567 -10.3775 -10.2282 -10.1567 -10.1394 -10.1394
   -10.0063 -10.0051 -10.0051  -9.9880  -9.8621  -9.8621  -9.8216  -9.6739
    -9.6583  -9.6583  -9.6156  -9.5452  -9.5452  -9.4829  -9.4829  -9.4377
    -9.4227  -9.3336  -9.3152  -9.2599  -9.2599  -9.0607  -9.0607  -9.0200
    -8.9388  -8.9360  -8.9360  -8.9005  -8.9005  -8.7738  -8.7520  -8.7164
    -8.7164  -8.5370  -8.5325  -8.5021  -8.5021  -8.4462  -8.3230  -8.3230
    -8.1390  -8.0990  -8.0990  -8.0957  -8.0476  -7.9637  -7.8761  -7.8640
    -7.8580  -7.8580  -7.8423  -7.8228  -7.7765  -7.6290  -7.5965  -7.5965
    -7.5692  -7.5692  -7.5647  -7.4222  -7.3893  -7.3868  -7.3639  -7.3639
    -7.3425  -7.3425  -7.3065  -7.2227  -7.1965  -7.1184  -7.1184  -7.1150
    -7.0335  -6.9839  -6.9593  -6.8914  -6.8859  -6.8285  -6.8285  -6.8004
    -6.7103  -6.6144  -6.6134  -6.6134  -6.5548  -6.4939  -6.4829  -6.3874
    -6.3874  -6.3779  -6.3425  -6.3425  -6.3399  -6.3307  -6.1569  -6.1243
    -6.1242  -6.1242  -6.0585  -5.9211  -5.8694  -5.8217  -5.7799  -5.7799
    -5.7682  -5.5598  -5.4007  -5.3944  -5.3058  -5.3058  -5.1651  -5.1651
    -5.1561  -5.1283  -5.0826  -5.0826  -4.9124  -4.9124  -4.7451  -4.1888
    -3.3131  -2.6959  -2.6959  -2.5508  -2.4109  -2.4109  -1.8502  -1.8502
    -1.7513  -0.8564  -0.8564  -0.8122  -0.5796   0.5297   0.5297   0.6079

          k = 0.0000-0.5774 0.0000 ( 44486 PWs)   bands (ev):

   -10.9029 -10.9029 -10.4815 -10.4815 -10.1638 -10.1638 -10.0326 -10.0326
   -10.0310 -10.0310  -9.9627  -9.9627  -9.8342  -9.8342  -9.6870  -9.6870
    -9.6239  -9.6239  -9.5061  -9.5061  -9.4670  -9.4670  -9.3732  -9.3732
    -9.3551  -9.3551  -9.2870  -9.2870  -9.1768  -9.1768  -8.9977  -8.9976
    -8.9802  -8.9802  -8.8645  -8.8645  -8.8552  -8.8552  -8.7192  -8.7192
    -8.6934  -8.6934  -8.5200  -8.5200  -8.4565  -8.4565  -8.3811  -8.3811
    -8.2238  -8.2238  -8.1245  -8.1245  -8.0073  -8.0073  -7.9152  -7.9152
    -7.8637  -7.8637  -7.7945  -7.7945  -7.6417  -7.6417  -7.5986  -7.5985
    -7.5376  -7.5376  -7.4820  -7.4820  -7.4545  -7.4545  -7.4292  -7.4292
    -7.3931  -7.3931  -7.2844  -7.2844  -7.1750  -7.1750  -7.1120  -7.1120
    -7.0634  -7.0634  -6.9495  -6.9495  -6.9093  -6.9093  -6.7590  -6.7590
    -6.7422  -6.7421  -6.6136  -6.6136  -6.5771  -6.5771  -6.4855  -6.4855
    -6.4233  -6.4233  -6.4166  -6.4166  -6.3974  -6.3974  -6.2430  -6.2430
    -6.1676  -6.1676  -6.0448  -6.0448  -5.8092  -5.8092  -5.7846  -5.7846
    -5.7270  -5.7270  -5.3987  -5.3987  -5.3054  -5.3054  -5.1474  -5.1474
    -5.1425  -5.1425  -5.0913  -5.0913  -4.9124  -4.9124  -4.4756  -4.4756
    -2.9351  -2.9351  -2.6816  -2.6816  -2.4012  -2.4012  -1.8320  -1.8320
    -1.2812  -1.2812  -0.8281  -0.8281   0.0161   0.0161   0.5686   0.5686

          k = 0.0625 0.1083 0.0000 ( 44583 PWs)   bands (ev):

   -12.4176 -11.7421 -10.9781 -10.8185 -10.8185 -10.8042 -10.7579 -10.6626
   -10.6626 -10.6231 -10.5013 -10.5013 -10.4902 -10.4375 -10.4375 -10.4233
   -10.4078 -10.3721 -10.2481 -10.2481 -10.2033 -10.0357 -10.0335 -10.0335
    -9.9594  -9.9594  -9.9260  -9.8137  -9.8137  -9.7751  -9.3098  -9.3038
    -9.3038  -8.7365  -8.7086  -8.7086  -8.5154  -8.4331  -8.4331  -8.4162
    -8.4017  -8.3061  -8.2858  -8.2858  -8.2661  -8.1825  -8.1363  -8.1178
    -8.1178  -8.1171  -8.1113  -8.1027  -8.0978  -7.9977  -7.9017  -7.8988
    -7.7657  -7.7418  -7.7191  -7.6724  -7.6584  -7.6584  -7.6259  -7.5079
    -7.4815  -7.4815  -7.4393  -7.3401  -7.2264  -7.2264  -6.9203  -6.9203
    -6.8654  -6.6427  -6.6327  -6.6222  -6.6165  -6.6165  -6.5593  -6.4487
    -6.4267  -6.4050  -6.2981  -6.2981  -6.1877  -6.1248  -6.0523  -6.0523
    -6.0138  -5.8693  -5.6930  -5.6816  -5.6439  -5.6439  -5.6259  -5.6258
    -5.6135  -5.6084  -5.4957  -5.4549  -5.3685  -5.3613  -5.3613  -5.3277
    -5.3277  -5.2280  -5.2196  -5.2196  -5.2154  -5.1817  -5.1783  -5.1783
    -5.1722  -5.1409  -5.1350  -5.1350  -5.0443  -5.0350  -5.0350  -4.9855
    -4.9524  -4.9524  -4.8939  -4.8826  -4.8826  -4.0848  -3.9194  -3.9194
    -3.5128  -3.1853  -3.0412  -3.0412  -2.5613  -2.5613  -2.2800  -2.0760
    -2.0760  -1.5118  -1.2363  -1.0847  -1.0140  -0.9756  -0.9756  -0.0198

          k = 0.0625 0.1804 0.0000 ( 44578 PWs)   bands (ev):

   -12.2903 -11.6199 -10.8592 -10.7551 -10.7389 -10.7214 -10.6564 -10.6347
   -10.5934 -10.5300 -10.4493 -10.4380 -10.4150 -10.3842 -10.3535 -10.3180
   -10.3089 -10.2596 -10.2157 -10.1700 -10.0987  -9.9783  -9.9770  -9.9765
    -9.9120  -9.8809  -9.8285  -9.7645  -9.7249  -9.6624  -9.2781  -9.2725
    -9.2638  -8.7790  -8.7351  -8.6962  -8.5778  -8.5255  -8.4871  -8.4460
    -8.3812  -8.3755  -8.2554  -8.2395  -8.2064  -8.1934  -8.1441  -8.1120
    -8.0951  -8.0917  -8.0872  -8.0831  -8.0458  -7.9176  -7.8870  -7.8253
    -7.7999  -7.7938  -7.7747  -7.7485  -7.6752  -7.6201  -7.5743  -7.5415
    -7.5382  -7.5023  -7.4983  -7.4542  -7.3649  -7.2875  -6.9319  -6.9156
    -6.9011  -6.8503  -6.7402  -6.7380  -6.7195  -6.7125  -6.6966  -6.5663
    -6.4570  -6.4422  -6.4177  -6.3253  -6.2009  -6.1343  -6.1047  -6.0938
    -6.0739  -5.9788  -5.8930  -5.8631  -5.8430  -5.7981  -5.7793  -5.7004
    -5.6769  -5.6691  -5.6106  -5.5949  -5.4691  -5.4663  -5.4468  -5.4409
    -5.4352  -5.3381  -5.3288  -5.3162  -5.2928  -5.2821  -5.2727  -5.2457
    -5.2403  -5.2331  -5.2274  -5.2187  -5.1934  -5.1531  -5.0755  -5.0586
    -5.0580  -4.9575  -4.9217  -4.9214  -4.8910  -4.4170  -3.8020  -3.7266
    -3.6955  -3.3407  -3.1340  -3.0734  -2.7930  -2.7393  -2.4529  -2.0299
    -2.0192  -1.4160  -1.1221  -0.9527  -0.7495  -0.7334  -0.4458   0.4405

          k = 0.0625 0.2526 0.0000 ( 44582 PWs)   bands (ev):

   -12.1047 -11.4444 -10.6914 -10.6642 -10.6234 -10.6109 -10.5999 -10.5132
   -10.4877 -10.4042 -10.3763 -10.3410 -10.3074 -10.3000 -10.2275 -10.1777
   -10.1719 -10.1714 -10.1006 -10.0517  -9.9599  -9.9019  -9.8958  -9.8888
    -9.8382  -9.7668  -9.7020  -9.6925  -9.5875  -9.5052  -9.2319  -9.2293
    -9.2068  -8.8431  -8.7826  -8.6741  -8.6718  -8.6442  -8.5799  -8.4867
    -8.4699  -8.3079  -8.2916  -8.2408  -8.2075  -8.1844  -8.1451  -8.1098
    -8.0769  -8.0452  -8.0428  -7.9713  -7.9686  -7.9270  -7.8999  -7.8701
    -7.8304  -7.7830  -7.7596  -7.7568  -7.7181  -7.6930  -7.6512  -7.6163
    -7.5653  -7.4765  -7.4703  -7.4206  -7.4121  -7.3705  -7.1356  -7.0824
    -7.0810  -6.9915  -6.8836  -6.8239  -6.7967  -6.7862  -6.7657  -6.7501
    -6.6348  -6.5103  -6.4406  -6.3993  -6.2998  -6.2298  -6.2151  -6.2108
    -6.1745  -6.1741  -6.1696  -6.0929  -6.0455  -6.0401  -5.9694  -5.8360
    -5.7856  -5.7575  -5.7552  -5.6701  -5.6321  -5.6171  -5.5937  -5.5695
    -5.5568  -5.5415  -5.5088  -5.5068  -5.4472  -5.4011  -5.3982  -5.3867
    -5.3022  -5.2861  -5.2760  -5.2669  -5.2648  -5.2393  -5.2283  -5.0938
    -5.0924  -5.0344  -4.9323  -4.9318  -4.9001  -4.5564  -4.3642  -4.0516
    -3.6495  -3.3143  -3.1624  -2.8716  -2.7695  -2.5595  -2.4691  -1.8996
    -1.8743  -1.4011  -1.1816  -0.8884  -0.5314  -0.2164   0.2247   0.6207

          k = 0.0625 0.3248 0.0000 ( 44578 PWs)   bands (ev):

   -11.8683 -11.2266 -10.5708 -10.5508 -10.4926 -10.4829 -10.4825 -10.3537
   -10.3412 -10.2957 -10.2552 -10.2127 -10.2105 -10.1478 -10.1183 -10.0695
   -10.0297 -10.0002  -9.9091  -9.9049  -9.8213  -9.8043  -9.7903  -9.7620
    -9.7352  -9.6352  -9.5989  -9.5680  -9.4093  -9.3146  -9.1825  -9.1596
    -9.1370  -8.9127  -8.8452  -8.8369  -8.7139  -8.6698  -8.6334  -8.6174
    -8.5056  -8.4372  -8.3572  -8.2583  -8.1935  -8.1922  -8.1361  -8.1183
    -8.0603  -8.0491  -8.0092  -7.9637  -7.9627  -7.9268  -7.8899  -7.8838
    -7.8760  -7.8106  -7.7804  -7.7684  -7.7492  -7.6960  -7.6170  -7.5996
    -7.5739  -7.4597  -7.4336  -7.4271  -7.3992  -7.3466  -7.3364  -7.3310
    -7.2580  -7.2284  -7.0126  -6.9868  -6.9138  -6.8751  -6.8162  -6.8113
    -6.7728  -6.6455  -6.5744  -6.5591  -6.5477  -6.5132  -6.3962  -6.3948
    -6.3932  -6.3398  -6.2900  -6.2893  -6.2744  -6.1741  -6.1217  -6.0261
    -5.9347  -5.9327  -5.9165  -5.8997  -5.8039  -5.8038  -5.7769  -5.7735
    -5.7368  -5.7327  -5.7163  -5.6008  -5.5926  -5.5752  -5.4725  -5.4694
    -5.3948  -5.3161  -5.2924  -5.2841  -5.2715  -5.2606  -5.2448  -5.2114
    -5.0989  -5.0954  -5.0875  -4.9601  -4.9372  -4.9341  -4.6523  -4.2031
    -3.5133  -3.2844  -3.1548  -2.8745  -2.7214  -2.2441  -2.0057  -1.7961
    -1.7705  -1.5355  -1.3190  -0.6017  -0.3491   0.2978   0.3258   0.9160

          k = 0.0625 0.3969 0.0000 ( 44528 PWs)   bands (ev):

   -11.5930 -10.9846 -10.5647 -10.4312 -10.3441 -10.3329 -10.2983 -10.2443
   -10.2066 -10.1622 -10.1158 -10.1016 -10.0549 -10.0303  -9.9835  -9.8963
    -9.8697  -9.8309  -9.7562  -9.7369  -9.7040  -9.6715  -9.6605  -9.6099
    -9.6039  -9.5135  -9.4858  -9.4444  -9.2142  -9.1186  -9.1092  -9.0621
    -9.0603  -9.0323  -8.9548  -8.8763  -8.7845  -8.7725  -8.7415  -8.5918
    -8.5792  -8.5552  -8.4696  -8.3307  -8.3238  -8.2836  -8.1715  -8.1576
    -8.1049  -8.0916  -8.0168  -8.0037  -7.9431  -7.9429  -7.9048  -7.8958
    -7.8225  -7.7909  -7.7747  -7.7464  -7.7145  -7.7036  -7.6723  -7.6209
    -7.6091  -7.5746  -7.4949  -7.4459  -7.4140  -7.4123  -7.3994  -7.3292
    -7.2814  -7.2593  -7.1878  -7.0788  -6.9971  -6.9509  -6.9501  -6.8825
    -6.8389  -6.8229  -6.8051  -6.7905  -6.7851  -6.7528  -6.7454  -6.5883
    -6.5787  -6.4435  -6.4192  -6.4135  -6.4118  -6.4077  -6.2324  -6.1571
    -6.1496  -6.1387  -6.1340  -6.0764  -6.0397  -6.0136  -5.9403  -5.9174
    -5.9000  -5.8924  -5.8126  -5.7857  -5.7790  -5.6741  -5.6737  -5.5835
    -5.4434  -5.4100  -5.3767  -5.3241  -5.3018  -5.2519  -5.2309  -5.2140
    -5.1301  -5.1002  -5.0910  -5.0870  -5.0659  -4.9404  -4.9352  -3.8408
    -3.6617  -3.4093  -3.1298  -2.6543  -2.4195  -2.1131  -1.9294  -1.7453
    -1.6604  -1.4293  -1.2087  -0.3522  -0.2143  -0.0953   0.7473   1.4305

          k = 0.0625 0.4691 0.0000 ( 44509 PWs)   bands (ev):

   -11.2973 -10.7454 -10.6194 -10.3462 -10.2330 -10.2026 -10.1894 -10.1636
   -10.0772 -10.0275 -10.0141  -9.9847  -9.9143  -9.8898  -9.8663  -9.7263
    -9.6977  -9.6847  -9.6475  -9.6406  -9.5922  -9.5528  -9.5062  -9.4749
    -9.4699  -9.3699  -9.3596  -9.2993  -9.2295  -9.0851  -9.0226  -8.9986
    -8.9908  -8.9838  -8.9410  -8.9151  -8.8904  -8.8077  -8.7810  -8.7200
    -8.6018  -8.5528  -8.5094  -8.4704  -8.4508  -8.4505  -8.3079  -8.2605
    -8.1231  -8.0916  -8.0469  -8.0257  -7.9868  -7.9741  -7.9599  -7.9282
    -7.8510  -7.8463  -7.8293  -7.8113  -7.7721  -7.7261  -7.6539  -7.6337
    -7.5876  -7.5407  -7.5022  -7.4904  -7.4074  -7.4021  -7.3730  -7.3423
    -7.3213  -7.2725  -7.1920  -7.1719  -7.1560  -7.1137  -7.0891  -7.0438
    -7.0160  -6.9832  -6.9097  -6.8977  -6.8621  -6.8156  -6.7887  -6.7749
    -6.6727  -6.6069  -6.5906  -6.5681  -6.5567  -6.4249  -6.4011  -6.3679
    -6.3324  -6.3052  -6.2971  -6.2452  -6.2122  -6.1493  -6.1303  -6.0455
    -6.0414  -5.9871  -5.9813  -5.9060  -5.8334  -5.7658  -5.7652  -5.7116
    -5.6783  -5.4633  -5.4272  -5.3466  -5.3251  -5.3038  -5.2204  -5.1963
    -5.1936  -5.1421  -5.1084  -5.0950  -4.9419  -4.9357  -4.8321  -3.9979
    -3.4726  -3.3413  -3.1032  -2.5989  -2.3270  -2.0476  -1.9563  -1.7050
    -1.5825  -1.1197  -0.8410  -0.5527  -0.1791  -0.1276   0.9303   1.0683

          k = 0.0625-0.6134 0.0000 ( 44516 PWs)   bands (ev):

   -11.0095 -10.7697 -10.5417 -10.3992 -10.1688 -10.1252 -10.0718 -10.0699
   -10.0205  -9.9760  -9.9601  -9.9449  -9.8447  -9.8108  -9.7339  -9.6512
    -9.6486  -9.5944  -9.5523  -9.5233  -9.4632  -9.4281  -9.4188  -9.4117
    -9.3575  -9.3564  -9.2532  -9.2349  -9.2269  -9.1018  -9.0757  -9.0522
    -8.9903  -8.9194  -8.9129  -8.9007  -8.8332  -8.8274  -8.7817  -8.7599
    -8.6484  -8.6331  -8.5331  -8.5286  -8.4755  -8.4482  -8.3958  -8.3416
    -8.2424  -8.2289  -8.1338  -8.1147  -8.0453  -7.9804  -7.9462  -7.8922
    -7.8788  -7.8696  -7.8140  -7.7865  -7.7648  -7.6206  -7.6148  -7.6034
    -7.5863  -7.5761  -7.5329  -7.5182  -7.4782  -7.4381  -7.4278  -7.4034
    -7.3734  -7.3689  -7.3419  -7.2071  -7.2068  -7.1607  -7.1487  -7.1296
    -7.0647  -6.9880  -6.9854  -6.9312  -6.8679  -6.8669  -6.8053  -6.8036
    -6.6754  -6.6685  -6.6360  -6.5951  -6.5594  -6.5201  -6.5059  -6.4831
    -6.4627  -6.4307  -6.3733  -6.3647  -6.3570  -6.2710  -6.2221  -6.1439
    -6.1107  -6.1041  -6.0632  -5.9367  -5.8913  -5.8421  -5.8067  -5.7266
    -5.7199  -5.6156  -5.4142  -5.3978  -5.3248  -5.3037  -5.1920  -5.1795
    -5.1620  -5.1600  -5.1223  -5.1093  -4.9422  -4.9354  -4.5759  -4.2997
    -3.3080  -3.0985  -3.0869  -2.7172  -2.5687  -2.0210  -1.6820  -1.5427
    -1.4889  -1.0724  -1.0200  -0.2483  -0.0930  -0.0857   0.3437   1.2262

          k = 0.1250 0.2165 0.0000 ( 44571 PWs)   bands (ev):

   -12.1348 -11.4725 -10.7172 -10.6601 -10.6601 -10.6273 -10.5609 -10.5609
   -10.5352 -10.4111 -10.3751 -10.3751 -10.3114 -10.2885 -10.2885 -10.1938
   -10.1918 -10.1321 -10.1321 -10.1258  -9.9673  -9.9096  -9.9096  -9.9024
    -9.8253  -9.8253  -9.7110  -9.6635  -9.6635  -9.5175  -9.2349  -9.2280
    -9.2280  -8.8398  -8.7231  -8.7231  -8.6671  -8.6294  -8.5903  -8.4714
    -8.3761  -8.3761  -8.2764  -8.2176  -8.2063  -8.2063  -8.1337  -8.1208
    -8.0980  -8.0477  -8.0477  -7.9868  -7.9772  -7.9298  -7.8846  -7.8164
    -7.8024  -7.8024  -7.8024  -7.7828  -7.7278  -7.6931  -7.6389  -7.5692
    -7.5692  -7.4830  -7.4797  -7.4355  -7.3803  -7.3803  -7.0976  -7.0454
    -7.0192  -7.0192  -6.8379  -6.8379  -6.7777  -6.7699  -6.7513  -6.7414
    -6.5101  -6.5015  -6.5015  -6.4140  -6.2898  -6.1890  -6.1787  -6.1787
    -6.1639  -6.1509  -6.0919  -6.0919  -6.0144  -6.0089  -5.9101  -5.8095
    -5.8095  -5.7725  -5.7331  -5.7331  -5.5970  -5.5970  -5.5838  -5.4897
    -5.4897  -5.4784  -5.4502  -5.4502  -5.4444  -5.4065  -5.3904  -5.3615
    -5.3615  -5.3125  -5.2767  -5.2687  -5.2687  -5.2590  -5.1532  -5.1531
    -5.0938  -4.9891  -4.9891  -4.9621  -4.5970  -4.3028  -4.3028  -3.7917
    -3.7917  -3.4462  -3.4462  -3.3758  -2.6374  -2.4482  -2.4482  -2.2478
    -1.5675  -0.9812  -0.8936  -0.8936  -0.6174  -0.3981  -0.3641   0.7684

          k = 0.1250 0.2887 0.0000 ( 44582 PWs)   bands (ev):

   -11.9248 -11.2771 -10.5558 -10.5332 -10.5294 -10.5253 -10.5136 -10.4525
   -10.3773 -10.2935 -10.2704 -10.2662 -10.2044 -10.1662 -10.1513 -10.0862
   -10.0586 -10.0359 -10.0115  -9.9530  -9.8280  -9.8222  -9.8156  -9.7857
    -9.7463  -9.7080  -9.5800  -9.5794  -9.5143  -9.3364  -9.1881  -9.1698
    -9.1662  -8.9200  -8.7705  -8.7689  -8.7537  -8.6976  -8.6902  -8.5883
    -8.4008  -8.3893  -8.3267  -8.3047  -8.1701  -8.1585  -8.1572  -8.1454
    -8.0694  -8.0400  -8.0315  -7.9825  -7.9652  -7.9005  -7.8997  -7.8787
    -7.8747  -7.8158  -7.7853  -7.7633  -7.7271  -7.7191  -7.6609  -7.6489
    -7.5919  -7.4874  -7.3826  -7.3753  -7.3656  -7.3439  -7.2760  -7.2720
    -7.2623  -7.2356  -6.9630  -6.9116  -6.9010  -6.8353  -6.8140  -6.7902
    -6.7081  -6.6217  -6.6214  -6.5074  -6.4556  -6.4443  -6.3641  -6.3522
    -6.3194  -6.2782  -6.2584  -6.2562  -6.2349  -6.2087  -6.1102  -6.0356
    -5.9013  -5.8683  -5.8478  -5.8455  -5.8449  -5.8056  -5.7737  -5.7418
    -5.6981  -5.6493  -5.5974  -5.5573  -5.5031  -5.4930  -5.4845  -5.3572
    -5.3563  -5.3371  -5.3210  -5.2946  -5.2883  -5.2753  -5.2659  -5.1684
    -5.1189  -5.0680  -5.0015  -4.9927  -4.7650  -4.4068  -4.2725  -4.1651
    -4.0840  -3.8030  -3.4282  -2.9745  -2.9020  -2.3882  -2.1334  -1.7984
    -1.2465  -1.2249  -0.8279  -0.7692  -0.3377   0.0744   0.2876   0.6000

          k = 0.1250 0.3608 0.0000 ( 44558 PWs)   bands (ev):

   -11.6693 -11.0474 -10.5028 -10.4332 -10.3860 -10.3765 -10.3305 -10.3186
   -10.2113 -10.1980 -10.1362 -10.1153 -10.1082 -10.0260  -9.9936  -9.9827
    -9.9194  -9.8688  -9.8657  -9.7583  -9.7428  -9.7164  -9.6758  -9.6414
    -9.6292  -9.5825  -9.4743  -9.4558  -9.3286  -9.1414  -9.1379  -9.1031
    -9.0701  -8.9925  -8.9370  -8.8345  -8.8158  -8.7759  -8.7255  -8.6564
    -8.5523  -8.4389  -8.4170  -8.2790  -8.2777  -8.2612  -8.1780  -8.1335
    -8.1236  -8.1176  -8.0836  -8.0447  -7.9474  -7.9390  -7.8785  -7.8750
    -7.8388  -7.8097  -7.8074  -7.7589  -7.7468  -7.7210  -7.6436  -7.6349
    -7.6106  -7.5313  -7.5061  -7.4658  -7.4530  -7.4032  -7.3513  -7.3054
    -7.1952  -7.1827  -7.1648  -7.1047  -6.9917  -6.9088  -6.8711  -6.8482
    -6.8157  -6.8058  -6.7582  -6.7527  -6.7159  -6.6574  -6.6377  -6.6129
    -6.5900  -6.4699  -6.3805  -6.3721  -6.3700  -6.3451  -6.1976  -6.1878
    -6.1140  -6.1017  -6.0710  -6.0659  -6.0200  -5.9278  -5.8742  -5.8445
    -5.7936  -5.7669  -5.7619  -5.7317  -5.6344  -5.5713  -5.5151  -5.4856
    -5.3921  -5.3576  -5.3340  -5.3288  -5.3119  -5.2747  -5.1642  -5.1494
    -5.1383  -5.1334  -5.0725  -5.0092  -5.0061  -4.9298  -4.6300  -4.0451
    -3.9300  -3.7802  -3.3688  -3.3324  -2.5444  -2.3147  -1.6261  -1.5894
    -1.5106  -1.0837  -0.7682  -0.5946   0.0258   0.2104   0.6370   1.0041

          k = 0.1250 0.4330 0.0000 ( 44545 PWs)   bands (ev):

   -11.3825 -10.8053 -10.5187 -10.3159 -10.2487 -10.2235 -10.1783 -10.1771
   -10.1540 -10.0300 -10.0249  -9.9825  -9.9652  -9.9183  -9.8567  -9.8060
    -9.7377  -9.7315  -9.7136  -9.6552  -9.6038  -9.5984  -9.5615  -9.5157
    -9.4685  -9.4674  -9.3530  -9.3295  -9.1468  -9.1199  -9.0663  -9.0569
    -9.0350  -8.9924  -8.9320  -8.8799  -8.8729  -8.8487  -8.8354  -8.6827
    -8.5963  -8.5541  -8.4743  -8.4193  -8.4145  -8.4031  -8.2704  -8.2306
    -8.1748  -8.1419  -8.1036  -8.0152  -7.9960  -7.9767  -7.9614  -7.9464
    -7.8455  -7.8367  -7.8346  -7.7992  -7.7654  -7.7532  -7.7146  -7.7071
    -7.6529  -7.6128  -7.4774  -7.4582  -7.4308  -7.3920  -7.3553  -7.3013
    -7.2933  -7.2168  -7.1910  -7.1693  -7.0431  -7.0285  -7.0257  -7.0062
    -7.0009  -6.9556  -6.9394  -6.8780  -6.8673  -6.8420  -6.7583  -6.7421
    -6.6874  -6.6167  -6.5335  -6.5042  -6.5008  -6.4839  -6.3709  -6.3033
    -6.2542  -6.2528  -6.2395  -6.1230  -6.1212  -6.0821  -6.0645  -5.9476
    -5.9408  -5.8797  -5.8789  -5.8238  -5.7015  -5.6539  -5.6313  -5.5310
    -5.5050  -5.4046  -5.3535  -5.3480  -5.3227  -5.3151  -5.2868  -5.2684
    -5.1791  -5.1632  -5.1594  -5.0554  -5.0162  -5.0074  -4.8547  -3.9549
    -3.7513  -3.7167  -3.5749  -3.3100  -2.2511  -2.0973  -2.0391  -1.3780
    -1.0222  -0.9938  -0.7220  -0.4253  -0.2416   0.3704   1.0138   1.2022

          k = 0.1250-0.6495 0.0000 ( 44477 PWs)   bands (ev):

   -11.0867 -10.6161 -10.5811 -10.2985 -10.1385 -10.1083 -10.0960 -10.0625
   -10.0605  -9.9441  -9.9100  -9.9087  -9.8566  -9.7778  -9.7728  -9.6850
    -9.6164  -9.5816  -9.5761  -9.5633  -9.5611  -9.4917  -9.3935  -9.3798
    -9.3791  -9.3069  -9.2978  -9.2343  -9.1943  -9.1123  -9.0744  -9.0535
    -9.0375  -8.9729  -8.9625  -8.8636  -8.8525  -8.8140  -8.8079  -8.7878
    -8.6290  -8.6197  -8.5726  -8.5176  -8.5072  -8.4471  -8.3606  -8.2852
    -8.2650  -8.2599  -8.1557  -8.1028  -8.0784  -8.0113  -7.9570  -7.9434
    -7.9321  -7.9042  -7.8674  -7.8320  -7.7737  -7.7416  -7.6661  -7.6567
    -7.6423  -7.5731  -7.5700  -7.5363  -7.5305  -7.4869  -7.4389  -7.4026
    -7.3230  -7.3174  -7.2723  -7.2158  -7.2047  -7.1523  -7.1446  -7.0896
    -7.0885  -7.0219  -6.9285  -6.8805  -6.8793  -6.8220  -6.8219  -6.7444
    -6.7423  -6.6290  -6.6141  -6.5990  -6.5505  -6.5199  -6.4648  -6.4239
    -6.4078  -6.3182  -6.3021  -6.2992  -6.2289  -6.1440  -6.0671  -6.0476
    -6.0157  -6.0088  -5.9713  -5.9002  -5.8871  -5.7164  -5.6718  -5.6637
    -5.6580  -5.5163  -5.4727  -5.3537  -5.3251  -5.3185  -5.2795  -5.2555
    -5.2448  -5.2092  -5.1859  -5.1755  -5.0181  -5.0070  -4.6144  -4.0530
    -3.8994  -3.7301  -3.2699  -3.2093  -2.4429  -2.2093  -1.6398  -1.3294
    -0.9417  -0.7082  -0.6931  -0.4425  -0.3149   0.5997   0.7266   1.0285

          k = 0.1250-0.5774 0.0000 ( 44554 PWs)   bands (ev):

   -10.8160 -10.8160 -10.4061 -10.4061 -10.0674 -10.0674 -10.0324 -10.0253
    -9.9847  -9.9762  -9.8911  -9.8911  -9.8155  -9.7468  -9.6409  -9.6375
    -9.6375  -9.5894  -9.5237  -9.4616  -9.4616  -9.4094  -9.4021  -9.2954
    -9.2888  -9.2788  -9.2788  -9.2682  -9.1622  -9.1622  -9.0848  -9.0474
    -9.0468  -8.9766  -8.9083  -8.9022  -8.9022  -8.7886  -8.7886  -8.7884
    -8.7713  -8.6272  -8.5446  -8.5446  -8.4557  -8.4275  -8.4070  -8.3675
    -8.3675  -8.3543  -8.1275  -8.1020  -8.0632  -8.0390  -8.0390  -7.9136
    -7.9122  -7.9122  -7.8175  -7.8175  -7.7668  -7.7668  -7.6898  -7.6489
    -7.6372  -7.5979  -7.5853  -7.5853  -7.5661  -7.5137  -7.5137  -7.4730
    -7.4244  -7.3913  -7.3913  -7.3866  -7.1588  -7.1309  -7.1309  -7.0123
    -7.0123  -6.9869  -6.9824  -6.9283  -6.9283  -6.8745  -6.7909  -6.7909
    -6.6448  -6.6426  -6.6106  -6.6106  -6.5547  -6.5393  -6.5393  -6.4619
    -6.3869  -6.3446  -6.3360  -6.3360  -6.2248  -6.2248  -6.1238  -6.1096
    -6.1096  -6.0021  -5.9090  -5.9090  -5.9063  -5.8753  -5.8753  -5.6737
    -5.6057  -5.6057  -5.4205  -5.4205  -5.3538  -5.3256  -5.2561  -5.2364
    -5.2364  -5.2147  -5.2051  -5.1949  -5.0183  -5.0064  -4.3491  -4.3491
    -3.8806  -3.7226  -3.2558  -2.8326  -2.8326  -2.1948  -1.3173  -1.1758
    -1.1758  -0.9245  -0.6833  -0.2780   0.1422   0.1422   0.6768   1.0326

          k = 0.1875 0.3248 0.0000 ( 44577 PWs)   bands (ev):

   -11.6949 -11.0686 -10.4209 -10.4209 -10.4098 -10.4098 -10.4002 -10.3410
   -10.2097 -10.1840 -10.1840 -10.1104 -10.0629 -10.0629  -9.9939  -9.9676
    -9.9676  -9.9394  -9.8771  -9.7770  -9.7380  -9.7380  -9.6772  -9.6384
    -9.6304  -9.6304  -9.4586  -9.4191  -9.4191  -9.1450  -9.1345  -9.1345
    -9.0666  -9.0144  -8.8754  -8.8501  -8.8170  -8.7400  -8.7400  -8.7110
    -8.5390  -8.4186  -8.3162  -8.3162  -8.2581  -8.2151  -8.2003  -8.2003
    -8.1303  -8.0940  -8.0940  -8.0670  -7.9502  -7.9408  -7.8690  -7.8690
    -7.8365  -7.8044  -7.8044  -7.7924  -7.7818  -7.7452  -7.6445  -7.6088
    -7.5647  -7.5647  -7.4971  -7.4737  -7.4691  -7.4002  -7.3101  -7.3101
    -7.1950  -7.1578  -7.1097  -7.0635  -7.0635  -6.8533  -6.8435  -6.8363
    -6.8313  -6.8313  -6.7406  -6.7167  -6.6474  -6.6474  -6.6104  -6.6022
    -6.5545  -6.5545  -6.3660  -6.3559  -6.3558  -6.3142  -6.2547  -6.1245
    -6.1245  -6.0760  -6.0760  -6.0447  -6.0058  -5.8956  -5.8507  -5.8507
    -5.7994  -5.7309  -5.7308  -5.5918  -5.5469  -5.5211  -5.4755  -5.4755
    -5.4092  -5.3666  -5.3434  -5.3434  -5.3095  -5.2977  -5.2977  -5.1415
    -5.0918  -5.0918  -5.0720  -5.0625  -4.6358  -4.6358  -4.3824  -4.3824
    -4.0347  -4.0347  -3.9583  -2.8799  -2.8799  -2.5870  -1.6443  -1.2404
    -1.2404  -1.1870  -0.7152  -0.3036   0.0601   0.4297   0.5691   0.5691

          k = 0.1875 0.3969 0.0000 ( 44536 PWs)   bands (ev):

   -11.4255 -10.8354 -10.4071 -10.2910 -10.2823 -10.2727 -10.2502 -10.1425
   -10.1046 -10.0498 -10.0270  -9.9976  -9.9533  -9.9004  -9.8937  -9.8347
    -9.8285  -9.7865  -9.7220  -9.6518  -9.6382  -9.5953  -9.5946  -9.5301
    -9.5147  -9.4675  -9.3418  -9.3044  -9.2287  -9.1033  -9.0940  -9.0777
    -9.0170  -8.9684  -8.9468  -8.9129  -8.9105  -8.8421  -8.7816  -8.6939
    -8.6746  -8.5134  -8.4021  -8.3999  -8.3700  -8.3432  -8.2803  -8.2309
    -8.2247  -8.1917  -8.1584  -8.0987  -8.0351  -7.9303  -7.9279  -7.9235
    -7.8363  -7.8331  -7.8296  -7.8141  -7.7631  -7.7577  -7.7393  -7.7250
    -7.7245  -7.6801  -7.4586  -7.4533  -7.4038  -7.3919  -7.3509  -7.2733
    -7.2434  -7.2201  -7.2060  -7.1108  -7.0448  -7.0226  -6.9828  -6.9695
    -6.9554  -6.9196  -6.9170  -6.8980  -6.8801  -6.8587  -6.7413  -6.7354
    -6.6957  -6.6057  -6.5151  -6.5134  -6.4740  -6.4358  -6.3845  -6.2544
    -6.2288  -6.2138  -6.2075  -6.2046  -6.0696  -6.0239  -5.9480  -5.9187
    -5.8523  -5.8505  -5.7003  -5.6997  -5.6194  -5.5790  -5.5486  -5.4702
    -5.4390  -5.4172  -5.4127  -5.3847  -5.3590  -5.3261  -5.2922  -5.1792
    -5.1770  -5.1072  -5.1045  -5.0465  -4.8834  -4.8573  -4.5700  -4.5298
    -4.3473  -3.9730  -3.6236  -3.3331  -2.8412  -2.1691  -1.6793  -1.2409
    -1.1151  -0.7724  -0.3902   0.0333   0.1223   0.4724   0.5404   0.9263

          k = 0.1875-0.6856 0.0000 ( 44502 PWs)   bands (ev):

   -11.1332 -10.6028 -10.4525 -10.1975 -10.1588 -10.1346 -10.1095 -10.0711
    -9.9914  -9.9260  -9.8994  -9.8681  -9.8429  -9.7726  -9.7704  -9.7403
    -9.6651  -9.5999  -9.5807  -9.5635  -9.5634  -9.5607  -9.4258  -9.4085
    -9.3950  -9.3626  -9.2241  -9.1913  -9.1823  -9.1266  -9.0910  -9.0329
    -9.0274  -9.0259  -8.9946  -8.9436  -8.8266  -8.8142  -8.8084  -8.7596
    -8.6567  -8.6311  -8.5840  -8.5621  -8.4687  -8.4250  -8.3085  -8.2985
    -8.2676  -8.2647  -8.2119  -8.1674  -8.1559  -8.0720  -8.0074  -7.9743
    -7.9347  -7.8843  -7.8833  -7.8389  -7.8379  -7.7641  -7.7135  -7.6983
    -7.6719  -7.6244  -7.6219  -7.5641  -7.5440  -7.4812  -7.3823  -7.3816
    -7.3480  -7.2629  -7.2542  -7.2482  -7.1941  -7.1199  -7.1156  -7.1114
    -7.0664  -7.0110  -6.9065  -6.8456  -6.8324  -6.8303  -6.8301  -6.7746
    -6.7365  -6.7053  -6.5750  -6.5533  -6.5431  -6.5052  -6.4444  -6.3632
    -6.3347  -6.2770  -6.2460  -6.1888  -6.0968  -6.0916  -6.0170  -6.0078
    -5.9917  -5.9464  -5.8128  -5.8075  -5.6264  -5.6058  -5.5981  -5.5633
    -5.5181  -5.3971  -5.3956  -5.3917  -5.3830  -5.3676  -5.3260  -5.3042
    -5.2955  -5.2364  -5.2353  -5.1205  -5.1095  -5.0072  -4.6235  -4.4536
    -4.3211  -3.9243  -3.7300  -3.2720  -2.8067  -2.1083  -1.7313  -1.2361
    -0.6234  -0.5614  -0.3479  -0.2209   0.3385   0.5197   0.9485   1.1565

          k = 0.1875-0.6134 0.0000 ( 44484 PWs)   bands (ev):

   -10.8445 -10.6009 -10.4033 -10.2612 -10.0575 -10.0339  -9.9944  -9.9891
    -9.9409  -9.8734  -9.8447  -9.8072  -9.8001  -9.6853  -9.6765  -9.6292
    -9.5878  -9.5425  -9.5023  -9.4748  -9.4724  -9.4113  -9.3598  -9.3478
    -9.2734  -9.2685  -9.2477  -9.1693  -9.1419  -9.1403  -9.1386  -9.1298
    -9.0787  -8.9565  -8.9512  -8.9287  -8.9036  -8.8229  -8.8181  -8.7887
    -8.7386  -8.6949  -8.6204  -8.5601  -8.5128  -8.5056  -8.4010  -8.3862
    -8.2919  -8.2917  -8.2031  -8.1310  -8.1077  -8.0830  -8.0592  -8.0298
    -7.9703  -7.9562  -7.9254  -7.8959  -7.8263  -7.7937  -7.7883  -7.7878
    -7.7361  -7.6795  -7.6461  -7.6168  -7.5790  -7.5762  -7.5310  -7.4910
    -7.4166  -7.4104  -7.4072  -7.3837  -7.1762  -7.1049  -7.0770  -7.0362
    -6.9881  -6.9835  -6.9537  -6.9500  -6.9074  -6.8519  -6.8205  -6.7573
    -6.7084  -6.6456  -6.6428  -6.5442  -6.5411  -6.4676  -6.4460  -6.3844
    -6.3095  -6.3033  -6.2883  -6.2109  -6.1436  -6.1102  -6.0799  -6.0327
    -5.9748  -5.9250  -5.8830  -5.8687  -5.8580  -5.6833  -5.6558  -5.6238
    -5.5871  -5.5526  -5.4619  -5.3868  -5.3778  -5.3498  -5.3480  -5.3139
    -5.3123  -5.2994  -5.2904  -5.2837  -5.1238  -5.1106  -4.4127  -4.3645
    -4.3088  -4.0706  -3.8982  -2.9037  -2.7872  -2.5166  -1.2796  -1.2323
    -0.8174  -0.5873  -0.1531   0.0065   0.4971   0.5091   0.5811   1.3287

          k = 0.2500-0.7217 0.0000 ( 44491 PWs)   bands (ev):

   -11.1487 -10.6097 -10.2941 -10.2941 -10.1439 -10.1333 -10.1333  -9.9760
    -9.9760  -9.9599  -9.8778  -9.8778  -9.8440  -9.8111  -9.7267  -9.7267
    -9.7173  -9.6034  -9.5996  -9.5877  -9.5617  -9.5617  -9.4498  -9.4233
    -9.4233  -9.3395  -9.2510  -9.1490  -9.1152  -9.1152  -9.0875  -9.0714
    -9.0558  -9.0558  -9.0168  -8.9338  -8.8346  -8.8074  -8.7848  -8.7434
    -8.7434  -8.5827  -8.5827  -8.5527  -8.4142  -8.3916  -8.3837  -8.3837
    -8.2642  -8.2596  -8.2151  -8.2151  -8.1339  -8.0759  -8.0759  -7.9492
    -7.9337  -7.9187  -7.8526  -7.8429  -7.8429  -7.7711  -7.7291  -7.7131
    -7.7131  -7.6494  -7.5971  -7.5971  -7.5643  -7.4119  -7.4119  -7.3762
    -7.3227  -7.3227  -7.2553  -7.2047  -7.1801  -7.1385  -7.0955  -7.0955
    -7.0727  -7.0091  -6.8719  -6.8603  -6.8410  -6.8084  -6.8084  -6.7795
    -6.7469  -6.7469  -6.5612  -6.5368  -6.5368  -6.4985  -6.4302  -6.3416
    -6.2789  -6.2789  -6.2218  -6.2026  -6.0972  -6.0114  -6.0114  -5.9938
    -5.9419  -5.9419  -5.6723  -5.6285  -5.6219  -5.5845  -5.5845  -5.5615
    -5.4604  -5.4604  -5.4441  -5.4370  -5.4370  -5.4157  -5.3585  -5.2129
    -5.2085  -5.2051  -5.2051  -4.9618  -4.9618  -4.8490  -4.8490  -4.6246
    -4.5155  -4.5155  -3.3167  -3.3167  -3.2921  -1.7620  -1.7078  -1.7078
    -0.6014  -0.0985   0.0611   0.0611   0.1491   0.4579   0.8429   1.3185

          k = 0.2500-0.6495 0.0000 ( 44485 PWs)   bands (ev):

   -10.8578 -10.3990 -10.3806 -10.1844 -10.1310 -10.0546 -10.0036  -9.9093
    -9.8449  -9.8444  -9.8073  -9.7592  -9.7478  -9.7053  -9.6208  -9.5982
    -9.5938  -9.5515  -9.5166  -9.5122  -9.4814  -9.4120  -9.3512  -9.3472
    -9.3190  -9.3068  -9.2558  -9.2006  -9.1338  -9.1113  -9.0957  -9.0900
    -9.0800  -8.9986  -8.9966  -8.9882  -8.8365  -8.8017  -8.8010  -8.7901
    -8.7259  -8.6790  -8.6605  -8.6280  -8.5416  -8.5230  -8.4058  -8.3822
    -8.3205  -8.2624  -8.2289  -8.2219  -8.1669  -8.1511  -8.0653  -8.0183
    -8.0170  -7.9960  -7.9955  -7.9433  -7.9044  -7.8330  -7.8237  -7.8208
    -7.7446  -7.7070  -7.7067  -7.6358  -7.5990  -7.5894  -7.5657  -7.4707
    -7.4336  -7.4011  -7.3761  -7.3729  -7.1846  -7.1333  -7.0809  -7.0419
    -7.0062  -6.9523  -6.9383  -6.9207  -6.8826  -6.8632  -6.8500  -6.7937
    -6.6444  -6.6383  -6.6233  -6.5656  -6.5408  -6.4579  -6.3655  -6.3196
    -6.2808  -6.2575  -6.1922  -6.1395  -6.1350  -6.0822  -6.0655  -6.0307
    -5.9113  -5.8806  -5.7847  -5.7262  -5.6144  -5.6089  -5.6066  -5.5524
    -5.5465  -5.4727  -5.4689  -5.4513  -5.4449  -5.4121  -5.3617  -5.3450
    -5.3058  -5.2850  -5.2747  -5.2283  -5.2187  -4.9687  -4.9027  -4.8332
    -4.4796  -4.3673  -3.7269  -3.3010  -2.9372  -2.1478  -1.7210  -1.3313
    -0.4168  -0.0618   0.0252   0.1491   0.5443   0.9104   1.0588   1.2877

          k = 0.2500-0.5774 0.0000 ( 44432 PWs)   bands (ev):

   -10.5842 -10.5842 -10.2350 -10.2350 -10.1256 -10.0478  -9.8698  -9.8553
    -9.8371  -9.8371  -9.7995  -9.7215  -9.7215  -9.6300  -9.5808  -9.5607
    -9.5544  -9.4585  -9.4585  -9.4162  -9.4025  -9.4025  -9.3745  -9.3011
    -9.2925  -9.2921  -9.2921  -9.1995  -9.1558  -9.1558  -9.1398  -9.0883
    -9.0603  -9.0440  -8.9910  -8.9910  -8.9371  -8.7922  -8.7922  -8.7776
    -8.7508  -8.7508  -8.7153  -8.5760  -8.5218  -8.4831  -8.4831  -8.3020
    -8.2823  -8.2799  -8.2361  -8.2361  -8.1626  -8.1056  -8.0835  -8.0835
    -8.0594  -8.0423  -7.9948  -7.9948  -7.9603  -7.9178  -7.9178  -7.8924
    -7.8820  -7.8820  -7.6751  -7.6405  -7.5685  -7.5685  -7.5048  -7.4892
    -7.4866  -7.4688  -7.4087  -7.4087  -7.2340  -7.1533  -7.1533  -7.0047
    -7.0047  -6.9386  -6.9050  -6.9050  -6.8769  -6.8700  -6.8121  -6.7633
    -6.7633  -6.6681  -6.5645  -6.5034  -6.4405  -6.4182  -6.4182  -6.3200
    -6.3200  -6.2679  -6.1756  -6.1756  -6.1028  -6.0630  -6.0205  -6.0205
    -5.8412  -5.8412  -5.7544  -5.6745  -5.6745  -5.6207  -5.6207  -5.6061
    -5.5965  -5.5965  -5.5238  -5.4867  -5.4465  -5.4452  -5.3787  -5.3762
    -5.3413  -5.3413  -5.2820  -5.2820  -5.2345  -5.2225  -4.8790  -4.8313
    -4.4673  -4.0731  -4.0731  -3.2948  -2.5569  -2.5569  -1.7248  -0.8821
    -0.8821   0.0135   0.1768   0.4940   0.4940   0.6437   1.2479   1.5483

          k = 0.3125-0.6134 0.0000 ( 44465 PWs)   bands (ev):

   -10.5771 -10.3289 -10.3289 -10.2256 -10.1097 -10.1097  -9.8608  -9.8038
    -9.8038  -9.7848  -9.7253  -9.7111  -9.6278  -9.6278  -9.5381  -9.5023
    -9.4932  -9.4579  -9.4579  -9.4371  -9.4371  -9.3706  -9.3667  -9.3307
    -9.3098  -9.3098  -9.2894  -9.2304  -9.1874  -9.1647  -9.1647  -9.1148
    -9.0612  -9.0070  -9.0070  -8.9880  -8.9119  -8.8944  -8.8944  -8.7789
    -8.7124  -8.6265  -8.6264  -8.5368  -8.4986  -8.4986  -8.4915  -8.3800
    -8.3246  -8.3246  -8.2946  -8.2051  -8.2043  -8.1423  -8.1025  -8.1024
    -8.0461  -8.0403  -8.0403  -8.0178  -8.0020  -8.0020  -7.9780  -7.9496
    -7.9496  -7.9202  -7.6639  -7.6429  -7.5482  -7.5333  -7.5311  -7.5151
    -7.5151  -7.4363  -7.4363  -7.3884  -7.2351  -7.2154  -7.2154  -7.0165
    -6.9537  -6.9537  -6.9087  -6.9087  -6.8777  -6.8520  -6.7808  -6.7591
    -6.7096  -6.6414  -6.6414  -6.5096  -6.4597  -6.3957  -6.3270  -6.2607
    -6.2607  -6.1997  -6.1690  -6.1690  -6.1643  -6.1643  -6.0101  -5.8373
    -5.7624  -5.7624  -5.6604  -5.6565  -5.6344  -5.6323  -5.6065  -5.5989
    -5.5989  -5.5802  -5.5802  -5.5013  -5.3996  -5.3585  -5.3575  -5.3156
    -5.3156  -5.3045  -5.2917  -5.2917  -5.2776  -5.2774  -5.2774  -4.9481
    -4.9481  -4.0726  -3.7220  -3.7220  -2.5696  -2.1655  -2.1655  -0.9035
    -0.4507  -0.4507   0.4650   0.9039   0.9758   1.0104   1.0105   1.3203

     the Fermi energy is    -5.2455 ev

!    total energy              =   -7948.99889579 Ry
     total all-electron energy =   -242211.780685 Ry
     estimated scf accuracy    <          7.4E-11 Ry
     smearing contrib. (-TS)   =       0.00371511 Ry
     internal energy E=F+TS    =   -7949.00261089 Ry

     The total energy is F=E-TS. E is the sum of the following terms:
     one-electron contribution =  -58089.91433755 Ry
     hartree contribution      =   29229.03855902 Ry
     xc contribution           =    -779.01466041 Ry
     ewald contribution        =   27855.41151879 Ry
     DFT-D3 Dispersion         =      -2.82643874 Ry
     one-center paw contrib.   =   -6161.69725200 Ry

     total magnetization       =     5.18 Bohr mag/cell
     absolute magnetization    =     5.45 Bohr mag/cell

     convergence has been achieved in  72 iterations

     negative rho (up, down):  6.339E-06 6.332E-06

     Forces acting on atoms (cartesian axes, Ry/au):

     atom    1 type  1   force =     0.00000353   -0.00000204   -0.00605980
     atom    2 type  1   force =    -0.00000353   -0.00000204   -0.00605980
     atom    3 type  1   force =     0.00000000    0.00000407   -0.00605980
     atom    4 type  1   force =     0.00000000    0.00000000   -0.00605946
     atom    5 type  1   force =     0.00000440   -0.00000254    0.00737081
     atom    6 type  1   force =     0.00000000    0.00000508    0.00737081
     atom    7 type  1   force =    -0.00000440   -0.00000254    0.00737081
     atom    8 type  1   force =     0.00000000    0.00000000    0.00737031
     atom    9 type  1   force =     0.00000000   -0.00000019   -0.00055852
     atom   10 type  1   force =    -0.00000016    0.00000009   -0.00055852
     atom   11 type  1   force =     0.00000016    0.00000009   -0.00055852
     atom   12 type  1   force =     0.00000000    0.00000000   -0.00055828
     atom   13 type  1   force =    -0.00000020    0.00000011   -0.00052068
     atom   14 type  1   force =     0.00000000   -0.00000023   -0.00052068
     atom   15 type  1   force =     0.00000020    0.00000011   -0.00052068
     atom   16 type  1   force =     0.00000000    0.00000000   -0.00052016
     atom   17 type  1   force =    -0.00000026    0.00000015    0.00028055
     atom   18 type  1   force =     0.00000000   -0.00000030    0.00028055
     atom   19 type  1   force =     0.00000026    0.00000015    0.00028055
     atom   20 type  1   force =    -0.00000000   -0.00000000    0.00028086
     atom   21 type  1   force =    -0.00000034    0.00000020   -0.00051255
     atom   22 type  1   force =     0.00000000   -0.00000040   -0.00051255
     atom   23 type  1   force =     0.00000034    0.00000020   -0.00051255
     atom   24 type  1   force =     0.00000000    0.00000000   -0.00051267

     Total force =     0.001923     Total SCF correction =     0.000042


     Computing stress (Cartesian axis) and pressure


     negative rho (up, down):  6.339E-06 6.332E-06
          total   stress  (Ry/bohr**3)                   (kbar)     P=       -9.39
  -0.00010160  -0.00000000   0.00000000          -14.95       -0.00        0.00
  -0.00000000  -0.00010160   0.00000000           -0.00      -14.95        0.00
  -0.00000000  -0.00000000   0.00001177           -0.00       -0.00        1.73


     Writing all to output data dir /tmpu/isholek_g/isholek/MIGUEL/QE/111_2x2/SAVE/Pd_111.save/ :
     XML data file, charge density, pseudopotentials, collected wavefunctions
 
     init_run     :     28.03s CPU     29.15s WALL (       1 calls)
     electrons    :   5313.89s CPU   5671.81s WALL (       1 calls)
     forces       :      9.33s CPU      9.83s WALL (       1 calls)
     force_dftd3  :      0.12s CPU      0.12s WALL (       1 calls)
     stress       :     74.48s CPU     79.14s WALL (       1 calls)
     stres_dftd3  :      0.13s CPU      0.13s WALL (       1 calls)

     Called by init_run:
     wfcinit      :     26.06s CPU     27.06s WALL (       1 calls)
     potinit      :      0.93s CPU      0.99s WALL (       1 calls)
     hinit0       :      0.30s CPU      0.31s WALL (       1 calls)

     Called by electrons:
     c_bands      :   4547.27s CPU   4846.72s WALL (      72 calls)
     sum_band     :    624.01s CPU    671.88s WALL (      72 calls)
     v_of_rho     :     32.33s CPU     34.57s WALL (      73 calls)
     newd         :     11.08s CPU     12.38s WALL (      73 calls)
     PAW_pot      :     23.97s CPU     24.85s WALL (      73 calls)
     mix_rho      :     68.89s CPU     74.10s WALL (      72 calls)
     energy_dftd3 :      0.07s CPU      0.07s WALL (       1 calls)

     Called by c_bands:
     init_us_2    :     21.32s CPU     23.54s WALL (    2205 calls)
     init_us_2:cp :     21.29s CPU     23.51s WALL (    2205 calls)
     cegterg      :   4428.47s CPU   4697.00s WALL (    1080 calls)

     Called by *egterg:
     cdiaghg      :    189.73s CPU    200.79s WALL (    5049 calls)
     h_psi        :   2801.22s CPU   3002.50s WALL (    5064 calls)
     s_psi        :    235.83s CPU    248.73s WALL (    5064 calls)
     g_psi        :      9.89s CPU     10.36s WALL (    3969 calls)

     Called by h_psi:
     h_psi:calbec :    414.55s CPU    432.54s WALL (    5064 calls)
     vloc_psi     :   2135.75s CPU   2304.30s WALL (    5064 calls)
     add_vuspsi   :    239.13s CPU    252.61s WALL (    5064 calls)

     General routines
     calbec       :    553.20s CPU    577.55s WALL (    6219 calls)
     fft          :     24.78s CPU     27.05s WALL (    1863 calls)
     ffts         :     23.04s CPU     25.27s WALL (    8987 calls)
     fftw         :   2156.31s CPU   2296.25s WALL ( 1106188 calls)
     interpolate  :      2.05s CPU      2.24s WALL (     146 calls)
     davcio       :      0.74s CPU     20.48s WALL (    5582 calls)
 
     Parallel routines
 
     PWSCF        :      1h30m CPU      1h36m WALL

 
   This run was terminated on:  23:21:17  20Apr2026            

=------------------------------------------------------------------------------=
   JOB DONE.
=------------------------------------------------------------------------------=
