
     Program PWSCF v.7.3 starts on 25Apr2026 at 10:27:24 

     This program is part of the open-source Quantum ESPRESSO suite
     for quantum simulation of materials; please cite
         "P. Giannozzi et al., J. Phys.:Condens. Matter 21 395502 (2009);
         "P. Giannozzi et al., J. Phys.:Condens. Matter 29 465901 (2017);
         "P. Giannozzi et al., J. Chem. Phys. 152 154105 (2020);
          URL http://www.quantum-espresso.org", 
     in publications or presentations arising from this work. More details at
     http://www.quantum-espresso.org/quote

     Parallel version (MPI), running on    64 processors

     MPI processes distributed on     4 nodes
     57535 MiB available memory on the printing compute node when the environment starts
 
     Reading input from /tmpu/isholek_g/isholek/MIGUEL/QE/111_2x2/RELAX/Ni_111-relax.in

     Current dimensions of program PWSCF are:
     Max number of different atomic species (ntypx) = 10
     Max number of k-points (npk) =  40000
     Max angular momentum in pseudopotentials (lmaxx) =  4
     file Ni.upf: wavefunction(s)  4S 3D renormalized

     IMPORTANT: XC functional enforced from input :
     Exchange-correlation= PBE
                           (   1   4   3   4   0   0   0)
     Any further DFT definition will be discarded
     Please, verify this is what you really want

     Found identity + ( -0.5000 -0.5000  0.0000) symmetry
     This is a supercell, fractional translations are disabled
     Message from routine setup:
     using ibrav=0 with symmetry is DISCOURAGED, use correct ibrav instead
 
     K-points division:     npool     =       4
     R & G space division:  proc/nbgrp/npool/nimage =      16
     Subspace diagonalization in iterative solution of the eigenvalue problem:
     a serial algorithm will be used

 
     Parallelization info
     --------------------
     sticks:   dense  smooth     PW     G-vecs:    dense   smooth      PW
     Min         174      87     24                49002    17343    2583
     Max         175      88     27                49021    17372    2602
     Sum        2791    1393    397               784195   277593   41523
 
     Using Slab Decomposition
 

     Title: 
     Ni_111-relax                                                               


     bravais-lattice index     =            0
     lattice parameter (alat)  =       9.1943  a.u.
     unit-cell volume          =    4417.6280 (a.u.)^3
     number of atoms/cell      =           24
     number of atomic types    =            1
     number of electrons       =       240.00
     number of Kohn-Sham states=          144
     kinetic-energy cutoff     =      60.0000  Ry
     charge density cutoff     =     480.0000  Ry
     scf convergence threshold =      1.0E-08
     mixing beta               =       0.4000
     number of iterations used =           16  local-TF  mixing
     energy convergence thresh.=      1.8E-05
     force convergence thresh. =      7.8E-04
     Exchange-correlation= PBE
                           (   1   4   3   4   0   0   0)
     nstep                     =           50


     celldm(1)=   9.194328  celldm(2)=   0.000000  celldm(3)=   0.000000
     celldm(4)=   0.000000  celldm(5)=   0.000000  celldm(6)=   0.000000

     crystal axes: (cart. coord. in units of alat)
               a(1) = (   1.000000   0.000000   0.000000 )  
               a(2) = (   0.500000   0.866025   0.000000 )  
               a(3) = (   0.000000   0.000000   6.562941 )  

     reciprocal axes: (cart. coord. in units 2 pi/alat)
               b(1) = (  1.000000 -0.577350  0.000000 )  
               b(2) = (  0.000000  1.154701  0.000000 )  
               b(3) = (  0.000000  0.000000  0.152371 )  


     PseudoPot. # 1 for Ni read from file:
     /tmpu/isholek_g/isholek/MIGUEL/PP/PAW/Ni.upf
     MD5 check sum: d88365a95a5e142bd87181c2c8b16588
     Pseudo is Projector augmented-wave + core cor, Zval = 10.0
     Generated using "atomic" code by A. Dal Corso  v.5.0.2 svn rev. 9415
     Shape of augmentation charge: PSQ
     Using radial grid of 1195 points,  6 beta functions with: 
                l(1) =   0
                l(2) =   0
                l(3) =   1
                l(4) =   1
                l(5) =   2
                l(6) =   2
     Q(r) pseudized with 0 coefficients 


     atomic species   valence    mass     pseudopotential
     Ni               10.00    58.69340     Ni( 1.00)

     Starting magnetic structure 
     atomic species   magnetization
     Ni              0.065

      6 Sym. Ops. (no inversion) found



   Cartesian axes

     site n.     atom                  positions (alat units)
         1        Ni     tau(   1) = (   1.0000000   0.5773503   2.2608489  )
         2        Ni     tau(   2) = (   0.2500003   0.1443377   2.2608503  )
         3        Ni     tau(   3) = (   0.5000000   0.5773499   2.2608503  )
         4        Ni     tau(   4) = (   0.7499997   0.1443377   2.2608503  )
         5        Ni     tau(   5) = (   0.5000000   0.2886751   2.6690972  )
         6        Ni     tau(   6) = (   1.2500003   0.7216880   2.6690986  )
         7        Ni     tau(   7) = (   1.0000000   0.2886748   2.6690986  )
         8        Ni     tau(   8) = (   0.7499997   0.7216880   2.6690986  )
         9        Ni     tau(   9) = (   0.5000000   0.8660253   3.0772317  )
        10        Ni     tau(  10) = (   0.7500000   0.4330128   3.0772324  )
        11        Ni     tau(  11) = (   1.2500000   0.4330128   3.0772325  )
        12        Ni     tau(  12) = (   1.0000000   0.8660253   3.0772324  )
        13        Ni     tau(  13) = (   1.0000000   0.5773503   3.4857110  )
        14        Ni     tau(  14) = (   0.2500002   0.1443377   3.4857118  )
        15        Ni     tau(  15) = (   0.5000000   0.5773500   3.4857118  )
        16        Ni     tau(  16) = (   0.7499998   0.1443377   3.4857119  )
        17        Ni     tau(  17) = (   0.5000001   0.2886753   3.8937693  )
        18        Ni     tau(  18) = (   1.2500002   0.7216879   3.8937703  )
        19        Ni     tau(  19) = (   0.9999999   0.2886750   3.8937704  )
        20        Ni     tau(  20) = (   0.7499997   0.7216878   3.8937703  )
        21        Ni     tau(  21) = (  -0.0000000  -0.0000000   4.3021044  )
        22        Ni     tau(  22) = (   1.0000000   0.8660253   4.3021056  )
        23        Ni     tau(  23) = (   1.2499998   0.4330128   4.3021054  )
        24        Ni     tau(  24) = (   0.7500001   0.4330127   4.3021053  )

     --------------------------------------------
     DFT-D3 Dispersion Correction (3-body terms):
     --------------------------------------------
       Reference C6 values for interpolation: 

         atom   Coordination number   C6
         Ni         0.000          1149.49
         Ni         1.794           356.66
         Ni         6.546           257.56
         Ni         6.292           283.75

       Values used:

         atom   Coordination number  R0_AB[au]  C6      C8
         Ni         7.293            3.162    261.14  21881.57
         Ni         7.293            3.162    261.14  21881.56
         Ni         7.293            3.162    261.14  21881.56
         Ni         7.293            3.162    261.14  21881.56
         Ni         9.773            3.162    257.59  21584.25
         Ni         9.773            3.162    257.59  21584.25
         Ni         9.773            3.162    257.59  21584.25
         Ni         9.773            3.162    257.59  21584.25
         Ni         9.781            3.162    257.59  21584.21
         Ni         9.781            3.162    257.59  21584.21
         Ni         9.781            3.162    257.59  21584.21
         Ni         9.781            3.162    257.59  21584.21
         Ni         9.782            3.162    257.59  21584.21
         Ni         9.782            3.162    257.59  21584.21
         Ni         9.782            3.162    257.59  21584.21
         Ni         9.782            3.162    257.59  21584.21
         Ni         9.772            3.162    257.59  21584.25
         Ni         9.772            3.162    257.59  21584.25
         Ni         9.772            3.162    257.59  21584.25
         Ni         9.772            3.162    257.59  21584.25
         Ni         7.292            3.162    261.15  21882.22
         Ni         7.292            3.162    261.15  21882.23
         Ni         7.292            3.162    261.15  21882.23
         Ni         7.292            3.162    261.15  21882.23

         Molecular C6 ( Ry / a.u.^6 ) =    149049.59


     number of k points=    14  Marzari-Vanderbilt smearing, width (Ry)=  0.0147
                       cart. coord. in units 2pi/alat
        k(    1) = (   0.0000000   0.0000000   0.0000000), wk =   0.0100000
        k(    2) = (   0.0000000   0.1154701   0.0000000), wk =   0.0600000
        k(    3) = (   0.0000000   0.2309401   0.0000000), wk =   0.0600000
        k(    4) = (   0.0000000   0.3464102   0.0000000), wk =   0.0600000
        k(    5) = (   0.0000000   0.4618802   0.0000000), wk =   0.0600000
        k(    6) = (   0.0000000  -0.5773503   0.0000000), wk =   0.0300000
        k(    7) = (   0.1000000   0.1732051   0.0000000), wk =   0.0600000
        k(    8) = (   0.1000000   0.2886751   0.0000000), wk =   0.1200000
        k(    9) = (   0.1000000   0.4041452   0.0000000), wk =   0.1200000
        k(   10) = (   0.1000000  -0.6350853   0.0000000), wk =   0.1200000
        k(   11) = (   0.2000000   0.3464102   0.0000000), wk =   0.0600000
        k(   12) = (   0.2000000  -0.6928203   0.0000000), wk =   0.1200000
        k(   13) = (   0.2000000  -0.5773503   0.0000000), wk =   0.0600000
        k(   14) = (   0.3000000  -0.6350853   0.0000000), wk =   0.0600000

     Dense  grid:   784195 G-vectors     FFT dimensions: (  72,  72, 432)

     Smooth grid:   277593 G-vectors     FFT dimensions: (  45,  45, 300)

     Estimated max dynamical RAM per process >     176.90 MB

     Estimated total dynamical RAM >       8.81 GB
 ----2D----2D----2D----2D----2D----2D----2D----2D----2D----2D----2D----2D
  The code is running with the 2D cutoff
  Please refer to:
  Sohier, T., Calandra, M., & Mauri, F. (2017), 
  Density functional perturbation theory for gated two-dimensional heterostructu
 res:
  Theoretical developments and application to flexural phonons in graphene.
  Physical Review B, 96(7), 75448. https://doi.org/10.1103/PhysRevB.96.075448
 ----2D----2D----2D----2D----2D----2D----2D----2D----2D----2D----2D----2D
     Generating pointlists ...
     new r_m :   0.2062 (alat units)  1.8957 (a.u.) for type    1

     Initial potential from superposition of free atoms

     starting charge     239.9940, renormalised to     240.0000

     negative rho (up, down):  2.243E-04 1.969E-04
     Starting wfcs are  216 randomized atomic wfcs
     Checking if some PAW data can be deallocated... 

     total cpu time spent up to now is       13.0 secs

     Self-consistent Calculation

     iteration #  1     ecut=    60.00 Ry     beta= 0.40
     Davidson diagonalization with overlap
     ethr =  1.00E-02,  avg # of iterations =  2.0

     negative rho (up, down):  2.206E-07 2.091E-07

     total cpu time spent up to now is       35.6 secs

     total energy              =   -4457.89453380 Ry
     estimated scf accuracy    <       8.86515437 Ry

     total magnetization       =    13.62 Bohr mag/cell
     absolute magnetization    =    13.73 Bohr mag/cell

     iteration #  2     ecut=    60.00 Ry     beta= 0.40
     Davidson diagonalization with overlap
     ethr =  3.69E-03,  avg # of iterations =  1.2

     negative rho (up, down):  9.983E-08 1.063E-07

     total cpu time spent up to now is       55.6 secs

     total energy              =   -4457.87757712 Ry
     estimated scf accuracy    <      12.30348316 Ry

     total magnetization       =    12.85 Bohr mag/cell
     absolute magnetization    =    13.16 Bohr mag/cell

     iteration #  3     ecut=    60.00 Ry     beta= 0.40
     Davidson diagonalization with overlap
     ethr =  3.69E-03,  avg # of iterations =  1.0

     negative rho (up, down):  2.455E-08 2.232E-08

     total cpu time spent up to now is       75.2 secs

     total energy              =   -4458.45519969 Ry
     estimated scf accuracy    <      23.62880642 Ry

     total magnetization       =    14.37 Bohr mag/cell
     absolute magnetization    =    14.77 Bohr mag/cell

     iteration #  4     ecut=    60.00 Ry     beta= 0.40
     Davidson diagonalization with overlap
     ethr =  3.69E-03,  avg # of iterations =  1.0

     negative rho (up, down):  8.086E-08 5.609E-08

     total cpu time spent up to now is       94.7 secs

     total energy              =   -4458.18221470 Ry
     estimated scf accuracy    <      14.89970612 Ry

     total magnetization       =    14.50 Bohr mag/cell
     absolute magnetization    =    15.14 Bohr mag/cell

     iteration #  5     ecut=    60.00 Ry     beta= 0.40
     Davidson diagonalization with overlap
     ethr =  3.69E-03,  avg # of iterations =  1.0

     negative rho (up, down):  6.471E-08 5.232E-08

     total cpu time spent up to now is      114.1 secs

     total energy              =   -4458.33855941 Ry
     estimated scf accuracy    <       1.05542596 Ry

     total magnetization       =    14.90 Bohr mag/cell
     absolute magnetization    =    16.62 Bohr mag/cell

     iteration #  6     ecut=    60.00 Ry     beta= 0.40
     Davidson diagonalization with overlap
     ethr =  4.40E-04,  avg # of iterations =  1.1

     negative rho (up, down):  4.986E-08 4.374E-08

     total cpu time spent up to now is      133.6 secs

     total energy              =   -4458.35572011 Ry
     estimated scf accuracy    <       0.33786877 Ry

     total magnetization       =    15.03 Bohr mag/cell
     absolute magnetization    =    16.97 Bohr mag/cell

     iteration #  7     ecut=    60.00 Ry     beta= 0.40
     Davidson diagonalization with overlap
     ethr =  1.41E-04,  avg # of iterations =  1.2

     negative rho (up, down):  2.541E-08 2.288E-08

     total cpu time spent up to now is      153.3 secs

     total energy              =   -4458.35316728 Ry
     estimated scf accuracy    <       0.16909636 Ry

     total magnetization       =    15.11 Bohr mag/cell
     absolute magnetization    =    17.10 Bohr mag/cell

     iteration #  8     ecut=    60.00 Ry     beta= 0.40
     Davidson diagonalization with overlap
     ethr =  7.05E-05,  avg # of iterations =  1.5

     negative rho (up, down):  3.233E-08 3.023E-08

     total cpu time spent up to now is      173.2 secs

     total energy              =   -4458.35906063 Ry
     estimated scf accuracy    <       0.23246232 Ry

     total magnetization       =    15.32 Bohr mag/cell
     absolute magnetization    =    17.29 Bohr mag/cell

     iteration #  9     ecut=    60.00 Ry     beta= 0.40
     Davidson diagonalization with overlap
     ethr =  7.05E-05,  avg # of iterations =  1.0

     total cpu time spent up to now is      192.6 secs

     total energy              =   -4458.35162857 Ry
     estimated scf accuracy    <       0.31533292 Ry

     total magnetization       =    15.43 Bohr mag/cell
     absolute magnetization    =    17.47 Bohr mag/cell

     iteration # 10     ecut=    60.00 Ry     beta= 0.40
     Davidson diagonalization with overlap
     ethr =  7.05E-05,  avg # of iterations =  1.0

     total cpu time spent up to now is      211.9 secs

     total energy              =   -4458.35397523 Ry
     estimated scf accuracy    <       0.66411121 Ry

     total magnetization       =    15.87 Bohr mag/cell
     absolute magnetization    =    18.13 Bohr mag/cell

     iteration # 11     ecut=    60.00 Ry     beta= 0.40
     Davidson diagonalization with overlap
     ethr =  7.05E-05,  avg # of iterations =  1.0

     total cpu time spent up to now is      231.7 secs

     total energy              =   -4458.35105922 Ry
     estimated scf accuracy    <       0.52757722 Ry

     total magnetization       =    15.88 Bohr mag/cell
     absolute magnetization    =    18.21 Bohr mag/cell

     iteration # 12     ecut=    60.00 Ry     beta= 0.40
     Davidson diagonalization with overlap
     ethr =  7.05E-05,  avg # of iterations =  1.0

     total cpu time spent up to now is      251.2 secs

     total energy              =   -4458.34388991 Ry
     estimated scf accuracy    <       0.38162765 Ry

     total magnetization       =    15.88 Bohr mag/cell
     absolute magnetization    =    18.27 Bohr mag/cell

     iteration # 13     ecut=    60.00 Ry     beta= 0.40
     Davidson diagonalization with overlap
     ethr =  7.05E-05,  avg # of iterations =  1.0

     negative rho (up, down):  6.203E-03 5.634E-03

     total cpu time spent up to now is      270.8 secs

     total energy              =   -4458.32927093 Ry
     estimated scf accuracy    <       0.25184088 Ry

     total magnetization       =    15.82 Bohr mag/cell
     absolute magnetization    =    18.20 Bohr mag/cell

     iteration # 14     ecut=    60.00 Ry     beta= 0.40
     Davidson diagonalization with overlap
     ethr =  7.05E-05,  avg # of iterations =  1.0

     negative rho (up, down):  1.409E-02 1.342E-02

     total cpu time spent up to now is      292.0 secs

     total energy              =   -4458.32476236 Ry
     estimated scf accuracy    <       0.15371142 Ry

     total magnetization       =    15.72 Bohr mag/cell
     absolute magnetization    =    17.95 Bohr mag/cell

     iteration # 15     ecut=    60.00 Ry     beta= 0.40
     Davidson diagonalization with overlap
     ethr =  6.40E-05,  avg # of iterations =  1.0

     negative rho (up, down):  1.581E-02 1.498E-02

     total cpu time spent up to now is      314.3 secs

     total energy              =   -4458.31964418 Ry
     estimated scf accuracy    <       0.06308931 Ry

     total magnetization       =    15.73 Bohr mag/cell
     absolute magnetization    =    17.91 Bohr mag/cell

     iteration # 16     ecut=    60.00 Ry     beta= 0.40
     Davidson diagonalization with overlap
     ethr =  2.63E-05,  avg # of iterations =  1.2

     negative rho (up, down):  1.595E-02 1.544E-02

     total cpu time spent up to now is      334.1 secs

     total energy              =   -4458.31480503 Ry
     estimated scf accuracy    <       0.01869570 Ry

     total magnetization       =    15.76 Bohr mag/cell
     absolute magnetization    =    17.92 Bohr mag/cell

     iteration # 17     ecut=    60.00 Ry     beta= 0.40
     Davidson diagonalization with overlap
     ethr =  7.79E-06,  avg # of iterations =  3.9

     negative rho (up, down):  1.649E-02 1.613E-02

     total cpu time spent up to now is      356.0 secs

     total energy              =   -4458.31601569 Ry
     estimated scf accuracy    <       0.16700797 Ry

     total magnetization       =    15.71 Bohr mag/cell
     absolute magnetization    =    17.82 Bohr mag/cell

     iteration # 18     ecut=    60.00 Ry     beta= 0.40
     Davidson diagonalization with overlap
     ethr =  7.79E-06,  avg # of iterations =  1.5

     negative rho (up, down):  5.144E-03 4.917E-03

     total cpu time spent up to now is      376.1 secs

     total energy              =   -4458.31533820 Ry
     estimated scf accuracy    <       0.23365151 Ry

     total magnetization       =    15.70 Bohr mag/cell
     absolute magnetization    =    17.76 Bohr mag/cell

     iteration # 19     ecut=    60.00 Ry     beta= 0.40
     Davidson diagonalization with overlap
     ethr =  7.79E-06,  avg # of iterations =  1.9

     negative rho (up, down):  5.308E-04 5.273E-04

     total cpu time spent up to now is      397.0 secs

     total energy              =   -4458.31407518 Ry
     estimated scf accuracy    <       0.20854631 Ry

     total magnetization       =    15.72 Bohr mag/cell
     absolute magnetization    =    17.76 Bohr mag/cell

     iteration # 20     ecut=    60.00 Ry     beta= 0.40
     Davidson diagonalization with overlap
     ethr =  7.79E-06,  avg # of iterations =  1.4

     negative rho (up, down):  4.879E-04 4.838E-04

     total cpu time spent up to now is      416.9 secs

     total energy              =   -4458.31294136 Ry
     estimated scf accuracy    <       0.12629992 Ry

     total magnetization       =    15.72 Bohr mag/cell
     absolute magnetization    =    17.80 Bohr mag/cell

     iteration # 21     ecut=    60.00 Ry     beta= 0.40
     Davidson diagonalization with overlap
     ethr =  7.79E-06,  avg # of iterations =  1.2

     negative rho (up, down):  2.767E-03 2.729E-03

     total cpu time spent up to now is      436.2 secs

     total energy              =   -4458.31123110 Ry
     estimated scf accuracy    <       0.08018965 Ry

     total magnetization       =    15.72 Bohr mag/cell
     absolute magnetization    =    17.84 Bohr mag/cell

     iteration # 22     ecut=    60.00 Ry     beta= 0.40
     Davidson diagonalization with overlap
     ethr =  7.79E-06,  avg # of iterations =  2.2

     negative rho (up, down):  2.531E-03 2.444E-03

     total cpu time spent up to now is      458.1 secs

     total energy              =   -4458.31190596 Ry
     estimated scf accuracy    <       0.04022573 Ry

     total magnetization       =    15.76 Bohr mag/cell
     absolute magnetization    =    17.92 Bohr mag/cell

     iteration # 23     ecut=    60.00 Ry     beta= 0.40
     Davidson diagonalization with overlap
     ethr =  7.79E-06,  avg # of iterations =  1.4

     negative rho (up, down):  2.784E-03 2.779E-03

     total cpu time spent up to now is      477.9 secs

     total energy              =   -4458.31132986 Ry
     estimated scf accuracy    <       0.05033511 Ry

     total magnetization       =    15.76 Bohr mag/cell
     absolute magnetization    =    17.92 Bohr mag/cell

     iteration # 24     ecut=    60.00 Ry     beta= 0.40
     Davidson diagonalization with overlap
     ethr =  7.79E-06,  avg # of iterations =  2.5

     negative rho (up, down):  7.539E-04 6.944E-04

     total cpu time spent up to now is      498.2 secs

     total energy              =   -4458.31215441 Ry
     estimated scf accuracy    <       0.00251558 Ry

     total magnetization       =    15.80 Bohr mag/cell
     absolute magnetization    =    18.03 Bohr mag/cell

     iteration # 25     ecut=    60.00 Ry     beta= 0.40
     Davidson diagonalization with overlap
     ethr =  1.05E-06,  avg # of iterations =  4.2

     negative rho (up, down):  6.921E-04 5.914E-04

     total cpu time spent up to now is      520.2 secs

     total energy              =   -4458.31224363 Ry
     estimated scf accuracy    <       0.00092715 Ry

     total magnetization       =    15.82 Bohr mag/cell
     absolute magnetization    =    18.05 Bohr mag/cell

     iteration # 26     ecut=    60.00 Ry     beta= 0.40
     Davidson diagonalization with overlap
     ethr =  3.86E-07,  avg # of iterations =  2.8

     negative rho (up, down):  4.368E-04 3.669E-04

     total cpu time spent up to now is      542.7 secs

     total energy              =   -4458.31231153 Ry
     estimated scf accuracy    <       0.00029852 Ry

     total magnetization       =    15.84 Bohr mag/cell
     absolute magnetization    =    18.06 Bohr mag/cell

     iteration # 27     ecut=    60.00 Ry     beta= 0.40
     Davidson diagonalization with overlap
     ethr =  1.24E-07,  avg # of iterations =  2.7

     negative rho (up, down):  3.026E-04 2.448E-04

     total cpu time spent up to now is      563.0 secs

     total energy              =   -4458.31232698 Ry
     estimated scf accuracy    <       0.00008112 Ry

     total magnetization       =    15.83 Bohr mag/cell
     absolute magnetization    =    18.05 Bohr mag/cell

     iteration # 28     ecut=    60.00 Ry     beta= 0.40
     Davidson diagonalization with overlap
     ethr =  3.38E-08,  avg # of iterations =  3.2

     negative rho (up, down):  3.291E-04 2.751E-04

     total cpu time spent up to now is      585.1 secs

     total energy              =   -4458.31233243 Ry
     estimated scf accuracy    <       0.00012460 Ry

     total magnetization       =    15.83 Bohr mag/cell
     absolute magnetization    =    18.05 Bohr mag/cell

     iteration # 29     ecut=    60.00 Ry     beta= 0.40
     Davidson diagonalization with overlap
     ethr =  3.38E-08,  avg # of iterations =  1.4

     negative rho (up, down):  3.137E-04 2.572E-04

     total cpu time spent up to now is      604.3 secs

     total energy              =   -4458.31233527 Ry
     estimated scf accuracy    <       0.00003004 Ry

     total magnetization       =    15.83 Bohr mag/cell
     absolute magnetization    =    18.05 Bohr mag/cell

     iteration # 30     ecut=    60.00 Ry     beta= 0.40
     Davidson diagonalization with overlap
     ethr =  1.25E-08,  avg # of iterations =  1.6

     negative rho (up, down):  2.945E-04 2.322E-04

     total cpu time spent up to now is      623.8 secs

     total energy              =   -4458.31233549 Ry
     estimated scf accuracy    <       0.00002116 Ry

     total magnetization       =    15.83 Bohr mag/cell
     absolute magnetization    =    18.05 Bohr mag/cell

     iteration # 31     ecut=    60.00 Ry     beta= 0.40
     Davidson diagonalization with overlap
     ethr =  8.82E-09,  avg # of iterations =  1.6

     negative rho (up, down):  3.038E-04 2.562E-04

     total cpu time spent up to now is      643.8 secs

     total energy              =   -4458.31233527 Ry
     estimated scf accuracy    <       0.00002793 Ry

     total magnetization       =    15.84 Bohr mag/cell
     absolute magnetization    =    18.06 Bohr mag/cell

     iteration # 32     ecut=    60.00 Ry     beta= 0.40
     Davidson diagonalization with overlap
     ethr =  8.82E-09,  avg # of iterations =  1.5

     negative rho (up, down):  2.685E-04 2.171E-04

     total cpu time spent up to now is      663.6 secs

     total energy              =   -4458.31233650 Ry
     estimated scf accuracy    <       0.00003869 Ry

     total magnetization       =    15.84 Bohr mag/cell
     absolute magnetization    =    18.06 Bohr mag/cell

     iteration # 33     ecut=    60.00 Ry     beta= 0.40
     Davidson diagonalization with overlap
     ethr =  8.82E-09,  avg # of iterations =  1.0

     negative rho (up, down):  2.643E-04 2.096E-04

     total cpu time spent up to now is      682.8 secs

     total energy              =   -4458.31233659 Ry
     estimated scf accuracy    <       0.00002085 Ry

     total magnetization       =    15.84 Bohr mag/cell
     absolute magnetization    =    18.06 Bohr mag/cell

     iteration # 34     ecut=    60.00 Ry     beta= 0.40
     Davidson diagonalization with overlap
     ethr =  8.69E-09,  avg # of iterations =  1.0

     negative rho (up, down):  2.671E-04 2.105E-04

     total cpu time spent up to now is      702.2 secs

     total energy              =   -4458.31233686 Ry
     estimated scf accuracy    <       0.00000034 Ry

     total magnetization       =    15.84 Bohr mag/cell
     absolute magnetization    =    18.06 Bohr mag/cell

     iteration # 35     ecut=    60.00 Ry     beta= 0.40
     Davidson diagonalization with overlap
     ethr =  1.43E-10,  avg # of iterations =  5.2

     negative rho (up, down):  2.670E-04 2.100E-04

     total cpu time spent up to now is      728.5 secs

     total energy              =   -4458.31233693 Ry
     estimated scf accuracy    <       0.00000004 Ry

     total magnetization       =    15.84 Bohr mag/cell
     absolute magnetization    =    18.06 Bohr mag/cell

     iteration # 36     ecut=    60.00 Ry     beta= 0.40
     Davidson diagonalization with overlap
     ethr =  1.84E-11,  avg # of iterations =  3.6

     negative rho (up, down):  2.661E-04 2.090E-04

     total cpu time spent up to now is      752.3 secs

     total energy              =   -4458.31233693 Ry
     estimated scf accuracy    <       0.00000002 Ry

     total magnetization       =    15.84 Bohr mag/cell
     absolute magnetization    =    18.06 Bohr mag/cell

     iteration # 37     ecut=    60.00 Ry     beta= 0.40
     Davidson diagonalization with overlap
     ethr =  9.11E-12,  avg # of iterations =  1.3

     negative rho (up, down):  2.651E-04 2.082E-04

     total cpu time spent up to now is      772.0 secs

     total energy              =   -4458.31233693 Ry
     estimated scf accuracy    <       0.00000001 Ry

     total magnetization       =    15.84 Bohr mag/cell
     absolute magnetization    =    18.06 Bohr mag/cell

     iteration # 38     ecut=    60.00 Ry     beta= 0.40
     Davidson diagonalization with overlap
     ethr =  5.41E-12,  avg # of iterations =  1.3

     negative rho (up, down):  2.647E-04 2.079E-04
 
     Magnetic moment per site  (integrated on atomic sphere of radius R)
     atom   1 (R=0.206)  charge=  8.5690  magn=  0.7137
     atom   2 (R=0.206)  charge=  8.5690  magn=  0.7137
     atom   3 (R=0.206)  charge=  8.5690  magn=  0.7137
     atom   4 (R=0.206)  charge=  8.5690  magn=  0.7137
     atom   5 (R=0.206)  charge=  8.6529  magn=  0.7135
     atom   6 (R=0.206)  charge=  8.6530  magn=  0.7135
     atom   7 (R=0.206)  charge=  8.6530  magn=  0.7135
     atom   8 (R=0.206)  charge=  8.6530  magn=  0.7135
     atom   9 (R=0.206)  charge=  8.6587  magn=  0.6707
     atom  10 (R=0.206)  charge=  8.6587  magn=  0.6707
     atom  11 (R=0.206)  charge=  8.6587  magn=  0.6707
     atom  12 (R=0.206)  charge=  8.6587  magn=  0.6707
     atom  13 (R=0.206)  charge=  8.6588  magn=  0.6708
     atom  14 (R=0.206)  charge=  8.6588  magn=  0.6708
     atom  15 (R=0.206)  charge=  8.6588  magn=  0.6708
     atom  16 (R=0.206)  charge=  8.6588  magn=  0.6708
     atom  17 (R=0.206)  charge=  8.6529  magn=  0.7135
     atom  18 (R=0.206)  charge=  8.6529  magn=  0.7135
     atom  19 (R=0.206)  charge=  8.6529  magn=  0.7135
     atom  20 (R=0.206)  charge=  8.6529  magn=  0.7135
     atom  21 (R=0.206)  charge=  8.5689  magn=  0.7136
     atom  22 (R=0.206)  charge=  8.5689  magn=  0.7136
     atom  23 (R=0.206)  charge=  8.5689  magn=  0.7136
     atom  24 (R=0.206)  charge=  8.5689  magn=  0.7136

     total cpu time spent up to now is      790.9 secs

     End of self-consistent calculation

 ------ SPIN UP ------------


          k = 0.0000 0.0000 0.0000 ( 34733 PWs)   bands (ev):

   -14.5487 -13.8217 -12.7239 -11.5118 -10.6636 -10.4458 -10.3152 -10.3152
   -10.3152 -10.1838 -10.1838 -10.1838  -9.9538  -9.9538  -9.9538  -9.8960
    -9.8960  -9.8960  -9.6807  -9.6807  -9.6807  -9.5118  -9.5118  -9.5117
    -9.4622  -9.4622  -9.4622  -9.3497  -9.3497  -9.3497  -8.9392  -8.9392
    -8.9392  -8.3527  -8.3527  -8.3527  -8.0248  -8.0095  -7.9718  -7.9718
    -7.9718  -7.8195  -7.8195  -7.8195  -7.7914  -7.7415  -7.7415  -7.7402
    -7.7402  -7.6982  -7.6776  -7.6776  -7.6776  -7.6324  -7.6324  -7.6130
    -7.6130  -7.6033  -7.6033  -7.6033  -7.3990  -7.3990  -7.3799  -7.3799
    -7.3605  -7.3605  -7.3605  -7.3326  -7.3326  -7.3326  -7.0947  -6.9549
    -6.9549  -6.9549  -6.8637  -6.8637  -6.8637  -6.5008  -6.5008  -6.4942
    -6.4942  -6.4631  -6.4631  -6.4631  -6.3484  -6.3484  -6.3385  -6.3385
    -6.3385  -6.0714  -6.0714  -6.0178  -6.0178  -6.0178  -5.9408  -5.9408
    -5.9408  -5.8400  -5.8400  -5.7878  -5.7878  -5.7878  -5.7502  -5.7502
    -5.7355  -5.7355  -5.7355  -5.7319  -5.7319  -5.7319  -5.7233  -5.7233
    -5.7233  -5.6795  -5.6795  -5.6795  -5.6247  -5.6247  -5.6247  -5.6133
    -5.5088  -5.5088  -5.5088  -5.5074  -5.5074  -5.5074  -5.1851  -4.9380
    -4.9380  -4.9380  -3.8825  -3.8825  -3.8825  -3.0790  -3.0790  -3.0789
    -2.6951  -2.6951  -2.6951  -2.5858  -2.5858  -2.5858  -2.5021  -2.5021

          k = 0.0000 0.1155 0.0000 ( 34725 PWs)   bands (ev):

   -14.4582 -13.7338 -12.6399 -11.4326 -10.5909 -10.3815 -10.3627 -10.2813
   -10.2813 -10.1806 -10.1454 -10.1454 -10.0301  -9.9297  -9.9297  -9.8895
    -9.8556  -9.8556  -9.6562  -9.6495  -9.6495  -9.5050  -9.4737  -9.4737
    -9.4481  -9.4243  -9.4243  -9.3039  -9.3039  -9.3002  -8.9183  -8.9183
    -8.9167  -8.3629  -8.3629  -8.3558  -8.0777  -8.0610  -7.9921  -7.9921
    -7.9550  -7.8258  -7.8062  -7.8041  -7.8041  -7.7901  -7.7767  -7.7149
    -7.7000  -7.6839  -7.6838  -7.6680  -7.6680  -7.6637  -7.6620  -7.6511
    -7.6407  -7.6008  -7.5940  -7.5789  -7.4331  -7.4151  -7.4151  -7.3860
    -7.3777  -7.3633  -7.3502  -7.3429  -7.3252  -7.3252  -7.2128  -7.0746
    -7.0745  -7.0353  -6.8591  -6.8132  -6.8132  -6.6065  -6.6065  -6.5778
    -6.5739  -6.5205  -6.4693  -6.4620  -6.3418  -6.3392  -6.3008  -6.3008
    -6.3002  -6.1882  -6.1075  -6.1075  -6.0985  -6.0961  -6.0697  -6.0251
    -6.0251  -5.9512  -5.9409  -5.9409  -5.8722  -5.8394  -5.8325  -5.7898
    -5.7896  -5.7896  -5.7768  -5.7768  -5.7693  -5.7569  -5.7569  -5.7480
    -5.7473  -5.7282  -5.7282  -5.7080  -5.6915  -5.6915  -5.6593  -5.6024
    -5.6024  -5.5832  -5.5832  -5.5559  -5.5513  -5.3172  -5.1829  -4.7331
    -4.6993  -4.6993  -4.4327  -3.9576  -3.8735  -3.8735  -3.3154  -3.2670
    -3.2670  -2.8600  -2.8600  -2.2446  -2.2446  -2.1730  -1.8508  -1.8508

          k = 0.0000 0.2309 0.0000 ( 34724 PWs)   bands (ev):

   -14.1898 -13.4736 -12.3934 -11.2030 -10.5602 -10.3816 -10.2873 -10.1965
   -10.1837 -10.1837 -10.1707 -10.0345 -10.0345  -9.8841  -9.8555  -9.8555
    -9.7458  -9.7458  -9.5836  -9.5576  -9.5576  -9.4716  -9.3775  -9.3692
    -9.3692  -9.3247  -9.3247  -9.1896  -9.1677  -9.1677  -8.8564  -8.8564
    -8.8471  -8.4032  -8.4032  -8.3572  -8.2342  -8.1706  -8.0516  -8.0515
    -7.9657  -7.9495  -7.9046  -7.8951  -7.8951  -7.8231  -7.7589  -7.7512
    -7.7512  -7.7366  -7.7095  -7.6685  -7.6685  -7.6426  -7.6345  -7.6240
    -7.5964  -7.5829  -7.5471  -7.5471  -7.5242  -7.5139  -7.4896  -7.4736
    -7.4130  -7.3805  -7.3455  -7.3455  -7.3210  -7.2741  -7.2741  -7.2611
    -7.2545  -7.2350  -6.8976  -6.8976  -6.8479  -6.7601  -6.7601  -6.6986
    -6.6907  -6.6620  -6.5673  -6.4887  -6.4882  -6.4882  -6.4726  -6.4224
    -6.3802  -6.3802  -6.3605  -6.3577  -6.3178  -6.2886  -6.2886  -6.1188
    -6.0662  -6.0498  -6.0497  -6.0150  -5.9703  -5.9524  -5.9524  -5.9484
    -5.9334  -5.9250  -5.9250  -5.9102  -5.9102  -5.8877  -5.8379  -5.8247
    -5.8036  -5.8036  -5.7897  -5.7754  -5.7754  -5.7416  -5.7392  -5.6908
    -5.6908  -5.6795  -5.6496  -5.6295  -5.6295  -5.5272  -5.2927  -5.0400
    -4.5898  -4.3765  -4.3765  -3.9868  -3.9555  -3.8647  -3.8647  -3.4053
    -3.4053  -2.6537  -2.6537  -2.2755  -1.6286  -1.6286  -0.9154  -0.9154

          k = 0.0000 0.3464 0.0000 ( 34648 PWs)   bands (ev):

   -13.7533 -13.0539 -12.0027 -11.0292 -10.8505 -10.6694 -10.2726 -10.0666
   -10.0371 -10.0371  -9.9173  -9.8719  -9.8679  -9.8679  -9.7427  -9.7427
    -9.5938  -9.5938  -9.4879  -9.4101  -9.4101  -9.3735  -9.2757  -9.2539
    -9.2539  -9.1738  -9.1738  -9.0466  -8.9672  -8.9672  -8.7517  -8.7517
    -8.7300  -8.4794  -8.4794  -8.4575  -8.3421  -8.2952  -8.1783  -8.1585
    -8.1585  -8.0825  -8.0825  -8.0795  -8.0303  -7.9846  -7.9492  -7.9492
    -7.8594  -7.8263  -7.7438  -7.7438  -7.7289  -7.6718  -7.6584  -7.6494
    -7.5849  -7.5849  -7.5699  -7.5650  -7.5483  -7.5021  -7.5021  -7.4815
    -7.4227  -7.4008  -7.3650  -7.3522  -7.2904  -7.2789  -7.2639  -7.2638
    -7.1676  -7.1676  -7.1119  -7.0656  -6.9911  -6.9191  -6.9191  -6.8806
    -6.8392  -6.8070  -6.8070  -6.8070  -6.7631  -6.7507  -6.7507  -6.7236
    -6.6487  -6.5280  -6.4902  -6.4318  -6.4120  -6.4120  -6.3967  -6.2995
    -6.2216  -6.2216  -6.2026  -6.1929  -6.1928  -6.1879  -6.1279  -6.1101
    -6.1101  -6.0704  -6.0704  -6.0632  -6.0540  -5.9631  -5.9601  -5.9345
    -5.9124  -5.8802  -5.8367  -5.8367  -5.8364  -5.7996  -5.7825  -5.7822
    -5.7822  -5.7323  -5.7030  -5.7030  -5.6895  -5.6336  -5.6336  -5.0995
    -4.5697  -4.1662  -4.1662  -3.9357  -3.8502  -3.8502  -3.3448  -3.3448
    -3.1345  -2.8667  -2.3910  -2.3910  -1.0691  -1.0691  -0.9008   0.0942

          k = 0.0000 0.4619 0.0000 ( 34662 PWs)   bands (ev):

   -13.1680 -12.4998 -11.7187 -11.5067 -11.2120 -10.5372 -10.4373  -9.9006
    -9.8742  -9.8742  -9.7196  -9.7127  -9.7127  -9.6119  -9.6119  -9.5951
    -9.4466  -9.4466  -9.4256  -9.2455  -9.2455  -9.2146  -9.1983  -9.1983
    -9.1959  -8.9739  -8.9738  -8.8859  -8.8345  -8.8345  -8.7136  -8.6127
    -8.6127  -8.5751  -8.5478  -8.5478  -8.4568  -8.3982  -8.3502  -8.3305
    -8.3305  -8.2186  -8.2055  -8.2055  -8.1693  -8.1678  -8.1255  -8.1255
    -8.0929  -7.9667  -7.9667  -7.9199  -7.7678  -7.7524  -7.7196  -7.7196
    -7.7048  -7.6368  -7.5855  -7.5008  -7.4732  -7.4656  -7.4441  -7.4243
    -7.4243  -7.3881  -7.3881  -7.2958  -7.2958  -7.2938  -7.2853  -7.2853
    -7.2492  -7.2472  -7.2354  -7.1798  -7.1536  -7.0731  -7.0525  -7.0477
    -7.0362  -7.0362  -6.9669  -6.9213  -6.8519  -6.8488  -6.7522  -6.7522
    -6.6763  -6.6751  -6.6107  -6.5519  -6.5519  -6.5245  -6.4699  -6.4680
    -6.4543  -6.4543  -6.4160  -6.3733  -6.3733  -6.3541  -6.3163  -6.2745
    -6.2484  -6.2386  -6.2386  -6.1765  -6.1465  -6.1465  -6.0985  -6.0605
    -6.0424  -5.9982  -5.8423  -5.8423  -5.8357  -5.8312  -5.7569  -5.7569
    -5.7216  -5.7039  -5.7039  -5.7016  -5.6626  -5.6367  -5.6367  -5.0288
    -4.6255  -4.0639  -4.0639  -3.8185  -3.8184  -3.5156  -3.2558  -3.2558
    -3.2300  -2.2184  -2.2184  -2.1997  -1.6796  -0.7401  -0.7401  -0.1197

          k = 0.0000-0.5774 0.0000 ( 34676 PWs)   bands (ev):

   -12.4688 -12.4688 -11.8585 -11.8585 -10.9799 -10.9799 -10.0809 -10.0809
    -9.7791  -9.7791  -9.6818  -9.6817  -9.5155  -9.5155  -9.4785  -9.4785
    -9.3491  -9.3491  -9.3152  -9.3151  -9.3073  -9.3073  -9.0146  -9.0145
    -8.9718  -8.9718  -8.9359  -8.9359  -8.7914  -8.7914  -8.6980  -8.6980
    -8.6848  -8.6847  -8.5144  -8.5144  -8.4392  -8.4392  -8.3765  -8.3765
    -8.3719  -8.3719  -8.2521  -8.2521  -8.2268  -8.2268  -8.1778  -8.1778
    -8.0336  -8.0336  -7.9553  -7.9553  -7.9009  -7.9009  -7.7642  -7.7642
    -7.6784  -7.6784  -7.5661  -7.5661  -7.5385  -7.5385  -7.5206  -7.5206
    -7.4583  -7.4583  -7.3999  -7.3999  -7.3405  -7.3405  -7.3246  -7.3246
    -7.2901  -7.2901  -7.2120  -7.2119  -7.2108  -7.2108  -6.9358  -6.9357
    -6.9275  -6.9275  -6.8530  -6.8530  -6.8480  -6.8480  -6.8132  -6.8132
    -6.7580  -6.7580  -6.6061  -6.6061  -6.6038  -6.6038  -6.5935  -6.5935
    -6.5288  -6.5288  -6.4829  -6.4829  -6.4410  -6.4410  -6.3627  -6.3627
    -6.3252  -6.3252  -6.2145  -6.2145  -6.1961  -6.1960  -6.1563  -6.1563
    -6.0487  -6.0487  -5.8417  -5.8417  -5.8355  -5.8355  -5.7277  -5.7277
    -5.7212  -5.7212  -5.7112  -5.7112  -5.6372  -5.6372  -5.3749  -5.3749
    -4.1026  -4.1026  -4.0348  -4.0348  -3.8018  -3.8018  -3.2206  -3.2206
    -2.4755  -2.4755  -2.1614  -2.1614  -1.1917  -1.1917  -0.6430  -0.6430

          k = 0.1000 0.1732 0.0000 ( 34723 PWs)   bands (ev):

   -14.2787 -13.5597 -12.4746 -11.2781 -10.4497 -10.3871 -10.3871 -10.2566
   -10.1509 -10.1509 -10.1411 -10.0718 -10.0718 -10.0410  -9.8501  -9.8501
    -9.7855  -9.7526  -9.6000  -9.6000  -9.5817  -9.4610  -9.4610  -9.3873
    -9.3873  -9.3791  -9.3167  -9.2217  -9.2171  -9.2171  -8.8748  -8.8746
    -8.8746  -8.3919  -8.3714  -8.3714  -8.1704  -8.1525  -8.0778  -7.9679
    -7.9679  -7.9223  -7.8640  -7.8617  -7.8007  -7.7944  -7.7944  -7.7295
    -7.7257  -7.7257  -7.7178  -7.7045  -7.6634  -7.6368  -7.6368  -7.6303
    -7.6170  -7.6033  -7.5211  -7.5183  -7.5155  -7.5019  -7.5019  -7.4918
    -7.4032  -7.3514  -7.3020  -7.3020  -7.2926  -7.2907  -7.2672  -7.2626
    -7.2299  -7.2299  -6.8341  -6.8341  -6.8328  -6.7695  -6.6928  -6.6928
    -6.6502  -6.6383  -6.5019  -6.4808  -6.4252  -6.3952  -6.3760  -6.3365
    -6.3365  -6.3357  -6.3231  -6.3231  -6.2594  -6.2500  -6.2494  -6.1019
    -6.1019  -6.0200  -6.0063  -6.0063  -5.9871  -5.9215  -5.9215  -5.8861
    -5.8661  -5.8515  -5.8502  -5.8502  -5.8433  -5.8313  -5.8313  -5.7985
    -5.7985  -5.7869  -5.7868  -5.7669  -5.7472  -5.7472  -5.6909  -5.6909
    -5.6868  -5.6441  -5.6441  -5.6430  -5.6056  -5.2204  -5.2204  -4.7548
    -4.6916  -4.6916  -4.3373  -4.3373  -4.1990  -3.9650  -3.4421  -3.4421
    -3.2606  -2.6350  -2.2364  -1.9936  -1.9936  -1.9819  -1.9196  -0.6868

          k = 0.1000 0.2887 0.0000 ( 34695 PWs)   bands (ev):

   -13.9260 -13.2193 -12.1551 -10.9854 -10.7056 -10.4098 -10.3660 -10.1852
   -10.1642 -10.1080 -10.0228 -10.0086  -9.9495  -9.8754  -9.8422  -9.7458
    -9.6183  -9.5890  -9.5083  -9.4835  -9.4585  -9.4059  -9.3620  -9.2950
    -9.2582  -9.2324  -9.1847  -9.0890  -9.0579  -9.0486  -8.7969  -8.7840
    -8.7819  -8.4601  -8.4207  -8.3711  -8.3489  -8.2772  -8.2043  -8.0718
    -8.0573  -8.0351  -8.0318  -8.0119  -7.9195  -7.9162  -7.9142  -7.8210
    -7.8106  -7.8065  -7.7271  -7.6853  -7.6561  -7.6486  -7.6427  -7.6312
    -7.6006  -7.5865  -7.5797  -7.5778  -7.5586  -7.5018  -7.4800  -7.4736
    -7.4585  -7.4453  -7.4302  -7.3775  -7.3544  -7.2825  -7.2541  -7.2246
    -7.1550  -7.1249  -7.0848  -7.0663  -6.9662  -6.8016  -6.7988  -6.7880
    -6.7724  -6.7455  -6.7212  -6.7078  -6.7049  -6.6604  -6.6481  -6.6474
    -6.6089  -6.4705  -6.4623  -6.4172  -6.3821  -6.3749  -6.3711  -6.2691
    -6.1680  -6.1603  -6.1460  -6.1394  -6.1166  -6.0937  -6.0913  -6.0231
    -6.0213  -5.9936  -5.9836  -5.9828  -5.9772  -5.9418  -5.9360  -5.8622
    -5.8592  -5.8340  -5.8287  -5.8237  -5.8026  -5.8017  -5.7764  -5.7339
    -5.7294  -5.7113  -5.6709  -5.6676  -5.6360  -5.4067  -5.2434  -5.2270
    -5.0111  -4.7217  -4.3702  -4.1723  -4.1384  -3.4459  -3.4001  -3.3801
    -2.9106  -2.4448  -2.4025  -1.8291  -1.8107  -1.2632  -0.9614  -0.5166

          k = 0.1000 0.4041 0.0000 ( 34647 PWs)   bands (ev):

   -13.4140 -12.7307 -11.7086 -11.3016 -10.8703 -10.5962 -10.3354 -10.3216
   -10.0678  -9.8643  -9.8444  -9.8371  -9.7268  -9.7167  -9.6692  -9.6038
    -9.4555  -9.4178  -9.4029  -9.3263  -9.2900  -9.2764  -9.2618  -9.1936
    -9.1126  -9.0782  -9.0439  -8.9401  -8.8650  -8.8513  -8.6903  -8.6505
    -8.6423  -8.5818  -8.5562  -8.4908  -8.3958  -8.3636  -8.3583  -8.3296
    -8.2528  -8.1902  -8.1789  -8.1292  -8.1256  -8.1235  -8.0976  -8.0796
    -7.9350  -7.9235  -7.9006  -7.8656  -7.7817  -7.7329  -7.7112  -7.6561
    -7.6226  -7.6195  -7.6149  -7.5404  -7.5050  -7.4798  -7.4770  -7.4681
    -7.4583  -7.3795  -7.3600  -7.3529  -7.2734  -7.2633  -7.2411  -7.2377
    -7.1918  -7.1663  -7.1652  -7.1436  -7.0924  -7.0898  -7.0242  -7.0171
    -7.0049  -6.9578  -6.9538  -6.9305  -6.8708  -6.7807  -6.7703  -6.7334
    -6.7087  -6.7031  -6.5279  -6.5114  -6.4783  -6.4783  -6.4526  -6.4332
    -6.3661  -6.3400  -6.3211  -6.3017  -6.2663  -6.2646  -6.2254  -6.2002
    -6.1988  -6.1718  -6.1182  -6.0928  -6.0630  -6.0538  -6.0116  -5.9572
    -5.9192  -5.8727  -5.8409  -5.8335  -5.8257  -5.8217  -5.8026  -5.7753
    -5.7638  -5.7422  -5.7288  -5.7253  -5.6811  -5.6764  -5.6738  -4.8638
    -4.8077  -4.7226  -4.6916  -4.2928  -3.5113  -3.2866  -3.1492  -3.1196
    -2.7964  -2.5757  -2.1937  -1.7260  -1.3001  -1.2067  -0.3560   0.1994

          k = 0.1000-0.6351 0.0000 ( 34652 PWs)   bands (ev):

   -12.7686 -12.1283 -12.0364 -11.4749 -11.1891 -10.6923 -10.2855 -10.1980
   -10.0326  -9.9251  -9.7388  -9.5336  -9.5235  -9.4835  -9.4715  -9.4019
    -9.3936  -9.3541  -9.2942  -9.2724  -9.1933  -9.1713  -9.0858  -9.0796
    -9.0761  -8.8783  -8.8621  -8.8417  -8.8368  -8.8358  -8.7824  -8.6524
    -8.6137  -8.5874  -8.5520  -8.5209  -8.4899  -8.4735  -8.4637  -8.4344
    -8.3770  -8.3068  -8.2707  -8.2629  -8.2544  -8.2207  -8.2187  -8.1159
    -8.0253  -8.0140  -7.9820  -7.9599  -7.8494  -7.8438  -7.8021  -7.8000
    -7.7424  -7.6687  -7.6433  -7.6178  -7.5919  -7.5239  -7.5128  -7.4883
    -7.4555  -7.4480  -7.4095  -7.3770  -7.3553  -7.3512  -7.3422  -7.3259
    -7.3134  -7.3078  -7.2827  -7.2477  -7.1212  -7.0754  -7.0113  -7.0023
    -6.9446  -6.9186  -6.8890  -6.8402  -6.8324  -6.8316  -6.7690  -6.7630
    -6.7124  -6.6796  -6.6545  -6.6276  -6.5947  -6.5698  -6.5597  -6.5491
    -6.5433  -6.4458  -6.4092  -6.4048  -6.4029  -6.3982  -6.3074  -6.2856
    -6.2701  -6.2605  -6.2370  -6.2212  -6.2163  -6.1072  -6.0935  -6.0843
    -6.0268  -5.9936  -5.8826  -5.8695  -5.8518  -5.8457  -5.7944  -5.7683
    -5.7669  -5.7593  -5.7526  -5.7338  -5.6785  -5.6743  -5.4514  -5.1427
    -4.7901  -4.6655  -4.3151  -4.2368  -3.7566  -3.2297  -3.0829  -2.7899
    -2.7442  -2.0668  -2.0147  -1.6800  -1.6172  -1.0129  -0.5833   0.3230

          k = 0.2000 0.3464 0.0000 ( 34647 PWs)   bands (ev):

   -13.4969 -12.8088 -11.7777 -10.8188 -10.8188 -10.6516 -10.4769 -10.4769
   -10.1041 -10.1041  -9.8880  -9.7578  -9.7362  -9.7362  -9.6927  -9.6759
    -9.4169  -9.3830  -9.3829  -9.3804  -9.3134  -9.2926  -9.2926  -9.1494
    -9.1494  -9.0686  -9.0352  -8.9190  -8.9190  -8.8905  -8.6962  -8.6962
    -8.6482  -8.5665  -8.4856  -8.4434  -8.4260  -8.4260  -8.4014  -8.2638
    -8.1818  -8.1680  -8.1680  -8.1456  -8.1413  -8.0861  -8.0861  -8.0570
    -7.9642  -7.8332  -7.8332  -7.7941  -7.7438  -7.7438  -7.7312  -7.7129
    -7.6578  -7.6239  -7.5546  -7.5546  -7.5146  -7.5146  -7.5076  -7.4792
    -7.4701  -7.4441  -7.3591  -7.2923  -7.2923  -7.2828  -7.2628  -7.1773
    -7.1773  -7.1653  -7.1232  -7.1180  -7.1180  -7.0329  -7.0033  -6.9867
    -6.9867  -6.9714  -6.9711  -6.8569  -6.8446  -6.7822  -6.7334  -6.7334
    -6.7334  -6.7166  -6.5144  -6.5144  -6.4577  -6.4411  -6.4284  -6.4284
    -6.3695  -6.3290  -6.3290  -6.2522  -6.2042  -6.1889  -6.1889  -6.1468
    -6.1440  -6.0716  -6.0716  -6.0535  -5.9992  -5.9413  -5.9413  -5.9350
    -5.9165  -5.8717  -5.8611  -5.8611  -5.8286  -5.8216  -5.8216  -5.7690
    -5.7555  -5.7555  -5.7373  -5.6725  -5.4947  -5.4947  -5.3550  -5.3550
    -5.1479  -5.1479  -4.8640  -4.1439  -4.1439  -3.6086  -2.7067  -2.5286
    -2.5286  -2.4318  -2.0233  -1.6150  -1.1996  -0.7669  -0.5960  -0.4080

          k = 0.2000-0.6928 0.0000 ( 34654 PWs)   bands (ev):

   -12.9216 -12.2671 -11.4963 -11.2987 -11.0073 -10.8906 -10.5031 -10.3598
   -10.2602 -10.0270  -9.7562  -9.6020  -9.5560  -9.4552  -9.4465  -9.4396
    -9.3096  -9.2746  -9.2530  -9.1907  -9.1500  -9.1440  -9.1429  -9.0576
    -8.9956  -8.9570  -8.8980  -8.7963  -8.7829  -8.7199  -8.6931  -8.6907
    -8.6570  -8.5999  -8.5760  -8.5729  -8.5374  -8.5013  -8.4842  -8.4665
    -8.4059  -8.3273  -8.3027  -8.2751  -8.2400  -8.2311  -8.2087  -8.1664
    -8.0764  -7.9716  -7.9525  -7.8731  -7.8512  -7.8233  -7.8131  -7.8090
    -7.7394  -7.7182  -7.6625  -7.6361  -7.6247  -7.5725  -7.5488  -7.5382
    -7.4758  -7.4644  -7.4505  -7.4098  -7.3995  -7.3782  -7.3649  -7.2870
    -7.2837  -7.2807  -7.2716  -7.2138  -7.0698  -7.0465  -7.0219  -7.0197
    -6.9738  -6.9260  -6.8699  -6.8448  -6.7952  -6.7907  -6.7582  -6.7552
    -6.7478  -6.7464  -6.6192  -6.5755  -6.5559  -6.5552  -6.5476  -6.4680
    -6.4100  -6.4027  -6.3897  -6.3276  -6.3252  -6.2868  -6.2674  -6.2571
    -6.1963  -6.1715  -6.1453  -6.0878  -6.0406  -6.0353  -5.9931  -5.9491
    -5.9280  -5.9265  -5.9181  -5.8882  -5.8662  -5.8598  -5.8385  -5.8283
    -5.8130  -5.8021  -5.7737  -5.7692  -5.7670  -5.6875  -5.4518  -5.3907
    -5.3189  -5.0717  -4.7449  -4.4125  -4.1102  -3.2531  -2.9499  -2.5634
    -1.9674  -1.8369  -1.6002  -1.4124  -1.0283  -0.6687  -0.4322   0.0796

          k = 0.2000-0.5774 0.0000 ( 34664 PWs)   bands (ev):

   -12.2341 -12.2341 -11.6399 -11.6399 -10.9152 -10.7893 -10.7893 -10.5088
    -9.9899  -9.9224  -9.9224  -9.5273  -9.3322  -9.3322  -9.3024  -9.2945
    -9.2592  -9.2016  -9.1667  -9.1667  -9.1104  -9.0849  -8.9849  -8.9478
    -8.9252  -8.9252  -8.9175  -8.9035  -8.7639  -8.7270  -8.7260  -8.7117
    -8.6845  -8.6799  -8.6799  -8.5649  -8.5606  -8.5606  -8.5408  -8.4085
    -8.4084  -8.3747  -8.3747  -8.3573  -8.2307  -8.2280  -8.1774  -8.1419
    -8.1419  -8.0213  -7.9694  -7.9587  -7.9010  -7.9010  -7.8601  -7.8537
    -7.8359  -7.8157  -7.8157  -7.7759  -7.7479  -7.7479  -7.5917  -7.5917
    -7.5202  -7.5202  -7.4957  -7.4703  -7.3725  -7.3712  -7.3537  -7.3537
    -7.2655  -7.2559  -7.2346  -7.2346  -7.0320  -7.0032  -7.0032  -6.9596
    -6.9596  -6.8920  -6.8628  -6.8628  -6.8078  -6.8019  -6.7582  -6.7531
    -6.7531  -6.6004  -6.5929  -6.5929  -6.5724  -6.5724  -6.5567  -6.4832
    -6.4416  -6.3966  -6.3966  -6.3948  -6.3346  -6.3346  -6.3059  -6.2592
    -6.2400  -6.2400  -6.1928  -6.1049  -6.1049  -6.0578  -6.0578  -6.0501
    -5.9682  -5.9682  -5.9275  -5.9275  -5.9251  -5.9103  -5.8657  -5.8629
    -5.8503  -5.8387  -5.8294  -5.8294  -5.7723  -5.7690  -5.3469  -5.3137
    -5.1611  -5.1611  -5.0438  -4.0943  -3.8818  -3.8818  -2.5725  -2.2143
    -2.2143  -1.9093  -1.5045  -0.8674  -0.8674  -0.7934  -0.6960   0.1493

          k = 0.3000-0.6351 0.0000 ( 34663 PWs)   bands (ev):

   -12.3011 -11.6961 -11.5974 -11.5974 -11.0767 -11.0767 -10.8222 -10.3633
   -10.3633  -9.9168  -9.6784  -9.6784  -9.2931  -9.2366  -9.2219  -9.2219
    -9.2045  -9.1624  -9.0906  -9.0668  -9.0332  -9.0050  -9.0050  -8.9398
    -8.9181  -8.9030  -8.9030  -8.8304  -8.8206  -8.7880  -8.7450  -8.7450
    -8.7434  -8.7027  -8.6146  -8.6146  -8.6084  -8.5616  -8.5233  -8.5233
    -8.4240  -8.4051  -8.4051  -8.3425  -8.2238  -8.2238  -8.2038  -8.1953
    -8.1143  -8.0404  -8.0041  -8.0041  -7.9692  -7.9427  -7.9236  -7.8860
    -7.8859  -7.8340  -7.8340  -7.8202  -7.7344  -7.7344  -7.6562  -7.6562
    -7.6474  -7.5446  -7.5227  -7.5081  -7.3732  -7.3714  -7.3071  -7.2967
    -7.2967  -7.2256  -7.2256  -7.1891  -7.0464  -7.0200  -7.0200  -6.9971
    -6.9200  -6.9200  -6.8668  -6.8668  -6.8591  -6.7927  -6.7711  -6.6936
    -6.6149  -6.6096  -6.6096  -6.5895  -6.5792  -6.4940  -6.4452  -6.4294
    -6.4294  -6.3924  -6.3924  -6.3784  -6.3416  -6.3076  -6.3076  -6.2346
    -6.0901  -6.0747  -6.0704  -6.0676  -6.0676  -6.0564  -6.0239  -6.0228
    -6.0228  -5.9664  -5.9325  -5.9325  -5.9117  -5.9037  -5.8826  -5.8755
    -5.8532  -5.8532  -5.8422  -5.7901  -5.7901  -5.7706  -5.7706  -5.6448
    -5.6448  -5.1597  -4.7366  -4.7366  -3.9198  -3.3088  -3.3088  -2.2806
    -1.5147  -1.5147  -0.9630  -0.7063  -0.5774  -0.2910   0.0183   0.0909

 ------ SPIN DOWN ----------


          k = 0.0000 0.0000 0.0000 ( 34733 PWs)   bands (ev):

   -14.5845 -13.8555 -12.7439 -11.4665 -10.4361 -10.0562  -9.8722  -9.8722
    -9.8722  -9.8385  -9.8385  -9.8385  -9.5415  -9.5415  -9.5415  -9.4959
    -9.4959  -9.4959  -9.0606  -9.0606  -9.0606  -9.0196  -9.0196  -9.0196
    -8.9890  -8.9890  -8.9890  -8.7510  -8.7510  -8.7510  -8.3899  -8.3899
    -8.3899  -7.9175  -7.9175  -7.9175  -7.4127  -7.4127  -7.4127  -7.3821
    -7.3272  -7.1922  -7.1922  -7.1922  -7.0965  -7.0965  -7.0665  -7.0242
    -7.0242  -7.0242  -7.0044  -6.9946  -6.9946  -6.9946  -6.9650  -6.9650
    -6.9424  -6.9424  -6.8433  -6.8433  -6.8038  -6.8038  -6.8038  -6.6955
    -6.6732  -6.6732  -6.6732  -6.6449  -6.6449  -6.6143  -6.6143  -6.4002
    -6.4002  -6.4002  -6.1901  -6.1901  -6.1901  -5.8874  -5.8874  -5.8395
    -5.8395  -5.8395  -5.8344  -5.8344  -5.6716  -5.6716  -5.6716  -5.6508
    -5.6508  -5.5016  -5.3665  -5.3665  -5.2494  -5.2494  -5.2494  -5.2434
    -5.2434  -5.2434  -5.2025  -5.0796  -5.0796  -5.0782  -5.0782  -5.0782
    -5.0610  -5.0610  -5.0610  -4.9614  -4.9614  -4.9452  -4.9452  -4.9452
    -4.9080  -4.9080  -4.9080  -4.8480  -4.8480  -4.8480  -4.7604  -4.7604
    -4.7604  -4.6407  -4.6407  -4.6407  -4.6308  -4.6308  -4.6308  -4.6095
    -4.6095  -4.6095  -3.6018  -3.6018  -3.6018  -2.7635  -2.7635  -2.7635
    -2.5595  -2.5595  -2.5595  -2.3151  -2.3151  -2.3151  -2.2607  -2.2607

          k = 0.0000 0.1155 0.0000 ( 34725 PWs)   bands (ev):

   -14.4940 -13.7673 -12.6596 -11.3866 -10.3606  -9.9879  -9.9626  -9.8487
    -9.8465  -9.8465  -9.8009  -9.8009  -9.6776  -9.5404  -9.5403  -9.4901
    -9.4486  -9.4486  -9.0694  -9.0314  -9.0314  -9.0145  -8.9984  -8.9984
    -8.9145  -8.9145  -8.9007  -8.7161  -8.7161  -8.7160  -8.3640  -8.3628
    -8.3628  -7.9242  -7.9242  -7.9126  -7.4413  -7.4413  -7.4331  -7.4015
    -7.3785  -7.1766  -7.1747  -7.1747  -7.1627  -7.0805  -7.0719  -7.0608
    -7.0608  -7.0560  -7.0309  -7.0241  -7.0241  -7.0084  -7.0003  -6.9288
    -6.9103  -6.9067  -6.8773  -6.8773  -6.8586  -6.8574  -6.8049  -6.7640
    -6.6612  -6.6540  -6.6539  -6.6489  -6.6289  -6.6107  -6.5756  -6.5205
    -6.5205  -6.4898  -6.1847  -6.1616  -6.1616  -5.9842  -5.9842  -5.9497
    -5.9403  -5.9200  -5.8279  -5.8155  -5.7528  -5.6754  -5.6542  -5.6542
    -5.6489  -5.6462  -5.5581  -5.4355  -5.4355  -5.3839  -5.3661  -5.3263
    -5.3263  -5.2643  -5.2512  -5.2512  -5.2202  -5.1252  -5.1139  -5.1139
    -5.0965  -5.0785  -4.9964  -4.9616  -4.9616  -4.9586  -4.9492  -4.9364
    -4.9364  -4.9042  -4.9042  -4.8890  -4.8347  -4.8347  -4.8316  -4.7981
    -4.7649  -4.7649  -4.7387  -4.7048  -4.7048  -4.6918  -4.6762  -4.4308
    -4.2858  -4.2858  -4.0217  -3.5744  -3.5167  -3.5167  -3.1794  -2.9027
    -2.9027  -2.6816  -2.6816  -2.0609  -2.0609  -2.0082  -1.5814  -1.5814

          k = 0.0000 0.2309 0.0000 ( 34724 PWs)   bands (ev):

   -14.2251 -13.5063 -12.4112 -11.1536 -10.2993 -10.1421 -10.0517  -9.8526
    -9.7905  -9.7734  -9.7734  -9.6946  -9.6946  -9.5067  -9.5067  -9.5063
    -9.3383  -9.3383  -9.0610  -8.9410  -8.9410  -8.9305  -8.9142  -8.9142
    -8.7816  -8.7477  -8.7477  -8.6128  -8.6128  -8.6128  -8.2862  -8.2832
    -8.2832  -7.9502  -7.9502  -7.8895  -7.5845  -7.5370  -7.5370  -7.5052
    -7.4046  -7.3511  -7.2602  -7.2602  -7.2118  -7.1529  -7.1392  -7.1392
    -7.1263  -7.1040  -7.1030  -7.0427  -7.0427  -7.0189  -6.9691  -6.9691
    -6.9623  -6.9379  -6.9057  -6.8816  -6.8467  -6.8399  -6.7994  -6.7819
    -6.7819  -6.6987  -6.6970  -6.6945  -6.6536  -6.6269  -6.6201  -6.6201
    -6.5168  -6.4631  -6.2954  -6.2954  -6.1715  -6.1578  -6.1403  -6.1403
    -6.1040  -6.0405  -6.0190  -5.9493  -5.8692  -5.8692  -5.8163  -5.7779
    -5.7705  -5.7452  -5.7452  -5.6953  -5.6432  -5.6275  -5.6275  -5.4463
    -5.4377  -5.3662  -5.3543  -5.3543  -5.3281  -5.2398  -5.2398  -5.1617
    -5.1462  -5.1462  -5.1378  -5.0975  -5.0975  -5.0886  -5.0756  -5.0642
    -4.9977  -4.9780  -4.9780  -4.9602  -4.9602  -4.9510  -4.9152  -4.9062
    -4.8397  -4.8397  -4.8305  -4.7798  -4.7351  -4.7311  -4.7311  -4.5664
    -4.1840  -3.8978  -3.8978  -3.6898  -3.6828  -3.3992  -3.3992  -3.0248
    -3.0248  -2.4235  -2.4235  -2.0568  -1.4274  -1.4274  -0.6650  -0.6650

          k = 0.0000 0.3464 0.0000 ( 34648 PWs)   bands (ev):

   -13.7868 -13.0835 -12.0147 -10.9242 -10.7914 -10.5253 -10.0336  -9.8096
    -9.6723  -9.6723  -9.5433  -9.5433  -9.5390  -9.4896  -9.4228  -9.4228
    -9.1913  -9.1913  -9.0320  -8.8324  -8.8324  -8.7970  -8.7827  -8.7827
    -8.6740  -8.5401  -8.5401  -8.4578  -8.4529  -8.4529  -8.1602  -8.1592
    -8.1592  -7.9896  -7.9896  -7.8346  -7.8318  -7.7006  -7.7006  -7.6755
    -7.5672  -7.4673  -7.4379  -7.4379  -7.3821  -7.3531  -7.3466  -7.3466
    -7.3124  -7.2356  -7.1259  -7.1259  -7.0879  -7.0192  -6.9804  -6.9607
    -6.9607  -6.9536  -6.9045  -6.9024  -6.9024  -6.8912  -6.8400  -6.7544
    -6.7534  -6.7530  -6.6409  -6.6409  -6.6365  -6.6156  -6.5757  -6.5732
    -6.5732  -6.5332  -6.4850  -6.3981  -6.3297  -6.3297  -6.3102  -6.2883
    -6.2585  -6.2351  -6.1876  -6.1876  -6.1619  -6.1272  -6.1271  -6.0485
    -6.0270  -6.0041  -5.8198  -5.7828  -5.7828  -5.7645  -5.7215  -5.6352
    -5.5299  -5.5299  -5.4830  -5.4404  -5.4404  -5.3899  -5.3899  -5.3684
    -5.3671  -5.3462  -5.2801  -5.2758  -5.2606  -5.2606  -5.2390  -5.2362
    -5.1537  -5.1360  -5.0986  -5.0722  -5.0076  -5.0076  -4.9883  -4.9575
    -4.9575  -4.9396  -4.8538  -4.8466  -4.8466  -4.7360  -4.7360  -4.5279
    -4.1162  -3.6290  -3.6290  -3.5589  -3.3267  -3.3267  -2.9356  -2.9356
    -2.8570  -2.5487  -2.1059  -2.1059  -0.8517  -0.8517  -0.6675   0.3170

          k = 0.0000 0.4619 0.0000 ( 34662 PWs)   bands (ev):

   -13.1961 -12.5207 -11.6966 -11.5021 -11.1581 -10.4061 -10.3516  -9.6498
    -9.5821  -9.5821  -9.4297  -9.4190  -9.4190  -9.2656  -9.2656  -9.1372
    -9.0485  -9.0485  -9.0228  -8.8249  -8.8249  -8.6841  -8.6093  -8.6093
    -8.5823  -8.3454  -8.3454  -8.3353  -8.3353  -8.2808  -8.1200  -8.0715
    -8.0715  -7.9954  -7.9516  -7.9516  -7.8902  -7.8253  -7.8253  -7.7711
    -7.7022  -7.5886  -7.5859  -7.5619  -7.5619  -7.5213  -7.5213  -7.5028
    -7.4716  -7.3614  -7.3219  -7.3219  -7.1371  -7.1023  -7.1023  -7.0943
    -7.0202  -7.0117  -6.9220  -6.8480  -6.8480  -6.8306  -6.8249  -6.8249
    -6.8054  -6.7932  -6.7189  -6.6990  -6.6961  -6.6961  -6.6864  -6.6701
    -6.6701  -6.6267  -6.5572  -6.5290  -6.5177  -6.4933  -6.4413  -6.4070
    -6.4070  -6.3798  -6.2427  -6.2410  -6.1845  -6.1295  -6.1295  -6.0736
    -6.0027  -5.9327  -5.9256  -5.9251  -5.9251  -5.7674  -5.7419  -5.7370
    -5.7370  -5.7244  -5.6737  -5.6572  -5.6572  -5.6177  -5.6097  -5.5942
    -5.5439  -5.5439  -5.4636  -5.3965  -5.3716  -5.3495  -5.3267  -5.3213
    -5.3213  -5.3047  -5.0690  -5.0496  -5.0120  -5.0120  -4.9979  -4.9262
    -4.9262  -4.9260  -4.8893  -4.8488  -4.8488  -4.7379  -4.7378  -4.4519
    -4.0949  -3.4893  -3.4893  -3.2746  -3.2746  -3.1068  -2.8819  -2.8203
    -2.8203  -1.9466  -1.8951  -1.8951  -1.4018  -0.4981  -0.4981   0.0797

          k = 0.0000-0.5774 0.0000 ( 34676 PWs)   bands (ev):

   -12.4825 -12.4825 -11.8566 -11.8566 -10.9331 -10.9331  -9.9306  -9.9306
    -9.5457  -9.5457  -9.3733  -9.3733  -9.1433  -9.1433  -9.1315  -9.1315
    -8.9501  -8.9501  -8.9213  -8.9213  -8.8244  -8.8244  -8.4535  -8.4535
    -8.4169  -8.4169  -8.3819  -8.3819  -8.1781  -8.1781  -8.1455  -8.1455
    -8.0951  -8.0951  -7.8759  -7.8759  -7.8084  -7.8084  -7.8004  -7.8004
    -7.7628  -7.7628  -7.6006  -7.6006  -7.5827  -7.5826  -7.5560  -7.5560
    -7.4668  -7.4668  -7.3279  -7.3279  -7.2882  -7.2882  -7.1362  -7.1362
    -7.0390  -7.0390  -6.9757  -6.9757  -6.9664  -6.9664  -6.9649  -6.9649
    -6.8049  -6.8049  -6.7351  -6.7351  -6.7275  -6.7275  -6.7269  -6.7269
    -6.6943  -6.6943  -6.6511  -6.6511  -6.4692  -6.4692  -6.3167  -6.3167
    -6.2994  -6.2994  -6.1833  -6.1833  -6.1462  -6.1462  -6.0583  -6.0583
    -5.9950  -5.9950  -5.9705  -5.9705  -5.8817  -5.8817  -5.8435  -5.8435
    -5.8083  -5.8083  -5.7786  -5.7786  -5.7077  -5.7076  -5.6088  -5.6088
    -5.6008  -5.6008  -5.5232  -5.5232  -5.4801  -5.4801  -5.3666  -5.3666
    -5.3360  -5.3360  -5.0642  -5.0642  -5.0121  -5.0121  -4.9101  -4.9101
    -4.9032  -4.9032  -4.8579  -4.8579  -4.7380  -4.7380  -4.7370  -4.7370
    -3.6235  -3.6235  -3.4485  -3.4485  -3.2522  -3.2522  -2.7757  -2.7757
    -2.1596  -2.1596  -1.8246  -1.8246  -0.9654  -0.9654  -0.3891  -0.3891

          k = 0.1000 0.1732 0.0000 ( 34723 PWs)   bands (ev):

   -14.3142 -13.5927 -12.4932 -11.2300 -10.2134 -10.0420 -10.0420  -9.8559
    -9.8559  -9.8548  -9.7448  -9.7448  -9.6898  -9.6872  -9.4584  -9.4584
    -9.3988  -9.3200  -9.0357  -9.0357  -8.9584  -8.9559  -8.9559  -8.8905
    -8.8235  -8.8015  -8.8015  -8.6484  -8.6460  -8.6460  -8.3135  -8.3135
    -8.3035  -7.9501  -7.9151  -7.9151  -7.5498  -7.5244  -7.4767  -7.4311
    -7.4311  -7.2891  -7.2297  -7.1710  -7.1618  -7.1618  -7.1231  -7.1045
    -7.1022  -7.1022  -7.0847  -7.0798  -6.9988  -6.9988  -6.9736  -6.9654
    -6.9654  -6.9532  -6.8921  -6.8853  -6.8685  -6.8352  -6.8217  -6.7322
    -6.7071  -6.6799  -6.6799  -6.6739  -6.6593  -6.6378  -6.6244  -6.6244
    -6.5436  -6.4974  -6.2206  -6.1861  -6.1861  -6.1427  -6.1049  -6.1049
    -6.0425  -6.0045  -5.9665  -5.9111  -5.8016  -5.7992  -5.7571  -5.7066
    -5.7066  -5.6945  -5.6886  -5.6886  -5.5875  -5.5636  -5.5629  -5.4557
    -5.4557  -5.3362  -5.2986  -5.2986  -5.2903  -5.2032  -5.1721  -5.1721
    -5.1625  -5.0642  -5.0642  -5.0311  -5.0295  -5.0295  -5.0061  -4.9991
    -4.9991  -4.9917  -4.9917  -4.9781  -4.9681  -4.9422  -4.9396  -4.8538
    -4.8538  -4.8355  -4.7487  -4.7487  -4.7469  -4.5962  -4.5962  -4.3391
    -4.1577  -4.1577  -3.9087  -3.9087  -3.8988  -3.6028  -3.2196  -3.2196
    -2.9179  -2.2869  -1.9129  -1.8062  -1.8062  -1.7388  -1.7210  -0.4683

          k = 0.1000 0.2887 0.0000 ( 34695 PWs)   bands (ev):

   -13.9604 -13.2505 -12.1701 -10.9312 -10.5299 -10.2159 -10.0978  -9.9360
    -9.8781  -9.8673  -9.6848  -9.6040  -9.5175  -9.4904  -9.4820  -9.3641
    -9.2562  -9.1389  -9.0191  -8.9502  -8.8450  -8.8409  -8.8385  -8.7693
    -8.6849  -8.6347  -8.6256  -8.5234  -8.5127  -8.5058  -8.2207  -8.2157
    -8.1859  -7.9998  -7.9365  -7.8808  -7.7252  -7.7065  -7.6366  -7.5564
    -7.4941  -7.4734  -7.4020  -7.3133  -7.3092  -7.3049  -7.2677  -7.2560
    -7.2117  -7.2112  -7.0970  -7.0736  -7.0567  -7.0264  -7.0036  -6.9519
    -6.9487  -6.9220  -6.9169  -6.9016  -6.8876  -6.8817  -6.8524  -6.8162
    -6.7849  -6.7346  -6.6846  -6.6786  -6.6271  -6.5800  -6.5786  -6.5739
    -6.5045  -6.4929  -6.4334  -6.4158  -6.3482  -6.2190  -6.2106  -6.1826
    -6.1767  -6.1750  -6.1138  -6.0852  -6.0838  -6.0603  -6.0330  -6.0041
    -6.0018  -5.8946  -5.7990  -5.7693  -5.7427  -5.7202  -5.7146  -5.5916
    -5.4701  -5.4560  -5.4189  -5.3911  -5.3873  -5.3595  -5.3439  -5.3365
    -5.3105  -5.2879  -5.2399  -5.2298  -5.1851  -5.1566  -5.1065  -5.0956
    -5.0942  -5.0260  -5.0136  -5.0079  -5.0075  -4.9994  -4.9855  -4.8809
    -4.8755  -4.8661  -4.8378  -4.7725  -4.7712  -4.7179  -4.6456  -4.6433
    -4.3814  -4.1081  -3.8821  -3.7848  -3.7649  -3.1611  -3.0611  -3.0144
    -2.5176  -2.1757  -2.0584  -1.5974  -1.5410  -1.0017  -0.7106  -0.3057

          k = 0.1000 0.4041 0.0000 ( 34647 PWs)   bands (ev):

   -13.4450 -12.7564 -11.7132 -11.2455 -10.7740 -10.5257 -10.1480 -10.1358
    -9.8570  -9.5723  -9.5573  -9.5390  -9.2995  -9.2776  -9.2713  -9.2319
    -9.1053  -8.9944  -8.9666  -8.8863  -8.6979  -8.6965  -8.6839  -8.6731
    -8.5927  -8.4342  -8.4125  -8.3939  -8.3446  -8.3203  -8.1033  -8.0915
    -8.0768  -7.9962  -7.9777  -7.9541  -7.9066  -7.8204  -7.8114  -7.7460
    -7.6713  -7.5735  -7.5648  -7.5170  -7.5042  -7.4956  -7.4945  -7.4242
    -7.3482  -7.3229  -7.2501  -7.2445  -7.1434  -7.0706  -7.0263  -7.0169
    -7.0005  -6.9799  -6.9733  -6.9004  -6.8675  -6.8441  -6.8245  -6.7951
    -6.7946  -6.7751  -6.7159  -6.6999  -6.6549  -6.6332  -6.6165  -6.6010
    -6.5851  -6.5503  -6.5084  -6.4857  -6.4855  -6.4473  -6.4212  -6.4033
    -6.3899  -6.3521  -6.3175  -6.2482  -6.1568  -6.1434  -6.1357  -6.1088
    -6.0567  -6.0027  -5.8670  -5.8506  -5.8370  -5.7631  -5.7039  -5.6931
    -5.6606  -5.6573  -5.6236  -5.6183  -5.5959  -5.5613  -5.5500  -5.4715
    -5.4048  -5.4047  -5.3664  -5.3657  -5.3608  -5.2313  -5.2187  -5.1984
    -5.1790  -5.1014  -5.0648  -5.0309  -5.0291  -5.0143  -4.9929  -4.9877
    -4.9819  -4.9700  -4.8953  -4.8827  -4.8793  -4.7814  -4.7758  -4.2541
    -4.2193  -4.2016  -4.0539  -3.7704  -3.1511  -2.9097  -2.7561  -2.6961
    -2.3654  -2.3125  -1.8500  -1.4536  -1.0381  -0.9520  -0.1143   0.4491

          k = 0.1000-0.6351 0.0000 ( 34652 PWs)   bands (ev):

   -12.7906 -12.1394 -12.0354 -11.4507 -11.1664 -10.6072 -10.1549 -10.0850
    -9.8383  -9.7253  -9.4432  -9.2189  -9.1166  -9.1055  -9.0792  -9.0216
    -8.9812  -8.9245  -8.9128  -8.8565  -8.7608  -8.6788  -8.5327  -8.4807
    -8.4733  -8.4057  -8.3048  -8.2496  -8.2420  -8.2239  -8.1733  -8.1525
    -8.0532  -7.9991  -7.9568  -7.9111  -7.9054  -7.8865  -7.8021  -7.7881
    -7.7765  -7.7030  -7.6351  -7.6290  -7.6130  -7.5851  -7.5638  -7.5363
    -7.4577  -7.4038  -7.3527  -7.3367  -7.2435  -7.2246  -7.1774  -7.1619
    -7.0854  -7.0753  -7.0615  -7.0423  -7.0153  -6.9375  -6.8538  -6.8513
    -6.8430  -6.8392  -6.8129  -6.7666  -6.7332  -6.7323  -6.7318  -6.7053
    -6.6940  -6.6775  -6.6621  -6.5669  -6.4322  -6.3896  -6.3683  -6.3554
    -6.3231  -6.2496  -6.1966  -6.1923  -6.1592  -6.1381  -6.0684  -6.0390
    -6.0021  -5.9747  -5.9622  -5.9542  -5.8862  -5.8440  -5.8333  -5.8140
    -5.8034  -5.7979  -5.7524  -5.7480  -5.6573  -5.6450  -5.6106  -5.5680
    -5.5441  -5.5375  -5.5052  -5.4609  -5.4350  -5.3764  -5.3668  -5.3278
    -5.2805  -5.2405  -5.1271  -5.0880  -5.0317  -5.0168  -4.9639  -4.9564
    -4.9424  -4.9375  -4.8986  -4.8950  -4.7844  -4.7830  -4.7758  -4.5271
    -4.1349  -4.0219  -3.8095  -3.7009  -3.3127  -2.8268  -2.5948  -2.4595
    -2.2970  -1.7189  -1.7069  -1.3853  -1.3792  -0.7358  -0.3720   0.4267

          k = 0.2000 0.3464 0.0000 ( 34647 PWs)   bands (ev):

   -13.5289 -12.8360 -11.7851 -10.7107 -10.7106 -10.5860 -10.3270 -10.3270
    -9.8564  -9.8564  -9.6222  -9.3976  -9.3976  -9.3169  -9.2951  -9.2057
    -9.0483  -8.9449  -8.9448  -8.8976  -8.7173  -8.7058  -8.7058  -8.6196
    -8.5223  -8.5223  -8.4457  -8.4118  -8.3460  -8.3460  -8.1228  -8.1228
    -8.0783  -8.0346  -7.9633  -7.8951  -7.8951  -7.8809  -7.8245  -7.6562
    -7.6457  -7.6457  -7.5266  -7.5186  -7.4943  -7.4943  -7.4468  -7.4115
    -7.3770  -7.1922  -7.1840  -7.1840  -7.1249  -7.1249  -7.0692  -7.0270
    -7.0153  -6.9737  -6.9307  -6.9307  -6.8779  -6.8600  -6.8600  -6.7986
    -6.7589  -6.7352  -6.7352  -6.7331  -6.6761  -6.6266  -6.5903  -6.5903
    -6.5321  -6.5321  -6.5172  -6.4912  -6.4526  -6.4200  -6.3954  -6.3954
    -6.3472  -6.3347  -6.2926  -6.2176  -6.1712  -6.1490  -6.1004  -6.1004
    -6.0782  -6.0509  -5.8456  -5.8078  -5.8078  -5.7523  -5.7223  -5.6926
    -5.6926  -5.6219  -5.5960  -5.5960  -5.5303  -5.5208  -5.4613  -5.4613
    -5.4457  -5.3934  -5.3934  -5.1830  -5.1675  -5.1546  -5.1411  -5.1411
    -5.0814  -5.0814  -5.0506  -5.0497  -5.0446  -5.0022  -5.0022  -4.9648
    -4.8895  -4.8706  -4.8706  -4.8501  -4.7854  -4.7854  -4.6527  -4.6527
    -4.5272  -4.5272  -4.2973  -3.6998  -3.6998  -3.2438  -2.4401  -2.2143
    -2.2143  -2.1063  -1.6740  -1.2686  -0.8878  -0.4887  -0.3666  -0.1656

          k = 0.2000-0.6928 0.0000 ( 34654 PWs)   bands (ev):

   -12.9473 -12.2842 -11.4709 -11.2875 -10.9477 -10.8250 -10.3895 -10.2201
   -10.1673  -9.8160  -9.5000  -9.2876  -9.2651  -9.0427  -8.9733  -8.9382
    -8.9320  -8.9012  -8.8617  -8.7213  -8.5961  -8.5599  -8.5529  -8.5241
    -8.4524  -8.3828  -8.3233  -8.2932  -8.1994  -8.1800  -8.1649  -8.1213
    -8.1201  -8.0587  -8.0132  -7.9600  -7.9214  -7.9055  -7.8693  -7.7988
    -7.7944  -7.7165  -7.6548  -7.6440  -7.6193  -7.6153  -7.5739  -7.5400
    -7.5168  -7.3501  -7.3241  -7.2506  -7.2004  -7.1909  -7.1842  -7.1532
    -7.1409  -7.1043  -7.0674  -7.0597  -7.0128  -6.9938  -6.9848  -6.9005
    -6.8936  -6.8633  -6.8288  -6.7613  -6.7559  -6.7297  -6.6856  -6.6709
    -6.6604  -6.6576  -6.6331  -6.4587  -6.4154  -6.3785  -6.3709  -6.3530
    -6.3369  -6.3097  -6.2159  -6.1395  -6.1231  -6.1192  -6.0806  -6.0722
    -5.9980  -5.9542  -5.9449  -5.9178  -5.9166  -5.9011  -5.8593  -5.7797
    -5.7551  -5.7083  -5.7025  -5.6670  -5.6103  -5.5867  -5.5418  -5.5279
    -5.5273  -5.5216  -5.3571  -5.3321  -5.2817  -5.2087  -5.1903  -5.1578
    -5.1550  -5.0987  -5.0968  -5.0830  -5.0666  -5.0591  -5.0346  -5.0291
    -5.0130  -5.0003  -4.9469  -4.9331  -4.8830  -4.8779  -4.7740  -4.6953
    -4.6106  -4.4439  -4.1856  -3.8896  -3.6315  -2.8565  -2.6114  -2.2200
    -1.5958  -1.5924  -1.2511  -1.1418  -0.7304  -0.4258  -0.1544   0.3506

          k = 0.2000-0.5774 0.0000 ( 34664 PWs)   bands (ev):

   -12.2447 -12.2447 -11.6331 -11.6330 -10.8640 -10.7345 -10.7344 -10.4095
    -9.7955  -9.7666  -9.7666  -9.2281  -9.0008  -9.0008  -8.9022  -8.8156
    -8.8154  -8.7849  -8.6679  -8.6602  -8.6577  -8.6577  -8.4797  -8.4661
    -8.3345  -8.3288  -8.3288  -8.3093  -8.2930  -8.2422  -8.1307  -8.0836
    -8.0691  -8.0691  -8.0545  -7.9290  -7.9010  -7.9010  -7.8875  -7.8073
    -7.8073  -7.7843  -7.6853  -7.6853  -7.6405  -7.5916  -7.5875  -7.5875
    -7.5544  -7.4072  -7.3430  -7.3416  -7.3102  -7.2983  -7.2721  -7.2721
    -7.2258  -7.1854  -7.1854  -7.1778  -7.1691  -7.1691  -6.9803  -6.9803
    -6.8564  -6.8564  -6.8404  -6.8327  -6.8306  -6.8160  -6.6688  -6.6688
    -6.6465  -6.6258  -6.5568  -6.5568  -6.3682  -6.3208  -6.3208  -6.2242
    -6.2242  -6.2097  -6.2013  -6.2013  -6.1817  -6.1316  -6.0845  -6.0845
    -6.0105  -5.9966  -5.9447  -5.9045  -5.9045  -5.8568  -5.8424  -5.8424
    -5.8138  -5.7344  -5.6703  -5.6703  -5.6284  -5.6061  -5.6061  -5.5542
    -5.5169  -5.5169  -5.3672  -5.3672  -5.3512  -5.3512  -5.3292  -5.2221
    -5.2221  -5.1821  -5.1821  -5.1693  -5.0846  -5.0662  -5.0310  -5.0297
    -5.0215  -5.0079  -5.0016  -5.0016  -4.8868  -4.8778  -4.6582  -4.5996
    -4.5236  -4.5236  -4.4147  -3.6053  -3.4144  -3.4144  -2.2192  -1.9070
    -1.9070  -1.5141  -1.1453  -0.6476  -0.6476  -0.4994  -0.4484   0.3861

          k = 0.3000-0.6351 0.0000 ( 34663 PWs)   bands (ev):

   -12.3154 -11.6949 -11.5867 -11.5867 -11.0369 -11.0369 -10.7780 -10.2540
   -10.2540  -9.7792  -9.4591  -9.4591  -8.9880  -8.8885  -8.8885  -8.7750
    -8.6651  -8.6582  -8.6456  -8.5730  -8.5317  -8.5029  -8.4416  -8.4271
    -8.4147  -8.4147  -8.3898  -8.3014  -8.3014  -8.2281  -8.1207  -8.1207
    -8.0786  -8.0706  -7.9764  -7.9642  -7.9642  -7.9054  -7.9054  -7.8970
    -7.7837  -7.7837  -7.7542  -7.7169  -7.6658  -7.6658  -7.6549  -7.5696
    -7.4793  -7.4284  -7.3800  -7.3800  -7.3299  -7.3257  -7.2938  -7.2938
    -7.2809  -7.2809  -7.2789  -7.2342  -7.1233  -7.1233  -7.0317  -7.0168
    -7.0168  -6.8733  -6.8728  -6.8585  -6.8191  -6.8187  -6.6307  -6.6307
    -6.5880  -6.5805  -6.5805  -6.4799  -6.3911  -6.3529  -6.3529  -6.2791
    -6.1836  -6.1580  -6.1580  -6.1527  -6.1413  -6.1413  -6.1349  -6.0951
    -6.0207  -5.9963  -5.9963  -5.9007  -5.8671  -5.8630  -5.8251  -5.7485
    -5.7485  -5.7407  -5.6730  -5.6730  -5.6533  -5.6533  -5.5548  -5.5364
    -5.3587  -5.3435  -5.3180  -5.3180  -5.2598  -5.2004  -5.2004  -5.1945
    -5.1819  -5.1695  -5.1648  -5.1647  -5.0895  -5.0895  -5.0878  -5.0570
    -5.0450  -5.0450  -5.0360  -5.0071  -4.9785  -4.9750  -4.9750  -4.9392
    -4.9392  -4.5166  -4.1618  -4.1618  -3.4439  -2.8949  -2.8949  -1.9692
    -1.2356  -1.2356  -0.7401  -0.4143  -0.2643   0.0072   0.2184   0.3655

     the Fermi energy is    -5.1257 ev

!    total energy              =   -4458.31233692 Ry
     total all-electron energy =    -72999.713268 Ry
     estimated scf accuracy    <          7.5E-09 Ry
     smearing contrib. (-TS)   =      -0.00483039 Ry
     internal energy E=F+TS    =   -4458.30750653 Ry

     The total energy is F=E-TS. E is the sum of the following terms:
     one-electron contribution =  -75795.57004692 Ry
     hartree contribution      =   38095.76410477 Ry
     xc contribution           =   -1002.31910530 Ry
     ewald contribution        =   36287.28095063 Ry
     DFT-D3 Dispersion         =      -1.79914811 Ry
     one-center paw contrib.   =   -2041.66426160 Ry

     total magnetization       =    15.84 Bohr mag/cell
     absolute magnetization    =    18.06 Bohr mag/cell

     convergence has been achieved in  38 iterations

     negative rho (up, down):  2.647E-04 2.079E-04

     Forces acting on atoms (cartesian axes, Ry/au):

     atom    1 type  1   force =     0.00000000    0.00000000   -0.00015879
     atom    2 type  1   force =     0.00000057    0.00000033   -0.00016213
     atom    3 type  1   force =     0.00000000   -0.00000066   -0.00016213
     atom    4 type  1   force =    -0.00000057    0.00000033   -0.00016213
     atom    5 type  1   force =     0.00000000    0.00000000    0.00063043
     atom    6 type  1   force =    -0.00000604   -0.00000349    0.00062387
     atom    7 type  1   force =     0.00000000    0.00000698    0.00062387
     atom    8 type  1   force =     0.00000604   -0.00000349    0.00062387
     atom    9 type  1   force =     0.00000000    0.00000000   -0.00055575
     atom   10 type  1   force =    -0.00000004   -0.00000002   -0.00055706
     atom   11 type  1   force =     0.00000004   -0.00000002   -0.00055706
     atom   12 type  1   force =    -0.00000000    0.00000004   -0.00055706
     atom   13 type  1   force =     0.00000000    0.00000000    0.00048236
     atom   14 type  1   force =    -0.00000063   -0.00000036    0.00048182
     atom   15 type  1   force =     0.00000000    0.00000072    0.00048182
     atom   16 type  1   force =     0.00000063   -0.00000036    0.00048182
     atom   17 type  1   force =     0.00000000    0.00000000   -0.00039860
     atom   18 type  1   force =    -0.00000178   -0.00000103   -0.00040368
     atom   19 type  1   force =    -0.00000000    0.00000205   -0.00040368
     atom   20 type  1   force =     0.00000178   -0.00000103   -0.00040368
     atom   21 type  1   force =     0.00000000    0.00000000    0.00001253
     atom   22 type  1   force =     0.00000000    0.00000168    0.00001312
     atom   23 type  1   force =     0.00000146   -0.00000084    0.00001312
     atom   24 type  1   force =    -0.00000146   -0.00000084    0.00001312

     Total force =     0.001679     Total SCF correction =     0.000374
     SCF correction compared to forces is large: reduce conv_thr to get better values


     Computing stress (Cartesian axis) and pressure


     negative rho (up, down):  2.647E-04 2.079E-04
          total   stress  (Ry/bohr**3)                   (kbar)     P=       -7.01
  -0.00006994   0.00000000  -0.00000000          -10.29        0.00       -0.00
   0.00000000  -0.00006994  -0.00000000            0.00      -10.29       -0.00
  -0.00000000  -0.00000000  -0.00000303           -0.00       -0.00       -0.45


     BFGS Geometry Optimization
     Energy error            =      0.0E+00 Ry
     Gradient error          =      5.6E-04 Ry/Bohr

     bfgs converged in   1 scf cycles and   0 bfgs steps
     (criteria: energy <  1.8E-05 Ry, force <  7.8E-04 Ry/Bohr)

     End of BFGS Geometry Optimization

     Final energy             =   -4458.3123369198 Ry
Begin final coordinates

ATOMIC_POSITIONS (angstrom)
Ni               4.8654290602        2.8090567776       11.0000000000    0   0   0
Ni               1.2163587666        0.7022650613       11.0000067374    0   0   0
Ni               2.4327145301        2.8090550438       11.0000067374    0   0   0
Ni               3.6490702936        0.7022650613       11.0000067374    0   0   0
Ni               2.4327145301        1.4045283888       12.9863030962    0   0   0
Ni               6.0817878268        3.5113218389       12.9863098336    0   0   0
Ni               4.8654290602        1.4045266550       12.9863098336    0   0   0
Ni               3.6490702936        3.5113218389       12.9863098336    0   0   0
Ni               2.4327147368        4.2135848083       14.9720522980
Ni               3.6490718173        2.1067929453       14.9720560241
Ni               6.0817860901        2.1067930772       14.9720564448
Ni               4.8654288947        4.2135846682       14.9720558592
Ni               4.8654291404        2.8090569171       16.9594796958
Ni               1.2163583472        0.7022646973       16.9594835019
Ni               2.4327145869        2.8090555583       16.9594835531
Ni               3.6490708660        0.7022648295       16.9594838046
Ni               2.4327148964        1.4045289663       18.9448584988
Ni               6.0817874016        3.5113214154       18.9448631398
Ni               4.8654286991        1.4045275725       18.9448635601
Ni               3.6490705728        3.5113208354       18.9448630851
Ni              -0.0000001281       -0.0000001892       20.9315839629
Ni               4.8654292456        4.2135845893       20.9315897455
Ni               6.0817855862        2.1067929276       20.9315888178
Ni               3.6490724027        2.1067927520       20.9315883693
End final coordinates


     Message from routine punch:
     Nothing written, as per user request (disk_io='none')
 
     init_run     :     11.68s CPU     12.12s WALL (       1 calls)
     electrons    :    712.81s CPU    777.98s WALL (       1 calls)
     forces       :      4.37s CPU      4.46s WALL (       1 calls)
     force_dftd3  :      0.20s CPU      0.21s WALL (       1 calls)
     stress       :     28.05s CPU     29.42s WALL (       1 calls)
     stres_dftd3  :      0.11s CPU      0.21s WALL (       1 calls)

     Called by init_run:
     wfcinit      :      9.77s CPU     10.06s WALL (       1 calls)
     potinit      :      1.18s CPU      1.25s WALL (       1 calls)
     hinit0       :      0.26s CPU      0.29s WALL (       1 calls)

     Called by electrons:
     c_bands      :    536.64s CPU    586.15s WALL (      38 calls)
     sum_band     :    117.55s CPU    128.06s WALL (      38 calls)
     v_of_rho     :     14.85s CPU     16.24s WALL (      39 calls)
     newd         :      4.68s CPU      5.03s WALL (      39 calls)
     PAW_pot      :     11.98s CPU     12.57s WALL (      39 calls)
     mix_rho      :     24.90s CPU     27.30s WALL (      38 calls)
     energy_dftd3 :      0.11s CPU      0.11s WALL (       1 calls)

     Called by c_bands:
     init_us_2    :      4.11s CPU      4.51s WALL (     553 calls)
     init_us_2:cp :      4.11s CPU      4.51s WALL (     553 calls)
     cegterg      :    513.37s CPU    557.76s WALL (     266 calls)

     Called by *egterg:
     cdiaghg      :     23.82s CPU     25.43s WALL (     715 calls)
     h_psi        :    341.90s CPU    376.65s WALL (     722 calls)
     s_psi        :     30.27s CPU     32.69s WALL (     722 calls)
     g_psi        :      0.97s CPU      1.00s WALL (     449 calls)

     Called by h_psi:
     h_psi:calbec :     53.78s CPU     56.51s WALL (     722 calls)
     vloc_psi     :    255.81s CPU    285.21s WALL (     722 calls)
     add_vuspsi   :     30.65s CPU     33.05s WALL (     722 calls)

     General routines
     calbec       :     83.97s CPU     88.13s WALL (    1023 calls)
     fft          :      9.69s CPU     10.69s WALL (    1013 calls)
     ffts         :      7.80s CPU      8.77s WALL (    4705 calls)
     fftw         :    272.34s CPU    297.89s WALL (  197662 calls)
     interpolate  :      0.76s CPU      0.89s WALL (      78 calls)
 
     Parallel routines
 
     PWSCF        :  12m37.70s CPU  13m44.93s WALL

 
   This run was terminated on:  10:41: 9  25Apr2026            

=------------------------------------------------------------------------------=
   JOB DONE.
=------------------------------------------------------------------------------=
