
     Program PWSCF v.7.3 starts on 11Sep2025 at  0:18:34 

     This program is part of the open-source Quantum ESPRESSO suite
     for quantum simulation of materials; please cite
         "P. Giannozzi et al., J. Phys.:Condens. Matter 21 395502 (2009);
         "P. Giannozzi et al., J. Phys.:Condens. Matter 29 465901 (2017);
         "P. Giannozzi et al., J. Chem. Phys. 152 154105 (2020);
          URL http://www.quantum-espresso.org", 
     in publications or presentations arising from this work. More details at
     http://www.quantum-espresso.org/quote

     Parallel version (MPI), running on    24 processors

     MPI processes distributed on     1 nodes
     243037 MiB available memory on the printing compute node when the environment starts
 
     Reading input from Ni_1.in

     Current dimensions of program PWSCF are:
     Max number of different atomic species (ntypx) = 10
     Max number of k-points (npk) =  40000
     Max angular momentum in pseudopotentials (lmaxx) =  4
     Stress calculation not meaningful in isolated systems

     file Ni.upf: wavefunction(s)  4S 3D renormalized

     IMPORTANT: XC functional enforced from input :
     Exchange-correlation= PBE
                           (   1   4   3   4   0   0   0)
     Any further DFT definition will be discarded
     Please, verify this is what you really want


     gamma-point specific algorithms are used
 
     R & G space division:  proc/nbgrp/npool/nimage =      24
     Subspace diagonalization in iterative solution of the eigenvalue problem:
     a serial algorithm will be used

 
     Parallelization info
     --------------------
     sticks:   dense  smooth     PW     G-vecs:    dense   smooth      PW
     Min        2272    1136    283               399492   141216   17648
     Max        2275    1138    286               399502   141226   17660
     Sum       54553   27281   6817              9587919  3389267  423701
 
     Using Slab Decomposition
 

     Title: 
     Ni_1                                                                       


     bravais-lattice index     =            1
     lattice parameter (alat)  =      37.7945  a.u.
     unit-cell volume          =   53986.6760 (a.u.)^3
     number of atoms/cell      =            1
     number of atomic types    =            1
     number of electrons       =        10.00
     number of Kohn-Sham states=            9
     kinetic-energy cutoff     =      60.0000  Ry
     charge density cutoff     =     480.0000  Ry
     scf convergence threshold =      6.4E-09
     mixing beta               =       0.3000
     number of iterations used =           12  plain     mixing
     Exchange-correlation= PBE
                           (   1   4   3   4   0   0   0)
     Assuming isolated system, Martyna-Tuckerman method


     celldm(1)=  37.794522  celldm(2)=   0.000000  celldm(3)=   0.000000
     celldm(4)=   0.000000  celldm(5)=   0.000000  celldm(6)=   0.000000

     crystal axes: (cart. coord. in units of alat)
               a(1) = (   1.000000   0.000000   0.000000 )  
               a(2) = (   0.000000   1.000000   0.000000 )  
               a(3) = (   0.000000   0.000000   1.000000 )  

     reciprocal axes: (cart. coord. in units 2 pi/alat)
               b(1) = (  1.000000  0.000000  0.000000 )  
               b(2) = (  0.000000  1.000000  0.000000 )  
               b(3) = (  0.000000  0.000000  1.000000 )  


     PseudoPot. # 1 for Ni read from file:
     /tmpu/mdach_g/mdach/PP/Ni.upf
     MD5 check sum: d88365a95a5e142bd87181c2c8b16588
     Pseudo is Projector augmented-wave + core cor, Zval = 10.0
     Generated using "atomic" code by A. Dal Corso  v.5.0.2 svn rev. 9415
     Shape of augmentation charge: PSQ
     Using radial grid of 1195 points,  6 beta functions with: 
                l(1) =   0
                l(2) =   0
                l(3) =   1
                l(4) =   1
                l(5) =   2
                l(6) =   2
     Q(r) pseudized with 0 coefficients 


     atomic species   valence    mass     pseudopotential
     Ni               10.00    58.69340     Ni( 1.00)

     Starting magnetic structure 
     atomic species   magnetization
     Ni              0.600

     No symmetry found



   Cartesian axes

     site n.     atom                  positions (alat units)
         1        Ni     tau(   1) = (   0.5000000   0.5000000   0.5000000  )

     --------------------------------------------
     DFT-D3 Dispersion Correction (3-body terms):
     --------------------------------------------
       Reference C6 values for interpolation: 

         atom   Coordination number   C6
         Ni         0.000          1149.49
         Ni         1.794           356.66
         Ni         6.546           257.56
         Ni         6.292           283.75

       Values used:

         atom   Coordination number  R0_AB[au]  C6      C8
         Ni         0.000            3.162   1149.48  96318.52

         Molecular C6 ( Ry / a.u.^6 ) =      1149.48


     number of k points=     1  Gaussian smearing, width (Ry)=  0.0147
                       cart. coord. in units 2pi/alat
        k(    1) = (   0.0000000   0.0000000   0.0000000), wk =   1.0000000

     Dense  grid:  4793960 G-vectors     FFT dimensions: ( 270, 270, 270)

     Smooth grid:  1694634 G-vectors     FFT dimensions: ( 192, 192, 192)

     Estimated max dynamical RAM per process >     866.08 MB

     Estimated total dynamical RAM >      20.30 GB
     Generating pointlists ...
     new r_m :   0.4125 (alat units) 15.5902 (a.u.) for type    1

     Initial potential from superposition of free atoms

     starting charge       9.9997, renormalised to      10.0000

     negative rho (up, down):  8.594E-04 2.149E-04
     Starting wfcs are    9 randomized atomic wfcs
     Checking if some PAW data can be deallocated... 

     total cpu time spent up to now is        6.9 secs

     Self-consistent Calculation

     iteration #  1     ecut=    60.00 Ry     beta= 0.30
     Davidson diagonalization with overlap
     ethr =  1.00E-02,  avg # of iterations =  2.0

     negative rho (up, down):  7.396E-04 3.265E-04

     total cpu time spent up to now is       15.6 secs

     total energy              =    -185.14400214 Ry
     estimated scf accuracy    <       0.94351421 Ry

     total magnetization       =     1.99 Bohr mag/cell
     absolute magnetization    =     1.99 Bohr mag/cell

     iteration #  2     ecut=    60.00 Ry     beta= 0.30
     Davidson diagonalization with overlap
     ethr =  9.44E-03,  avg # of iterations =  1.0

     negative rho (up, down):  6.913E-04 3.134E-04

     total cpu time spent up to now is       24.2 secs

     total energy              =    -185.21567660 Ry
     estimated scf accuracy    <       0.44845707 Ry

     total magnetization       =     2.00 Bohr mag/cell
     absolute magnetization    =     2.08 Bohr mag/cell

     iteration #  3     ecut=    60.00 Ry     beta= 0.30
     Davidson diagonalization with overlap
     ethr =  4.48E-03,  avg # of iterations =  1.0

     negative rho (up, down):  7.780E-04 1.028E-03

     total cpu time spent up to now is       33.0 secs

     total energy              =    -185.30950862 Ry
     estimated scf accuracy    <       0.32929092 Ry

     total magnetization       =     2.00 Bohr mag/cell
     absolute magnetization    =     2.00 Bohr mag/cell

     iteration #  4     ecut=    60.00 Ry     beta= 0.30
     Davidson diagonalization with overlap
     ethr =  3.29E-03,  avg # of iterations =  1.5

     negative rho (up, down):  6.738E-04 8.975E-04

     total cpu time spent up to now is       41.8 secs

     total energy              =    -185.32396606 Ry
     estimated scf accuracy    <       0.42969077 Ry

     total magnetization       =     2.00 Bohr mag/cell
     absolute magnetization    =     2.04 Bohr mag/cell

     iteration #  5     ecut=    60.00 Ry     beta= 0.30
     Davidson diagonalization with overlap
     ethr =  3.29E-03,  avg # of iterations =  1.0

     negative rho (up, down):  6.336E-04 6.873E-04

     total cpu time spent up to now is       50.5 secs

     total energy              =    -185.35012479 Ry
     estimated scf accuracy    <       0.01849930 Ry

     total magnetization       =     2.00 Bohr mag/cell
     absolute magnetization    =     2.00 Bohr mag/cell

     iteration #  6     ecut=    60.00 Ry     beta= 0.30
     Davidson diagonalization with overlap
     ethr =  1.85E-04,  avg # of iterations =  3.5

     negative rho (up, down):  6.077E-04 6.005E-04

     total cpu time spent up to now is       59.4 secs

     total energy              =    -185.35422629 Ry
     estimated scf accuracy    <       0.01025655 Ry

     total magnetization       =     2.00 Bohr mag/cell
     absolute magnetization    =     2.00 Bohr mag/cell

     iteration #  7     ecut=    60.00 Ry     beta= 0.30
     Davidson diagonalization with overlap
     ethr =  1.03E-04,  avg # of iterations =  1.5

     negative rho (up, down):  1.005E-03 7.888E-04

     total cpu time spent up to now is       68.2 secs

     total energy              =    -185.35610713 Ry
     estimated scf accuracy    <       0.01241687 Ry

     total magnetization       =     2.00 Bohr mag/cell
     absolute magnetization    =     2.00 Bohr mag/cell

     iteration #  8     ecut=    60.00 Ry     beta= 0.30
     Davidson diagonalization with overlap
     ethr =  1.03E-04,  avg # of iterations =  2.0

     negative rho (up, down):  1.004E-03 8.648E-04

     total cpu time spent up to now is       77.2 secs

     total energy              =    -185.35461641 Ry
     estimated scf accuracy    <       0.30856014 Ry

     total magnetization       =     2.00 Bohr mag/cell
     absolute magnetization    =     2.00 Bohr mag/cell

     iteration #  9     ecut=    60.00 Ry     beta= 0.30
     Davidson diagonalization with overlap
     ethr =  1.03E-04,  avg # of iterations =  1.5

     negative rho (up, down):  1.015E-03 8.965E-04

     total cpu time spent up to now is       86.1 secs

     total energy              =    -185.35760798 Ry
     estimated scf accuracy    <       0.12498739 Ry

     total magnetization       =     2.00 Bohr mag/cell
     absolute magnetization    =     2.00 Bohr mag/cell

     iteration # 10     ecut=    60.00 Ry     beta= 0.30
     Davidson diagonalization with overlap
     ethr =  1.03E-04,  avg # of iterations =  1.0

     negative rho (up, down):  9.568E-04 1.151E-03

     total cpu time spent up to now is       95.0 secs

     total energy              =    -185.36066839 Ry
     estimated scf accuracy    <       0.13957007 Ry

     total magnetization       =     2.00 Bohr mag/cell
     absolute magnetization    =     2.00 Bohr mag/cell

     iteration # 11     ecut=    60.00 Ry     beta= 0.30
     Davidson diagonalization with overlap
     ethr =  1.03E-04,  avg # of iterations =  1.0

     negative rho (up, down):  7.584E-04 1.123E-03

     total cpu time spent up to now is      103.9 secs

     total energy              =    -185.35509474 Ry
     estimated scf accuracy    <       0.20807457 Ry

     total magnetization       =     2.00 Bohr mag/cell
     absolute magnetization    =     2.00 Bohr mag/cell

     iteration # 12     ecut=    60.00 Ry     beta= 0.30
     Davidson diagonalization with overlap
     ethr =  1.03E-04,  avg # of iterations =  1.0

     negative rho (up, down):  7.659E-04 1.094E-03

     total cpu time spent up to now is      112.8 secs

     total energy              =    -185.35714303 Ry
     estimated scf accuracy    <       0.06772447 Ry

     total magnetization       =     2.00 Bohr mag/cell
     absolute magnetization    =     2.00 Bohr mag/cell

     iteration # 13     ecut=    60.00 Ry     beta= 0.30
     Davidson diagonalization with overlap
     ethr =  1.03E-04,  avg # of iterations =  1.0

     negative rho (up, down):  8.190E-04 1.234E-03

     total cpu time spent up to now is      121.9 secs

     total energy              =    -185.35485656 Ry
     estimated scf accuracy    <       0.08212928 Ry

     total magnetization       =     2.00 Bohr mag/cell
     absolute magnetization    =     2.00 Bohr mag/cell

     iteration # 14     ecut=    60.00 Ry     beta= 0.30
     Davidson diagonalization with overlap
     ethr =  1.03E-04,  avg # of iterations =  1.0

     negative rho (up, down):  7.175E-04 7.980E-04

     total cpu time spent up to now is      131.0 secs

     total energy              =    -185.34972220 Ry
     estimated scf accuracy    <       0.03548787 Ry

     total magnetization       =     2.00 Bohr mag/cell
     absolute magnetization    =     2.00 Bohr mag/cell

     iteration # 15     ecut=    60.00 Ry     beta= 0.30
     Davidson diagonalization with overlap
     ethr =  1.03E-04,  avg # of iterations =  2.0

     negative rho (up, down):  6.928E-04 6.230E-04

     total cpu time spent up to now is      140.2 secs

     total energy              =    -185.35448429 Ry
     estimated scf accuracy    <       0.01719569 Ry

     total magnetization       =     2.00 Bohr mag/cell
     absolute magnetization    =     2.00 Bohr mag/cell

     iteration # 16     ecut=    60.00 Ry     beta= 0.30
     Davidson diagonalization with overlap
     ethr =  1.03E-04,  avg # of iterations =  1.0

     negative rho (up, down):  7.266E-04 6.335E-04

     total cpu time spent up to now is      149.4 secs

     total energy              =    -185.35508015 Ry
     estimated scf accuracy    <       0.00679501 Ry

     total magnetization       =     2.00 Bohr mag/cell
     absolute magnetization    =     2.00 Bohr mag/cell

     iteration # 17     ecut=    60.00 Ry     beta= 0.30
     Davidson diagonalization with overlap
     ethr =  6.80E-05,  avg # of iterations =  1.0

     negative rho (up, down):  7.011E-04 5.977E-04

     total cpu time spent up to now is      158.6 secs

     total energy              =    -185.35525662 Ry
     estimated scf accuracy    <       0.01277311 Ry

     total magnetization       =     2.00 Bohr mag/cell
     absolute magnetization    =     2.00 Bohr mag/cell

     iteration # 18     ecut=    60.00 Ry     beta= 0.30
     Davidson diagonalization with overlap
     ethr =  6.80E-05,  avg # of iterations =  1.0

     negative rho (up, down):  6.975E-04 5.794E-04

     total cpu time spent up to now is      167.8 secs

     total energy              =    -185.35504564 Ry
     estimated scf accuracy    <       0.01390945 Ry

     total magnetization       =     2.00 Bohr mag/cell
     absolute magnetization    =     2.00 Bohr mag/cell

     iteration # 19     ecut=    60.00 Ry     beta= 0.30
     Davidson diagonalization with overlap
     ethr =  6.80E-05,  avg # of iterations =  1.0

     negative rho (up, down):  6.530E-04 5.493E-04

     total cpu time spent up to now is      176.9 secs

     total energy              =    -185.35499080 Ry
     estimated scf accuracy    <       0.01194956 Ry

     total magnetization       =     2.00 Bohr mag/cell
     absolute magnetization    =     2.00 Bohr mag/cell

     iteration # 20     ecut=    60.00 Ry     beta= 0.30
     Davidson diagonalization with overlap
     ethr =  6.80E-05,  avg # of iterations =  1.0

     negative rho (up, down):  6.403E-04 5.516E-04

     total cpu time spent up to now is      186.0 secs

     total energy              =    -185.35466197 Ry
     estimated scf accuracy    <       0.01071399 Ry

     total magnetization       =     2.00 Bohr mag/cell
     absolute magnetization    =     2.00 Bohr mag/cell

     iteration # 21     ecut=    60.00 Ry     beta= 0.30
     Davidson diagonalization with overlap
     ethr =  6.80E-05,  avg # of iterations =  1.0

     negative rho (up, down):  6.396E-04 5.531E-04

     total cpu time spent up to now is      195.3 secs

     total energy              =    -185.35451294 Ry
     estimated scf accuracy    <       0.00635650 Ry

     total magnetization       =     2.00 Bohr mag/cell
     absolute magnetization    =     2.00 Bohr mag/cell

     iteration # 22     ecut=    60.00 Ry     beta= 0.30
     Davidson diagonalization with overlap
     ethr =  6.36E-05,  avg # of iterations =  1.0

     negative rho (up, down):  6.390E-04 5.517E-04

     total cpu time spent up to now is      204.5 secs

     total energy              =    -185.35455804 Ry
     estimated scf accuracy    <       0.00348201 Ry

     total magnetization       =     2.00 Bohr mag/cell
     absolute magnetization    =     2.00 Bohr mag/cell

     iteration # 23     ecut=    60.00 Ry     beta= 0.30
     Davidson diagonalization with overlap
     ethr =  3.48E-05,  avg # of iterations =  1.0

     negative rho (up, down):  6.393E-04 5.509E-04

     total cpu time spent up to now is      213.7 secs

     total energy              =    -185.35455099 Ry
     estimated scf accuracy    <       0.00275826 Ry

     total magnetization       =     2.00 Bohr mag/cell
     absolute magnetization    =     2.00 Bohr mag/cell

     iteration # 24     ecut=    60.00 Ry     beta= 0.30
     Davidson diagonalization with overlap
     ethr =  2.76E-05,  avg # of iterations =  1.0

     negative rho (up, down):  6.441E-04 5.476E-04

     total cpu time spent up to now is      222.9 secs

     total energy              =    -185.35431224 Ry
     estimated scf accuracy    <       0.00257796 Ry

     total magnetization       =     2.00 Bohr mag/cell
     absolute magnetization    =     2.00 Bohr mag/cell

     iteration # 25     ecut=    60.00 Ry     beta= 0.30
     Davidson diagonalization with overlap
     ethr =  2.58E-05,  avg # of iterations =  1.0

     negative rho (up, down):  6.397E-04 5.339E-04

     total cpu time spent up to now is      232.0 secs

     total energy              =    -185.35441463 Ry
     estimated scf accuracy    <       0.00003257 Ry

     total magnetization       =     2.00 Bohr mag/cell
     absolute magnetization    =     2.00 Bohr mag/cell

     iteration # 26     ecut=    60.00 Ry     beta= 0.30
     Davidson diagonalization with overlap
     ethr =  3.26E-07,  avg # of iterations =  3.5

     negative rho (up, down):  6.345E-04 5.268E-04

     total cpu time spent up to now is      241.4 secs

     total energy              =    -185.35443189 Ry
     estimated scf accuracy    <       0.00003083 Ry

     total magnetization       =     2.00 Bohr mag/cell
     absolute magnetization    =     2.00 Bohr mag/cell

     iteration # 27     ecut=    60.00 Ry     beta= 0.30
     Davidson diagonalization with overlap
     ethr =  3.08E-07,  avg # of iterations =  1.0

     negative rho (up, down):  6.313E-04 5.214E-04

     total cpu time spent up to now is      250.4 secs

     total energy              =    -185.35443321 Ry
     estimated scf accuracy    <       0.00000507 Ry

     total magnetization       =     2.00 Bohr mag/cell
     absolute magnetization    =     2.00 Bohr mag/cell

     iteration # 28     ecut=    60.00 Ry     beta= 0.30
     Davidson diagonalization with overlap
     ethr =  5.07E-08,  avg # of iterations =  2.0

     negative rho (up, down):  6.271E-04 5.190E-04

     total cpu time spent up to now is      259.6 secs

     total energy              =    -185.35443713 Ry
     estimated scf accuracy    <       0.00001072 Ry

     total magnetization       =     2.00 Bohr mag/cell
     absolute magnetization    =     2.00 Bohr mag/cell

     iteration # 29     ecut=    60.00 Ry     beta= 0.30
     Davidson diagonalization with overlap
     ethr =  5.07E-08,  avg # of iterations =  1.5

     negative rho (up, down):  6.226E-04 5.173E-04

     total cpu time spent up to now is      268.7 secs

     total energy              =    -185.35443738 Ry
     estimated scf accuracy    <       0.00001091 Ry

     total magnetization       =     2.00 Bohr mag/cell
     absolute magnetization    =     2.00 Bohr mag/cell

     iteration # 30     ecut=    60.00 Ry     beta= 0.30
     Davidson diagonalization with overlap
     ethr =  5.07E-08,  avg # of iterations =  2.0

     negative rho (up, down):  6.205E-04 5.157E-04

     total cpu time spent up to now is      277.8 secs

     total energy              =    -185.35443765 Ry
     estimated scf accuracy    <       0.00001384 Ry

     total magnetization       =     2.00 Bohr mag/cell
     absolute magnetization    =     2.00 Bohr mag/cell

     iteration # 31     ecut=    60.00 Ry     beta= 0.30
     Davidson diagonalization with overlap
     ethr =  5.07E-08,  avg # of iterations =  1.5

     negative rho (up, down):  6.208E-04 5.156E-04

     total cpu time spent up to now is      286.9 secs

     total energy              =    -185.35444133 Ry
     estimated scf accuracy    <       0.00001240 Ry

     total magnetization       =     2.00 Bohr mag/cell
     absolute magnetization    =     2.00 Bohr mag/cell

     iteration # 32     ecut=    60.00 Ry     beta= 0.30
     Davidson diagonalization with overlap
     ethr =  5.07E-08,  avg # of iterations =  1.0

     negative rho (up, down):  6.222E-04 5.157E-04

     total cpu time spent up to now is      295.9 secs

     total energy              =    -185.35444164 Ry
     estimated scf accuracy    <       0.00000755 Ry

     total magnetization       =     2.00 Bohr mag/cell
     absolute magnetization    =     2.00 Bohr mag/cell

     iteration # 33     ecut=    60.00 Ry     beta= 0.30
     Davidson diagonalization with overlap
     ethr =  5.07E-08,  avg # of iterations =  1.0

     negative rho (up, down):  6.248E-04 5.165E-04

     total cpu time spent up to now is      305.0 secs

     total energy              =    -185.35444156 Ry
     estimated scf accuracy    <       0.00000596 Ry

     total magnetization       =     2.00 Bohr mag/cell
     absolute magnetization    =     2.00 Bohr mag/cell

     iteration # 34     ecut=    60.00 Ry     beta= 0.30
     Davidson diagonalization with overlap
     ethr =  5.07E-08,  avg # of iterations =  1.0

     negative rho (up, down):  6.253E-04 5.167E-04

     total cpu time spent up to now is      314.1 secs

     total energy              =    -185.35444144 Ry
     estimated scf accuracy    <       0.00000091 Ry

     total magnetization       =     2.00 Bohr mag/cell
     absolute magnetization    =     2.00 Bohr mag/cell

     iteration # 35     ecut=    60.00 Ry     beta= 0.30
     Davidson diagonalization with overlap
     ethr =  9.12E-09,  avg # of iterations =  1.5

     negative rho (up, down):  6.251E-04 5.166E-04

     total cpu time spent up to now is      323.2 secs

     total energy              =    -185.35444173 Ry
     estimated scf accuracy    <       0.00000029 Ry

     total magnetization       =     2.00 Bohr mag/cell
     absolute magnetization    =     2.00 Bohr mag/cell

     iteration # 36     ecut=    60.00 Ry     beta= 0.30
     Davidson diagonalization with overlap
     ethr =  2.88E-09,  avg # of iterations =  1.0

     negative rho (up, down):  6.252E-04 5.165E-04

     total cpu time spent up to now is      332.2 secs

     total energy              =    -185.35444176 Ry
     estimated scf accuracy    <       0.00000023 Ry

     total magnetization       =     2.00 Bohr mag/cell
     absolute magnetization    =     2.00 Bohr mag/cell

     iteration # 37     ecut=    60.00 Ry     beta= 0.30
     Davidson diagonalization with overlap
     ethr =  2.26E-09,  avg # of iterations =  1.0

     negative rho (up, down):  6.244E-04 5.160E-04

     total cpu time spent up to now is      341.3 secs

     total energy              =    -185.35444163 Ry
     estimated scf accuracy    <       0.00000021 Ry

     total magnetization       =     2.00 Bohr mag/cell
     absolute magnetization    =     2.00 Bohr mag/cell

     iteration # 38     ecut=    60.00 Ry     beta= 0.30
     Davidson diagonalization with overlap
     ethr =  2.08E-09,  avg # of iterations =  1.5

     negative rho (up, down):  6.240E-04 5.158E-04

     total cpu time spent up to now is      350.4 secs

     total energy              =    -185.35444163 Ry
     estimated scf accuracy    <       0.00000008 Ry

     total magnetization       =     2.00 Bohr mag/cell
     absolute magnetization    =     2.00 Bohr mag/cell

     iteration # 39     ecut=    60.00 Ry     beta= 0.30
     Davidson diagonalization with overlap
     ethr =  7.72E-10,  avg # of iterations =  2.0

     negative rho (up, down):  6.238E-04 5.157E-04

     total cpu time spent up to now is      359.6 secs

     total energy              =    -185.35444162 Ry
     estimated scf accuracy    <       0.00000003 Ry

     total magnetization       =     2.00 Bohr mag/cell
     absolute magnetization    =     2.00 Bohr mag/cell

     iteration # 40     ecut=    60.00 Ry     beta= 0.30
     Davidson diagonalization with overlap
     ethr =  2.91E-10,  avg # of iterations =  2.0

     negative rho (up, down):  6.242E-04 5.158E-04

     total cpu time spent up to now is      368.8 secs

     total energy              =    -185.35444166 Ry
     estimated scf accuracy    <       0.00000001 Ry

     total magnetization       =     2.00 Bohr mag/cell
     absolute magnetization    =     2.00 Bohr mag/cell

     iteration # 41     ecut=    60.00 Ry     beta= 0.30
     Davidson diagonalization with overlap
     ethr =  1.38E-10,  avg # of iterations =  2.0

     negative rho (up, down):  6.245E-04 5.159E-04

     total cpu time spent up to now is      377.9 secs

     total energy              =    -185.35444165 Ry
     estimated scf accuracy    <       0.00000002 Ry

     total magnetization       =     2.00 Bohr mag/cell
     absolute magnetization    =     2.00 Bohr mag/cell

     iteration # 42     ecut=    60.00 Ry     beta= 0.30
     Davidson diagonalization with overlap
     ethr =  1.38E-10,  avg # of iterations =  2.0

     negative rho (up, down):  6.247E-04 5.160E-04

     total cpu time spent up to now is      387.1 secs

     total energy              =    -185.35444169 Ry
     estimated scf accuracy    <       0.00000001 Ry

     total magnetization       =     2.00 Bohr mag/cell
     absolute magnetization    =     2.00 Bohr mag/cell

     iteration # 43     ecut=    60.00 Ry     beta= 0.30
     Davidson diagonalization with overlap
     ethr =  1.13E-10,  avg # of iterations =  2.0

     negative rho (up, down):  6.247E-04 5.159E-04

     total cpu time spent up to now is      396.3 secs

     total energy              =    -185.35444170 Ry
     estimated scf accuracy    <          7.4E-09 Ry

     total magnetization       =     2.00 Bohr mag/cell
     absolute magnetization    =     2.00 Bohr mag/cell

     iteration # 44     ecut=    60.00 Ry     beta= 0.30
     Davidson diagonalization with overlap
     ethr =  7.39E-11,  avg # of iterations =  1.5

     negative rho (up, down):  6.245E-04 5.159E-04

     total cpu time spent up to now is      405.4 secs

     total energy              =    -185.35444169 Ry
     estimated scf accuracy    <          7.7E-09 Ry

     total magnetization       =     2.00 Bohr mag/cell
     absolute magnetization    =     2.00 Bohr mag/cell

     iteration # 45     ecut=    60.00 Ry     beta= 0.30
     Davidson diagonalization with overlap
     ethr =  7.39E-11,  avg # of iterations =  2.0

     negative rho (up, down):  6.245E-04 5.159E-04

     total cpu time spent up to now is      414.5 secs

     total energy              =    -185.35444169 Ry
     estimated scf accuracy    <          6.4E-09 Ry

     total magnetization       =     2.00 Bohr mag/cell
     absolute magnetization    =     2.00 Bohr mag/cell

     iteration # 46     ecut=    60.00 Ry     beta= 0.30
     Davidson diagonalization with overlap
     ethr =  6.43E-11,  avg # of iterations =  2.0

     negative rho (up, down):  6.247E-04 5.159E-04
 
     Magnetic moment per site  (integrated on atomic sphere of radius R)
     atom   1 (R=0.413)  charge= 10.0000  magn=  2.0000

     total cpu time spent up to now is      423.1 secs

     End of self-consistent calculation

 ------ SPIN UP ------------


          k = 0.0000 0.0000 0.0000 (211851 PWs)   bands (ev):

    -6.1356  -5.6663  -5.6631  -5.5198  -5.4021  -5.0973  -1.0897  -1.0894
    -1.0479

 ------ SPIN DOWN ----------


          k = 0.0000 0.0000 0.0000 (211851 PWs)   bands (ev):

    -4.8074  -4.4680  -4.3523  -4.3514  -4.2452  -4.1282  -0.4690  -0.4677
    -0.4672

     the Fermi energy is    -4.2646 ev

!    total energy              =    -185.35444169 Ry
     total all-electron energy =     -3041.246147 Ry
     estimated scf accuracy    <          5.3E-09 Ry
     smearing contrib. (-TS)   =      -0.01504453 Ry
     internal energy E=F+TS    =    -185.33939716 Ry

     The total energy is F=E-TS. E is the sum of the following terms:
     one-electron contribution =    -135.35394545 Ry
     hartree contribution      =      76.59759916 Ry
     xc contribution           =     -41.55765064 Ry
     ewald contribution        =      -0.00000000 Ry
     DFT-D3 Dispersion         =      -0.00000164 Ry
     one-center paw contrib.   =     -85.02539860 Ry

     total magnetization       =     2.00 Bohr mag/cell
     absolute magnetization    =     2.00 Bohr mag/cell

     convergence has been achieved in  46 iterations

     negative rho (up, down):  6.247E-04 5.159E-04

     Forces acting on atoms (cartesian axes, Ry/au):

     atom    1 type  1   force =     0.00000000    0.00000000    0.00000000

     Total force =     0.000000     Total SCF correction =     0.000017

     Writing all to output data dir ./Ni_1.save/ :
     XML data file, charge density, pseudopotentials, collected wavefunctions
 
     init_run     :      6.11s CPU      6.76s WALL (       1 calls)
     electrons    :    384.44s CPU    417.32s WALL (       1 calls)
     forces       :      3.51s CPU      3.96s WALL (       1 calls)
     force_dftd3  :      0.00s CPU      0.00s WALL (       1 calls)

     Called by init_run:
     wfcinit      :      0.22s CPU      0.28s WALL (       1 calls)
     potinit      :      1.60s CPU      1.79s WALL (       1 calls)
     hinit0       :      0.39s CPU      0.46s WALL (       1 calls)

     Called by electrons:
     c_bands      :     25.43s CPU     26.40s WALL (      46 calls)
     sum_band     :    201.26s CPU    211.27s WALL (      46 calls)
     v_of_rho     :     58.59s CPU     64.40s WALL (      47 calls)
     newd         :     69.47s CPU     83.60s WALL (      47 calls)
     PAW_pot      :      5.00s CPU      5.03s WALL (      47 calls)
     mix_rho      :     18.33s CPU     19.01s WALL (      46 calls)
     energy_dftd3 :      0.00s CPU      0.00s WALL (       1 calls)

     Called by c_bands:
     init_us_2    :      0.41s CPU      0.43s WALL (     188 calls)
     init_us_2:cp :      0.41s CPU      0.42s WALL (     188 calls)
     regterg      :     23.97s CPU     24.86s WALL (      92 calls)

     Called by *egterg:
     rdiaghg      :      0.03s CPU      0.03s WALL (     226 calls)
     h_psi        :     22.55s CPU     23.44s WALL (     228 calls)
     s_psi        :      0.21s CPU      0.21s WALL (     228 calls)
     g_psi        :      0.05s CPU      0.05s WALL (     134 calls)

     Called by h_psi:
     h_psi:calbec :      0.39s CPU      0.39s WALL (     228 calls)
     vloc_psi     :     21.89s CPU     22.75s WALL (     228 calls)
     add_vuspsi   :      0.18s CPU      0.18s WALL (     228 calls)

     General routines
     calbec       :      0.55s CPU      0.56s WALL (     328 calls)
     fft          :     45.16s CPU     50.69s WALL (     860 calls)
     ffts         :      1.82s CPU      2.06s WALL (     140 calls)
     fftw         :     15.26s CPU     16.27s WALL (    2448 calls)
     interpolate  :      6.06s CPU      6.70s WALL (      94 calls)
 
     Parallel routines
 
     PWSCF        :   6m34.40s CPU   7m 8.85s WALL

 
   This run was terminated on:   0:25:43  11Sep2025            

=------------------------------------------------------------------------------=
   JOB DONE.
=------------------------------------------------------------------------------=
