
     Program PWSCF v.7.3 starts on  5Sep2025 at 23:14:31 

     This program is part of the open-source Quantum ESPRESSO suite
     for quantum simulation of materials; please cite
         "P. Giannozzi et al., J. Phys.:Condens. Matter 21 395502 (2009);
         "P. Giannozzi et al., J. Phys.:Condens. Matter 29 465901 (2017);
         "P. Giannozzi et al., J. Chem. Phys. 152 154105 (2020);
          URL http://www.quantum-espresso.org", 
     in publications or presentations arising from this work. More details at
     http://www.quantum-espresso.org/quote

     Parallel version (MPI), running on    30 processors

     MPI processes distributed on     1 nodes
     216292 MiB available memory on the printing compute node when the environment starts
 
     Waiting for input...
     Reading input from standard input

     Current dimensions of program PWSCF are:
     Max number of different atomic species (ntypx) = 10
     Max number of k-points (npk) =  40000
     Max angular momentum in pseudopotentials (lmaxx) =  4
     file Pd.upf: wavefunction(s)  5S 4D renormalized

     IMPORTANT: XC functional enforced from input :
     Exchange-correlation= PBE
                           (   1   4   3   4   0   0   0)
     Any further DFT definition will be discarded
     Please, verify this is what you really want

     Found identity + ( -0.0000  0.5000  0.5000) symmetry
     This is a supercell, fractional translations are disabled
     Message from routine setup:
     using ibrav=0 with symmetry is DISCOURAGED, use correct ibrav instead
 
     K-points division:     npool     =       2
     R & G space division:  proc/nbgrp/npool/nimage =      15
     Subspace diagonalization in iterative solution of the eigenvalue problem:
     a serial algorithm will be used

 
     Parallelization info
     --------------------
     sticks:   dense  smooth     PW     G-vecs:    dense   smooth      PW
     Min         154      76     22                 5540     1960     314
     Max         155      77     23                 5542     1963     317
     Sum        2313    1153    341                83119    29423    4729
 
     Using Slab Decomposition
 

     Title: 
     Pd_ecut_69                                                                 


     bravais-lattice index     =            0
     lattice parameter (alat)  =       7.2421  a.u.
     unit-cell volume          =     379.7836 (a.u.)^3
     number of atoms/cell      =            4
     number of atomic types    =            1
     number of electrons       =        40.00
     number of Kohn-Sham states=           24
     kinetic-energy cutoff     =      69.0000  Ry
     charge density cutoff     =     552.0000  Ry
     scf convergence threshold =      6.4E-10
     mixing beta               =       0.5000
     number of iterations used =           10  local-TF  mixing
     Exchange-correlation= PBE
                           (   1   4   3   4   0   0   0)

     celldm(1)=   7.242109  celldm(2)=   0.000000  celldm(3)=   0.000000
     celldm(4)=   0.000000  celldm(5)=   0.000000  celldm(6)=   0.000000

     crystal axes: (cart. coord. in units of alat)
               a(1) = (   0.999955   0.000000   0.000000 )  
               a(2) = (   0.000000   0.999955   0.000000 )  
               a(3) = (   0.000000   0.000000   0.999955 )  

     reciprocal axes: (cart. coord. in units 2 pi/alat)
               b(1) = (  1.000045  0.000000  0.000000 )  
               b(2) = (  0.000000  1.000045  0.000000 )  
               b(3) = (  0.000000  0.000000  1.000045 )  


     PseudoPot. # 1 for Pd read from file:
     /tmpu/mdach_g/mdach/PP/Pd.upf
     MD5 check sum: e9d6f14fd83b79f8105499163af174c9
     Pseudo is Projector augmented-wave + core cor, Zval = 10.0
     Generated using "atomic" code by A. Dal Corso  v.5.0.2 svn rev. 9415
     Shape of augmentation charge: PSQ
     Using radial grid of 1235 points,  6 beta functions with: 
                l(1) =   0
                l(2) =   0
                l(3) =   1
                l(4) =   1
                l(5) =   2
                l(6) =   2
     Q(r) pseudized with 0 coefficients 


     atomic species   valence    mass     pseudopotential
     Pd               10.00   106.42000     Pd( 1.00)

     Starting magnetic structure 
     atomic species   magnetization
     Pd              0.000

      6 Sym. Ops. (no inversion) found



   Cartesian axes

     site n.     atom                  positions (alat units)
         1        Pd     tau(   1) = (  -0.0048965  -0.0048965  -0.0048965  )
         2        Pd     tau(   2) = (  -0.0048979   0.4950807   0.4950807  )
         3        Pd     tau(   3) = (   0.4950807  -0.0048979   0.4950807  )
         4        Pd     tau(   4) = (   0.4950807   0.4950807  -0.0048979  )

     --------------------------------------------
     DFT-D3 Dispersion Correction (3-body terms):
     --------------------------------------------
       Reference C6 values for interpolation: 

         atom   Coordination number   C6
         Pd         0.000          1217.01
         Pd         1.863           573.90
         Pd         5.710           531.75

       Values used:

         atom   Coordination number  R0_AB[au]  C6      C8
         Pd         8.971            3.168    531.75  48720.73
         Pd         8.971            3.168    531.75  48720.73
         Pd         8.971            3.168    531.75  48720.73
         Pd         8.971            3.168    531.75  48720.73

         Molecular C6 ( Ry / a.u.^6 ) =      8507.99


     number of k points=   781  Methfessel-Paxton smearing, width (Ry)=  0.0147

     Number of k-points >= 100: set verbosity='high' to print them.

     Dense  grid:    83119 G-vectors     FFT dimensions: (  60,  60,  60)

     Smooth grid:    29423 G-vectors     FFT dimensions: (  40,  40,  40)

     Estimated max dynamical RAM per process >      86.66 MB

     Estimated total dynamical RAM >       2.49 GB
     Generating pointlists ...
     new r_m :   0.2917 (alat units)  2.1123 (a.u.) for type    1

     Initial potential from superposition of free atoms

     starting charge      39.9979, renormalised to      40.0000
     Starting wfcs are   36 atomic wfcs
     Checking if some PAW data can be deallocated... 

     total cpu time spent up to now is       10.9 secs

     Self-consistent Calculation

     iteration #  1     ecut=    69.00 Ry     beta= 0.50
     Davidson diagonalization with overlap
     ethr =  1.00E-02,  avg # of iterations =  4.5

     total cpu time spent up to now is       41.2 secs

     total energy              =   -1324.92626127 Ry
     estimated scf accuracy    <       0.51754619 Ry

     total magnetization       =     0.00 Bohr mag/cell
     absolute magnetization    =     0.00 Bohr mag/cell

     iteration #  2     ecut=    69.00 Ry     beta= 0.50
     Davidson diagonalization with overlap
     ethr =  1.29E-03,  avg # of iterations =  1.5

     total cpu time spent up to now is       62.9 secs

     total energy              =   -1324.89259470 Ry
     estimated scf accuracy    <       0.13445532 Ry

     total magnetization       =     0.00 Bohr mag/cell
     absolute magnetization    =     0.00 Bohr mag/cell

     iteration #  3     ecut=    69.00 Ry     beta= 0.50
     Davidson diagonalization with overlap
     ethr =  3.36E-04,  avg # of iterations =  2.9

     total cpu time spent up to now is       94.3 secs

     total energy              =   -1324.93296617 Ry
     estimated scf accuracy    <       0.01639096 Ry

     total magnetization       =     0.00 Bohr mag/cell
     absolute magnetization    =     0.00 Bohr mag/cell

     iteration #  4     ecut=    69.00 Ry     beta= 0.50
     Davidson diagonalization with overlap
     ethr =  4.10E-05,  avg # of iterations =  3.3

     total cpu time spent up to now is      128.0 secs

     total energy              =   -1324.93603388 Ry
     estimated scf accuracy    <       0.01137294 Ry

     total magnetization       =     0.00 Bohr mag/cell
     absolute magnetization    =     0.00 Bohr mag/cell

     iteration #  5     ecut=    69.00 Ry     beta= 0.50
     Davidson diagonalization with overlap
     ethr =  2.84E-05,  avg # of iterations =  2.0

     total cpu time spent up to now is      153.2 secs

     total energy              =   -1324.93841701 Ry
     estimated scf accuracy    <       0.00001440 Ry

     total magnetization       =     0.00 Bohr mag/cell
     absolute magnetization    =     0.00 Bohr mag/cell

     iteration #  6     ecut=    69.00 Ry     beta= 0.50
     Davidson diagonalization with overlap
     ethr =  3.60E-08,  avg # of iterations =  4.4

     total cpu time spent up to now is      202.3 secs

     total energy              =   -1324.93861386 Ry
     estimated scf accuracy    <       0.00000634 Ry

     total magnetization       =     0.00 Bohr mag/cell
     absolute magnetization    =     0.00 Bohr mag/cell

     iteration #  7     ecut=    69.00 Ry     beta= 0.50
     Davidson diagonalization with overlap
     ethr =  1.59E-08,  avg # of iterations =  2.0

     total cpu time spent up to now is      230.6 secs

     total energy              =   -1324.93861772 Ry
     estimated scf accuracy    <       0.00000046 Ry

     total magnetization       =     0.00 Bohr mag/cell
     absolute magnetization    =     0.00 Bohr mag/cell

     iteration #  8     ecut=    69.00 Ry     beta= 0.50
     Davidson diagonalization with overlap
     ethr =  1.15E-09,  avg # of iterations =  3.0

     total cpu time spent up to now is      263.6 secs

     total energy              =   -1324.93861802 Ry
     estimated scf accuracy    <          5.8E-09 Ry

     total magnetization       =     0.00 Bohr mag/cell
     absolute magnetization    =     0.00 Bohr mag/cell

     iteration #  9     ecut=    69.00 Ry     beta= 0.50
     Davidson diagonalization with overlap
     ethr =  1.45E-11,  avg # of iterations =  3.2

     total cpu time spent up to now is      296.0 secs

     total energy              =   -1324.93861803 Ry
     estimated scf accuracy    <       0.00000002 Ry

     total magnetization       =     0.00 Bohr mag/cell
     absolute magnetization    =     0.00 Bohr mag/cell

     iteration # 10     ecut=    69.00 Ry     beta= 0.50
     Davidson diagonalization with overlap
     ethr =  1.45E-11,  avg # of iterations =  2.0

     total cpu time spent up to now is      323.4 secs

     total energy              =   -1324.93861804 Ry
     estimated scf accuracy    <          4.9E-09 Ry

     total magnetization       =     0.00 Bohr mag/cell
     absolute magnetization    =     0.00 Bohr mag/cell

     iteration # 11     ecut=    69.00 Ry     beta= 0.50
     Davidson diagonalization with overlap
     ethr =  1.22E-11,  avg # of iterations =  3.0
 
     Magnetic moment per site  (integrated on atomic sphere of radius R)
     atom   1 (R=0.292)  charge=  8.4536  magn=  0.0000
     atom   2 (R=0.292)  charge=  8.4536  magn=  0.0000
     atom   3 (R=0.292)  charge=  8.4536  magn=  0.0000
     atom   4 (R=0.292)  charge=  8.4536  magn=  0.0000

     total cpu time spent up to now is      355.3 secs

     End of self-consistent calculation

     Number of k-points >= 100: set verbosity='high' to print the bands.

     the Fermi energy is    14.9872 ev

!    total energy              =   -1324.93861804 Ry
     total all-electron energy =    -40368.735583 Ry
     estimated scf accuracy    <          1.0E-10 Ry
     smearing contrib. (-TS)   =      -0.00119844 Ry
     internal energy E=F+TS    =   -1324.93741960 Ry

     The total energy is F=E-TS. E is the sum of the following terms:
     one-electron contribution =      50.93836329 Ry
     hartree contribution      =      34.79224675 Ry
     xc contribution           =    -129.93916949 Ry
     ewald contribution        =    -253.24498999 Ry
     DFT-D3 Dispersion         =      -0.52853730 Ry
     one-center paw contrib.   =   -1026.95533286 Ry

     total magnetization       =     0.00 Bohr mag/cell
     absolute magnetization    =     0.00 Bohr mag/cell

     convergence has been achieved in  11 iterations

     Writing all to output data dir ./Pd_ecut_69.save/ :
     XML data file, charge density, pseudopotentials, collected wavefunctions
 
     init_run     :      9.20s CPU     10.70s WALL (       1 calls)
     electrons    :    242.58s CPU    344.45s WALL (       1 calls)

     Called by init_run:
     wfcinit      :      8.71s CPU     10.17s WALL (       1 calls)
     potinit      :      0.25s CPU      0.27s WALL (       1 calls)
     hinit0       :      0.14s CPU      0.15s WALL (       1 calls)

     Called by electrons:
     c_bands      :    209.93s CPU    306.96s WALL (      11 calls)
     sum_band     :     30.04s CPU     34.16s WALL (      11 calls)
     v_of_rho     :      0.28s CPU      0.38s WALL (      12 calls)
     newd         :      0.20s CPU      0.23s WALL (      12 calls)
     PAW_pot      :      2.00s CPU      2.50s WALL (      12 calls)
     mix_rho      :      0.07s CPU      0.08s WALL (      11 calls)
     energy_dftd3 :      0.16s CPU      0.16s WALL (       1 calls)

     Called by c_bands:
     init_us_2    :      1.85s CPU      2.48s WALL (   17963 calls)
     init_us_2:cp :      1.80s CPU      2.44s WALL (   17963 calls)
     cegterg      :    182.59s CPU    243.52s WALL (    8591 calls)

     Called by *egterg:
     cdiaghg      :     36.84s CPU     56.28s WALL (   33415 calls)
     h_psi        :    122.76s CPU    158.80s WALL (   34196 calls)
     s_psi        :      3.55s CPU      4.52s WALL (   34196 calls)
     g_psi        :      0.62s CPU      0.80s WALL (   24824 calls)

     Called by h_psi:
     h_psi:calbec :      6.55s CPU      7.77s WALL (   34196 calls)
     vloc_psi     :    111.58s CPU    145.35s WALL (   34196 calls)
     add_vuspsi   :      3.68s CPU      4.54s WALL (   34196 calls)

     General routines
     calbec       :      8.70s CPU     10.21s WALL (   42787 calls)
     fft          :      0.21s CPU      0.25s WALL (     294 calls)
     ffts         :      0.07s CPU      0.07s WALL (     230 calls)
     fftw         :    117.76s CPU    148.17s WALL ( 1459538 calls)
     interpolate  :      0.01s CPU      0.01s WALL (      24 calls)
 
     Parallel routines
 
     PWSCF        :   4m14.11s CPU   6m 2.23s WALL

 
   This run was terminated on:  23:20:33   5Sep2025            

=------------------------------------------------------------------------------=
   JOB DONE.
=------------------------------------------------------------------------------=
