
     Program PWSCF v.7.3 starts on  5Sep2025 at 22:12:26 

     This program is part of the open-source Quantum ESPRESSO suite
     for quantum simulation of materials; please cite
         "P. Giannozzi et al., J. Phys.:Condens. Matter 21 395502 (2009);
         "P. Giannozzi et al., J. Phys.:Condens. Matter 29 465901 (2017);
         "P. Giannozzi et al., J. Chem. Phys. 152 154105 (2020);
          URL http://www.quantum-espresso.org", 
     in publications or presentations arising from this work. More details at
     http://www.quantum-espresso.org/quote

     Parallel version (MPI), running on    30 processors

     MPI processes distributed on     1 nodes
     227945 MiB available memory on the printing compute node when the environment starts
 
     Waiting for input...
     Reading input from standard input

     Current dimensions of program PWSCF are:
     Max number of different atomic species (ntypx) = 10
     Max number of k-points (npk) =  40000
     Max angular momentum in pseudopotentials (lmaxx) =  4
     file Pd.upf: wavefunction(s)  5S 4D renormalized

     IMPORTANT: XC functional enforced from input :
     Exchange-correlation= PBE
                           (   1   4   3   4   0   0   0)
     Any further DFT definition will be discarded
     Please, verify this is what you really want

     Found identity + ( -0.0000  0.5000  0.5000) symmetry
     This is a supercell, fractional translations are disabled
     Message from routine setup:
     using ibrav=0 with symmetry is DISCOURAGED, use correct ibrav instead
 
     K-points division:     npool     =       2
     R & G space division:  proc/nbgrp/npool/nimage =      15
     Subspace diagonalization in iterative solution of the eigenvalue problem:
     a serial algorithm will be used

 
     Parallelization info
     --------------------
     sticks:   dense  smooth     PW     G-vecs:    dense   smooth      PW
     Min         128      64     19                 4270     1515     251
     Max         129      66     20                 4273     1518     254
     Sum        1933     973    293                64085    22743    3791
 
     Using Slab Decomposition
 

     Title: 
     Pd_ecut_58                                                                 


     bravais-lattice index     =            0
     lattice parameter (alat)  =       7.2421  a.u.
     unit-cell volume          =     379.7836 (a.u.)^3
     number of atoms/cell      =            4
     number of atomic types    =            1
     number of electrons       =        40.00
     number of Kohn-Sham states=           24
     kinetic-energy cutoff     =      58.0000  Ry
     charge density cutoff     =     464.0000  Ry
     scf convergence threshold =      6.4E-10
     mixing beta               =       0.5000
     number of iterations used =           10  local-TF  mixing
     Exchange-correlation= PBE
                           (   1   4   3   4   0   0   0)

     celldm(1)=   7.242109  celldm(2)=   0.000000  celldm(3)=   0.000000
     celldm(4)=   0.000000  celldm(5)=   0.000000  celldm(6)=   0.000000

     crystal axes: (cart. coord. in units of alat)
               a(1) = (   0.999955   0.000000   0.000000 )  
               a(2) = (   0.000000   0.999955   0.000000 )  
               a(3) = (   0.000000   0.000000   0.999955 )  

     reciprocal axes: (cart. coord. in units 2 pi/alat)
               b(1) = (  1.000045  0.000000  0.000000 )  
               b(2) = (  0.000000  1.000045  0.000000 )  
               b(3) = (  0.000000  0.000000  1.000045 )  


     PseudoPot. # 1 for Pd read from file:
     /tmpu/mdach_g/mdach/PP/Pd.upf
     MD5 check sum: e9d6f14fd83b79f8105499163af174c9
     Pseudo is Projector augmented-wave + core cor, Zval = 10.0
     Generated using "atomic" code by A. Dal Corso  v.5.0.2 svn rev. 9415
     Shape of augmentation charge: PSQ
     Using radial grid of 1235 points,  6 beta functions with: 
                l(1) =   0
                l(2) =   0
                l(3) =   1
                l(4) =   1
                l(5) =   2
                l(6) =   2
     Q(r) pseudized with 0 coefficients 


     atomic species   valence    mass     pseudopotential
     Pd               10.00   106.42000     Pd( 1.00)

     Starting magnetic structure 
     atomic species   magnetization
     Pd              0.000

      6 Sym. Ops. (no inversion) found



   Cartesian axes

     site n.     atom                  positions (alat units)
         1        Pd     tau(   1) = (  -0.0048965  -0.0048965  -0.0048965  )
         2        Pd     tau(   2) = (  -0.0048979   0.4950807   0.4950807  )
         3        Pd     tau(   3) = (   0.4950807  -0.0048979   0.4950807  )
         4        Pd     tau(   4) = (   0.4950807   0.4950807  -0.0048979  )

     --------------------------------------------
     DFT-D3 Dispersion Correction (3-body terms):
     --------------------------------------------
       Reference C6 values for interpolation: 

         atom   Coordination number   C6
         Pd         0.000          1217.01
         Pd         1.863           573.90
         Pd         5.710           531.75

       Values used:

         atom   Coordination number  R0_AB[au]  C6      C8
         Pd         8.971            3.168    531.75  48720.73
         Pd         8.971            3.168    531.75  48720.73
         Pd         8.971            3.168    531.75  48720.73
         Pd         8.971            3.168    531.75  48720.73

         Molecular C6 ( Ry / a.u.^6 ) =      8507.99


     number of k points=   781  Methfessel-Paxton smearing, width (Ry)=  0.0147

     Number of k-points >= 100: set verbosity='high' to print them.

     Dense  grid:    64085 G-vectors     FFT dimensions: (  50,  50,  50)

     Smooth grid:    22743 G-vectors     FFT dimensions: (  36,  36,  36)

     Estimated max dynamical RAM per process >      66.73 MB

     Estimated total dynamical RAM >       1.92 GB
     Generating pointlists ...
     new r_m :   0.2917 (alat units)  2.1123 (a.u.) for type    1

     Initial potential from superposition of free atoms

     starting charge      39.9979, renormalised to      40.0000
     Starting wfcs are   36 atomic wfcs
     Checking if some PAW data can be deallocated... 

     total cpu time spent up to now is        8.2 secs

     Self-consistent Calculation

     iteration #  1     ecut=    58.00 Ry     beta= 0.50
     Davidson diagonalization with overlap
     ethr =  1.00E-02,  avg # of iterations =  4.5

     total cpu time spent up to now is       34.3 secs

     total energy              =   -1324.92563633 Ry
     estimated scf accuracy    <       0.51671930 Ry

     total magnetization       =     0.00 Bohr mag/cell
     absolute magnetization    =     0.00 Bohr mag/cell

     iteration #  2     ecut=    58.00 Ry     beta= 0.50
     Davidson diagonalization with overlap
     ethr =  1.29E-03,  avg # of iterations =  1.4

     total cpu time spent up to now is       53.1 secs

     total energy              =   -1324.89148832 Ry
     estimated scf accuracy    <       0.13474036 Ry

     total magnetization       =     0.00 Bohr mag/cell
     absolute magnetization    =     0.00 Bohr mag/cell

     iteration #  3     ecut=    58.00 Ry     beta= 0.50
     Davidson diagonalization with overlap
     ethr =  3.37E-04,  avg # of iterations =  2.8

     total cpu time spent up to now is       78.7 secs

     total energy              =   -1324.93194234 Ry
     estimated scf accuracy    <       0.01665171 Ry

     total magnetization       =     0.00 Bohr mag/cell
     absolute magnetization    =     0.00 Bohr mag/cell

     iteration #  4     ecut=    58.00 Ry     beta= 0.50
     Davidson diagonalization with overlap
     ethr =  4.16E-05,  avg # of iterations =  3.3

     total cpu time spent up to now is      109.4 secs

     total energy              =   -1324.93506039 Ry
     estimated scf accuracy    <       0.01214505 Ry

     total magnetization       =     0.00 Bohr mag/cell
     absolute magnetization    =     0.00 Bohr mag/cell

     iteration #  5     ecut=    58.00 Ry     beta= 0.50
     Davidson diagonalization with overlap
     ethr =  3.04E-05,  avg # of iterations =  2.0

     total cpu time spent up to now is      131.1 secs

     total energy              =   -1324.93752186 Ry
     estimated scf accuracy    <       0.00001880 Ry

     total magnetization       =     0.00 Bohr mag/cell
     absolute magnetization    =     0.00 Bohr mag/cell

     iteration #  6     ecut=    58.00 Ry     beta= 0.50
     Davidson diagonalization with overlap
     ethr =  4.70E-08,  avg # of iterations =  4.3

     total cpu time spent up to now is      172.2 secs

     total energy              =   -1324.93773336 Ry
     estimated scf accuracy    <       0.00000738 Ry

     total magnetization       =     0.00 Bohr mag/cell
     absolute magnetization    =     0.00 Bohr mag/cell

     iteration #  7     ecut=    58.00 Ry     beta= 0.50
     Davidson diagonalization with overlap
     ethr =  1.84E-08,  avg # of iterations =  2.0

     total cpu time spent up to now is      195.4 secs

     total energy              =   -1324.93773712 Ry
     estimated scf accuracy    <       0.00000071 Ry

     total magnetization       =     0.00 Bohr mag/cell
     absolute magnetization    =     0.00 Bohr mag/cell

     iteration #  8     ecut=    58.00 Ry     beta= 0.50
     Davidson diagonalization with overlap
     ethr =  1.78E-09,  avg # of iterations =  3.0

     total cpu time spent up to now is      225.6 secs

     total energy              =   -1324.93773754 Ry
     estimated scf accuracy    <       0.00000003 Ry

     total magnetization       =     0.00 Bohr mag/cell
     absolute magnetization    =     0.00 Bohr mag/cell

     iteration #  9     ecut=    58.00 Ry     beta= 0.50
     Davidson diagonalization with overlap
     ethr =  6.65E-11,  avg # of iterations =  2.2

     total cpu time spent up to now is      246.0 secs

     total energy              =   -1324.93773754 Ry
     estimated scf accuracy    <       0.00000003 Ry

     total magnetization       =     0.00 Bohr mag/cell
     absolute magnetization    =     0.00 Bohr mag/cell

     iteration # 10     ecut=    58.00 Ry     beta= 0.50
     Davidson diagonalization with overlap
     ethr =  6.65E-11,  avg # of iterations =  1.0

     total cpu time spent up to now is      263.9 secs

     total energy              =   -1324.93773755 Ry
     estimated scf accuracy    <          7.7E-09 Ry

     total magnetization       =     0.00 Bohr mag/cell
     absolute magnetization    =     0.00 Bohr mag/cell

     iteration # 11     ecut=    58.00 Ry     beta= 0.50
     Davidson diagonalization with overlap
     ethr =  1.93E-11,  avg # of iterations =  3.0

     total cpu time spent up to now is      291.4 secs

     total energy              =   -1324.93773755 Ry
     estimated scf accuracy    <          9.3E-10 Ry

     total magnetization       =     0.00 Bohr mag/cell
     absolute magnetization    =     0.00 Bohr mag/cell

     iteration # 12     ecut=    58.00 Ry     beta= 0.50
     Davidson diagonalization with overlap
     ethr =  2.32E-12,  avg # of iterations =  2.9
 
     Magnetic moment per site  (integrated on atomic sphere of radius R)
     atom   1 (R=0.292)  charge=  8.4533  magn=  0.0000
     atom   2 (R=0.292)  charge=  8.4533  magn=  0.0000
     atom   3 (R=0.292)  charge=  8.4533  magn=  0.0000
     atom   4 (R=0.292)  charge=  8.4533  magn=  0.0000

     total cpu time spent up to now is      317.9 secs

     End of self-consistent calculation

     Number of k-points >= 100: set verbosity='high' to print the bands.

     the Fermi energy is    14.9874 ev

!    total energy              =   -1324.93773755 Ry
     total all-electron energy =    -40368.734702 Ry
     estimated scf accuracy    <          2.1E-10 Ry
     smearing contrib. (-TS)   =      -0.00119808 Ry
     internal energy E=F+TS    =   -1324.93653947 Ry

     The total energy is F=E-TS. E is the sum of the following terms:
     one-electron contribution =      50.94012996 Ry
     hartree contribution      =      34.79105640 Ry
     xc contribution           =    -129.93914536 Ry
     ewald contribution        =    -253.24498999 Ry
     DFT-D3 Dispersion         =      -0.52853730 Ry
     one-center paw contrib.   =   -1026.95505318 Ry

     total magnetization       =     0.00 Bohr mag/cell
     absolute magnetization    =     0.00 Bohr mag/cell

     convergence has been achieved in  12 iterations

     Writing all to output data dir ./Pd_ecut_58.save/ :
     XML data file, charge density, pseudopotentials, collected wavefunctions
 
     init_run     :      7.76s CPU      8.03s WALL (       1 calls)
     electrons    :    218.44s CPU    309.68s WALL (       1 calls)

     Called by init_run:
     wfcinit      :      4.41s CPU      4.62s WALL (       1 calls)
     potinit      :      0.32s CPU      0.36s WALL (       1 calls)
     hinit0       :      0.04s CPU      0.05s WALL (       1 calls)

     Called by electrons:
     c_bands      :    188.11s CPU    274.87s WALL (      12 calls)
     sum_band     :     27.15s CPU     31.21s WALL (      12 calls)
     v_of_rho     :      0.21s CPU      0.23s WALL (      13 calls)
     newd         :      0.20s CPU      0.21s WALL (      13 calls)
     PAW_pot      :      2.68s CPU      3.01s WALL (      13 calls)
     mix_rho      :      0.07s CPU      0.08s WALL (      12 calls)
     energy_dftd3 :      0.16s CPU      0.16s WALL (       1 calls)

     Called by c_bands:
     init_us_2    :      1.55s CPU      2.03s WALL (   19525 calls)
     init_us_2:cp :      1.49s CPU      1.97s WALL (   19525 calls)
     cegterg      :    163.96s CPU    219.76s WALL (    9372 calls)

     Called by *egterg:
     cdiaghg      :     36.35s CPU     53.96s WALL (   34764 calls)
     h_psi        :    105.54s CPU    135.37s WALL (   35545 calls)
     s_psi        :      2.74s CPU      4.24s WALL (   35545 calls)
     g_psi        :      0.48s CPU      0.74s WALL (   25392 calls)

     Called by h_psi:
     h_psi:calbec :      5.79s CPU      7.63s WALL (   35545 calls)
     vloc_psi     :     96.16s CPU    122.53s WALL (   35545 calls)
     add_vuspsi   :      2.88s CPU      4.30s WALL (   35545 calls)

     General routines
     calbec       :      7.73s CPU      9.78s WALL (   44917 calls)
     fft          :      0.13s CPU      0.14s WALL (     319 calls)
     ffts         :      0.05s CPU      0.05s WALL (     247 calls)
     fftw         :    104.49s CPU    129.70s WALL ( 1522742 calls)
     interpolate  :      0.02s CPU      0.02s WALL (      26 calls)
 
     Parallel routines
 
     PWSCF        :   3m48.70s CPU   5m24.15s WALL

 
   This run was terminated on:  22:17:50   5Sep2025            

=------------------------------------------------------------------------------=
   JOB DONE.
=------------------------------------------------------------------------------=
