
     Program PWSCF v.7.3 starts on  5Sep2025 at 21:51: 7 

     This program is part of the open-source Quantum ESPRESSO suite
     for quantum simulation of materials; please cite
         "P. Giannozzi et al., J. Phys.:Condens. Matter 21 395502 (2009);
         "P. Giannozzi et al., J. Phys.:Condens. Matter 29 465901 (2017);
         "P. Giannozzi et al., J. Chem. Phys. 152 154105 (2020);
          URL http://www.quantum-espresso.org", 
     in publications or presentations arising from this work. More details at
     http://www.quantum-espresso.org/quote

     Parallel version (MPI), running on    30 processors

     MPI processes distributed on     1 nodes
     235070 MiB available memory on the printing compute node when the environment starts
 
     Waiting for input...
     Reading input from standard input

     Current dimensions of program PWSCF are:
     Max number of different atomic species (ntypx) = 10
     Max number of k-points (npk) =  40000
     Max angular momentum in pseudopotentials (lmaxx) =  4
     file Pd.upf: wavefunction(s)  5S 4D renormalized

     IMPORTANT: XC functional enforced from input :
     Exchange-correlation= PBE
                           (   1   4   3   4   0   0   0)
     Any further DFT definition will be discarded
     Please, verify this is what you really want

     Found identity + ( -0.0000  0.5000  0.5000) symmetry
     This is a supercell, fractional translations are disabled
     Message from routine setup:
     using ibrav=0 with symmetry is DISCOURAGED, use correct ibrav instead
 
     K-points division:     npool     =       2
     R & G space division:  proc/nbgrp/npool/nimage =      15
     Subspace diagonalization in iterative solution of the eigenvalue problem:
     a serial algorithm will be used

 
     Parallelization info
     --------------------
     sticks:   dense  smooth     PW     G-vecs:    dense   smooth      PW
     Min         119      59     18                 3835     1355     226
     Max         120      59     19                 3840     1357     229
     Sum        1789     885    277                57555    20341    3407
 
     Using Slab Decomposition
 

     Title: 
     Pd_ecut_54                                                                 


     bravais-lattice index     =            0
     lattice parameter (alat)  =       7.2421  a.u.
     unit-cell volume          =     379.7836 (a.u.)^3
     number of atoms/cell      =            4
     number of atomic types    =            1
     number of electrons       =        40.00
     number of Kohn-Sham states=           24
     kinetic-energy cutoff     =      54.0000  Ry
     charge density cutoff     =     432.0000  Ry
     scf convergence threshold =      6.4E-10
     mixing beta               =       0.5000
     number of iterations used =           10  local-TF  mixing
     Exchange-correlation= PBE
                           (   1   4   3   4   0   0   0)

     celldm(1)=   7.242109  celldm(2)=   0.000000  celldm(3)=   0.000000
     celldm(4)=   0.000000  celldm(5)=   0.000000  celldm(6)=   0.000000

     crystal axes: (cart. coord. in units of alat)
               a(1) = (   0.999955   0.000000   0.000000 )  
               a(2) = (   0.000000   0.999955   0.000000 )  
               a(3) = (   0.000000   0.000000   0.999955 )  

     reciprocal axes: (cart. coord. in units 2 pi/alat)
               b(1) = (  1.000045  0.000000  0.000000 )  
               b(2) = (  0.000000  1.000045  0.000000 )  
               b(3) = (  0.000000  0.000000  1.000045 )  


     PseudoPot. # 1 for Pd read from file:
     /tmpu/mdach_g/mdach/PP/Pd.upf
     MD5 check sum: e9d6f14fd83b79f8105499163af174c9
     Pseudo is Projector augmented-wave + core cor, Zval = 10.0
     Generated using "atomic" code by A. Dal Corso  v.5.0.2 svn rev. 9415
     Shape of augmentation charge: PSQ
     Using radial grid of 1235 points,  6 beta functions with: 
                l(1) =   0
                l(2) =   0
                l(3) =   1
                l(4) =   1
                l(5) =   2
                l(6) =   2
     Q(r) pseudized with 0 coefficients 


     atomic species   valence    mass     pseudopotential
     Pd               10.00   106.42000     Pd( 1.00)

     Starting magnetic structure 
     atomic species   magnetization
     Pd              0.000

      6 Sym. Ops. (no inversion) found



   Cartesian axes

     site n.     atom                  positions (alat units)
         1        Pd     tau(   1) = (  -0.0048965  -0.0048965  -0.0048965  )
         2        Pd     tau(   2) = (  -0.0048979   0.4950807   0.4950807  )
         3        Pd     tau(   3) = (   0.4950807  -0.0048979   0.4950807  )
         4        Pd     tau(   4) = (   0.4950807   0.4950807  -0.0048979  )

     --------------------------------------------
     DFT-D3 Dispersion Correction (3-body terms):
     --------------------------------------------
       Reference C6 values for interpolation: 

         atom   Coordination number   C6
         Pd         0.000          1217.01
         Pd         1.863           573.90
         Pd         5.710           531.75

       Values used:

         atom   Coordination number  R0_AB[au]  C6      C8
         Pd         8.971            3.168    531.75  48720.73
         Pd         8.971            3.168    531.75  48720.73
         Pd         8.971            3.168    531.75  48720.73
         Pd         8.971            3.168    531.75  48720.73

         Molecular C6 ( Ry / a.u.^6 ) =      8507.99


     number of k points=   781  Methfessel-Paxton smearing, width (Ry)=  0.0147

     Number of k-points >= 100: set verbosity='high' to print them.

     Dense  grid:    57555 G-vectors     FFT dimensions: (  48,  48,  48)

     Smooth grid:    20341 G-vectors     FFT dimensions: (  36,  36,  36)

     Estimated max dynamical RAM per process >      60.50 MB

     Estimated total dynamical RAM >       1.74 GB
     Generating pointlists ...
     new r_m :   0.2917 (alat units)  2.1123 (a.u.) for type    1

     Initial potential from superposition of free atoms

     starting charge      39.9979, renormalised to      40.0000
     Starting wfcs are   36 atomic wfcs
     Checking if some PAW data can be deallocated... 

     total cpu time spent up to now is        8.8 secs

     Self-consistent Calculation

     iteration #  1     ecut=    54.00 Ry     beta= 0.50
     Davidson diagonalization with overlap
     ethr =  1.00E-02,  avg # of iterations =  4.5

     total cpu time spent up to now is       32.5 secs

     total energy              =   -1324.92566082 Ry
     estimated scf accuracy    <       0.51632031 Ry

     total magnetization       =     0.00 Bohr mag/cell
     absolute magnetization    =     0.00 Bohr mag/cell

     iteration #  2     ecut=    54.00 Ry     beta= 0.50
     Davidson diagonalization with overlap
     ethr =  1.29E-03,  avg # of iterations =  1.4

     total cpu time spent up to now is       50.6 secs

     total energy              =   -1324.89143672 Ry
     estimated scf accuracy    <       0.13473732 Ry

     total magnetization       =     0.00 Bohr mag/cell
     absolute magnetization    =     0.00 Bohr mag/cell

     iteration #  3     ecut=    54.00 Ry     beta= 0.50
     Davidson diagonalization with overlap
     ethr =  3.37E-04,  avg # of iterations =  2.9

     total cpu time spent up to now is       76.9 secs

     total energy              =   -1324.93186478 Ry
     estimated scf accuracy    <       0.01665964 Ry

     total magnetization       =     0.00 Bohr mag/cell
     absolute magnetization    =     0.00 Bohr mag/cell

     iteration #  4     ecut=    54.00 Ry     beta= 0.50
     Davidson diagonalization with overlap
     ethr =  4.16E-05,  avg # of iterations =  3.3

     total cpu time spent up to now is      105.0 secs

     total energy              =   -1324.93499530 Ry
     estimated scf accuracy    <       0.01231970 Ry

     total magnetization       =     0.00 Bohr mag/cell
     absolute magnetization    =     0.00 Bohr mag/cell

     iteration #  5     ecut=    54.00 Ry     beta= 0.50
     Davidson diagonalization with overlap
     ethr =  3.08E-05,  avg # of iterations =  2.0

     total cpu time spent up to now is      124.9 secs

     total energy              =   -1324.93744976 Ry
     estimated scf accuracy    <       0.00002417 Ry

     total magnetization       =     0.00 Bohr mag/cell
     absolute magnetization    =     0.00 Bohr mag/cell

     iteration #  6     ecut=    54.00 Ry     beta= 0.50
     Davidson diagonalization with overlap
     ethr =  6.04E-08,  avg # of iterations =  4.3

     total cpu time spent up to now is      167.2 secs

     total energy              =   -1324.93766821 Ry
     estimated scf accuracy    <       0.00000819 Ry

     total magnetization       =     0.00 Bohr mag/cell
     absolute magnetization    =     0.00 Bohr mag/cell

     iteration #  7     ecut=    54.00 Ry     beta= 0.50
     Davidson diagonalization with overlap
     ethr =  2.05E-08,  avg # of iterations =  2.0

     total cpu time spent up to now is      189.6 secs

     total energy              =   -1324.93767195 Ry
     estimated scf accuracy    <       0.00000086 Ry

     total magnetization       =     0.00 Bohr mag/cell
     absolute magnetization    =     0.00 Bohr mag/cell

     iteration #  8     ecut=    54.00 Ry     beta= 0.50
     Davidson diagonalization with overlap
     ethr =  2.15E-09,  avg # of iterations =  3.0

     total cpu time spent up to now is      217.7 secs

     total energy              =   -1324.93767245 Ry
     estimated scf accuracy    <       0.00000004 Ry

     total magnetization       =     0.00 Bohr mag/cell
     absolute magnetization    =     0.00 Bohr mag/cell

     iteration #  9     ecut=    54.00 Ry     beta= 0.50
     Davidson diagonalization with overlap
     ethr =  1.05E-10,  avg # of iterations =  2.0

     total cpu time spent up to now is      236.5 secs

     total energy              =   -1324.93767245 Ry
     estimated scf accuracy    <       0.00000004 Ry

     total magnetization       =     0.00 Bohr mag/cell
     absolute magnetization    =     0.00 Bohr mag/cell

     iteration # 10     ecut=    54.00 Ry     beta= 0.50
     Davidson diagonalization with overlap
     ethr =  9.09E-11,  avg # of iterations =  1.0

     total cpu time spent up to now is      253.5 secs

     total energy              =   -1324.93767245 Ry
     estimated scf accuracy    <          9.2E-09 Ry

     total magnetization       =     0.00 Bohr mag/cell
     absolute magnetization    =     0.00 Bohr mag/cell

     iteration # 11     ecut=    54.00 Ry     beta= 0.50
     Davidson diagonalization with overlap
     ethr =  2.30E-11,  avg # of iterations =  3.0

     total cpu time spent up to now is      280.1 secs

     total energy              =   -1324.93767246 Ry
     estimated scf accuracy    <          1.3E-09 Ry

     total magnetization       =     0.00 Bohr mag/cell
     absolute magnetization    =     0.00 Bohr mag/cell

     iteration # 12     ecut=    54.00 Ry     beta= 0.50
     Davidson diagonalization with overlap
     ethr =  3.15E-12,  avg # of iterations =  2.8
 
     Magnetic moment per site  (integrated on atomic sphere of radius R)
     atom   1 (R=0.292)  charge=  8.4533  magn=  0.0000
     atom   2 (R=0.292)  charge=  8.4533  magn=  0.0000
     atom   3 (R=0.292)  charge=  8.4533  magn=  0.0000
     atom   4 (R=0.292)  charge=  8.4533  magn=  0.0000

     total cpu time spent up to now is      306.3 secs

     End of self-consistent calculation

     Number of k-points >= 100: set verbosity='high' to print the bands.

     the Fermi energy is    14.9874 ev

!    total energy              =   -1324.93767246 Ry
     total all-electron energy =    -40368.734637 Ry
     estimated scf accuracy    <          2.1E-10 Ry
     smearing contrib. (-TS)   =      -0.00119808 Ry
     internal energy E=F+TS    =   -1324.93647438 Ry

     The total energy is F=E-TS. E is the sum of the following terms:
     one-electron contribution =      50.94014818 Ry
     hartree contribution      =      34.79101828 Ry
     xc contribution           =    -129.93910116 Ry
     ewald contribution        =    -253.24498999 Ry
     DFT-D3 Dispersion         =      -0.52853730 Ry
     one-center paw contrib.   =   -1026.95501239 Ry

     total magnetization       =     0.00 Bohr mag/cell
     absolute magnetization    =     0.00 Bohr mag/cell

     convergence has been achieved in  12 iterations

     Writing all to output data dir ./Pd_ecut_54.save/ :
     XML data file, charge density, pseudopotentials, collected wavefunctions
 
     init_run     :      8.27s CPU      8.60s WALL (       1 calls)
     electrons    :    209.59s CPU    297.54s WALL (       1 calls)

     Called by init_run:
     wfcinit      :      7.92s CPU      8.20s WALL (       1 calls)
     potinit      :      0.17s CPU      0.20s WALL (       1 calls)
     hinit0       :      0.11s CPU      0.11s WALL (       1 calls)

     Called by electrons:
     c_bands      :    180.70s CPU    265.98s WALL (      12 calls)
     sum_band     :     25.79s CPU     28.15s WALL (      12 calls)
     v_of_rho     :      0.18s CPU      0.19s WALL (      13 calls)
     newd         :      0.10s CPU      0.12s WALL (      13 calls)
     PAW_pot      :      2.59s CPU      2.79s WALL (      13 calls)
     mix_rho      :      0.07s CPU      0.07s WALL (      12 calls)
     energy_dftd3 :      0.16s CPU      0.16s WALL (       1 calls)

     Called by c_bands:
     init_us_2    :      1.44s CPU      1.86s WALL (   19525 calls)
     init_us_2:cp :      1.38s CPU      1.81s WALL (   19525 calls)
     cegterg      :    161.91s CPU    208.34s WALL (    9372 calls)

     Called by *egterg:
     cdiaghg      :     35.47s CPU     56.63s WALL (   34460 calls)
     h_psi        :    107.55s CPU    125.99s WALL (   35241 calls)
     s_psi        :      2.51s CPU      3.70s WALL (   35241 calls)
     g_psi        :      0.43s CPU      0.47s WALL (   25088 calls)

     Called by h_psi:
     h_psi:calbec :      4.98s CPU      6.09s WALL (   35241 calls)
     vloc_psi     :     99.29s CPU    115.60s WALL (   35241 calls)
     add_vuspsi   :      2.64s CPU      3.54s WALL (   35241 calls)

     General routines
     calbec       :      6.82s CPU      8.05s WALL (   44613 calls)
     fft          :      0.09s CPU      0.10s WALL (     319 calls)
     ffts         :      0.02s CPU      0.02s WALL (     247 calls)
     fftw         :    108.51s CPU    124.23s WALL ( 1515412 calls)
     interpolate  :      0.01s CPU      0.01s WALL (      26 calls)
 
     Parallel routines
 
     PWSCF        :   3m39.42s CPU   5m12.00s WALL

 
   This run was terminated on:  21:56:19   5Sep2025            

=------------------------------------------------------------------------------=
   JOB DONE.
=------------------------------------------------------------------------------=
