
     Program PWSCF v.7.3 starts on  5Sep2025 at 21:30:16 

     This program is part of the open-source Quantum ESPRESSO suite
     for quantum simulation of materials; please cite
         "P. Giannozzi et al., J. Phys.:Condens. Matter 21 395502 (2009);
         "P. Giannozzi et al., J. Phys.:Condens. Matter 29 465901 (2017);
         "P. Giannozzi et al., J. Chem. Phys. 152 154105 (2020);
          URL http://www.quantum-espresso.org", 
     in publications or presentations arising from this work. More details at
     http://www.quantum-espresso.org/quote

     Parallel version (MPI), running on    30 processors

     MPI processes distributed on     1 nodes
     241448 MiB available memory on the printing compute node when the environment starts
 
     Waiting for input...
     Reading input from standard input

     Current dimensions of program PWSCF are:
     Max number of different atomic species (ntypx) = 10
     Max number of k-points (npk) =  40000
     Max angular momentum in pseudopotentials (lmaxx) =  4
     file Pd.upf: wavefunction(s)  5S 4D renormalized

     IMPORTANT: XC functional enforced from input :
     Exchange-correlation= PBE
                           (   1   4   3   4   0   0   0)
     Any further DFT definition will be discarded
     Please, verify this is what you really want

     Found identity + ( -0.0000  0.5000  0.5000) symmetry
     This is a supercell, fractional translations are disabled
     Message from routine setup:
     using ibrav=0 with symmetry is DISCOURAGED, use correct ibrav instead
 
     K-points division:     npool     =       2
     R & G space division:  proc/nbgrp/npool/nimage =      15
     Subspace diagonalization in iterative solution of the eigenvalue problem:
     a serial algorithm will be used

 
     Parallelization info
     --------------------
     sticks:   dense  smooth     PW     G-vecs:    dense   smooth      PW
     Min         111      56     16                 3427     1201     204
     Max         112      58     18                 3430     1204     207
     Sum        1669     845    253                51435    18037    3071
 
     Using Slab Decomposition
 

     Title: 
     Pd_ecut_50                                                                 


     bravais-lattice index     =            0
     lattice parameter (alat)  =       7.2421  a.u.
     unit-cell volume          =     379.7836 (a.u.)^3
     number of atoms/cell      =            4
     number of atomic types    =            1
     number of electrons       =        40.00
     number of Kohn-Sham states=           24
     kinetic-energy cutoff     =      50.0000  Ry
     charge density cutoff     =     400.0000  Ry
     scf convergence threshold =      6.4E-10
     mixing beta               =       0.5000
     number of iterations used =           10  local-TF  mixing
     Exchange-correlation= PBE
                           (   1   4   3   4   0   0   0)

     celldm(1)=   7.242109  celldm(2)=   0.000000  celldm(3)=   0.000000
     celldm(4)=   0.000000  celldm(5)=   0.000000  celldm(6)=   0.000000

     crystal axes: (cart. coord. in units of alat)
               a(1) = (   0.999955   0.000000   0.000000 )  
               a(2) = (   0.000000   0.999955   0.000000 )  
               a(3) = (   0.000000   0.000000   0.999955 )  

     reciprocal axes: (cart. coord. in units 2 pi/alat)
               b(1) = (  1.000045  0.000000  0.000000 )  
               b(2) = (  0.000000  1.000045  0.000000 )  
               b(3) = (  0.000000  0.000000  1.000045 )  


     PseudoPot. # 1 for Pd read from file:
     /tmpu/mdach_g/mdach/PP/Pd.upf
     MD5 check sum: e9d6f14fd83b79f8105499163af174c9
     Pseudo is Projector augmented-wave + core cor, Zval = 10.0
     Generated using "atomic" code by A. Dal Corso  v.5.0.2 svn rev. 9415
     Shape of augmentation charge: PSQ
     Using radial grid of 1235 points,  6 beta functions with: 
                l(1) =   0
                l(2) =   0
                l(3) =   1
                l(4) =   1
                l(5) =   2
                l(6) =   2
     Q(r) pseudized with 0 coefficients 


     atomic species   valence    mass     pseudopotential
     Pd               10.00   106.42000     Pd( 1.00)

     Starting magnetic structure 
     atomic species   magnetization
     Pd              0.000

      6 Sym. Ops. (no inversion) found



   Cartesian axes

     site n.     atom                  positions (alat units)
         1        Pd     tau(   1) = (  -0.0048965  -0.0048965  -0.0048965  )
         2        Pd     tau(   2) = (  -0.0048979   0.4950807   0.4950807  )
         3        Pd     tau(   3) = (   0.4950807  -0.0048979   0.4950807  )
         4        Pd     tau(   4) = (   0.4950807   0.4950807  -0.0048979  )

     --------------------------------------------
     DFT-D3 Dispersion Correction (3-body terms):
     --------------------------------------------
       Reference C6 values for interpolation: 

         atom   Coordination number   C6
         Pd         0.000          1217.01
         Pd         1.863           573.90
         Pd         5.710           531.75

       Values used:

         atom   Coordination number  R0_AB[au]  C6      C8
         Pd         8.971            3.168    531.75  48720.73
         Pd         8.971            3.168    531.75  48720.73
         Pd         8.971            3.168    531.75  48720.73
         Pd         8.971            3.168    531.75  48720.73

         Molecular C6 ( Ry / a.u.^6 ) =      8507.99


     number of k points=   781  Methfessel-Paxton smearing, width (Ry)=  0.0147

     Number of k-points >= 100: set verbosity='high' to print them.

     Dense  grid:    51435 G-vectors     FFT dimensions: (  48,  48,  48)

     Smooth grid:    18037 G-vectors     FFT dimensions: (  36,  36,  36)

     Estimated max dynamical RAM per process >      54.69 MB

     Estimated total dynamical RAM >       1.57 GB
     Generating pointlists ...
     new r_m :   0.2917 (alat units)  2.1123 (a.u.) for type    1

     Initial potential from superposition of free atoms

     starting charge      39.9979, renormalised to      40.0000
     Starting wfcs are   36 atomic wfcs
     Checking if some PAW data can be deallocated... 

     total cpu time spent up to now is       10.5 secs

     Self-consistent Calculation

     iteration #  1     ecut=    50.00 Ry     beta= 0.50
     Davidson diagonalization with overlap
     ethr =  1.00E-02,  avg # of iterations =  4.4

     total cpu time spent up to now is       35.2 secs

     total energy              =   -1324.92535937 Ry
     estimated scf accuracy    <       0.51604894 Ry

     total magnetization       =     0.00 Bohr mag/cell
     absolute magnetization    =     0.00 Bohr mag/cell

     iteration #  2     ecut=    50.00 Ry     beta= 0.50
     Davidson diagonalization with overlap
     ethr =  1.29E-03,  avg # of iterations =  1.4

     total cpu time spent up to now is       52.2 secs

     total energy              =   -1324.89072860 Ry
     estimated scf accuracy    <       0.13492616 Ry

     total magnetization       =     0.00 Bohr mag/cell
     absolute magnetization    =     0.00 Bohr mag/cell

     iteration #  3     ecut=    50.00 Ry     beta= 0.50
     Davidson diagonalization with overlap
     ethr =  3.37E-04,  avg # of iterations =  2.9

     total cpu time spent up to now is       77.5 secs

     total energy              =   -1324.93121637 Ry
     estimated scf accuracy    <       0.01686458 Ry

     total magnetization       =     0.00 Bohr mag/cell
     absolute magnetization    =     0.00 Bohr mag/cell

     iteration #  4     ecut=    50.00 Ry     beta= 0.50
     Davidson diagonalization with overlap
     ethr =  4.22E-05,  avg # of iterations =  3.3

     total cpu time spent up to now is      105.2 secs

     total energy              =   -1324.93436487 Ry
     estimated scf accuracy    <       0.01292599 Ry

     total magnetization       =     0.00 Bohr mag/cell
     absolute magnetization    =     0.00 Bohr mag/cell

     iteration #  5     ecut=    50.00 Ry     beta= 0.50
     Davidson diagonalization with overlap
     ethr =  3.23E-05,  avg # of iterations =  2.0

     total cpu time spent up to now is      124.3 secs

     total energy              =   -1324.93689270 Ry
     estimated scf accuracy    <       0.00002882 Ry

     total magnetization       =     0.00 Bohr mag/cell
     absolute magnetization    =     0.00 Bohr mag/cell

     iteration #  6     ecut=    50.00 Ry     beta= 0.50
     Davidson diagonalization with overlap
     ethr =  7.21E-08,  avg # of iterations =  4.2

     total cpu time spent up to now is      163.0 secs

     total energy              =   -1324.93712262 Ry
     estimated scf accuracy    <       0.00000864 Ry

     total magnetization       =     0.00 Bohr mag/cell
     absolute magnetization    =     0.00 Bohr mag/cell

     iteration #  7     ecut=    50.00 Ry     beta= 0.50
     Davidson diagonalization with overlap
     ethr =  2.16E-08,  avg # of iterations =  2.0

     total cpu time spent up to now is      184.0 secs

     total energy              =   -1324.93712626 Ry
     estimated scf accuracy    <       0.00000103 Ry

     total magnetization       =     0.00 Bohr mag/cell
     absolute magnetization    =     0.00 Bohr mag/cell

     iteration #  8     ecut=    50.00 Ry     beta= 0.50
     Davidson diagonalization with overlap
     ethr =  2.59E-09,  avg # of iterations =  3.0

     total cpu time spent up to now is      213.1 secs

     total energy              =   -1324.93712684 Ry
     estimated scf accuracy    <       0.00000007 Ry

     total magnetization       =     0.00 Bohr mag/cell
     absolute magnetization    =     0.00 Bohr mag/cell

     iteration #  9     ecut=    50.00 Ry     beta= 0.50
     Davidson diagonalization with overlap
     ethr =  1.83E-10,  avg # of iterations =  1.9

     total cpu time spent up to now is      231.7 secs

     total energy              =   -1324.93712684 Ry
     estimated scf accuracy    <       0.00000004 Ry

     total magnetization       =     0.00 Bohr mag/cell
     absolute magnetization    =     0.00 Bohr mag/cell

     iteration # 10     ecut=    50.00 Ry     beta= 0.50
     Davidson diagonalization with overlap
     ethr =  1.02E-10,  avg # of iterations =  1.2

     total cpu time spent up to now is      248.1 secs

     total energy              =   -1324.93712684 Ry
     estimated scf accuracy    <          8.7E-09 Ry

     total magnetization       =     0.00 Bohr mag/cell
     absolute magnetization    =     0.00 Bohr mag/cell

     iteration # 11     ecut=    50.00 Ry     beta= 0.50
     Davidson diagonalization with overlap
     ethr =  2.18E-11,  avg # of iterations =  3.0

     total cpu time spent up to now is      274.2 secs

     total energy              =   -1324.93712685 Ry
     estimated scf accuracy    <          1.1E-09 Ry

     total magnetization       =     0.00 Bohr mag/cell
     absolute magnetization    =     0.00 Bohr mag/cell

     iteration # 12     ecut=    50.00 Ry     beta= 0.50
     Davidson diagonalization with overlap
     ethr =  2.67E-12,  avg # of iterations =  2.6
 
     Magnetic moment per site  (integrated on atomic sphere of radius R)
     atom   1 (R=0.292)  charge=  8.4532  magn=  0.0000
     atom   2 (R=0.292)  charge=  8.4532  magn=  0.0000
     atom   3 (R=0.292)  charge=  8.4532  magn=  0.0000
     atom   4 (R=0.292)  charge=  8.4532  magn=  0.0000

     total cpu time spent up to now is      298.7 secs

     End of self-consistent calculation

     Number of k-points >= 100: set verbosity='high' to print the bands.

     the Fermi energy is    14.9876 ev

!    total energy              =   -1324.93712685 Ry
     total all-electron energy =    -40368.734092 Ry
     estimated scf accuracy    <          1.5E-10 Ry
     smearing contrib. (-TS)   =      -0.00119783 Ry
     internal energy E=F+TS    =   -1324.93592902 Ry

     The total energy is F=E-TS. E is the sum of the following terms:
     one-electron contribution =      50.93966414 Ry
     hartree contribution      =      34.79084808 Ry
     xc contribution           =    -129.93890483 Ry
     ewald contribution        =    -253.24498999 Ry
     DFT-D3 Dispersion         =      -0.52853730 Ry
     one-center paw contrib.   =   -1026.95400910 Ry

     total magnetization       =     0.00 Bohr mag/cell
     absolute magnetization    =     0.00 Bohr mag/cell

     convergence has been achieved in  12 iterations

     Writing all to output data dir ./Pd_ecut_50.save/ :
     XML data file, charge density, pseudopotentials, collected wavefunctions
 
     init_run     :      6.82s CPU      8.37s WALL (       1 calls)
     electrons    :    198.73s CPU    288.35s WALL (       1 calls)

     Called by init_run:
     wfcinit      :      6.49s CPU      7.37s WALL (       1 calls)
     potinit      :      0.24s CPU      0.56s WALL (       1 calls)
     hinit0       :      0.04s CPU      0.16s WALL (       1 calls)

     Called by electrons:
     c_bands      :    168.20s CPU    253.75s WALL (      12 calls)
     sum_band     :     27.28s CPU     30.70s WALL (      12 calls)
     v_of_rho     :      0.24s CPU      0.27s WALL (      13 calls)
     newd         :      0.09s CPU      0.14s WALL (      13 calls)
     PAW_pot      :      2.80s CPU      3.13s WALL (      13 calls)
     mix_rho      :      0.06s CPU      0.10s WALL (      12 calls)
     energy_dftd3 :      0.17s CPU      0.19s WALL (       1 calls)

     Called by c_bands:
     init_us_2    :      1.26s CPU      1.55s WALL (   19525 calls)
     init_us_2:cp :      1.20s CPU      1.50s WALL (   19525 calls)
     cegterg      :    150.87s CPU    195.37s WALL (    9372 calls)

     Called by *egterg:
     cdiaghg      :     34.65s CPU     57.68s WALL (   34251 calls)
     h_psi        :    100.83s CPU    119.84s WALL (   35032 calls)
     s_psi        :      2.29s CPU      2.79s WALL (   35032 calls)
     g_psi        :      0.38s CPU      0.43s WALL (   24879 calls)

     Called by h_psi:
     h_psi:calbec :      4.48s CPU      5.41s WALL (   35032 calls)
     vloc_psi     :     93.45s CPU    110.88s WALL (   35032 calls)
     add_vuspsi   :      2.39s CPU      2.96s WALL (   35032 calls)

     General routines
     calbec       :      6.43s CPU      7.50s WALL (   44404 calls)
     fft          :      0.16s CPU      0.17s WALL (     319 calls)
     ffts         :      0.05s CPU      0.05s WALL (     245 calls)
     fftw         :    104.43s CPU    121.86s WALL ( 1511656 calls)
     interpolate  :      0.02s CPU      0.02s WALL (      26 calls)
 
     Parallel routines
 
     PWSCF        :   3m26.99s CPU   5m 5.00s WALL

 
   This run was terminated on:  21:35:20   5Sep2025            

=------------------------------------------------------------------------------=
   JOB DONE.
=------------------------------------------------------------------------------=
