
     Program PWSCF v.7.3 starts on  5Sep2025 at 22:39:40 

     This program is part of the open-source Quantum ESPRESSO suite
     for quantum simulation of materials; please cite
         "P. Giannozzi et al., J. Phys.:Condens. Matter 21 395502 (2009);
         "P. Giannozzi et al., J. Phys.:Condens. Matter 29 465901 (2017);
         "P. Giannozzi et al., J. Chem. Phys. 152 154105 (2020);
          URL http://www.quantum-espresso.org", 
     in publications or presentations arising from this work. More details at
     http://www.quantum-espresso.org/quote

     Parallel version (MPI), running on    30 processors

     MPI processes distributed on     1 nodes
     218348 MiB available memory on the printing compute node when the environment starts
 
     Waiting for input...
     Reading input from standard input

     Current dimensions of program PWSCF are:
     Max number of different atomic species (ntypx) = 10
     Max number of k-points (npk) =  40000
     Max angular momentum in pseudopotentials (lmaxx) =  4
     file Pd.upf: wavefunction(s)  5S 4D renormalized

     IMPORTANT: XC functional enforced from input :
     Exchange-correlation= PBE
                           (   1   4   3   4   0   0   0)
     Any further DFT definition will be discarded
     Please, verify this is what you really want

     Found identity + ( -0.0000  0.5000  0.5000) symmetry
     This is a supercell, fractional translations are disabled
     Message from routine setup:
     using ibrav=0 with symmetry is DISCOURAGED, use correct ibrav instead
 
     K-points division:     npool     =       2
     R & G space division:  proc/nbgrp/npool/nimage =      15
     Subspace diagonalization in iterative solution of the eigenvalue problem:
     a serial algorithm will be used

 
     Parallelization info
     --------------------
     sticks:   dense  smooth     PW     G-vecs:    dense   smooth      PW
     Min         139      69     20                 4839     1709     277
     Max         140      70     24                 4842     1712     278
     Sum        2093    1049    317                72599    25677    4169
 
     Using Slab Decomposition
 

     Title: 
     Pd_ecut_63                                                                 


     bravais-lattice index     =            0
     lattice parameter (alat)  =       7.2421  a.u.
     unit-cell volume          =     379.7836 (a.u.)^3
     number of atoms/cell      =            4
     number of atomic types    =            1
     number of electrons       =        40.00
     number of Kohn-Sham states=           24
     kinetic-energy cutoff     =      63.0000  Ry
     charge density cutoff     =     504.0000  Ry
     scf convergence threshold =      6.4E-10
     mixing beta               =       0.5000
     number of iterations used =           10  local-TF  mixing
     Exchange-correlation= PBE
                           (   1   4   3   4   0   0   0)

     celldm(1)=   7.242109  celldm(2)=   0.000000  celldm(3)=   0.000000
     celldm(4)=   0.000000  celldm(5)=   0.000000  celldm(6)=   0.000000

     crystal axes: (cart. coord. in units of alat)
               a(1) = (   0.999955   0.000000   0.000000 )  
               a(2) = (   0.000000   0.999955   0.000000 )  
               a(3) = (   0.000000   0.000000   0.999955 )  

     reciprocal axes: (cart. coord. in units 2 pi/alat)
               b(1) = (  1.000045  0.000000  0.000000 )  
               b(2) = (  0.000000  1.000045  0.000000 )  
               b(3) = (  0.000000  0.000000  1.000045 )  


     PseudoPot. # 1 for Pd read from file:
     /tmpu/mdach_g/mdach/PP/Pd.upf
     MD5 check sum: e9d6f14fd83b79f8105499163af174c9
     Pseudo is Projector augmented-wave + core cor, Zval = 10.0
     Generated using "atomic" code by A. Dal Corso  v.5.0.2 svn rev. 9415
     Shape of augmentation charge: PSQ
     Using radial grid of 1235 points,  6 beta functions with: 
                l(1) =   0
                l(2) =   0
                l(3) =   1
                l(4) =   1
                l(5) =   2
                l(6) =   2
     Q(r) pseudized with 0 coefficients 


     atomic species   valence    mass     pseudopotential
     Pd               10.00   106.42000     Pd( 1.00)

     Starting magnetic structure 
     atomic species   magnetization
     Pd              0.000

      6 Sym. Ops. (no inversion) found



   Cartesian axes

     site n.     atom                  positions (alat units)
         1        Pd     tau(   1) = (  -0.0048965  -0.0048965  -0.0048965  )
         2        Pd     tau(   2) = (  -0.0048979   0.4950807   0.4950807  )
         3        Pd     tau(   3) = (   0.4950807  -0.0048979   0.4950807  )
         4        Pd     tau(   4) = (   0.4950807   0.4950807  -0.0048979  )

     --------------------------------------------
     DFT-D3 Dispersion Correction (3-body terms):
     --------------------------------------------
       Reference C6 values for interpolation: 

         atom   Coordination number   C6
         Pd         0.000          1217.01
         Pd         1.863           573.90
         Pd         5.710           531.75

       Values used:

         atom   Coordination number  R0_AB[au]  C6      C8
         Pd         8.971            3.168    531.75  48720.73
         Pd         8.971            3.168    531.75  48720.73
         Pd         8.971            3.168    531.75  48720.73
         Pd         8.971            3.168    531.75  48720.73

         Molecular C6 ( Ry / a.u.^6 ) =      8507.99


     number of k points=   781  Methfessel-Paxton smearing, width (Ry)=  0.0147

     Number of k-points >= 100: set verbosity='high' to print them.

     Dense  grid:    72599 G-vectors     FFT dimensions: (  54,  54,  54)

     Smooth grid:    25677 G-vectors     FFT dimensions: (  40,  40,  40)

     Estimated max dynamical RAM per process >      75.47 MB

     Estimated total dynamical RAM >       2.17 GB
     Generating pointlists ...
     new r_m :   0.2917 (alat units)  2.1123 (a.u.) for type    1

     Initial potential from superposition of free atoms

     starting charge      39.9979, renormalised to      40.0000
     Starting wfcs are   36 atomic wfcs
     Checking if some PAW data can be deallocated... 

     total cpu time spent up to now is        9.8 secs

     Self-consistent Calculation

     iteration #  1     ecut=    63.00 Ry     beta= 0.50
     Davidson diagonalization with overlap
     ethr =  1.00E-02,  avg # of iterations =  4.5

     total cpu time spent up to now is       38.2 secs

     total energy              =   -1324.92579917 Ry
     estimated scf accuracy    <       0.51725231 Ry

     total magnetization       =     0.00 Bohr mag/cell
     absolute magnetization    =     0.00 Bohr mag/cell

     iteration #  2     ecut=    63.00 Ry     beta= 0.50
     Davidson diagonalization with overlap
     ethr =  1.29E-03,  avg # of iterations =  1.4

     total cpu time spent up to now is       58.5 secs

     total energy              =   -1324.89182212 Ry
     estimated scf accuracy    <       0.13461214 Ry

     total magnetization       =     0.00 Bohr mag/cell
     absolute magnetization    =     0.00 Bohr mag/cell

     iteration #  3     ecut=    63.00 Ry     beta= 0.50
     Davidson diagonalization with overlap
     ethr =  3.37E-04,  avg # of iterations =  2.8

     total cpu time spent up to now is       88.6 secs

     total energy              =   -1324.93226872 Ry
     estimated scf accuracy    <       0.01653543 Ry

     total magnetization       =     0.00 Bohr mag/cell
     absolute magnetization    =     0.00 Bohr mag/cell

     iteration #  4     ecut=    63.00 Ry     beta= 0.50
     Davidson diagonalization with overlap
     ethr =  4.13E-05,  avg # of iterations =  3.3

     total cpu time spent up to now is      119.8 secs

     total energy              =   -1324.93534853 Ry
     estimated scf accuracy    <       0.01181471 Ry

     total magnetization       =     0.00 Bohr mag/cell
     absolute magnetization    =     0.00 Bohr mag/cell

     iteration #  5     ecut=    63.00 Ry     beta= 0.50
     Davidson diagonalization with overlap
     ethr =  2.95E-05,  avg # of iterations =  2.0

     total cpu time spent up to now is      143.3 secs

     total energy              =   -1324.93779163 Ry
     estimated scf accuracy    <       0.00001525 Ry

     total magnetization       =     0.00 Bohr mag/cell
     absolute magnetization    =     0.00 Bohr mag/cell

     iteration #  6     ecut=    63.00 Ry     beta= 0.50
     Davidson diagonalization with overlap
     ethr =  3.81E-08,  avg # of iterations =  4.4

     total cpu time spent up to now is      190.4 secs

     total energy              =   -1324.93799563 Ry
     estimated scf accuracy    <       0.00000673 Ry

     total magnetization       =     0.00 Bohr mag/cell
     absolute magnetization    =     0.00 Bohr mag/cell

     iteration #  7     ecut=    63.00 Ry     beta= 0.50
     Davidson diagonalization with overlap
     ethr =  1.68E-08,  avg # of iterations =  2.0

     total cpu time spent up to now is      216.6 secs

     total energy              =   -1324.93799944 Ry
     estimated scf accuracy    <       0.00000056 Ry

     total magnetization       =     0.00 Bohr mag/cell
     absolute magnetization    =     0.00 Bohr mag/cell

     iteration #  8     ecut=    63.00 Ry     beta= 0.50
     Davidson diagonalization with overlap
     ethr =  1.40E-09,  avg # of iterations =  3.0

     total cpu time spent up to now is      248.6 secs

     total energy              =   -1324.93799979 Ry
     estimated scf accuracy    <       0.00000001 Ry

     total magnetization       =     0.00 Bohr mag/cell
     absolute magnetization    =     0.00 Bohr mag/cell

     iteration #  9     ecut=    63.00 Ry     beta= 0.50
     Davidson diagonalization with overlap
     ethr =  3.01E-11,  avg # of iterations =  2.9

     total cpu time spent up to now is      275.8 secs

     total energy              =   -1324.93799979 Ry
     estimated scf accuracy    <       0.00000002 Ry

     total magnetization       =     0.00 Bohr mag/cell
     absolute magnetization    =     0.00 Bohr mag/cell

     iteration # 10     ecut=    63.00 Ry     beta= 0.50
     Davidson diagonalization with overlap
     ethr =  3.01E-11,  avg # of iterations =  1.8

     total cpu time spent up to now is      297.1 secs

     total energy              =   -1324.93799980 Ry
     estimated scf accuracy    <          6.4E-09 Ry

     total magnetization       =     0.00 Bohr mag/cell
     absolute magnetization    =     0.00 Bohr mag/cell

     iteration # 11     ecut=    63.00 Ry     beta= 0.50
     Davidson diagonalization with overlap
     ethr =  1.61E-11,  avg # of iterations =  3.0
 
     Magnetic moment per site  (integrated on atomic sphere of radius R)
     atom   1 (R=0.292)  charge=  8.4534  magn=  0.0000
     atom   2 (R=0.292)  charge=  8.4534  magn=  0.0000
     atom   3 (R=0.292)  charge=  8.4534  magn=  0.0000
     atom   4 (R=0.292)  charge=  8.4534  magn=  0.0000

     total cpu time spent up to now is      327.9 secs

     End of self-consistent calculation

     Number of k-points >= 100: set verbosity='high' to print the bands.

     the Fermi energy is    14.9873 ev

!    total energy              =   -1324.93799980 Ry
     total all-electron energy =    -40368.734965 Ry
     estimated scf accuracy    <          4.4E-10 Ry
     smearing contrib. (-TS)   =      -0.00119783 Ry
     internal energy E=F+TS    =   -1324.93680197 Ry

     The total energy is F=E-TS. E is the sum of the following terms:
     one-electron contribution =      50.93932037 Ry
     hartree contribution      =      34.79162637 Ry
     xc contribution           =    -129.93919404 Ry
     ewald contribution        =    -253.24498999 Ry
     DFT-D3 Dispersion         =      -0.52853730 Ry
     one-center paw contrib.   =   -1026.95502737 Ry

     total magnetization       =     0.00 Bohr mag/cell
     absolute magnetization    =     0.00 Bohr mag/cell

     convergence has been achieved in  11 iterations

     Writing all to output data dir ./Pd_ecut_63.save/ :
     XML data file, charge density, pseudopotentials, collected wavefunctions
 
     init_run     :      9.25s CPU      9.52s WALL (       1 calls)
     electrons    :    235.93s CPU    318.18s WALL (       1 calls)

     Called by init_run:
     wfcinit      :      8.75s CPU      8.98s WALL (       1 calls)
     potinit      :      0.29s CPU      0.31s WALL (       1 calls)
     hinit0       :      0.11s CPU      0.12s WALL (       1 calls)

     Called by electrons:
     c_bands      :    203.45s CPU    281.98s WALL (      11 calls)
     sum_band     :     29.41s CPU     32.90s WALL (      11 calls)
     v_of_rho     :      0.28s CPU      0.29s WALL (      12 calls)
     newd         :      0.17s CPU      0.18s WALL (      12 calls)
     PAW_pot      :      2.51s CPU      2.63s WALL (      12 calls)
     mix_rho      :      0.10s CPU      0.10s WALL (      11 calls)
     energy_dftd3 :      0.16s CPU      0.16s WALL (       1 calls)

     Called by c_bands:
     init_us_2    :      1.64s CPU      2.06s WALL (   17963 calls)
     init_us_2:cp :      1.58s CPU      2.01s WALL (   17963 calls)
     cegterg      :    180.55s CPU    227.02s WALL (    8591 calls)

     Called by *egterg:
     cdiaghg      :     35.37s CPU     47.77s WALL (   33010 calls)
     h_psi        :    122.83s CPU    151.89s WALL (   33791 calls)
     s_psi        :      2.93s CPU      3.57s WALL (   33791 calls)
     g_psi        :      0.51s CPU      0.66s WALL (   24419 calls)

     Called by h_psi:
     h_psi:calbec :      6.62s CPU      7.89s WALL (   33791 calls)
     vloc_psi     :    112.38s CPU    139.17s WALL (   33791 calls)
     add_vuspsi   :      3.07s CPU      3.84s WALL (   33791 calls)

     General routines
     calbec       :      8.76s CPU     10.26s WALL (   42382 calls)
     fft          :      0.20s CPU      0.21s WALL (     294 calls)
     ffts         :      0.12s CPU      0.13s WALL (     230 calls)
     fftw         :    122.64s CPU    147.12s WALL ( 1413092 calls)
     interpolate  :      0.01s CPU      0.01s WALL (      24 calls)
 
     Parallel routines
 
     PWSCF        :   4m 7.01s CPU   5m34.45s WALL

 
   This run was terminated on:  22:45:15   5Sep2025            

=------------------------------------------------------------------------------=
   JOB DONE.
=------------------------------------------------------------------------------=
