
     Program PWSCF v.7.3 starts on 23Mar2026 at  5:58:51 

     This program is part of the open-source Quantum ESPRESSO suite
     for quantum simulation of materials; please cite
         "P. Giannozzi et al., J. Phys.:Condens. Matter 21 395502 (2009);
         "P. Giannozzi et al., J. Phys.:Condens. Matter 29 465901 (2017);
         "P. Giannozzi et al., J. Chem. Phys. 152 154105 (2020);
          URL http://www.quantum-espresso.org", 
     in publications or presentations arising from this work. More details at
     http://www.quantum-espresso.org/quote

     Parallel version (MPI), running on    64 processors

     MPI processes distributed on     4 nodes
     238324 MiB available memory on the printing compute node when the environment starts
 
     Reading input from /tmpu/isholek_g/isholek/MIGUEL/QE/Hydrogen/111_2x2/RELAX/Ni1Pd3_111-H_fcc_1-relax.in

     Current dimensions of program PWSCF are:
     Max number of different atomic species (ntypx) = 10
     Max number of k-points (npk) =  40000
     Max angular momentum in pseudopotentials (lmaxx) =  4
     file Ni.upf: wavefunction(s)  4S 3D renormalized
     file Pd.upf: wavefunction(s)  5S 4D renormalized
     file H.upf: wavefunction(s)  1S renormalized

     IMPORTANT: XC functional enforced from input :
     Exchange-correlation= PBE
                           (   1   4   3   4   0   0   0)
     Any further DFT definition will be discarded
     Please, verify this is what you really want

 
     K-points division:     npool     =       8
     R & G space division:  proc/nbgrp/npool/nimage =       8
     Subspace diagonalization in iterative solution of the eigenvalue problem:
     one sub-group per band group will be used
     scalapack distributed-memory algorithm (size of sub-group:  2*  2 procs)

 
     Parallelization info
     --------------------
     sticks:   dense  smooth     PW     G-vecs:    dense   smooth      PW
     Min         416     207     59               120460    42599    6547
     Max         417     208     60               120479    42626    6574
     Sum        3331    1663    475               963739   340921   52455
 
     Using Slab Decomposition
 

     Title: 
     Ni1Pd3_111-H_fcc_1-relax                                                   


     bravais-lattice index     =            0
     lattice parameter (alat)  =      10.0481  a.u.
     unit-cell volume          =    5428.4795 (a.u.)^3
     number of atoms/cell      =           25
     number of atomic types    =            3
     number of electrons       =       241.00
     number of Kohn-Sham states=          145
     kinetic-energy cutoff     =      60.0000  Ry
     charge density cutoff     =     480.0000  Ry
     scf convergence threshold =      1.0E-08
     mixing beta               =       0.2000
     number of iterations used =           12  local-TF  mixing
     energy convergence thresh.=      1.8E-05
     force convergence thresh. =      7.8E-04
     Exchange-correlation= PBE
                           (   1   4   3   4   0   0   0)
     nstep                     =           50


     celldm(1)=  10.048050  celldm(2)=   0.000000  celldm(3)=   0.000000
     celldm(4)=   0.000000  celldm(5)=   0.000000  celldm(6)=   0.000000

     crystal axes: (cart. coord. in units of alat)
               a(1) = (   1.000000   0.000000   0.000000 )  
               a(2) = (   0.500000   0.866025   0.000000 )  
               a(3) = (   0.000000   0.000000   6.178773 )  

     reciprocal axes: (cart. coord. in units 2 pi/alat)
               b(1) = (  1.000000 -0.577350  0.000000 )  
               b(2) = (  0.000000  1.154701  0.000000 )  
               b(3) = (  0.000000  0.000000  0.161844 )  


     PseudoPot. # 1 for Ni read from file:
     /tmpu/isholek_g/isholek/MIGUEL/PP/PAW/Ni.upf
     MD5 check sum: d88365a95a5e142bd87181c2c8b16588
     Pseudo is Projector augmented-wave + core cor, Zval = 10.0
     Generated using "atomic" code by A. Dal Corso  v.5.0.2 svn rev. 9415
     Shape of augmentation charge: PSQ
     Using radial grid of 1195 points,  6 beta functions with: 
                l(1) =   0
                l(2) =   0
                l(3) =   1
                l(4) =   1
                l(5) =   2
                l(6) =   2
     Q(r) pseudized with 0 coefficients 


     PseudoPot. # 2 for Pd read from file:
     /tmpu/isholek_g/isholek/MIGUEL/PP/PAW/Pd.upf
     MD5 check sum: e9d6f14fd83b79f8105499163af174c9
     Pseudo is Projector augmented-wave + core cor, Zval = 10.0
     Generated using "atomic" code by A. Dal Corso  v.5.0.2 svn rev. 9415
     Shape of augmentation charge: PSQ
     Using radial grid of 1235 points,  6 beta functions with: 
                l(1) =   0
                l(2) =   0
                l(3) =   1
                l(4) =   1
                l(5) =   2
                l(6) =   2
     Q(r) pseudized with 0 coefficients 


     PseudoPot. # 3 for H  read from file:
     /tmpu/isholek_g/isholek/MIGUEL/PP/PAW/H.upf
     MD5 check sum: 4cbe42a24e15140179a93d5bf84f2220
     Pseudo is Projector augmented-wave, Zval =  1.0
     Generated using "atomic" code by A. Dal Corso  v.5.0.2 svn rev. 9415
     Shape of augmentation charge: PSQ
     Using radial grid of  929 points,  2 beta functions with: 
                l(1) =   0
                l(2) =   0
     Q(r) pseudized with 0 coefficients 


     atomic species   valence    mass     pseudopotential
     Ni               10.00    58.69340     Ni( 1.00)
     Pd               10.00   106.42000     Pd( 1.00)
     H                 1.00     1.00794     H ( 1.00)

     Starting magnetic structure 
     atomic species   magnetization
     Ni              0.650
     Pd              0.100
     H               0.000

     No symmetry found



   Cartesian axes

     site n.     atom                  positions (alat units)
         1        Ni     tau(   1) = (   1.0000000   0.5773503   2.0687584  )
         2        Pd     tau(   2) = (   0.5000000   0.5773500   2.0687727  )
         3        Pd     tau(   3) = (   0.7499998   0.1443377   2.0687727  )
         4        Pd     tau(   4) = (   0.2500002   0.1443377   2.0687727  )
         5        Ni     tau(   5) = (   0.5000000   0.2886751   2.4770066  )
         6        Pd     tau(   6) = (   0.7499998   0.7216879   2.4770210  )
         7        Pd     tau(   7) = (   1.0000000   0.2886749   2.4770210  )
         8        Pd     tau(   8) = (   1.2500002   0.7216879   2.4770210  )
         9        Ni     tau(   9) = (   0.0000000  -0.0000000   2.8841673  )
        10        Pd     tau(  10) = (   1.0000000   0.8661098   2.8846297  )
        11        Pd     tau(  11) = (   0.7499269   0.4329705   2.8846297  )
        12        Pd     tau(  12) = (   1.2500730   0.4329705   2.8846297  )
        13        Ni     tau(  13) = (   1.0000000   0.5773503   3.2932083  )
        14        Pd     tau(  14) = (   0.7498729   0.1444109   3.2930618  )
        15        Pd     tau(  15) = (   0.5000000   0.5772035   3.2930618  )
        16        Pd     tau(  16) = (   0.2501271   0.1444109   3.2930618  )
        17        Ni     tau(  17) = (   0.5000000   0.2886751   3.7031032  )
        18        Pd     tau(  18) = (   0.7510407   0.7210870   3.7001030  )
        19        Pd     tau(  19) = (   1.0000000   0.2898768   3.7001029  )
        20        Pd     tau(  20) = (   1.2489593   0.7210870   3.7001030  )
        21        Ni     tau(  21) = (  -0.0000000   0.0000001   4.0940899  )
        22        Pd     tau(  22) = (   1.0000000   0.8682452   4.1148844  )
        23        Pd     tau(  23) = (   0.7480776   0.4319029   4.1148844  )
        24        Pd     tau(  24) = (   1.2519223   0.4319029   4.1148844  )
        25        H      tau(  25) = (   0.5000000   0.2886751   4.3029533  )

     --------------------------------------------
     DFT-D3 Dispersion Correction (3-body terms):
     --------------------------------------------
       Reference C6 values for interpolation: 

         atom   Coordination number   C6
         H          0.912             6.05
         H          0.000            15.18
         Ni         0.000          1149.49
         Ni         1.794           356.66
         Ni         6.546           257.56
         Ni         6.292           283.75
         Pd         0.000          1217.01
         Pd         1.863           573.90
         Pd         5.710           531.75

       Values used:

         atom   Coordination number  R0_AB[au]  C6      C8
         Ni         5.893            3.162    276.72  23187.44
         Pd         6.810            3.168    531.75  48720.73
         Pd         6.810            3.168    531.75  48720.73
         Pd         6.810            3.168    531.75  48720.73
         Ni         7.888            3.162    258.74  21680.87
         Pd         9.139            3.168    531.75  48720.73
         Pd         9.139            3.168    531.75  48720.73
         Pd         9.139            3.168    531.75  48720.73
         Ni         7.889            3.162    258.74  21680.67
         Pd         9.144            3.168    531.75  48720.73
         Pd         9.144            3.168    531.75  48720.73
         Pd         9.144            3.168    531.75  48720.73
         Ni         7.915            3.162    258.68  21675.80
         Pd         9.128            3.168    531.75  48720.73
         Pd         9.128            3.168    531.75  48720.73
         Pd         9.128            3.168    531.75  48720.73
         Ni         7.810            3.162    258.94  21696.97
         Pd         9.154            3.168    531.75  48720.73
         Pd         9.154            3.168    531.75  48720.73
         Pd         9.154            3.168    531.75  48720.73
         Ni         6.118            3.162    274.14  22970.75
         Pd         7.313            3.168    531.75  48720.73
         Pd         7.313            3.168    531.75  48720.73
         Pd         7.313            3.168    531.75  48720.73
         H          1.796            2.062      6.05     73.18

         Molecular C6 ( Ry / a.u.^6 ) =    265172.81


     number of k points=   100  Marzari-Vanderbilt smearing, width (Ry)=  0.0147

     Number of k-points >= 100: set verbosity='high' to print them.

     Dense  grid:   963739 G-vectors     FFT dimensions: (  72,  72, 450)

     Smooth grid:   340921 G-vectors     FFT dimensions: (  50,  50, 320)

     Estimated max dynamical RAM per process >     574.07 MB

     Estimated total dynamical RAM >      31.05 GB
 ----2D----2D----2D----2D----2D----2D----2D----2D----2D----2D----2D----2D
  The code is running with the 2D cutoff
  Please refer to:
  Sohier, T., Calandra, M., & Mauri, F. (2017), 
  Density functional perturbation theory for gated two-dimensional heterostructu
 res:
  Theoretical developments and application to flexural phonons in graphene.
  Physical Review B, 96(7), 75448. https://doi.org/10.1103/PhysRevB.96.075448
 ----2D----2D----2D----2D----2D----2D----2D----2D----2D----2D----2D----2D

     Check: negative core charge=   -0.000002
     Generating pointlists ...
     new r_m :   0.2018 (alat units)  2.0274 (a.u.) for type    1
     new r_m :   0.1414 (alat units)  1.4203 (a.u.) for type    2
     new r_m :   0.1414 (alat units)  1.4203 (a.u.) for type    3

     Initial potential from superposition of free atoms

     starting charge     240.9891, renormalised to     241.0000

     negative rho (up, down):  2.000E-04 5.276E-05
     Starting wfcs are  217 randomized atomic wfcs
     Checking if some PAW data can be deallocated... 

     total cpu time spent up to now is      108.8 secs

     Self-consistent Calculation

     iteration #  1     ecut=    60.00 Ry     beta= 0.20
     Davidson diagonalization with overlap
     ethr =  1.00E-02,  avg # of iterations =  3.0

     negative rho (up, down):  3.433E-04 2.623E-04

     total cpu time spent up to now is      338.0 secs

     total energy              =   -7076.12518471 Ry
     estimated scf accuracy    <      23.53877999 Ry

     total magnetization       =    10.78 Bohr mag/cell
     absolute magnetization    =    10.78 Bohr mag/cell

     iteration #  2     ecut=    60.00 Ry     beta= 0.20
     Davidson diagonalization with overlap
     ethr =  9.77E-03,  avg # of iterations =  1.0

     negative rho (up, down):  5.952E-04 5.567E-04

     total cpu time spent up to now is      563.7 secs

     total energy              =   -7076.76027562 Ry
     estimated scf accuracy    <       5.59509972 Ry

     total magnetization       =    16.14 Bohr mag/cell
     absolute magnetization    =    16.15 Bohr mag/cell

     iteration #  3     ecut=    60.00 Ry     beta= 0.20
     Davidson diagonalization with overlap
     ethr =  2.32E-03,  avg # of iterations =  1.0

     negative rho (up, down):  3.872E-04 3.337E-04

     total cpu time spent up to now is      795.0 secs

     total energy              =   -7077.00411734 Ry
     estimated scf accuracy    <       1.74356541 Ry

     total magnetization       =    16.81 Bohr mag/cell
     absolute magnetization    =    16.86 Bohr mag/cell

     iteration #  4     ecut=    60.00 Ry     beta= 0.20
     Davidson diagonalization with overlap
     ethr =  7.23E-04,  avg # of iterations =  1.5

     negative rho (up, down):  1.727E-04 1.674E-04

     total cpu time spent up to now is     1012.2 secs

     total energy              =   -7077.20110242 Ry
     estimated scf accuracy    <       1.85892328 Ry

     total magnetization       =    14.39 Bohr mag/cell
     absolute magnetization    =    14.52 Bohr mag/cell

     iteration #  5     ecut=    60.00 Ry     beta= 0.20
     Davidson diagonalization with overlap
     ethr =  7.23E-04,  avg # of iterations =  1.2

     negative rho (up, down):  1.361E-05 1.424E-05

     total cpu time spent up to now is     1222.3 secs

     total energy              =   -7077.32531442 Ry
     estimated scf accuracy    <       0.91038587 Ry

     total magnetization       =    11.91 Bohr mag/cell
     absolute magnetization    =    12.45 Bohr mag/cell

     iteration #  6     ecut=    60.00 Ry     beta= 0.20
     Davidson diagonalization with overlap
     ethr =  3.78E-04,  avg # of iterations =  2.1

     negative rho (up, down):  4.114E-07 7.173E-07

     total cpu time spent up to now is     1470.4 secs

     total energy              =   -7077.42212901 Ry
     estimated scf accuracy    <       0.99591396 Ry

     total magnetization       =    12.65 Bohr mag/cell
     absolute magnetization    =    13.36 Bohr mag/cell

     iteration #  7     ecut=    60.00 Ry     beta= 0.20
     Davidson diagonalization with overlap
     ethr =  3.78E-04,  avg # of iterations =  1.5

     negative rho (up, down):  3.524E-08 7.010E-08

     total cpu time spent up to now is     1711.9 secs

     total energy              =   -7077.39595488 Ry
     estimated scf accuracy    <       0.91509138 Ry

     total magnetization       =    12.32 Bohr mag/cell
     absolute magnetization    =    13.13 Bohr mag/cell

     iteration #  8     ecut=    60.00 Ry     beta= 0.20
     Davidson diagonalization with overlap
     ethr =  3.78E-04,  avg # of iterations =  1.3

     negative rho (up, down):  9.556E-09 2.816E-08

     total cpu time spent up to now is     1950.5 secs

     total energy              =   -7077.45323885 Ry
     estimated scf accuracy    <       0.31299324 Ry

     total magnetization       =    10.41 Bohr mag/cell
     absolute magnetization    =    11.26 Bohr mag/cell

     iteration #  9     ecut=    60.00 Ry     beta= 0.20
     Davidson diagonalization with overlap
     c_bands:  1 eigenvalues not converged
     c_bands:  2 eigenvalues not converged
     c_bands:  1 eigenvalues not converged
     ethr =  1.30E-04,  avg # of iterations =  7.4

     negative rho (up, down):  4.159E-09 1.540E-08

     total cpu time spent up to now is     2193.2 secs

     total energy              =   -7077.44950343 Ry
     estimated scf accuracy    <       0.24176489 Ry

     total magnetization       =     9.67 Bohr mag/cell
     absolute magnetization    =    10.63 Bohr mag/cell

     iteration # 10     ecut=    60.00 Ry     beta= 0.20
     Davidson diagonalization with overlap
     c_bands:  1 eigenvalues not converged
     c_bands:  1 eigenvalues not converged
     ethr =  1.00E-04,  avg # of iterations =  6.4

     negative rho (up, down):  3.037E-09 1.006E-08

     total cpu time spent up to now is     2447.4 secs

     total energy              =   -7077.45612997 Ry
     estimated scf accuracy    <       0.02046864 Ry

     total magnetization       =     9.86 Bohr mag/cell
     absolute magnetization    =    10.84 Bohr mag/cell

     iteration # 11     ecut=    60.00 Ry     beta= 0.20
     Davidson diagonalization with overlap
     ethr =  8.49E-06,  avg # of iterations = 11.4

     total cpu time spent up to now is     2763.1 secs

     total energy              =   -7077.45830568 Ry
     estimated scf accuracy    <       0.02532019 Ry

     total magnetization       =     9.71 Bohr mag/cell
     absolute magnetization    =    10.69 Bohr mag/cell

     iteration # 12     ecut=    60.00 Ry     beta= 0.20
     Davidson diagonalization with overlap
     ethr =  8.49E-06,  avg # of iterations =  1.4

     negative rho (up, down):  7.776E-09 1.286E-08

     total cpu time spent up to now is     3002.6 secs

     total energy              =   -7077.45823327 Ry
     estimated scf accuracy    <       0.02785854 Ry

     total magnetization       =     9.64 Bohr mag/cell
     absolute magnetization    =    10.62 Bohr mag/cell

     iteration # 13     ecut=    60.00 Ry     beta= 0.20
     Davidson diagonalization with overlap
     ethr =  8.49E-06,  avg # of iterations =  1.0

     negative rho (up, down):  2.026E-08 2.723E-08

     total cpu time spent up to now is     3215.6 secs

     total energy              =   -7077.45792298 Ry
     estimated scf accuracy    <       0.02976735 Ry

     total magnetization       =     9.88 Bohr mag/cell
     absolute magnetization    =    10.79 Bohr mag/cell

     iteration # 14     ecut=    60.00 Ry     beta= 0.20
     Davidson diagonalization with overlap
     ethr =  8.49E-06,  avg # of iterations =  1.0

     negative rho (up, down):  2.262E-08 2.772E-08

     total cpu time spent up to now is     3426.2 secs

     total energy              =   -7077.45837082 Ry
     estimated scf accuracy    <       0.01137197 Ry

     total magnetization       =     9.74 Bohr mag/cell
     absolute magnetization    =    10.59 Bohr mag/cell

     iteration # 15     ecut=    60.00 Ry     beta= 0.20
     Davidson diagonalization with overlap
     ethr =  4.72E-06,  avg # of iterations =  1.0

     negative rho (up, down):  2.227E-08 2.585E-08

     total cpu time spent up to now is     3642.8 secs

     total energy              =   -7077.45752057 Ry
     estimated scf accuracy    <       0.00889174 Ry

     total magnetization       =     9.78 Bohr mag/cell
     absolute magnetization    =    10.59 Bohr mag/cell

     iteration # 16     ecut=    60.00 Ry     beta= 0.20
     Davidson diagonalization with overlap
     ethr =  3.69E-06,  avg # of iterations =  1.0

     negative rho (up, down):  2.637E-08 2.992E-08

     total cpu time spent up to now is     3859.2 secs

     total energy              =   -7077.45696163 Ry
     estimated scf accuracy    <       0.00771851 Ry

     total magnetization       =     9.88 Bohr mag/cell
     absolute magnetization    =    10.69 Bohr mag/cell

     iteration # 17     ecut=    60.00 Ry     beta= 0.20
     Davidson diagonalization with overlap
     ethr =  3.20E-06,  avg # of iterations =  1.1

     negative rho (up, down):  2.944E-08 3.233E-08

     total cpu time spent up to now is     4073.4 secs

     total energy              =   -7077.45676640 Ry
     estimated scf accuracy    <       0.00476318 Ry

     total magnetization       =     9.85 Bohr mag/cell
     absolute magnetization    =    10.65 Bohr mag/cell

     iteration # 18     ecut=    60.00 Ry     beta= 0.20
     Davidson diagonalization with overlap
     ethr =  1.98E-06,  avg # of iterations =  1.3

     negative rho (up, down):  1.582E-08 1.604E-08

     total cpu time spent up to now is     4301.8 secs

     total energy              =   -7077.45684511 Ry
     estimated scf accuracy    <       0.00211478 Ry

     total magnetization       =     9.85 Bohr mag/cell
     absolute magnetization    =    10.65 Bohr mag/cell

     iteration # 19     ecut=    60.00 Ry     beta= 0.20
     Davidson diagonalization with overlap
     ethr =  8.78E-07,  avg # of iterations =  1.3

     total cpu time spent up to now is     4534.1 secs

     total energy              =   -7077.45679712 Ry
     estimated scf accuracy    <       0.00124075 Ry

     total magnetization       =     9.88 Bohr mag/cell
     absolute magnetization    =    10.70 Bohr mag/cell

     iteration # 20     ecut=    60.00 Ry     beta= 0.20
     Davidson diagonalization with overlap
     ethr =  5.15E-07,  avg # of iterations =  1.2

     total cpu time spent up to now is     4780.4 secs

     total energy              =   -7077.45683583 Ry
     estimated scf accuracy    <       0.00117424 Ry

     total magnetization       =     9.88 Bohr mag/cell
     absolute magnetization    =    10.71 Bohr mag/cell

     iteration # 21     ecut=    60.00 Ry     beta= 0.20
     Davidson diagonalization with overlap
     ethr =  4.87E-07,  avg # of iterations =  1.8

     negative rho (up, down):  1.341E-07 1.163E-07

     total cpu time spent up to now is     5025.7 secs

     total energy              =   -7077.45697731 Ry
     estimated scf accuracy    <       0.00161237 Ry

     total magnetization       =     9.93 Bohr mag/cell
     absolute magnetization    =    10.78 Bohr mag/cell

     iteration # 22     ecut=    60.00 Ry     beta= 0.20
     Davidson diagonalization with overlap
     ethr =  4.87E-07,  avg # of iterations =  1.2

     negative rho (up, down):  6.994E-07 5.830E-07

     total cpu time spent up to now is     5264.9 secs

     total energy              =   -7077.45700656 Ry
     estimated scf accuracy    <       0.00147111 Ry

     total magnetization       =     9.93 Bohr mag/cell
     absolute magnetization    =    10.79 Bohr mag/cell

     iteration # 23     ecut=    60.00 Ry     beta= 0.20
     Davidson diagonalization with overlap
     ethr =  4.87E-07,  avg # of iterations =  1.2

     negative rho (up, down):  5.053E-07 3.789E-07

     total cpu time spent up to now is     5503.6 secs

     total energy              =   -7077.45697384 Ry
     estimated scf accuracy    <       0.00130645 Ry

     total magnetization       =     9.94 Bohr mag/cell
     absolute magnetization    =    10.81 Bohr mag/cell

     iteration # 24     ecut=    60.00 Ry     beta= 0.20
     Davidson diagonalization with overlap
     ethr =  4.87E-07,  avg # of iterations =  1.1

     negative rho (up, down):  6.005E-05 5.777E-05

     total cpu time spent up to now is     5740.2 secs

     total energy              =   -7077.45683116 Ry
     estimated scf accuracy    <       0.00144202 Ry

     total magnetization       =     9.95 Bohr mag/cell
     absolute magnetization    =    10.82 Bohr mag/cell

     iteration # 25     ecut=    60.00 Ry     beta= 0.20
     Davidson diagonalization with overlap
     ethr =  4.87E-07,  avg # of iterations =  2.1

     negative rho (up, down):  3.831E-04 3.777E-04

     total cpu time spent up to now is     5979.8 secs

     total energy              =   -7077.45687652 Ry
     estimated scf accuracy    <       0.00164695 Ry

     total magnetization       =     9.98 Bohr mag/cell
     absolute magnetization    =    10.83 Bohr mag/cell

     iteration # 26     ecut=    60.00 Ry     beta= 0.20
     Davidson diagonalization with overlap
     ethr =  4.87E-07,  avg # of iterations =  1.3

     negative rho (up, down):  1.119E-04 1.067E-04

     total cpu time spent up to now is     6220.6 secs

     total energy              =   -7077.45687392 Ry
     estimated scf accuracy    <       0.00106922 Ry

     total magnetization       =     9.98 Bohr mag/cell
     absolute magnetization    =    10.85 Bohr mag/cell

     iteration # 27     ecut=    60.00 Ry     beta= 0.20
     Davidson diagonalization with overlap
     ethr =  4.44E-07,  avg # of iterations =  1.4

     negative rho (up, down):  1.653E-04 1.584E-04

     total cpu time spent up to now is     6456.1 secs

     total energy              =   -7077.45680314 Ry
     estimated scf accuracy    <       0.00048760 Ry

     total magnetization       =     9.97 Bohr mag/cell
     absolute magnetization    =    10.83 Bohr mag/cell

     iteration # 28     ecut=    60.00 Ry     beta= 0.20
     Davidson diagonalization with overlap
     ethr =  2.02E-07,  avg # of iterations =  1.9

     negative rho (up, down):  3.161E-04 3.071E-04

     total cpu time spent up to now is     6684.7 secs

     total energy              =   -7077.45683687 Ry
     estimated scf accuracy    <       0.00005777 Ry

     total magnetization       =     9.94 Bohr mag/cell
     absolute magnetization    =    10.79 Bohr mag/cell

     iteration # 29     ecut=    60.00 Ry     beta= 0.20
     Davidson diagonalization with overlap
     ethr =  2.40E-08,  avg # of iterations =  4.1

     negative rho (up, down):  1.707E-04 1.582E-04

     total cpu time spent up to now is     6940.5 secs

     total energy              =   -7077.45684575 Ry
     estimated scf accuracy    <       0.00003203 Ry

     total magnetization       =     9.94 Bohr mag/cell
     absolute magnetization    =    10.79 Bohr mag/cell

     iteration # 30     ecut=    60.00 Ry     beta= 0.20
     Davidson diagonalization with overlap
     ethr =  1.33E-08,  avg # of iterations =  1.7

     negative rho (up, down):  1.411E-04 1.162E-04

     total cpu time spent up to now is     7164.1 secs

     total energy              =   -7077.45684221 Ry
     estimated scf accuracy    <       0.00002532 Ry

     total magnetization       =     9.94 Bohr mag/cell
     absolute magnetization    =    10.80 Bohr mag/cell

     iteration # 31     ecut=    60.00 Ry     beta= 0.20
     Davidson diagonalization with overlap
     ethr =  1.05E-08,  avg # of iterations =  2.0

     negative rho (up, down):  1.355E-04 1.060E-04

     total cpu time spent up to now is     7402.5 secs

     total energy              =   -7077.45684297 Ry
     estimated scf accuracy    <       0.00000540 Ry

     total magnetization       =     9.95 Bohr mag/cell
     absolute magnetization    =    10.81 Bohr mag/cell

     iteration # 32     ecut=    60.00 Ry     beta= 0.20
     Davidson diagonalization with overlap
     ethr =  2.24E-09,  avg # of iterations =  3.3

     negative rho (up, down):  1.612E-04 1.306E-04

     total cpu time spent up to now is     7643.0 secs

     total energy              =   -7077.45684324 Ry
     estimated scf accuracy    <       0.00000386 Ry

     total magnetization       =     9.95 Bohr mag/cell
     absolute magnetization    =    10.80 Bohr mag/cell

     iteration # 33     ecut=    60.00 Ry     beta= 0.20
     Davidson diagonalization with overlap
     ethr =  1.60E-09,  avg # of iterations =  1.9

     negative rho (up, down):  1.497E-04 1.160E-04

     total cpu time spent up to now is     7883.7 secs

     total energy              =   -7077.45684363 Ry
     estimated scf accuracy    <       0.00000425 Ry

     total magnetization       =     9.94 Bohr mag/cell
     absolute magnetization    =    10.80 Bohr mag/cell

     iteration # 34     ecut=    60.00 Ry     beta= 0.20
     Davidson diagonalization with overlap
     ethr =  1.60E-09,  avg # of iterations =  1.3

     negative rho (up, down):  1.590E-04 1.254E-04

     total cpu time spent up to now is     8117.3 secs

     total energy              =   -7077.45684410 Ry
     estimated scf accuracy    <       0.00000208 Ry

     total magnetization       =     9.95 Bohr mag/cell
     absolute magnetization    =    10.80 Bohr mag/cell

     iteration # 35     ecut=    60.00 Ry     beta= 0.20
     Davidson diagonalization with overlap
     ethr =  8.62E-10,  avg # of iterations =  1.6

     negative rho (up, down):  1.414E-04 1.055E-04

     total cpu time spent up to now is     8357.8 secs

     total energy              =   -7077.45684436 Ry
     estimated scf accuracy    <       0.00000079 Ry

     total magnetization       =     9.95 Bohr mag/cell
     absolute magnetization    =    10.80 Bohr mag/cell

     iteration # 36     ecut=    60.00 Ry     beta= 0.20
     Davidson diagonalization with overlap
     ethr =  3.28E-10,  avg # of iterations =  2.3

     negative rho (up, down):  1.517E-04 1.154E-04

     total cpu time spent up to now is     8601.1 secs

     total energy              =   -7077.45684455 Ry
     estimated scf accuracy    <       0.00000022 Ry

     total magnetization       =     9.94 Bohr mag/cell
     absolute magnetization    =    10.80 Bohr mag/cell

     iteration # 37     ecut=    60.00 Ry     beta= 0.20
     Davidson diagonalization with overlap
     ethr =  8.95E-11,  avg # of iterations =  4.0

     negative rho (up, down):  1.478E-04 1.115E-04

     total cpu time spent up to now is     8857.2 secs

     total energy              =   -7077.45684456 Ry
     estimated scf accuracy    <       0.00000011 Ry

     total magnetization       =     9.94 Bohr mag/cell
     absolute magnetization    =    10.80 Bohr mag/cell

     iteration # 38     ecut=    60.00 Ry     beta= 0.20
     Davidson diagonalization with overlap
     ethr =  4.74E-11,  avg # of iterations =  1.7

     negative rho (up, down):  1.529E-04 1.165E-04

     total cpu time spent up to now is     9097.2 secs

     total energy              =   -7077.45684460 Ry
     estimated scf accuracy    <       0.00000010 Ry

     total magnetization       =     9.94 Bohr mag/cell
     absolute magnetization    =    10.80 Bohr mag/cell

     iteration # 39     ecut=    60.00 Ry     beta= 0.20
     Davidson diagonalization with overlap
     ethr =  4.07E-11,  avg # of iterations =  1.2

     negative rho (up, down):  1.634E-04 1.270E-04

     total cpu time spent up to now is     9331.0 secs

     total energy              =   -7077.45684461 Ry
     estimated scf accuracy    <       0.00000006 Ry

     total magnetization       =     9.94 Bohr mag/cell
     absolute magnetization    =    10.79 Bohr mag/cell

     iteration # 40     ecut=    60.00 Ry     beta= 0.20
     Davidson diagonalization with overlap
     ethr =  2.52E-11,  avg # of iterations =  1.5

     negative rho (up, down):  1.708E-04 1.343E-04

     total cpu time spent up to now is     9554.0 secs

     total energy              =   -7077.45684466 Ry
     estimated scf accuracy    <       0.00000005 Ry

     total magnetization       =     9.94 Bohr mag/cell
     absolute magnetization    =    10.79 Bohr mag/cell

     iteration # 41     ecut=    60.00 Ry     beta= 0.20
     Davidson diagonalization with overlap
     ethr =  2.09E-11,  avg # of iterations =  1.7

     negative rho (up, down):  1.702E-04 1.336E-04

     total cpu time spent up to now is     9799.4 secs

     total energy              =   -7077.45684467 Ry
     estimated scf accuracy    <       0.00000004 Ry

     total magnetization       =     9.94 Bohr mag/cell
     absolute magnetization    =    10.79 Bohr mag/cell

     iteration # 42     ecut=    60.00 Ry     beta= 0.20
     Davidson diagonalization with overlap
     ethr =  1.78E-11,  avg # of iterations =  1.1

     negative rho (up, down):  1.624E-04 1.257E-04

     total cpu time spent up to now is    10026.8 secs

     total energy              =   -7077.45684466 Ry
     estimated scf accuracy    <       0.00000002 Ry

     total magnetization       =     9.94 Bohr mag/cell
     absolute magnetization    =    10.79 Bohr mag/cell

     iteration # 43     ecut=    60.00 Ry     beta= 0.20
     Davidson diagonalization with overlap
     ethr =  1.00E-11,  avg # of iterations =  1.7

     negative rho (up, down):  1.562E-04 1.196E-04

     total cpu time spent up to now is    10267.4 secs

     total energy              =   -7077.45684465 Ry
     estimated scf accuracy    <       0.00000001 Ry

     total magnetization       =     9.94 Bohr mag/cell
     absolute magnetization    =    10.79 Bohr mag/cell

     iteration # 44     ecut=    60.00 Ry     beta= 0.20
     Davidson diagonalization with overlap
     ethr =  4.58E-12,  avg # of iterations =  1.9

     negative rho (up, down):  1.561E-04 1.196E-04
 
     Magnetic moment per site  (integrated on atomic sphere of radius R)
     atom   1 (R=0.202)  charge=  8.7461  magn=  0.9683
     atom   2 (R=0.141)  charge=  5.6464  magn=  0.2037
     atom   3 (R=0.141)  charge=  5.6464  magn=  0.2037
     atom   4 (R=0.141)  charge=  5.6464  magn=  0.2037
     atom   5 (R=0.202)  charge=  8.8231  magn=  0.9282
     atom   6 (R=0.141)  charge=  5.6331  magn=  0.2516
     atom   7 (R=0.141)  charge=  5.6331  magn=  0.2516
     atom   8 (R=0.141)  charge=  5.6331  magn=  0.2516
     atom   9 (R=0.202)  charge=  8.8370  magn=  0.8582
     atom  10 (R=0.141)  charge=  5.6298  magn=  0.2453
     atom  11 (R=0.141)  charge=  5.6298  magn=  0.2453
     atom  12 (R=0.141)  charge=  5.6298  magn=  0.2453
     atom  13 (R=0.202)  charge=  8.8411  magn=  0.8377
     atom  14 (R=0.141)  charge=  5.6302  magn=  0.2401
     atom  15 (R=0.141)  charge=  5.6302  magn=  0.2401
     atom  16 (R=0.141)  charge=  5.6302  magn=  0.2401
     atom  17 (R=0.202)  charge=  8.8182  magn=  0.8839
     atom  18 (R=0.141)  charge=  5.6338  magn=  0.2448
     atom  19 (R=0.141)  charge=  5.6338  magn=  0.2448
     atom  20 (R=0.141)  charge=  5.6338  magn=  0.2448
     atom  21 (R=0.202)  charge=  8.7646  magn=  0.9183
     atom  22 (R=0.141)  charge=  5.6426  magn=  0.1442
     atom  23 (R=0.141)  charge=  5.6426  magn=  0.1442
     atom  24 (R=0.141)  charge=  5.6426  magn=  0.1442
     atom  25 (R=0.141)  charge=  1.0148  magn= -0.0028

     total cpu time spent up to now is    10519.9 secs

     End of self-consistent calculation

     Number of k-points >= 100: set verbosity='high' to print the bands.

     the Fermi energy is    -5.1823 ev

!    total energy              =   -7077.45684464 Ry
     total all-electron energy =   -199909.893415 Ry
     estimated scf accuracy    <          3.0E-09 Ry
     smearing contrib. (-TS)   =       0.00037089 Ry
     internal energy E=F+TS    =   -7077.45721554 Ry

     The total energy is F=E-TS. E is the sum of the following terms:
     one-electron contribution =  -61257.36210425 Ry
     hartree contribution      =   30815.90488462 Ry
     xc contribution           =    -835.56306029 Ry
     ewald contribution        =   29333.72977435 Ry
     DFT-D3 Dispersion         =      -2.53547738 Ry
     one-center paw contrib.   =   -5131.63123258 Ry

     total magnetization       =     9.94 Bohr mag/cell
     absolute magnetization    =    10.79 Bohr mag/cell

     convergence has been achieved in  44 iterations

     negative rho (up, down):  1.561E-04 1.196E-04

     Forces acting on atoms (cartesian axes, Ry/au):

     atom    1 type  1   force =    -0.00000009    0.00000008    0.01593896
     atom    2 type  2   force =     0.00000024   -0.01434638   -0.00920243
     atom    3 type  2   force =    -0.01242437    0.00717327   -0.00920249
     atom    4 type  2   force =     0.01242433    0.00717292   -0.00920297
     atom    5 type  1   force =     0.00000033   -0.00000035   -0.00067459
     atom    6 type  2   force =    -0.00029681    0.00017136    0.00541380
     atom    7 type  2   force =     0.00000006   -0.00034263    0.00541306
     atom    8 type  2   force =     0.00029670    0.00017122    0.00541379
     atom    9 type  1   force =     0.00000007   -0.00000006    0.00094561
     atom   10 type  2   force =    -0.00000012    0.00012147   -0.00011366
     atom   11 type  2   force =    -0.00010540   -0.00006064   -0.00011305
     atom   12 type  2   force =     0.00010533   -0.00006067   -0.00011319
     atom   13 type  1   force =    -0.00000006   -0.00000012    0.00163278
     atom   14 type  2   force =     0.00021551   -0.00012434   -0.00265692
     atom   15 type  2   force =    -0.00000001    0.00024884   -0.00265642
     atom   16 type  2   force =    -0.00021560   -0.00012438   -0.00265691
     atom   17 type  1   force =     0.00000010    0.00000029   -0.00355143
     atom   18 type  2   force =     0.00036168   -0.00020892   -0.00251850
     atom   19 type  2   force =    -0.00000021    0.00041768   -0.00251821
     atom   20 type  2   force =    -0.00036172   -0.00020870   -0.00251862
     atom   21 type  1   force =     0.00000006    0.00000002   -0.00526055
     atom   22 type  2   force =     0.00000001   -0.01230018    0.00655510
     atom   23 type  2   force =     0.01065244    0.00615027    0.00655552
     atom   24 type  2   force =    -0.01065241    0.00614994    0.00655541
     atom   25 type  3   force =    -0.00000004    0.00000002   -0.00146407

     Total force =     0.025880     Total SCF correction =     0.000183


     Computing stress (Cartesian axis) and pressure


     negative rho (up, down):  1.561E-04 1.196E-04
          total   stress  (Ry/bohr**3)                   (kbar)     P=       -6.19
  -0.00007022  -0.00000000  -0.00000000          -10.33       -0.00       -0.00
  -0.00000000  -0.00007022  -0.00000000           -0.00      -10.33       -0.00
  -0.00000000  -0.00000000   0.00001430           -0.00       -0.00        2.10


     BFGS Geometry Optimization
     Energy error            =      0.0E+00 Ry
     Gradient error          =      1.2E-02 Ry/Bohr

     number of scf cycles    =   1
     number of bfgs steps    =   0

     energy             new  =   -7077.4568446448 Ry

     new trust radius        =       0.0139382622 bohr
     new conv_thr            =       0.0000000100 Ry


ATOMIC_POSITIONS (angstrom)
Ni               5.3171990772        3.0698863186       11.0000000000    0   0   0
Pd               2.6585995386        3.0698851333       11.0000764482    0   0   0
Pd               3.9878982814        0.7674721723       11.0000764482    0   0   0
Pd               1.3293007958        0.7674721723       11.0000764482    0   0   0
Ni               2.6585995386        1.5349431593       13.1707374333    0   0   0
Pd               3.9878982814        3.8373584909       13.1708138815    0   0   0
Pd               5.3171990772        1.5349419740       13.1708138815    0   0   0
Pd               6.6464998731        3.8373584909       13.1708138815    0   0   0
Ni               0.0000000901       -0.0000000962       15.3361918641
Pd               5.3171990049        4.6053423624       15.3380903068
Pd               3.9874549687        2.3021583151       15.3380906821
Pd               6.6469429820        2.3021583614       15.3380907020
Ni               5.3171989997        3.0698861769       17.5115081234
Pd               3.9873376357        0.7677957774       17.5084589817
Pd               2.6585995597        3.0692375060       17.5084594696
Pd               1.3298615239        0.7677957917       17.5084591178
Ni               2.6585994901        1.5349433235       19.6882573779
Pd               3.9936242262        3.8340525707       19.6728513311
Pd               5.3171988753        1.5415539192       19.6728512804
Pd               6.6407737085        3.8340527178       19.6728512434
Ni              -0.0000002152        0.0000004390       21.7663075331
Pd               5.3171988451        4.6101235268       21.8831284158
Pd               3.9833145158        2.2997680774       21.8831284252
Pd               6.6510832380        2.2997679643       21.8831284616
H                2.6585994192        1.5349431813       22.8788847359



     Writing config-only to output data dir /tmpu/isholek_g/isholek/MIGUEL/QE/Hydrogen/111_2x2/SAVE/Ni1Pd3_111-H_fcc_1.save/ :
     XML data file
     NEW-OLD atomic charge density approx. for the potential

     Check: negative core charge=   -0.000002

     negative rho (up, down):  1.553E-04 1.315E-04
     Generating pointlists ...

     total cpu time spent up to now is    10953.5 secs

     Self-consistent Calculation

     iteration #  1     ecut=    60.00 Ry     beta= 0.20
     Davidson diagonalization with overlap
     ethr =  1.00E-06,  avg # of iterations =  5.5

     negative rho (up, down):  1.769E-04 1.460E-04

     total cpu time spent up to now is    11480.9 secs

     total energy              =   -7077.45716382 Ry
     estimated scf accuracy    <       0.00170226 Ry

     total magnetization       =     9.93 Bohr mag/cell
     absolute magnetization    =    10.78 Bohr mag/cell

     iteration #  2     ecut=    60.00 Ry     beta= 0.20
     Davidson diagonalization with overlap
     ethr =  7.06E-07,  avg # of iterations =  1.0

     negative rho (up, down):  1.709E-04 1.384E-04

     total cpu time spent up to now is    11708.1 secs

     total energy              =   -7077.45723800 Ry
     estimated scf accuracy    <       0.00039414 Ry

     total magnetization       =     9.94 Bohr mag/cell
     absolute magnetization    =    10.80 Bohr mag/cell

     iteration #  3     ecut=    60.00 Ry     beta= 0.20
     Davidson diagonalization with overlap
     ethr =  1.64E-07,  avg # of iterations =  1.3

     negative rho (up, down):  1.668E-04 1.331E-04

     total cpu time spent up to now is    11946.0 secs

     total energy              =   -7077.45727807 Ry
     estimated scf accuracy    <       0.00012920 Ry

     total magnetization       =     9.94 Bohr mag/cell
     absolute magnetization    =    10.79 Bohr mag/cell

     iteration #  4     ecut=    60.00 Ry     beta= 0.20
     Davidson diagonalization with overlap
     ethr =  5.36E-08,  avg # of iterations =  1.9

     negative rho (up, down):  1.641E-04 1.295E-04

     total cpu time spent up to now is    12190.9 secs

     total energy              =   -7077.45730248 Ry
     estimated scf accuracy    <       0.00018858 Ry

     total magnetization       =     9.94 Bohr mag/cell
     absolute magnetization    =    10.79 Bohr mag/cell

     iteration #  5     ecut=    60.00 Ry     beta= 0.20
     Davidson diagonalization with overlap
     ethr =  5.36E-08,  avg # of iterations =  1.0

     negative rho (up, down):  1.619E-04 1.271E-04

     total cpu time spent up to now is    12429.4 secs

     total energy              =   -7077.45733063 Ry
     estimated scf accuracy    <       0.00012657 Ry

     total magnetization       =     9.94 Bohr mag/cell
     absolute magnetization    =    10.79 Bohr mag/cell

     iteration #  6     ecut=    60.00 Ry     beta= 0.20
     Davidson diagonalization with overlap
     ethr =  5.25E-08,  avg # of iterations =  1.3

     negative rho (up, down):  1.603E-04 1.253E-04

     total cpu time spent up to now is    12670.9 secs

     total energy              =   -7077.45734906 Ry
     estimated scf accuracy    <       0.00005286 Ry

     total magnetization       =     9.94 Bohr mag/cell
     absolute magnetization    =    10.79 Bohr mag/cell

     iteration #  7     ecut=    60.00 Ry     beta= 0.20
     Davidson diagonalization with overlap
     ethr =  2.19E-08,  avg # of iterations =  2.0

     negative rho (up, down):  1.586E-04 1.237E-04

     total cpu time spent up to now is    12913.1 secs

     total energy              =   -7077.45736408 Ry
     estimated scf accuracy    <       0.00001289 Ry

     total magnetization       =     9.94 Bohr mag/cell
     absolute magnetization    =    10.79 Bohr mag/cell

     iteration #  8     ecut=    60.00 Ry     beta= 0.20
     Davidson diagonalization with overlap
     ethr =  5.35E-09,  avg # of iterations =  2.7

     negative rho (up, down):  1.577E-04 1.226E-04

     total cpu time spent up to now is    13169.7 secs

     total energy              =   -7077.45736708 Ry
     estimated scf accuracy    <       0.00000316 Ry

     total magnetization       =     9.94 Bohr mag/cell
     absolute magnetization    =    10.79 Bohr mag/cell

     iteration #  9     ecut=    60.00 Ry     beta= 0.20
     Davidson diagonalization with overlap
     ethr =  1.31E-09,  avg # of iterations =  3.7

     negative rho (up, down):  1.560E-04 1.207E-04

     total cpu time spent up to now is    13432.7 secs

     total energy              =   -7077.45736799 Ry
     estimated scf accuracy    <       0.00000102 Ry

     total magnetization       =     9.94 Bohr mag/cell
     absolute magnetization    =    10.79 Bohr mag/cell

     iteration # 10     ecut=    60.00 Ry     beta= 0.20
     Davidson diagonalization with overlap
     ethr =  4.25E-10,  avg # of iterations =  4.0

     negative rho (up, down):  1.553E-04 1.198E-04

     total cpu time spent up to now is    13703.6 secs

     total energy              =   -7077.45736827 Ry
     estimated scf accuracy    <       0.00000054 Ry

     total magnetization       =     9.94 Bohr mag/cell
     absolute magnetization    =    10.79 Bohr mag/cell

     iteration # 11     ecut=    60.00 Ry     beta= 0.20
     Davidson diagonalization with overlap
     ethr =  2.23E-10,  avg # of iterations =  1.5

     negative rho (up, down):  1.550E-04 1.193E-04

     total cpu time spent up to now is    13909.5 secs

     total energy              =   -7077.45736829 Ry
     estimated scf accuracy    <       0.00000102 Ry

     total magnetization       =     9.94 Bohr mag/cell
     absolute magnetization    =    10.79 Bohr mag/cell

     iteration # 12     ecut=    60.00 Ry     beta= 0.20
     Davidson diagonalization with overlap
     ethr =  2.23E-10,  avg # of iterations =  1.0

     negative rho (up, down):  1.549E-04 1.191E-04

     total cpu time spent up to now is    14100.0 secs

     total energy              =   -7077.45736830 Ry
     estimated scf accuracy    <       0.00000033 Ry

     total magnetization       =     9.93 Bohr mag/cell
     absolute magnetization    =    10.79 Bohr mag/cell

     iteration # 13     ecut=    60.00 Ry     beta= 0.20
     Davidson diagonalization with overlap
     ethr =  1.39E-10,  avg # of iterations =  1.0

     negative rho (up, down):  1.549E-04 1.189E-04

     total cpu time spent up to now is    14293.1 secs

     total energy              =   -7077.45736830 Ry
     estimated scf accuracy    <       0.00000029 Ry

     total magnetization       =     9.94 Bohr mag/cell
     absolute magnetization    =    10.79 Bohr mag/cell

     iteration # 14     ecut=    60.00 Ry     beta= 0.20
     Davidson diagonalization with overlap
     ethr =  1.19E-10,  avg # of iterations =  1.0

     negative rho (up, down):  1.549E-04 1.188E-04

     total cpu time spent up to now is    14485.5 secs

     total energy              =   -7077.45736830 Ry
     estimated scf accuracy    <       0.00000010 Ry

     total magnetization       =     9.94 Bohr mag/cell
     absolute magnetization    =    10.79 Bohr mag/cell

     iteration # 15     ecut=    60.00 Ry     beta= 0.20
     Davidson diagonalization with overlap
     ethr =  4.33E-11,  avg # of iterations =  1.2

     negative rho (up, down):  1.549E-04 1.187E-04

     total cpu time spent up to now is    14677.9 secs

     total energy              =   -7077.45736831 Ry
     estimated scf accuracy    <       0.00000002 Ry

     total magnetization       =     9.93 Bohr mag/cell
     absolute magnetization    =    10.79 Bohr mag/cell

     iteration # 16     ecut=    60.00 Ry     beta= 0.20
     Davidson diagonalization with overlap
     ethr =  7.27E-12,  avg # of iterations =  3.2

     negative rho (up, down):  1.552E-04 1.189E-04

     total cpu time spent up to now is    14908.3 secs

     total energy              =   -7077.45736832 Ry
     estimated scf accuracy    <       0.00000002 Ry

     total magnetization       =     9.93 Bohr mag/cell
     absolute magnetization    =    10.79 Bohr mag/cell

     iteration # 17     ecut=    60.00 Ry     beta= 0.20
     Davidson diagonalization with overlap
     ethr =  6.32E-12,  avg # of iterations =  1.9

     negative rho (up, down):  1.560E-04 1.195E-04
 
     Magnetic moment per site  (integrated on atomic sphere of radius R)
     atom   1 (R=0.202)  charge=  8.7462  magn=  0.9681
     atom   2 (R=0.141)  charge=  5.6464  magn=  0.2036
     atom   3 (R=0.141)  charge=  5.6464  magn=  0.2036
     atom   4 (R=0.141)  charge=  5.6464  magn=  0.2036
     atom   5 (R=0.202)  charge=  8.8232  magn=  0.9280
     atom   6 (R=0.141)  charge=  5.6331  magn=  0.2514
     atom   7 (R=0.141)  charge=  5.6331  magn=  0.2514
     atom   8 (R=0.141)  charge=  5.6331  magn=  0.2514
     atom   9 (R=0.202)  charge=  8.8375  magn=  0.8585
     atom  10 (R=0.141)  charge=  5.6298  magn=  0.2452
     atom  11 (R=0.141)  charge=  5.6298  magn=  0.2452
     atom  12 (R=0.141)  charge=  5.6298  magn=  0.2452
     atom  13 (R=0.202)  charge=  8.8416  magn=  0.8380
     atom  14 (R=0.141)  charge=  5.6302  magn=  0.2403
     atom  15 (R=0.141)  charge=  5.6302  magn=  0.2403
     atom  16 (R=0.141)  charge=  5.6302  magn=  0.2403
     atom  17 (R=0.202)  charge=  8.8157  magn=  0.8839
     atom  18 (R=0.141)  charge=  5.6337  magn=  0.2452
     atom  19 (R=0.141)  charge=  5.6337  magn=  0.2452
     atom  20 (R=0.141)  charge=  5.6337  magn=  0.2452
     atom  21 (R=0.202)  charge=  8.7649  magn=  0.9179
     atom  22 (R=0.141)  charge=  5.6422  magn=  0.1430
     atom  23 (R=0.141)  charge=  5.6422  magn=  0.1430
     atom  24 (R=0.141)  charge=  5.6422  magn=  0.1430
     atom  25 (R=0.141)  charge=  1.0111  magn= -0.0028

     total cpu time spent up to now is    15142.7 secs

     End of self-consistent calculation

     Number of k-points >= 100: set verbosity='high' to print the bands.

     the Fermi energy is    -5.1831 ev

!    total energy              =   -7077.45736832 Ry
     total all-electron energy =   -199909.893939 Ry
     estimated scf accuracy    <          7.3E-09 Ry
     smearing contrib. (-TS)   =       0.00042864 Ry
     internal energy E=F+TS    =   -7077.45779697 Ry

     The total energy is F=E-TS. E is the sum of the following terms:
     one-electron contribution =  -61253.63661936 Ry
     hartree contribution      =   30814.03896865 Ry
     xc contribution           =    -835.55857325 Ry
     ewald contribution        =   29331.86390321 Ry
     DFT-D3 Dispersion         =      -2.53515892 Ry
     one-center paw contrib.   =   -5131.63031731 Ry

     total magnetization       =     9.93 Bohr mag/cell
     absolute magnetization    =    10.79 Bohr mag/cell

     convergence has been achieved in  17 iterations

     negative rho (up, down):  1.560E-04 1.195E-04

     Forces acting on atoms (cartesian axes, Ry/au):

     atom    1 type  1   force =     0.00000002    0.00000000    0.01591584
     atom    2 type  2   force =    -0.00000000   -0.01435166   -0.00921159
     atom    3 type  2   force =    -0.01242888    0.00717583   -0.00921158
     atom    4 type  2   force =     0.01242890    0.00717582   -0.00921158
     atom    5 type  1   force =    -0.00000001    0.00000001   -0.00066346
     atom    6 type  2   force =    -0.00033240    0.00019187    0.00545061
     atom    7 type  2   force =    -0.00000001   -0.00038380    0.00545069
     atom    8 type  2   force =     0.00033240    0.00019187    0.00545060
     atom    9 type  1   force =    -0.00000003    0.00000004    0.00060509
     atom   10 type  2   force =     0.00000001   -0.00009359   -0.00033197
     atom   11 type  2   force =     0.00008116    0.00004680   -0.00033213
     atom   12 type  2   force =    -0.00008111    0.00004679   -0.00033211
     atom   13 type  1   force =    -0.00000003    0.00000003    0.00107088
     atom   14 type  2   force =     0.00020925   -0.00012083   -0.00224753
     atom   15 type  2   force =     0.00000002    0.00024163   -0.00224768
     atom   16 type  2   force =    -0.00020925   -0.00012085   -0.00224758
     atom   17 type  1   force =    -0.00000003    0.00000002   -0.00202020
     atom   18 type  2   force =     0.00012597   -0.00007273   -0.00208561
     atom   19 type  2   force =    -0.00000002    0.00014550   -0.00208565
     atom   20 type  2   force =    -0.00012605   -0.00007276   -0.00208558
     atom   21 type  1   force =     0.00000008    0.00000001   -0.00488790
     atom   22 type  2   force =     0.00000002   -0.00508765    0.00595613
     atom   23 type  2   force =     0.00440592    0.00254378    0.00595600
     atom   24 type  2   force =    -0.00440593    0.00254387    0.00595590
     atom   25 type  3   force =     0.00000001    0.00000001   -0.00260959

     Total force =     0.015785     Total SCF correction =     0.000453


     Computing stress (Cartesian axis) and pressure


     negative rho (up, down):  1.560E-04 1.195E-04
          total   stress  (Ry/bohr**3)                   (kbar)     P=       -6.41
  -0.00007184   0.00000000   0.00000000          -10.57        0.00        0.00
   0.00000000  -0.00007184  -0.00000000            0.00      -10.57       -0.00
   0.00000000  -0.00000000   0.00001300            0.00       -0.00        1.91

     Energy error            =      5.2E-04 Ry
     Gradient error          =      6.0E-03 Ry/Bohr

     number of scf cycles    =   2
     number of bfgs steps    =   1

     energy             old  =   -7077.4568446448 Ry
     energy             new  =   -7077.4573683234 Ry

     CASE: energy            _new < energy            _old

     new trust radius        =       0.0153320884 bohr
     new conv_thr            =       0.0000000008 Ry


ATOMIC_POSITIONS (angstrom)
Ni               5.3171990772        3.0698863186       11.0000000000    0   0   0
Pd               2.6585995386        3.0698851333       11.0000764482    0   0   0
Pd               3.9878982814        0.7674721723       11.0000764482    0   0   0
Pd               1.3293007958        0.7674721723       11.0000764482    0   0   0
Ni               2.6585995386        1.5349431593       13.1707374333    0   0   0
Pd               3.9878982814        3.8373584909       13.1708138815    0   0   0
Pd               5.3171990772        1.5349419740       13.1708138815    0   0   0
Pd               6.6464998731        3.8373584909       13.1708138815    0   0   0
Ni               0.0000000701       -0.0000000722       15.3368112582
Pd               5.3171989985        4.6052747941       15.3377932212
Pd               3.9875135579        2.3021921117       15.3377935168
Pd               6.6468844306        2.3021921445       15.3377935417
Ni               5.3171989662        3.0698861902       17.5126000181
Pd               3.9875400747        0.7676788930       17.5062485405
Pd               2.6585995731        3.0694712695       17.5062489584
Pd               1.3296590803        0.7676788838       17.5062486394
Ni               2.6585994743        1.5349433672       19.6861478300
Pd               3.9937705565        3.8339680779       19.6707945514
Pd               5.3171988366        1.5417229273       19.6707944946
Pd               6.6406273064        3.8339682154       19.6707944804
Ni              -0.0000001431        0.0000004454       21.7615549038
Pd               5.3171988623        4.6044568946       21.8889349988
Pd               3.9882218840        2.3026013740       21.8889349374
Pd               6.6461758657        2.3026013065       21.8889348783
H                2.6585994201        1.5349431910       22.8764891622



     Writing config-only to output data dir /tmpu/isholek_g/isholek/MIGUEL/QE/Hydrogen/111_2x2/SAVE/Ni1Pd3_111-H_fcc_1.save/ :
     XML data file
     NEW-OLD atomic charge density approx. for the potential

     Check: negative core charge=   -0.000002

     negative rho (up, down):  1.486E-04 1.298E-04
     Generating pointlists ...

     total cpu time spent up to now is    15571.3 secs

     Self-consistent Calculation

     iteration #  1     ecut=    60.00 Ry     beta= 0.20
     Davidson diagonalization with overlap
     ethr =  1.00E-06,  avg # of iterations =  5.8

     negative rho (up, down):  1.524E-04 1.244E-04

     total cpu time spent up to now is    16142.1 secs

     total energy              =   -7077.45742263 Ry
     estimated scf accuracy    <       0.00183981 Ry

     total magnetization       =     9.92 Bohr mag/cell
     absolute magnetization    =    10.77 Bohr mag/cell

     iteration #  2     ecut=    60.00 Ry     beta= 0.20
     Davidson diagonalization with overlap
     ethr =  7.63E-07,  avg # of iterations =  1.0

     negative rho (up, down):  1.530E-04 1.234E-04

     total cpu time spent up to now is    16376.3 secs

     total energy              =   -7077.45752407 Ry
     estimated scf accuracy    <       0.00045311 Ry

     total magnetization       =     9.94 Bohr mag/cell
     absolute magnetization    =    10.79 Bohr mag/cell

     iteration #  3     ecut=    60.00 Ry     beta= 0.20
     Davidson diagonalization with overlap
     ethr =  1.88E-07,  avg # of iterations =  1.2

     negative rho (up, down):  1.533E-04 1.223E-04

     total cpu time spent up to now is    16610.2 secs

     total energy              =   -7077.45757413 Ry
     estimated scf accuracy    <       0.00015715 Ry

     total magnetization       =     9.93 Bohr mag/cell
     absolute magnetization    =    10.79 Bohr mag/cell

     iteration #  4     ecut=    60.00 Ry     beta= 0.20
     Davidson diagonalization with overlap
     ethr =  6.52E-08,  avg # of iterations =  1.8

     negative rho (up, down):  1.536E-04 1.216E-04

     total cpu time spent up to now is    16856.1 secs

     total energy              =   -7077.45760718 Ry
     estimated scf accuracy    <       0.00024452 Ry

     total magnetization       =     9.93 Bohr mag/cell
     absolute magnetization    =    10.78 Bohr mag/cell

     iteration #  5     ecut=    60.00 Ry     beta= 0.20
     Davidson diagonalization with overlap
     ethr =  6.52E-08,  avg # of iterations =  1.0

     negative rho (up, down):  1.538E-04 1.208E-04

     total cpu time spent up to now is    17093.0 secs

     total energy              =   -7077.45766510 Ry
     estimated scf accuracy    <       0.00015805 Ry

     total magnetization       =     9.93 Bohr mag/cell
     absolute magnetization    =    10.79 Bohr mag/cell

     iteration #  6     ecut=    60.00 Ry     beta= 0.20
     Davidson diagonalization with overlap
     ethr =  6.52E-08,  avg # of iterations =  2.0

     negative rho (up, down):  1.537E-04 1.200E-04

     total cpu time spent up to now is    17335.0 secs

     total energy              =   -7077.45769226 Ry
     estimated scf accuracy    <       0.00007714 Ry

     total magnetization       =     9.93 Bohr mag/cell
     absolute magnetization    =    10.79 Bohr mag/cell

     iteration #  7     ecut=    60.00 Ry     beta= 0.20
     Davidson diagonalization with overlap
     ethr =  3.20E-08,  avg # of iterations =  2.0

     negative rho (up, down):  1.531E-04 1.187E-04

     total cpu time spent up to now is    17584.3 secs

     total energy              =   -7077.45770845 Ry
     estimated scf accuracy    <       0.00001245 Ry

     total magnetization       =     9.93 Bohr mag/cell
     absolute magnetization    =    10.78 Bohr mag/cell

     iteration #  8     ecut=    60.00 Ry     beta= 0.20
     Davidson diagonalization with overlap
     ethr =  5.17E-09,  avg # of iterations =  4.3

     negative rho (up, down):  1.527E-04 1.178E-04

     total cpu time spent up to now is    17855.8 secs

     total energy              =   -7077.45771222 Ry
     estimated scf accuracy    <       0.00000505 Ry

     total magnetization       =     9.93 Bohr mag/cell
     absolute magnetization    =    10.78 Bohr mag/cell

     iteration #  9     ecut=    60.00 Ry     beta= 0.20
     Davidson diagonalization with overlap
     ethr =  2.10E-09,  avg # of iterations =  2.1

     negative rho (up, down):  1.511E-04 1.160E-04

     total cpu time spent up to now is    18108.3 secs

     total energy              =   -7077.45771224 Ry
     estimated scf accuracy    <       0.00000231 Ry

     total magnetization       =     9.93 Bohr mag/cell
     absolute magnetization    =    10.78 Bohr mag/cell

     iteration # 10     ecut=    60.00 Ry     beta= 0.20
     Davidson diagonalization with overlap
     ethr =  9.56E-10,  avg # of iterations =  2.1

     negative rho (up, down):  1.508E-04 1.155E-04

     total cpu time spent up to now is    18335.4 secs

     total energy              =   -7077.45771260 Ry
     estimated scf accuracy    <       0.00000054 Ry

     total magnetization       =     9.93 Bohr mag/cell
     absolute magnetization    =    10.78 Bohr mag/cell

     iteration # 11     ecut=    60.00 Ry     beta= 0.20
     Davidson diagonalization with overlap
     ethr =  2.23E-10,  avg # of iterations =  3.8

     negative rho (up, down):  1.509E-04 1.153E-04

     total cpu time spent up to now is    18624.4 secs

     total energy              =   -7077.45771269 Ry
     estimated scf accuracy    <       0.00000145 Ry

     total magnetization       =     9.93 Bohr mag/cell
     absolute magnetization    =    10.78 Bohr mag/cell

     iteration # 12     ecut=    60.00 Ry     beta= 0.20
     Davidson diagonalization with overlap
     ethr =  2.23E-10,  avg # of iterations =  1.0

     negative rho (up, down):  1.512E-04 1.154E-04

     total cpu time spent up to now is    18828.5 secs

     total energy              =   -7077.45771269 Ry
     estimated scf accuracy    <       0.00000049 Ry

     total magnetization       =     9.93 Bohr mag/cell
     absolute magnetization    =    10.78 Bohr mag/cell

     iteration # 13     ecut=    60.00 Ry     beta= 0.20
     Davidson diagonalization with overlap
     ethr =  2.03E-10,  avg # of iterations =  1.1

     negative rho (up, down):  1.514E-04 1.155E-04

     total cpu time spent up to now is    19037.8 secs

     total energy              =   -7077.45771267 Ry
     estimated scf accuracy    <       0.00000049 Ry

     total magnetization       =     9.93 Bohr mag/cell
     absolute magnetization    =    10.78 Bohr mag/cell

     iteration # 14     ecut=    60.00 Ry     beta= 0.20
     Davidson diagonalization with overlap
     ethr =  2.02E-10,  avg # of iterations =  1.0

     negative rho (up, down):  1.515E-04 1.155E-04

     total cpu time spent up to now is    19266.7 secs

     total energy              =   -7077.45771268 Ry
     estimated scf accuracy    <       0.00000008 Ry

     total magnetization       =     9.93 Bohr mag/cell
     absolute magnetization    =    10.78 Bohr mag/cell

     iteration # 15     ecut=    60.00 Ry     beta= 0.20
     Davidson diagonalization with overlap
     ethr =  3.38E-11,  avg # of iterations =  2.5

     negative rho (up, down):  1.520E-04 1.159E-04

     total cpu time spent up to now is    19509.8 secs

     total energy              =   -7077.45771272 Ry
     estimated scf accuracy    <       0.00000006 Ry

     total magnetization       =     9.93 Bohr mag/cell
     absolute magnetization    =    10.78 Bohr mag/cell

     iteration # 16     ecut=    60.00 Ry     beta= 0.20
     Davidson diagonalization with overlap
     ethr =  2.53E-11,  avg # of iterations =  2.0

     negative rho (up, down):  1.524E-04 1.162E-04

     total cpu time spent up to now is    19758.6 secs

     total energy              =   -7077.45771273 Ry
     estimated scf accuracy    <       0.00000006 Ry

     total magnetization       =     9.93 Bohr mag/cell
     absolute magnetization    =    10.78 Bohr mag/cell

     iteration # 17     ecut=    60.00 Ry     beta= 0.20
     Davidson diagonalization with overlap
     ethr =  2.53E-11,  avg # of iterations =  1.0

     negative rho (up, down):  1.531E-04 1.168E-04

     total cpu time spent up to now is    19997.1 secs

     total energy              =   -7077.45771274 Ry
     estimated scf accuracy    <       0.00000009 Ry

     total magnetization       =     9.93 Bohr mag/cell
     absolute magnetization    =    10.78 Bohr mag/cell

     iteration # 18     ecut=    60.00 Ry     beta= 0.20
     Davidson diagonalization with overlap
     ethr =  2.53E-11,  avg # of iterations =  1.5

     negative rho (up, down):  1.536E-04 1.173E-04

     total cpu time spent up to now is    20230.0 secs

     total energy              =   -7077.45771274 Ry
     estimated scf accuracy    <       0.00000005 Ry

     total magnetization       =     9.93 Bohr mag/cell
     absolute magnetization    =    10.78 Bohr mag/cell

     iteration # 19     ecut=    60.00 Ry     beta= 0.20
     Davidson diagonalization with overlap
     ethr =  1.91E-11,  avg # of iterations =  1.0

     negative rho (up, down):  1.544E-04 1.181E-04

     total cpu time spent up to now is    20460.3 secs

     total energy              =   -7077.45771274 Ry
     estimated scf accuracy    <       0.00000002 Ry

     total magnetization       =     9.93 Bohr mag/cell
     absolute magnetization    =    10.78 Bohr mag/cell

     iteration # 20     ecut=    60.00 Ry     beta= 0.20
     Davidson diagonalization with overlap
     ethr =  6.59E-12,  avg # of iterations =  2.1

     negative rho (up, down):  1.550E-04 1.186E-04

     total cpu time spent up to now is    20690.5 secs

     total energy              =   -7077.45771275 Ry
     estimated scf accuracy    <          6.2E-09 Ry

     total magnetization       =     9.93 Bohr mag/cell
     absolute magnetization    =    10.78 Bohr mag/cell

     iteration # 21     ecut=    60.00 Ry     beta= 0.20
     Davidson diagonalization with overlap
     ethr =  2.56E-12,  avg # of iterations =  1.7

     negative rho (up, down):  1.553E-04 1.189E-04

     total cpu time spent up to now is    20903.0 secs

     total energy              =   -7077.45771275 Ry
     estimated scf accuracy    <          2.6E-09 Ry

     total magnetization       =     9.93 Bohr mag/cell
     absolute magnetization    =    10.78 Bohr mag/cell

     iteration # 22     ecut=    60.00 Ry     beta= 0.20
     Davidson diagonalization with overlap
     ethr =  1.09E-12,  avg # of iterations =  2.1

     negative rho (up, down):  1.552E-04 1.188E-04

     total cpu time spent up to now is    21129.7 secs

     total energy              =   -7077.45771275 Ry
     estimated scf accuracy    <          3.3E-09 Ry

     total magnetization       =     9.93 Bohr mag/cell
     absolute magnetization    =    10.78 Bohr mag/cell

     iteration # 23     ecut=    60.00 Ry     beta= 0.20
     Davidson diagonalization with overlap
     ethr =  1.09E-12,  avg # of iterations =  1.1

     negative rho (up, down):  1.557E-04 1.192E-04

     total cpu time spent up to now is    21363.4 secs

     total energy              =   -7077.45771275 Ry
     estimated scf accuracy    <          2.8E-09 Ry

     total magnetization       =     9.93 Bohr mag/cell
     absolute magnetization    =    10.78 Bohr mag/cell

     iteration # 24     ecut=    60.00 Ry     beta= 0.20
     Davidson diagonalization with overlap
     ethr =  1.09E-12,  avg # of iterations =  1.0

     negative rho (up, down):  1.560E-04 1.195E-04

     total cpu time spent up to now is    21596.2 secs

     total energy              =   -7077.45771275 Ry
     estimated scf accuracy    <          3.6E-09 Ry

     total magnetization       =     9.93 Bohr mag/cell
     absolute magnetization    =    10.78 Bohr mag/cell

     iteration # 25     ecut=    60.00 Ry     beta= 0.20
     Davidson diagonalization with overlap
     ethr =  1.09E-12,  avg # of iterations =  1.0

     negative rho (up, down):  1.559E-04 1.194E-04
 
     Magnetic moment per site  (integrated on atomic sphere of radius R)
     atom   1 (R=0.202)  charge=  8.7462  magn=  0.9678
     atom   2 (R=0.141)  charge=  5.6464  magn=  0.2035
     atom   3 (R=0.141)  charge=  5.6464  magn=  0.2035
     atom   4 (R=0.141)  charge=  5.6464  magn=  0.2035
     atom   5 (R=0.202)  charge=  8.8232  magn=  0.9278
     atom   6 (R=0.141)  charge=  5.6331  magn=  0.2512
     atom   7 (R=0.141)  charge=  5.6331  magn=  0.2512
     atom   8 (R=0.141)  charge=  5.6331  magn=  0.2512
     atom   9 (R=0.202)  charge=  8.8381  magn=  0.8588
     atom  10 (R=0.141)  charge=  5.6298  magn=  0.2452
     atom  11 (R=0.141)  charge=  5.6298  magn=  0.2452
     atom  12 (R=0.141)  charge=  5.6298  magn=  0.2452
     atom  13 (R=0.202)  charge=  8.8423  magn=  0.8384
     atom  14 (R=0.141)  charge=  5.6302  magn=  0.2405
     atom  15 (R=0.141)  charge=  5.6302  magn=  0.2405
     atom  16 (R=0.141)  charge=  5.6302  magn=  0.2405
     atom  17 (R=0.202)  charge=  8.8126  magn=  0.8842
     atom  18 (R=0.141)  charge=  5.6336  magn=  0.2454
     atom  19 (R=0.141)  charge=  5.6336  magn=  0.2454
     atom  20 (R=0.141)  charge=  5.6336  magn=  0.2454
     atom  21 (R=0.202)  charge=  8.7654  magn=  0.9172
     atom  22 (R=0.141)  charge=  5.6420  magn=  0.1413
     atom  23 (R=0.141)  charge=  5.6420  magn=  0.1413
     atom  24 (R=0.141)  charge=  5.6420  magn=  0.1413
     atom  25 (R=0.141)  charge=  1.0110  magn= -0.0029

     total cpu time spent up to now is    21832.2 secs

     End of self-consistent calculation

     Number of k-points >= 100: set verbosity='high' to print the bands.

     the Fermi energy is    -5.1837 ev

!    total energy              =   -7077.45771275 Ry
     total all-electron energy =   -199909.894283 Ry
     estimated scf accuracy    <          6.3E-10 Ry
     smearing contrib. (-TS)   =       0.00051773 Ry
     internal energy E=F+TS    =   -7077.45823048 Ry

     The total energy is F=E-TS. E is the sum of the following terms:
     one-electron contribution =  -61246.53129601 Ry
     hartree contribution      =   30810.48955952 Ry
     xc contribution           =    -835.55415596 Ry
     ewald contribution        =   29328.30166906 Ry
     DFT-D3 Dispersion         =      -2.53457803 Ry
     one-center paw contrib.   =   -5131.62942907 Ry

     total magnetization       =     9.93 Bohr mag/cell
     absolute magnetization    =    10.78 Bohr mag/cell

     convergence has been achieved in  25 iterations

     negative rho (up, down):  1.559E-04 1.194E-04

     Forces acting on atoms (cartesian axes, Ry/au):

     atom    1 type  1   force =     0.00000000    0.00000000    0.01591603
     atom    2 type  2   force =    -0.00000000   -0.01435478   -0.00920527
     atom    3 type  2   force =    -0.01243160    0.00717739   -0.00920527
     atom    4 type  2   force =     0.01243160    0.00717739   -0.00920527
     atom    5 type  1   force =    -0.00000000    0.00000001   -0.00075325
     atom    6 type  2   force =    -0.00039908    0.00023038    0.00541381
     atom    7 type  2   force =    -0.00000000   -0.00046079    0.00541386
     atom    8 type  2   force =     0.00039907    0.00023039    0.00541383
     atom    9 type  1   force =    -0.00000003    0.00000001   -0.00004137
     atom   10 type  2   force =     0.00000003   -0.00020194   -0.00061860
     atom   11 type  2   force =     0.00017493    0.00010097   -0.00061872
     atom   12 type  2   force =    -0.00017490    0.00010098   -0.00061868
     atom   13 type  1   force =     0.00000003    0.00000003    0.00023789
     atom   14 type  2   force =     0.00009813   -0.00005670   -0.00167376
     atom   15 type  2   force =    -0.00000004    0.00011335   -0.00167384
     atom   16 type  2   force =    -0.00009815   -0.00005666   -0.00167373
     atom   17 type  1   force =    -0.00000003   -0.00000004   -0.00029062
     atom   18 type  2   force =     0.00019227   -0.00011094   -0.00091644
     atom   19 type  2   force =     0.00000008    0.00022200   -0.00091647
     atom   20 type  2   force =    -0.00019229   -0.00011106   -0.00091640
     atom   21 type  1   force =    -0.00000002   -0.00000007   -0.00413098
     atom   22 type  2   force =     0.00000004    0.00049979    0.00428069
     atom   23 type  2   force =    -0.00043283   -0.00024992    0.00428073
     atom   24 type  2   force =     0.00043281   -0.00024984    0.00428075
     atom   25 type  3   force =    -0.00000000    0.00000002   -0.00277892

     Total force =     0.009645     Total SCF correction =     0.000109


     Computing stress (Cartesian axis) and pressure


     negative rho (up, down):  1.559E-04 1.194E-04
          total   stress  (Ry/bohr**3)                   (kbar)     P=       -6.55
  -0.00007256   0.00000000   0.00000000          -10.67        0.00        0.00
   0.00000000  -0.00007256  -0.00000000            0.00      -10.67       -0.00
   0.00000000  -0.00000000   0.00001157            0.00       -0.00        1.70

     Energy error            =      3.4E-04 Ry
     Gradient error          =      4.3E-03 Ry/Bohr

     number of scf cycles    =   3
     number of bfgs steps    =   2

     energy             old  =   -7077.4573683234 Ry
     energy             new  =   -7077.4577127482 Ry

     CASE: energy            _new < energy            _old

     new trust radius        =       0.0146950301 bohr
     new conv_thr            =       0.0000000005 Ry


ATOMIC_POSITIONS (angstrom)
Ni               5.3171990772        3.0698863186       11.0000000000    0   0   0
Pd               2.6585995386        3.0698851333       11.0000764482    0   0   0
Pd               3.9878982814        0.7674721723       11.0000764482    0   0   0
Pd               1.3293007958        0.7674721723       11.0000764482    0   0   0
Ni               2.6585995386        1.5349431593       13.1707374333    0   0   0
Pd               3.9878982814        3.8373584909       13.1708138815    0   0   0
Pd               5.3171990772        1.5349419740       13.1708138815    0   0   0
Pd               6.6464998731        3.8373584909       13.1708138815    0   0   0
Ni               0.0000000458       -0.0000000617       15.3371300939
Pd               5.3171990036        4.6050829525       15.3370965723
Pd               3.9876797359        2.3022880564       15.3370968298
Pd               6.6467182834        2.3022880826       15.3370968690
Ni               5.3171989723        3.0698862034       17.5134482536
Pd               3.9877337903        0.7675670223       17.5035183298
Pd               2.6585995409        3.0696949894       17.5035187306
Pd               1.3294653247        0.7675670349       17.5035184471
Ni               2.6585994567        1.5349433946       19.6846027529
Pd               3.9940581493        3.8338020832       19.6688482332
Pd               5.3171988628        1.5420550216       19.6688481905
Pd               6.6403396673        3.8338021367       19.6688481818
Ni              -0.0000001315        0.0000003870       21.7552590153
Pd               5.3171989053        4.6010570745       21.8959286025
Pd               3.9911662181        2.3043012857       21.8959286238
Pd               6.6432315119        2.3043012508       21.8959285393
H                2.6585994105        1.5349432131       22.8728559213



     Writing config-only to output data dir /tmpu/isholek_g/isholek/MIGUEL/QE/Hydrogen/111_2x2/SAVE/Ni1Pd3_111-H_fcc_1.save/ :
     XML data file
     NEW-OLD atomic charge density approx. for the potential

     Check: negative core charge=   -0.000002

     negative rho (up, down):  1.503E-04 1.311E-04
     Generating pointlists ...

     total cpu time spent up to now is    22267.2 secs

     Self-consistent Calculation

     iteration #  1     ecut=    60.00 Ry     beta= 0.20
     Davidson diagonalization with overlap
     ethr =  1.00E-06,  avg # of iterations =  6.2

     negative rho (up, down):  1.629E-04 1.340E-04

     total cpu time spent up to now is    22855.9 secs

     total energy              =   -7077.45758432 Ry
     estimated scf accuracy    <       0.00234550 Ry

     total magnetization       =     9.91 Bohr mag/cell
     absolute magnetization    =    10.77 Bohr mag/cell

     iteration #  2     ecut=    60.00 Ry     beta= 0.20
     Davidson diagonalization with overlap
     ethr =  9.73E-07,  avg # of iterations =  1.0

     negative rho (up, down):  1.601E-04 1.297E-04

     total cpu time spent up to now is    23088.7 secs

     total energy              =   -7077.45768477 Ry
     estimated scf accuracy    <       0.00088344 Ry

     total magnetization       =     9.93 Bohr mag/cell
     absolute magnetization    =    10.79 Bohr mag/cell

     iteration #  3     ecut=    60.00 Ry     beta= 0.20
     Davidson diagonalization with overlap
     ethr =  3.67E-07,  avg # of iterations =  1.0

     negative rho (up, down):  1.580E-04 1.264E-04

     total cpu time spent up to now is    23320.5 secs

     total energy              =   -7077.45774659 Ry
     estimated scf accuracy    <       0.00016721 Ry

     total magnetization       =     9.93 Bohr mag/cell
     absolute magnetization    =    10.78 Bohr mag/cell

     iteration #  4     ecut=    60.00 Ry     beta= 0.20
     Davidson diagonalization with overlap
     ethr =  6.94E-08,  avg # of iterations =  1.8

     negative rho (up, down):  1.567E-04 1.241E-04

     total cpu time spent up to now is    23559.1 secs

     total energy              =   -7077.45778276 Ry
     estimated scf accuracy    <       0.00027561 Ry

     total magnetization       =     9.92 Bohr mag/cell
     absolute magnetization    =    10.78 Bohr mag/cell

     iteration #  5     ecut=    60.00 Ry     beta= 0.20
     Davidson diagonalization with overlap
     ethr =  6.94E-08,  avg # of iterations =  1.0

     negative rho (up, down):  1.554E-04 1.220E-04

     total cpu time spent up to now is    23782.3 secs

     total energy              =   -7077.45782395 Ry
     estimated scf accuracy    <       0.00019710 Ry

     total magnetization       =     9.93 Bohr mag/cell
     absolute magnetization    =    10.78 Bohr mag/cell

     iteration #  6     ecut=    60.00 Ry     beta= 0.20
     Davidson diagonalization with overlap
     ethr =  6.94E-08,  avg # of iterations =  1.0

     negative rho (up, down):  1.544E-04 1.203E-04

     total cpu time spent up to now is    24012.5 secs

     total energy              =   -7077.45785658 Ry
     estimated scf accuracy    <       0.00007577 Ry

     total magnetization       =     9.93 Bohr mag/cell
     absolute magnetization    =    10.78 Bohr mag/cell

     iteration #  7     ecut=    60.00 Ry     beta= 0.20
     Davidson diagonalization with overlap
     ethr =  3.14E-08,  avg # of iterations =  2.0

     negative rho (up, down):  1.531E-04 1.183E-04

     total cpu time spent up to now is    24254.9 secs

     total energy              =   -7077.45787869 Ry
     estimated scf accuracy    <       0.00001388 Ry

     total magnetization       =     9.92 Bohr mag/cell
     absolute magnetization    =    10.78 Bohr mag/cell

     iteration #  8     ecut=    60.00 Ry     beta= 0.20
     Davidson diagonalization with overlap
     ethr =  5.76E-09,  avg # of iterations =  4.0

     negative rho (up, down):  1.522E-04 1.171E-04

     total cpu time spent up to now is    24550.8 secs

     total energy              =   -7077.45788233 Ry
     estimated scf accuracy    <       0.00000366 Ry

     total magnetization       =     9.92 Bohr mag/cell
     absolute magnetization    =    10.78 Bohr mag/cell

     iteration #  9     ecut=    60.00 Ry     beta= 0.20
     Davidson diagonalization with overlap
     ethr =  1.52E-09,  avg # of iterations =  2.1

     negative rho (up, down):  1.507E-04 1.153E-04

     total cpu time spent up to now is    24806.8 secs

     total energy              =   -7077.45788265 Ry
     estimated scf accuracy    <       0.00000174 Ry

     total magnetization       =     9.92 Bohr mag/cell
     absolute magnetization    =    10.78 Bohr mag/cell

     iteration # 10     ecut=    60.00 Ry     beta= 0.20
     Davidson diagonalization with overlap
     ethr =  7.21E-10,  avg # of iterations =  2.4

     negative rho (up, down):  1.503E-04 1.148E-04

     total cpu time spent up to now is    25057.9 secs

     total energy              =   -7077.45788289 Ry
     estimated scf accuracy    <       0.00000062 Ry

     total magnetization       =     9.92 Bohr mag/cell
     absolute magnetization    =    10.78 Bohr mag/cell

     iteration # 11     ecut=    60.00 Ry     beta= 0.20
     Davidson diagonalization with overlap
     ethr =  2.57E-10,  avg # of iterations =  2.7

     negative rho (up, down):  1.503E-04 1.146E-04

     total cpu time spent up to now is    25318.5 secs

     total energy              =   -7077.45788296 Ry
     estimated scf accuracy    <       0.00000074 Ry

     total magnetization       =     9.92 Bohr mag/cell
     absolute magnetization    =    10.77 Bohr mag/cell

     iteration # 12     ecut=    60.00 Ry     beta= 0.20
     Davidson diagonalization with overlap
     ethr =  2.57E-10,  avg # of iterations =  1.1

     negative rho (up, down):  1.507E-04 1.148E-04

     total cpu time spent up to now is    25540.1 secs

     total energy              =   -7077.45788295 Ry
     estimated scf accuracy    <       0.00000019 Ry

     total magnetization       =     9.92 Bohr mag/cell
     absolute magnetization    =    10.77 Bohr mag/cell

     iteration # 13     ecut=    60.00 Ry     beta= 0.20
     Davidson diagonalization with overlap
     ethr =  7.82E-11,  avg # of iterations =  2.5

     negative rho (up, down):  1.512E-04 1.152E-04

     total cpu time spent up to now is    25782.2 secs

     total energy              =   -7077.45788293 Ry
     estimated scf accuracy    <       0.00000013 Ry

     total magnetization       =     9.92 Bohr mag/cell
     absolute magnetization    =    10.77 Bohr mag/cell

     iteration # 14     ecut=    60.00 Ry     beta= 0.20
     Davidson diagonalization with overlap
     ethr =  5.42E-11,  avg # of iterations =  2.0

     negative rho (up, down):  1.517E-04 1.156E-04

     total cpu time spent up to now is    26030.0 secs

     total energy              =   -7077.45788295 Ry
     estimated scf accuracy    <       0.00000005 Ry

     total magnetization       =     9.92 Bohr mag/cell
     absolute magnetization    =    10.77 Bohr mag/cell

     iteration # 15     ecut=    60.00 Ry     beta= 0.20
     Davidson diagonalization with overlap
     ethr =  1.89E-11,  avg # of iterations =  2.2

     negative rho (up, down):  1.522E-04 1.160E-04

     total cpu time spent up to now is    26258.5 secs

     total energy              =   -7077.45788298 Ry
     estimated scf accuracy    <       0.00000005 Ry

     total magnetization       =     9.92 Bohr mag/cell
     absolute magnetization    =    10.77 Bohr mag/cell

     iteration # 16     ecut=    60.00 Ry     beta= 0.20
     Davidson diagonalization with overlap
     ethr =  1.89E-11,  avg # of iterations =  2.0

     negative rho (up, down):  1.532E-04 1.170E-04

     total cpu time spent up to now is    26492.3 secs

     total energy              =   -7077.45788299 Ry
     estimated scf accuracy    <       0.00000005 Ry

     total magnetization       =     9.92 Bohr mag/cell
     absolute magnetization    =    10.77 Bohr mag/cell

     iteration # 17     ecut=    60.00 Ry     beta= 0.20
     Davidson diagonalization with overlap
     ethr =  1.89E-11,  avg # of iterations =  1.8

     negative rho (up, down):  1.539E-04 1.176E-04

     total cpu time spent up to now is    26717.1 secs

     total energy              =   -7077.45788300 Ry
     estimated scf accuracy    <       0.00000008 Ry

     total magnetization       =     9.92 Bohr mag/cell
     absolute magnetization    =    10.77 Bohr mag/cell

     iteration # 18     ecut=    60.00 Ry     beta= 0.20
     Davidson diagonalization with overlap
     ethr =  1.89E-11,  avg # of iterations =  1.0

     negative rho (up, down):  1.548E-04 1.184E-04

     total cpu time spent up to now is    26932.8 secs

     total energy              =   -7077.45788300 Ry
     estimated scf accuracy    <       0.00000006 Ry

     total magnetization       =     9.92 Bohr mag/cell
     absolute magnetization    =    10.77 Bohr mag/cell

     iteration # 19     ecut=    60.00 Ry     beta= 0.20
     Davidson diagonalization with overlap
     ethr =  1.89E-11,  avg # of iterations =  1.0

     negative rho (up, down):  1.558E-04 1.194E-04

     total cpu time spent up to now is    27167.1 secs

     total energy              =   -7077.45788301 Ry
     estimated scf accuracy    <       0.00000003 Ry

     total magnetization       =     9.92 Bohr mag/cell
     absolute magnetization    =    10.77 Bohr mag/cell

     iteration # 20     ecut=    60.00 Ry     beta= 0.20
     Davidson diagonalization with overlap
     ethr =  1.08E-11,  avg # of iterations =  1.0

     negative rho (up, down):  1.563E-04 1.199E-04

     total cpu time spent up to now is    27402.8 secs

     total energy              =   -7077.45788301 Ry
     estimated scf accuracy    <          7.3E-09 Ry

     total magnetization       =     9.92 Bohr mag/cell
     absolute magnetization    =    10.77 Bohr mag/cell

     iteration # 21     ecut=    60.00 Ry     beta= 0.20
     Davidson diagonalization with overlap
     ethr =  3.03E-12,  avg # of iterations =  1.6

     negative rho (up, down):  1.566E-04 1.202E-04

     total cpu time spent up to now is    27648.6 secs

     total energy              =   -7077.45788301 Ry
     estimated scf accuracy    <          2.8E-09 Ry

     total magnetization       =     9.92 Bohr mag/cell
     absolute magnetization    =    10.77 Bohr mag/cell

     iteration # 22     ecut=    60.00 Ry     beta= 0.20
     Davidson diagonalization with overlap
     ethr =  1.15E-12,  avg # of iterations =  3.0

     negative rho (up, down):  1.567E-04 1.203E-04

     total cpu time spent up to now is    27895.9 secs

     total energy              =   -7077.45788301 Ry
     estimated scf accuracy    <          1.8E-09 Ry

     total magnetization       =     9.92 Bohr mag/cell
     absolute magnetization    =    10.77 Bohr mag/cell

     iteration # 23     ecut=    60.00 Ry     beta= 0.20
     Davidson diagonalization with overlap
     ethr =  7.54E-13,  avg # of iterations =  1.5

     negative rho (up, down):  1.567E-04 1.203E-04

     total cpu time spent up to now is    28124.9 secs

     total energy              =   -7077.45788301 Ry
     estimated scf accuracy    <          1.1E-09 Ry

     total magnetization       =     9.92 Bohr mag/cell
     absolute magnetization    =    10.77 Bohr mag/cell

     iteration # 24     ecut=    60.00 Ry     beta= 0.20
     Davidson diagonalization with overlap
     ethr =  4.51E-13,  avg # of iterations =  2.0

     negative rho (up, down):  1.566E-04 1.202E-04

     total cpu time spent up to now is    28355.5 secs

     total energy              =   -7077.45788301 Ry
     estimated scf accuracy    <          1.2E-09 Ry

     total magnetization       =     9.92 Bohr mag/cell
     absolute magnetization    =    10.77 Bohr mag/cell

     iteration # 25     ecut=    60.00 Ry     beta= 0.20
     Davidson diagonalization with overlap
     ethr =  4.51E-13,  avg # of iterations =  1.0

     negative rho (up, down):  1.566E-04 1.202E-04

     total cpu time spent up to now is    28544.3 secs

     total energy              =   -7077.45788301 Ry
     estimated scf accuracy    <          7.4E-10 Ry

     total magnetization       =     9.92 Bohr mag/cell
     absolute magnetization    =    10.77 Bohr mag/cell

     iteration # 26     ecut=    60.00 Ry     beta= 0.20
     Davidson diagonalization with overlap
     ethr =  3.05E-13,  avg # of iterations =  1.9

     negative rho (up, down):  1.565E-04 1.201E-04

     total cpu time spent up to now is    28740.1 secs

     total energy              =   -7077.45788301 Ry
     estimated scf accuracy    <          1.1E-09 Ry

     total magnetization       =     9.92 Bohr mag/cell
     absolute magnetization    =    10.77 Bohr mag/cell

     iteration # 27     ecut=    60.00 Ry     beta= 0.20
     Davidson diagonalization with overlap
     ethr =  3.05E-13,  avg # of iterations =  1.0

     negative rho (up, down):  1.557E-04 1.193E-04
 
     Magnetic moment per site  (integrated on atomic sphere of radius R)
     atom   1 (R=0.202)  charge=  8.7462  magn=  0.9674
     atom   2 (R=0.141)  charge=  5.6464  magn=  0.2034
     atom   3 (R=0.141)  charge=  5.6464  magn=  0.2034
     atom   4 (R=0.141)  charge=  5.6464  magn=  0.2034
     atom   5 (R=0.202)  charge=  8.8234  magn=  0.9275
     atom   6 (R=0.141)  charge=  5.6331  magn=  0.2512
     atom   7 (R=0.141)  charge=  5.6331  magn=  0.2512
     atom   8 (R=0.141)  charge=  5.6331  magn=  0.2512
     atom   9 (R=0.202)  charge=  8.8390  magn=  0.8590
     atom  10 (R=0.141)  charge=  5.6298  magn=  0.2454
     atom  11 (R=0.141)  charge=  5.6298  magn=  0.2454
     atom  12 (R=0.141)  charge=  5.6298  magn=  0.2454
     atom  13 (R=0.202)  charge=  8.8428  magn=  0.8387
     atom  14 (R=0.141)  charge=  5.6303  magn=  0.2406
     atom  15 (R=0.141)  charge=  5.6303  magn=  0.2406
     atom  16 (R=0.141)  charge=  5.6303  magn=  0.2406
     atom  17 (R=0.202)  charge=  8.8095  magn=  0.8848
     atom  18 (R=0.141)  charge=  5.6335  magn=  0.2454
     atom  19 (R=0.141)  charge=  5.6335  magn=  0.2454
     atom  20 (R=0.141)  charge=  5.6335  magn=  0.2454
     atom  21 (R=0.202)  charge=  8.7662  magn=  0.9165
     atom  22 (R=0.141)  charge=  5.6421  magn=  0.1393
     atom  23 (R=0.141)  charge=  5.6421  magn=  0.1393
     atom  24 (R=0.141)  charge=  5.6421  magn=  0.1393
     atom  25 (R=0.141)  charge=  1.0149  magn= -0.0029

     total cpu time spent up to now is    28927.6 secs

     End of self-consistent calculation

     Number of k-points >= 100: set verbosity='high' to print the bands.

     the Fermi energy is    -5.1843 ev

!    total energy              =   -7077.45788301 Ry
     total all-electron energy =   -199909.894453 Ry
     estimated scf accuracy    <          3.3E-10 Ry
     smearing contrib. (-TS)   =       0.00062081 Ry
     internal energy E=F+TS    =   -7077.45850382 Ry

     The total energy is F=E-TS. E is the sum of the following terms:
     one-electron contribution =  -61236.85062155 Ry
     hartree contribution      =   30805.65246274 Ry
     xc contribution           =    -835.55079523 Ry
     ewald contribution        =   29323.45301781 Ry
     DFT-D3 Dispersion         =      -2.53385133 Ry
     one-center paw contrib.   =   -5131.62871626 Ry

     total magnetization       =     9.92 Bohr mag/cell
     absolute magnetization    =    10.77 Bohr mag/cell

     convergence has been achieved in  27 iterations

     negative rho (up, down):  1.557E-04 1.193E-04

     Forces acting on atoms (cartesian axes, Ry/au):

     atom    1 type  1   force =     0.00000000   -0.00000000    0.01590519
     atom    2 type  2   force =    -0.00000000   -0.01435614   -0.00920752
     atom    3 type  2   force =    -0.01243278    0.00717807   -0.00920753
     atom    4 type  2   force =     0.01243278    0.00717807   -0.00920753
     atom    5 type  1   force =    -0.00000000    0.00000001   -0.00086475
     atom    6 type  2   force =    -0.00049347    0.00028488    0.00526200
     atom    7 type  2   force =    -0.00000000   -0.00056978    0.00526205
     atom    8 type  2   force =     0.00049347    0.00028489    0.00526201
     atom    9 type  1   force =    -0.00000003    0.00000001   -0.00062614
     atom   10 type  2   force =     0.00000003   -0.00015959   -0.00079170
     atom   11 type  2   force =     0.00013824    0.00007979   -0.00079179
     atom   12 type  2   force =    -0.00013822    0.00007979   -0.00079178
     atom   13 type  1   force =     0.00000002    0.00000003   -0.00053180
     atom   14 type  2   force =     0.00000967   -0.00000561   -0.00085529
     atom   15 type  2   force =    -0.00000002    0.00001121   -0.00085538
     atom   16 type  2   force =    -0.00000970   -0.00000559   -0.00085529
     atom   17 type  1   force =    -0.00000003   -0.00000006    0.00110425
     atom   18 type  2   force =     0.00028888   -0.00016673    0.00035447
     atom   19 type  2   force =     0.00000005    0.00033355    0.00035441
     atom   20 type  2   force =    -0.00028887   -0.00016678    0.00035445
     atom   21 type  1   force =    -0.00000002   -0.00000004   -0.00298952
     atom   22 type  2   force =    -0.00000000    0.00307032    0.00187317
     atom   23 type  2   force =    -0.00265895   -0.00153516    0.00187318
     atom   24 type  2   force =     0.00265897   -0.00153516    0.00187317
     atom   25 type  3   force =    -0.00000001    0.00000001   -0.00190233

     Total force =     0.007624     Total SCF correction =     0.000123


     Computing stress (Cartesian axis) and pressure


     negative rho (up, down):  1.557E-04 1.193E-04
          total   stress  (Ry/bohr**3)                   (kbar)     P=       -6.70
  -0.00007310   0.00000000   0.00000000          -10.75        0.00        0.00
   0.00000000  -0.00007310  -0.00000000            0.00      -10.75       -0.00
   0.00000000  -0.00000000   0.00000956            0.00       -0.00        1.41

     Energy error            =      1.7E-04 Ry
     Gradient error          =      3.1E-03 Ry/Bohr

     number of scf cycles    =   4
     number of bfgs steps    =   3

     energy             old  =   -7077.4577127482 Ry
     energy             new  =   -7077.4578830064 Ry

     CASE: energy            _new < energy            _old

     new trust radius        =       0.0079673012 bohr
     new conv_thr            =       0.0000000004 Ry


ATOMIC_POSITIONS (angstrom)
Ni               5.3171990772        3.0698863186       11.0000000000    0   0   0
Pd               2.6585995386        3.0698851333       11.0000764482    0   0   0
Pd               3.9878982814        0.7674721723       11.0000764482    0   0   0
Pd               1.3293007958        0.7674721723       11.0000764482    0   0   0
Ni               2.6585995386        1.5349431593       13.1707374333    0   0   0
Pd               3.9878982814        3.8373584909       13.1708138815    0   0   0
Pd               5.3171990772        1.5349419740       13.1708138815    0   0   0
Pd               6.6464998731        3.8373584909       13.1708138815    0   0   0
Ni               0.0000000273       -0.0000000543       15.3368619568
Pd               5.3171990116        4.6049359829       15.3363513310
Pd               3.9878070300        2.3023615516       15.3363515759
Pd               6.6465910043        2.3023615764       15.3363516097
Ni               5.3171989797        3.0698862146       17.5134480875
Pd               3.9878112544        0.7675222837       17.5019665565
Pd               2.6585995183        3.0697844752       17.5019669358
Pd               1.3293878206        0.7675223051       17.5019666728
Ni               2.6585994423        1.5349433843       19.6846388361
Pd               3.9943708659        3.8336215703       19.6683608266
Pd               5.3171988806        1.5424161147       19.6683607759
Pd               6.6400269423        3.8336215966       19.6683607562
Ni              -0.0000001340        0.0000003503       21.7510429011
Pd               5.3171989134        4.6011121594       21.8996531404
Pd               3.9911185482        2.3042737631       21.8996532236
Pd               6.6432791976        2.3042737034       21.8996531152
H                2.6585993990        1.5349432295       22.8704652536



     Writing config-only to output data dir /tmpu/isholek_g/isholek/MIGUEL/QE/Hydrogen/111_2x2/SAVE/Ni1Pd3_111-H_fcc_1.save/ :
     XML data file
     NEW-OLD atomic charge density approx. for the potential

     Check: negative core charge=   -0.000002

     negative rho (up, down):  1.460E-04 1.296E-04
     Generating pointlists ...

     total cpu time spent up to now is    29353.3 secs

     Self-consistent Calculation

     iteration #  1     ecut=    60.00 Ry     beta= 0.20
     Davidson diagonalization with overlap
     ethr =  1.00E-06,  avg # of iterations =  4.2

     Threshold (ethr) on eigenvalues was too large:
     Diagonalizing with lowered threshold

     Davidson diagonalization with overlap
     ethr =  5.48E-08,  avg # of iterations =  3.6

     negative rho (up, down):  1.507E-04 1.232E-04

     total cpu time spent up to now is    30030.7 secs

     total energy              =   -7077.45789747 Ry
     estimated scf accuracy    <       0.00012755 Ry

     total magnetization       =     9.92 Bohr mag/cell
     absolute magnetization    =    10.77 Bohr mag/cell

     iteration #  2     ecut=    60.00 Ry     beta= 0.20
     Davidson diagonalization with overlap
     ethr =  5.29E-08,  avg # of iterations =  1.0

     negative rho (up, down):  1.512E-04 1.221E-04

     total cpu time spent up to now is    30249.8 secs

     total energy              =   -7077.45790630 Ry
     estimated scf accuracy    <       0.00028351 Ry

     total magnetization       =     9.92 Bohr mag/cell
     absolute magnetization    =    10.77 Bohr mag/cell

     iteration #  3     ecut=    60.00 Ry     beta= 0.20
     Davidson diagonalization with overlap
     ethr =  5.29E-08,  avg # of iterations =  1.0

     negative rho (up, down):  1.513E-04 1.207E-04

     total cpu time spent up to now is    30463.4 secs

     total energy              =   -7077.45791977 Ry
     estimated scf accuracy    <       0.00000998 Ry

     total magnetization       =     9.92 Bohr mag/cell
     absolute magnetization    =    10.77 Bohr mag/cell

     iteration #  4     ecut=    60.00 Ry     beta= 0.20
     Davidson diagonalization with overlap
     ethr =  4.14E-09,  avg # of iterations =  2.0

     negative rho (up, down):  1.513E-04 1.196E-04

     total cpu time spent up to now is    30710.9 secs

     total energy              =   -7077.45792769 Ry
     estimated scf accuracy    <       0.00003063 Ry

     total magnetization       =     9.92 Bohr mag/cell
     absolute magnetization    =    10.77 Bohr mag/cell

     iteration #  5     ecut=    60.00 Ry     beta= 0.20
     Davidson diagonalization with overlap
     ethr =  4.14E-09,  avg # of iterations =  2.0

     negative rho (up, down):  1.508E-04 1.176E-04

     total cpu time spent up to now is    30962.3 secs

     total energy              =   -7077.45793980 Ry
     estimated scf accuracy    <       0.00002695 Ry

     total magnetization       =     9.92 Bohr mag/cell
     absolute magnetization    =    10.77 Bohr mag/cell

     iteration #  6     ecut=    60.00 Ry     beta= 0.20
     Davidson diagonalization with overlap
     ethr =  4.14E-09,  avg # of iterations =  2.0

     negative rho (up, down):  1.507E-04 1.167E-04

     total cpu time spent up to now is    31229.0 secs

     total energy              =   -7077.45794227 Ry
     estimated scf accuracy    <       0.00000229 Ry

     total magnetization       =     9.92 Bohr mag/cell
     absolute magnetization    =    10.77 Bohr mag/cell

     iteration #  7     ecut=    60.00 Ry     beta= 0.20
     Davidson diagonalization with overlap
     ethr =  9.50E-10,  avg # of iterations =  3.0

     negative rho (up, down):  1.507E-04 1.162E-04

     total cpu time spent up to now is    31491.8 secs

     total energy              =   -7077.45794263 Ry
     estimated scf accuracy    <       0.00000050 Ry

     total magnetization       =     9.92 Bohr mag/cell
     absolute magnetization    =    10.77 Bohr mag/cell

     iteration #  8     ecut=    60.00 Ry     beta= 0.20
     Davidson diagonalization with overlap
     ethr =  2.08E-10,  avg # of iterations =  4.4

     negative rho (up, down):  1.508E-04 1.159E-04

     total cpu time spent up to now is    31773.9 secs

     total energy              =   -7077.45794273 Ry
     estimated scf accuracy    <       0.00000051 Ry

     total magnetization       =     9.92 Bohr mag/cell
     absolute magnetization    =    10.77 Bohr mag/cell

     iteration #  9     ecut=    60.00 Ry     beta= 0.20
     Davidson diagonalization with overlap
     ethr =  2.08E-10,  avg # of iterations =  1.0

     negative rho (up, down):  1.510E-04 1.158E-04

     total cpu time spent up to now is    31990.5 secs

     total energy              =   -7077.45794269 Ry
     estimated scf accuracy    <       0.00000020 Ry

     total magnetization       =     9.92 Bohr mag/cell
     absolute magnetization    =    10.77 Bohr mag/cell

     iteration # 10     ecut=    60.00 Ry     beta= 0.20
     Davidson diagonalization with overlap
     ethr =  8.20E-11,  avg # of iterations =  2.0

     negative rho (up, down):  1.512E-04 1.158E-04

     total cpu time spent up to now is    32240.2 secs

     total energy              =   -7077.45794271 Ry
     estimated scf accuracy    <       0.00000013 Ry

     total magnetization       =     9.92 Bohr mag/cell
     absolute magnetization    =    10.77 Bohr mag/cell

     iteration # 11     ecut=    60.00 Ry     beta= 0.20
     Davidson diagonalization with overlap
     ethr =  5.51E-11,  avg # of iterations =  1.2

     negative rho (up, down):  1.516E-04 1.160E-04

     total cpu time spent up to now is    32463.2 secs

     total energy              =   -7077.45794274 Ry
     estimated scf accuracy    <       0.00000006 Ry

     total magnetization       =     9.92 Bohr mag/cell
     absolute magnetization    =    10.77 Bohr mag/cell

     iteration # 12     ecut=    60.00 Ry     beta= 0.20
     Davidson diagonalization with overlap
     ethr =  2.35E-11,  avg # of iterations =  2.4

     negative rho (up, down):  1.522E-04 1.164E-04

     total cpu time spent up to now is    32705.5 secs

     total energy              =   -7077.45794274 Ry
     estimated scf accuracy    <       0.00000005 Ry

     total magnetization       =     9.92 Bohr mag/cell
     absolute magnetization    =    10.77 Bohr mag/cell

     iteration # 13     ecut=    60.00 Ry     beta= 0.20
     Davidson diagonalization with overlap
     ethr =  2.01E-11,  avg # of iterations =  1.2

     negative rho (up, down):  1.527E-04 1.168E-04

     total cpu time spent up to now is    32942.7 secs

     total energy              =   -7077.45794274 Ry
     estimated scf accuracy    <       0.00000003 Ry

     total magnetization       =     9.92 Bohr mag/cell
     absolute magnetization    =    10.77 Bohr mag/cell

     iteration # 14     ecut=    60.00 Ry     beta= 0.20
     Davidson diagonalization with overlap
     ethr =  1.20E-11,  avg # of iterations =  1.3

     negative rho (up, down):  1.529E-04 1.169E-04

     total cpu time spent up to now is    33178.0 secs

     total energy              =   -7077.45794275 Ry
     estimated scf accuracy    <       0.00000001 Ry

     total magnetization       =     9.92 Bohr mag/cell
     absolute magnetization    =    10.77 Bohr mag/cell

     iteration # 15     ecut=    60.00 Ry     beta= 0.20
     Davidson diagonalization with overlap
     ethr =  5.62E-12,  avg # of iterations =  1.5

     negative rho (up, down):  1.531E-04 1.170E-04

     total cpu time spent up to now is    33421.3 secs

     total energy              =   -7077.45794275 Ry
     estimated scf accuracy    <       0.00000003 Ry

     total magnetization       =     9.92 Bohr mag/cell
     absolute magnetization    =    10.77 Bohr mag/cell

     iteration # 16     ecut=    60.00 Ry     beta= 0.20
     Davidson diagonalization with overlap
     ethr =  5.62E-12,  avg # of iterations =  2.0

     negative rho (up, down):  1.534E-04 1.172E-04

     total cpu time spent up to now is    33669.6 secs

     total energy              =   -7077.45794275 Ry
     estimated scf accuracy    <       0.00000002 Ry

     total magnetization       =     9.92 Bohr mag/cell
     absolute magnetization    =    10.77 Bohr mag/cell

     iteration # 17     ecut=    60.00 Ry     beta= 0.20
     Davidson diagonalization with overlap
     ethr =  5.62E-12,  avg # of iterations =  1.1

     negative rho (up, down):  1.537E-04 1.174E-04

     total cpu time spent up to now is    33897.5 secs

     total energy              =   -7077.45794276 Ry
     estimated scf accuracy    <       0.00000001 Ry

     total magnetization       =     9.92 Bohr mag/cell
     absolute magnetization    =    10.77 Bohr mag/cell

     iteration # 18     ecut=    60.00 Ry     beta= 0.20
     Davidson diagonalization with overlap
     ethr =  5.46E-12,  avg # of iterations =  2.0

     negative rho (up, down):  1.537E-04 1.174E-04

     total cpu time spent up to now is    34129.9 secs

     total energy              =   -7077.45794276 Ry
     estimated scf accuracy    <       0.00000001 Ry

     total magnetization       =     9.92 Bohr mag/cell
     absolute magnetization    =    10.77 Bohr mag/cell

     iteration # 19     ecut=    60.00 Ry     beta= 0.20
     Davidson diagonalization with overlap
     ethr =  5.45E-12,  avg # of iterations =  1.0

     negative rho (up, down):  1.538E-04 1.175E-04

     total cpu time spent up to now is    34350.1 secs

     total energy              =   -7077.45794276 Ry
     estimated scf accuracy    <       0.00000001 Ry

     total magnetization       =     9.92 Bohr mag/cell
     absolute magnetization    =    10.77 Bohr mag/cell

     iteration # 20     ecut=    60.00 Ry     beta= 0.20
     Davidson diagonalization with overlap
     ethr =  4.22E-12,  avg # of iterations =  1.0

     negative rho (up, down):  1.539E-04 1.176E-04

     total cpu time spent up to now is    34578.1 secs

     total energy              =   -7077.45794276 Ry
     estimated scf accuracy    <       0.00000001 Ry

     total magnetization       =     9.92 Bohr mag/cell
     absolute magnetization    =    10.77 Bohr mag/cell

     iteration # 21     ecut=    60.00 Ry     beta= 0.20
     Davidson diagonalization with overlap
     ethr =  4.22E-12,  avg # of iterations =  1.0

     negative rho (up, down):  1.541E-04 1.178E-04

     total cpu time spent up to now is    34816.8 secs

     total energy              =   -7077.45794276 Ry
     estimated scf accuracy    <          9.1E-09 Ry

     total magnetization       =     9.92 Bohr mag/cell
     absolute magnetization    =    10.77 Bohr mag/cell

     iteration # 22     ecut=    60.00 Ry     beta= 0.20
     Davidson diagonalization with overlap
     ethr =  3.79E-12,  avg # of iterations =  1.0

     negative rho (up, down):  1.543E-04 1.180E-04

     total cpu time spent up to now is    35033.7 secs

     total energy              =   -7077.45794276 Ry
     estimated scf accuracy    <       0.00000001 Ry

     total magnetization       =     9.92 Bohr mag/cell
     absolute magnetization    =    10.77 Bohr mag/cell

     iteration # 23     ecut=    60.00 Ry     beta= 0.20
     Davidson diagonalization with overlap
     ethr =  3.79E-12,  avg # of iterations =  1.0

     negative rho (up, down):  1.546E-04 1.182E-04

     total cpu time spent up to now is    35247.1 secs

     total energy              =   -7077.45794276 Ry
     estimated scf accuracy    <       0.00000001 Ry

     total magnetization       =     9.92 Bohr mag/cell
     absolute magnetization    =    10.77 Bohr mag/cell

     iteration # 24     ecut=    60.00 Ry     beta= 0.20
     Davidson diagonalization with overlap
     ethr =  3.79E-12,  avg # of iterations =  1.0

     negative rho (up, down):  1.549E-04 1.185E-04

     total cpu time spent up to now is    35481.8 secs

     total energy              =   -7077.45794276 Ry
     estimated scf accuracy    <       0.00000001 Ry

     total magnetization       =     9.92 Bohr mag/cell
     absolute magnetization    =    10.77 Bohr mag/cell

     iteration # 25     ecut=    60.00 Ry     beta= 0.20
     Davidson diagonalization with overlap
     ethr =  3.79E-12,  avg # of iterations =  1.0

     negative rho (up, down):  1.551E-04 1.188E-04

     total cpu time spent up to now is    35725.5 secs

     total energy              =   -7077.45794276 Ry
     estimated scf accuracy    <          5.9E-09 Ry

     total magnetization       =     9.92 Bohr mag/cell
     absolute magnetization    =    10.77 Bohr mag/cell

     iteration # 26     ecut=    60.00 Ry     beta= 0.20
     Davidson diagonalization with overlap
     ethr =  2.44E-12,  avg # of iterations =  1.0

     negative rho (up, down):  1.550E-04 1.186E-04

     total cpu time spent up to now is    35958.9 secs

     total energy              =   -7077.45794276 Ry
     estimated scf accuracy    <          3.5E-09 Ry

     total magnetization       =     9.92 Bohr mag/cell
     absolute magnetization    =    10.77 Bohr mag/cell

     iteration # 27     ecut=    60.00 Ry     beta= 0.20
     Davidson diagonalization with overlap
     ethr =  1.44E-12,  avg # of iterations =  1.0

     negative rho (up, down):  1.551E-04 1.187E-04

     total cpu time spent up to now is    36191.0 secs

     total energy              =   -7077.45794276 Ry
     estimated scf accuracy    <          2.5E-09 Ry

     total magnetization       =     9.92 Bohr mag/cell
     absolute magnetization    =    10.77 Bohr mag/cell

     iteration # 28     ecut=    60.00 Ry     beta= 0.20
     Davidson diagonalization with overlap
     ethr =  1.05E-12,  avg # of iterations =  1.0

     negative rho (up, down):  1.551E-04 1.187E-04

     total cpu time spent up to now is    36422.2 secs

     total energy              =   -7077.45794276 Ry
     estimated scf accuracy    <          3.4E-09 Ry

     total magnetization       =     9.92 Bohr mag/cell
     absolute magnetization    =    10.77 Bohr mag/cell

     iteration # 29     ecut=    60.00 Ry     beta= 0.20
     Davidson diagonalization with overlap
     ethr =  1.05E-12,  avg # of iterations =  1.0

     negative rho (up, down):  1.551E-04 1.187E-04

     total cpu time spent up to now is    36646.0 secs

     total energy              =   -7077.45794276 Ry
     estimated scf accuracy    <          3.9E-09 Ry

     total magnetization       =     9.92 Bohr mag/cell
     absolute magnetization    =    10.77 Bohr mag/cell

     iteration # 30     ecut=    60.00 Ry     beta= 0.20
     Davidson diagonalization with overlap
     ethr =  1.05E-12,  avg # of iterations =  1.0

     negative rho (up, down):  1.551E-04 1.187E-04

     total cpu time spent up to now is    36861.8 secs

     total energy              =   -7077.45794276 Ry
     estimated scf accuracy    <          2.9E-09 Ry

     total magnetization       =     9.92 Bohr mag/cell
     absolute magnetization    =    10.77 Bohr mag/cell

     iteration # 31     ecut=    60.00 Ry     beta= 0.20
     Davidson diagonalization with overlap
     ethr =  1.05E-12,  avg # of iterations =  1.0

     negative rho (up, down):  1.552E-04 1.188E-04

     total cpu time spent up to now is    37073.8 secs

     total energy              =   -7077.45794276 Ry
     estimated scf accuracy    <          3.0E-09 Ry

     total magnetization       =     9.92 Bohr mag/cell
     absolute magnetization    =    10.77 Bohr mag/cell

     iteration # 32     ecut=    60.00 Ry     beta= 0.20
     Davidson diagonalization with overlap
     ethr =  1.05E-12,  avg # of iterations =  1.0

     negative rho (up, down):  1.552E-04 1.188E-04

     total cpu time spent up to now is    37262.1 secs

     total energy              =   -7077.45794276 Ry
     estimated scf accuracy    <          2.4E-09 Ry

     total magnetization       =     9.92 Bohr mag/cell
     absolute magnetization    =    10.77 Bohr mag/cell

     iteration # 33     ecut=    60.00 Ry     beta= 0.20
     Davidson diagonalization with overlap
     ethr =  1.01E-12,  avg # of iterations =  1.0

     negative rho (up, down):  1.550E-04 1.186E-04

     total cpu time spent up to now is    37450.0 secs

     total energy              =   -7077.45794276 Ry
     estimated scf accuracy    <          2.4E-09 Ry

     total magnetization       =     9.92 Bohr mag/cell
     absolute magnetization    =    10.77 Bohr mag/cell

     iteration # 34     ecut=    60.00 Ry     beta= 0.20
     Davidson diagonalization with overlap
     ethr =  9.99E-13,  avg # of iterations =  1.0

     negative rho (up, down):  1.550E-04 1.186E-04

     total cpu time spent up to now is    37660.5 secs

     total energy              =   -7077.45794276 Ry
     estimated scf accuracy    <          2.4E-09 Ry

     total magnetization       =     9.92 Bohr mag/cell
     absolute magnetization    =    10.77 Bohr mag/cell

     iteration # 35     ecut=    60.00 Ry     beta= 0.20
     Davidson diagonalization with overlap
     ethr =  9.81E-13,  avg # of iterations =  1.0

     negative rho (up, down):  1.550E-04 1.186E-04

     total cpu time spent up to now is    37871.8 secs

     total energy              =   -7077.45794276 Ry
     estimated scf accuracy    <          2.3E-09 Ry

     total magnetization       =     9.92 Bohr mag/cell
     absolute magnetization    =    10.77 Bohr mag/cell

     iteration # 36     ecut=    60.00 Ry     beta= 0.20
     Davidson diagonalization with overlap
     ethr =  9.53E-13,  avg # of iterations =  1.0

     negative rho (up, down):  1.550E-04 1.186E-04

     total cpu time spent up to now is    38079.5 secs

     total energy              =   -7077.45794276 Ry
     estimated scf accuracy    <          2.4E-09 Ry

     total magnetization       =     9.92 Bohr mag/cell
     absolute magnetization    =    10.77 Bohr mag/cell

     iteration # 37     ecut=    60.00 Ry     beta= 0.20
     Davidson diagonalization with overlap
     ethr =  9.53E-13,  avg # of iterations =  1.0

     negative rho (up, down):  1.554E-04 1.190E-04

     total cpu time spent up to now is    38280.0 secs

     total energy              =   -7077.45794276 Ry
     estimated scf accuracy    <          2.7E-09 Ry

     total magnetization       =     9.92 Bohr mag/cell
     absolute magnetization    =    10.77 Bohr mag/cell

     iteration # 38     ecut=    60.00 Ry     beta= 0.20
     Davidson diagonalization with overlap
     ethr =  9.53E-13,  avg # of iterations =  1.0

     negative rho (up, down):  1.554E-04 1.190E-04

     total cpu time spent up to now is    38471.0 secs

     total energy              =   -7077.45794276 Ry
     estimated scf accuracy    <          3.5E-09 Ry

     total magnetization       =     9.92 Bohr mag/cell
     absolute magnetization    =    10.77 Bohr mag/cell

     iteration # 39     ecut=    60.00 Ry     beta= 0.20
     Davidson diagonalization with overlap
     ethr =  9.53E-13,  avg # of iterations =  1.0

     negative rho (up, down):  1.555E-04 1.191E-04

     total cpu time spent up to now is    38660.1 secs

     total energy              =   -7077.45794276 Ry
     estimated scf accuracy    <          4.3E-09 Ry

     total magnetization       =     9.92 Bohr mag/cell
     absolute magnetization    =    10.77 Bohr mag/cell

     iteration # 40     ecut=    60.00 Ry     beta= 0.20
     Davidson diagonalization with overlap
     ethr =  9.53E-13,  avg # of iterations =  1.0

     negative rho (up, down):  1.556E-04 1.191E-04

     total cpu time spent up to now is    38850.0 secs

     total energy              =   -7077.45794276 Ry
     estimated scf accuracy    <          5.4E-09 Ry

     total magnetization       =     9.92 Bohr mag/cell
     absolute magnetization    =    10.77 Bohr mag/cell

     iteration # 41     ecut=    60.00 Ry     beta= 0.20
     Davidson diagonalization with overlap
     ethr =  9.53E-13,  avg # of iterations =  1.0

     negative rho (up, down):  1.555E-04 1.191E-04

     total cpu time spent up to now is    39035.7 secs

     total energy              =   -7077.45794276 Ry
     estimated scf accuracy    <          4.9E-09 Ry

     total magnetization       =     9.92 Bohr mag/cell
     absolute magnetization    =    10.77 Bohr mag/cell

     iteration # 42     ecut=    60.00 Ry     beta= 0.20
     Davidson diagonalization with overlap
     ethr =  9.53E-13,  avg # of iterations =  1.0

     negative rho (up, down):  1.555E-04 1.191E-04

     total cpu time spent up to now is    39219.6 secs

     total energy              =   -7077.45794276 Ry
     estimated scf accuracy    <          3.2E-09 Ry

     total magnetization       =     9.92 Bohr mag/cell
     absolute magnetization    =    10.77 Bohr mag/cell

     iteration # 43     ecut=    60.00 Ry     beta= 0.20
     Davidson diagonalization with overlap
     ethr =  9.53E-13,  avg # of iterations =  1.0

     negative rho (up, down):  1.553E-04 1.189E-04

     total cpu time spent up to now is    39411.4 secs

     total energy              =   -7077.45794276 Ry
     estimated scf accuracy    <          4.4E-09 Ry

     total magnetization       =     9.92 Bohr mag/cell
     absolute magnetization    =    10.77 Bohr mag/cell

     iteration # 44     ecut=    60.00 Ry     beta= 0.20
     Davidson diagonalization with overlap
     ethr =  9.53E-13,  avg # of iterations =  1.0

     negative rho (up, down):  1.552E-04 1.188E-04

     total cpu time spent up to now is    39616.9 secs

     total energy              =   -7077.45794276 Ry
     estimated scf accuracy    <          2.5E-09 Ry

     total magnetization       =     9.92 Bohr mag/cell
     absolute magnetization    =    10.77 Bohr mag/cell

     iteration # 45     ecut=    60.00 Ry     beta= 0.20
     Davidson diagonalization with overlap
     ethr =  9.53E-13,  avg # of iterations =  1.0

     negative rho (up, down):  1.554E-04 1.190E-04

     total cpu time spent up to now is    39820.4 secs

     total energy              =   -7077.45794276 Ry
     estimated scf accuracy    <          3.1E-09 Ry

     total magnetization       =     9.92 Bohr mag/cell
     absolute magnetization    =    10.77 Bohr mag/cell

     iteration # 46     ecut=    60.00 Ry     beta= 0.20
     Davidson diagonalization with overlap
     ethr =  9.53E-13,  avg # of iterations =  1.0

     negative rho (up, down):  1.554E-04 1.190E-04

     total cpu time spent up to now is    40024.8 secs

     total energy              =   -7077.45794276 Ry
     estimated scf accuracy    <          4.6E-09 Ry

     total magnetization       =     9.92 Bohr mag/cell
     absolute magnetization    =    10.77 Bohr mag/cell

     iteration # 47     ecut=    60.00 Ry     beta= 0.20
     Davidson diagonalization with overlap
     ethr =  9.53E-13,  avg # of iterations =  1.0

     negative rho (up, down):  1.553E-04 1.189E-04

     total cpu time spent up to now is    40236.9 secs

     total energy              =   -7077.45794276 Ry
     estimated scf accuracy    <          6.3E-09 Ry

     total magnetization       =     9.92 Bohr mag/cell
     absolute magnetization    =    10.77 Bohr mag/cell

     iteration # 48     ecut=    60.00 Ry     beta= 0.20
     Davidson diagonalization with overlap
     ethr =  9.53E-13,  avg # of iterations =  1.0

     negative rho (up, down):  1.553E-04 1.189E-04

     total cpu time spent up to now is    40445.5 secs

     total energy              =   -7077.45794276 Ry
     estimated scf accuracy    <          4.5E-09 Ry

     total magnetization       =     9.92 Bohr mag/cell
     absolute magnetization    =    10.77 Bohr mag/cell

     iteration # 49     ecut=    60.00 Ry     beta= 0.20
     Davidson diagonalization with overlap
     ethr =  9.53E-13,  avg # of iterations =  1.0

     negative rho (up, down):  1.553E-04 1.189E-04

     total cpu time spent up to now is    40660.9 secs

     total energy              =   -7077.45794276 Ry
     estimated scf accuracy    <          4.2E-09 Ry

     total magnetization       =     9.92 Bohr mag/cell
     absolute magnetization    =    10.77 Bohr mag/cell

     iteration # 50     ecut=    60.00 Ry     beta= 0.20
     Davidson diagonalization with overlap
     ethr =  9.53E-13,  avg # of iterations =  1.0

     negative rho (up, down):  1.553E-04 1.188E-04

     total cpu time spent up to now is    40883.7 secs

     total energy              =   -7077.45794276 Ry
     estimated scf accuracy    <          4.5E-09 Ry

     total magnetization       =     9.92 Bohr mag/cell
     absolute magnetization    =    10.77 Bohr mag/cell

     iteration # 51     ecut=    60.00 Ry     beta= 0.20
     Davidson diagonalization with overlap
     ethr =  9.53E-13,  avg # of iterations =  1.0

     negative rho (up, down):  1.552E-04 1.188E-04

     total cpu time spent up to now is    41122.2 secs

     total energy              =   -7077.45794276 Ry
     estimated scf accuracy    <          4.0E-09 Ry

     total magnetization       =     9.92 Bohr mag/cell
     absolute magnetization    =    10.77 Bohr mag/cell

     iteration # 52     ecut=    60.00 Ry     beta= 0.20
     Davidson diagonalization with overlap
     ethr =  9.53E-13,  avg # of iterations =  1.0

     negative rho (up, down):  1.553E-04 1.189E-04

     total cpu time spent up to now is    41339.0 secs

     total energy              =   -7077.45794276 Ry
     estimated scf accuracy    <          4.0E-09 Ry

     total magnetization       =     9.92 Bohr mag/cell
     absolute magnetization    =    10.77 Bohr mag/cell

     iteration # 53     ecut=    60.00 Ry     beta= 0.20
     Davidson diagonalization with overlap
     ethr =  9.53E-13,  avg # of iterations =  1.0

     negative rho (up, down):  1.555E-04 1.191E-04

     total cpu time spent up to now is    41572.7 secs

     total energy              =   -7077.45794276 Ry
     estimated scf accuracy    <          2.0E-09 Ry

     total magnetization       =     9.92 Bohr mag/cell
     absolute magnetization    =    10.77 Bohr mag/cell

     iteration # 54     ecut=    60.00 Ry     beta= 0.20
     Davidson diagonalization with overlap
     ethr =  8.49E-13,  avg # of iterations =  1.0

     negative rho (up, down):  1.554E-04 1.190E-04

     total cpu time spent up to now is    41793.6 secs

     total energy              =   -7077.45794276 Ry
     estimated scf accuracy    <          3.1E-09 Ry

     total magnetization       =     9.92 Bohr mag/cell
     absolute magnetization    =    10.77 Bohr mag/cell

     iteration # 55     ecut=    60.00 Ry     beta= 0.20
     Davidson diagonalization with overlap
     ethr =  8.49E-13,  avg # of iterations =  1.0

     negative rho (up, down):  1.554E-04 1.190E-04

     total cpu time spent up to now is    41999.1 secs

     total energy              =   -7077.45794276 Ry
     estimated scf accuracy    <          3.1E-09 Ry

     total magnetization       =     9.92 Bohr mag/cell
     absolute magnetization    =    10.77 Bohr mag/cell

     iteration # 56     ecut=    60.00 Ry     beta= 0.20
     Davidson diagonalization with overlap
     ethr =  8.49E-13,  avg # of iterations =  1.0

     negative rho (up, down):  1.553E-04 1.189E-04

     total cpu time spent up to now is    42191.9 secs

     total energy              =   -7077.45794276 Ry
     estimated scf accuracy    <          4.2E-09 Ry

     total magnetization       =     9.92 Bohr mag/cell
     absolute magnetization    =    10.77 Bohr mag/cell

     iteration # 57     ecut=    60.00 Ry     beta= 0.20
     Davidson diagonalization with overlap
     ethr =  8.49E-13,  avg # of iterations =  1.0

     negative rho (up, down):  1.552E-04 1.188E-04

     total cpu time spent up to now is    42377.4 secs

     total energy              =   -7077.45794276 Ry
     estimated scf accuracy    <          3.1E-09 Ry

     total magnetization       =     9.92 Bohr mag/cell
     absolute magnetization    =    10.77 Bohr mag/cell

     iteration # 58     ecut=    60.00 Ry     beta= 0.20
     Davidson diagonalization with overlap
     ethr =  8.49E-13,  avg # of iterations =  1.0

     negative rho (up, down):  1.554E-04 1.190E-04

     total cpu time spent up to now is    42570.9 secs

     total energy              =   -7077.45794276 Ry
     estimated scf accuracy    <          3.0E-09 Ry

     total magnetization       =     9.92 Bohr mag/cell
     absolute magnetization    =    10.77 Bohr mag/cell

     iteration # 59     ecut=    60.00 Ry     beta= 0.20
     Davidson diagonalization with overlap
     ethr =  8.49E-13,  avg # of iterations =  1.0

     negative rho (up, down):  1.555E-04 1.191E-04

     total cpu time spent up to now is    42757.4 secs

     total energy              =   -7077.45794276 Ry
     estimated scf accuracy    <          3.2E-09 Ry

     total magnetization       =     9.92 Bohr mag/cell
     absolute magnetization    =    10.77 Bohr mag/cell

     iteration # 60     ecut=    60.00 Ry     beta= 0.20
     Davidson diagonalization with overlap
     ethr =  8.49E-13,  avg # of iterations =  1.0

     negative rho (up, down):  1.555E-04 1.190E-04

     total cpu time spent up to now is    42944.2 secs

     total energy              =   -7077.45794276 Ry
     estimated scf accuracy    <          2.8E-09 Ry

     total magnetization       =     9.92 Bohr mag/cell
     absolute magnetization    =    10.77 Bohr mag/cell

     iteration # 61     ecut=    60.00 Ry     beta= 0.20
     Davidson diagonalization with overlap
     ethr =  8.49E-13,  avg # of iterations =  1.0

     negative rho (up, down):  1.555E-04 1.191E-04

     total cpu time spent up to now is    43131.7 secs

     total energy              =   -7077.45794276 Ry
     estimated scf accuracy    <          3.7E-09 Ry

     total magnetization       =     9.92 Bohr mag/cell
     absolute magnetization    =    10.77 Bohr mag/cell

     iteration # 62     ecut=    60.00 Ry     beta= 0.20
     Davidson diagonalization with overlap
     ethr =  8.49E-13,  avg # of iterations =  1.0

     negative rho (up, down):  1.556E-04 1.191E-04

     total cpu time spent up to now is    43336.9 secs

     total energy              =   -7077.45794276 Ry
     estimated scf accuracy    <          3.4E-09 Ry

     total magnetization       =     9.92 Bohr mag/cell
     absolute magnetization    =    10.77 Bohr mag/cell

     iteration # 63     ecut=    60.00 Ry     beta= 0.20
     Davidson diagonalization with overlap
     ethr =  8.49E-13,  avg # of iterations =  1.0

     negative rho (up, down):  1.555E-04 1.191E-04

     total cpu time spent up to now is    43545.3 secs

     total energy              =   -7077.45794276 Ry
     estimated scf accuracy    <          2.9E-09 Ry

     total magnetization       =     9.92 Bohr mag/cell
     absolute magnetization    =    10.77 Bohr mag/cell

     iteration # 64     ecut=    60.00 Ry     beta= 0.20
     Davidson diagonalization with overlap
     ethr =  8.49E-13,  avg # of iterations =  1.0

     negative rho (up, down):  1.555E-04 1.191E-04

     total cpu time spent up to now is    43752.8 secs

     total energy              =   -7077.45794276 Ry
     estimated scf accuracy    <          2.0E-09 Ry

     total magnetization       =     9.92 Bohr mag/cell
     absolute magnetization    =    10.77 Bohr mag/cell

     iteration # 65     ecut=    60.00 Ry     beta= 0.20
     Davidson diagonalization with overlap
     ethr =  8.24E-13,  avg # of iterations =  1.0

     negative rho (up, down):  1.556E-04 1.192E-04

     total cpu time spent up to now is    43974.3 secs

     total energy              =   -7077.45794276 Ry
     estimated scf accuracy    <          2.2E-09 Ry

     total magnetization       =     9.92 Bohr mag/cell
     absolute magnetization    =    10.77 Bohr mag/cell

     iteration # 66     ecut=    60.00 Ry     beta= 0.20
     Davidson diagonalization with overlap
     ethr =  8.24E-13,  avg # of iterations =  1.0

     negative rho (up, down):  1.556E-04 1.192E-04

     total cpu time spent up to now is    44180.4 secs

     total energy              =   -7077.45794276 Ry
     estimated scf accuracy    <          2.2E-09 Ry

     total magnetization       =     9.92 Bohr mag/cell
     absolute magnetization    =    10.77 Bohr mag/cell

     iteration # 67     ecut=    60.00 Ry     beta= 0.20
     Davidson diagonalization with overlap
     ethr =  8.24E-13,  avg # of iterations =  1.0

     negative rho (up, down):  1.556E-04 1.192E-04

     total cpu time spent up to now is    44383.8 secs

     total energy              =   -7077.45794276 Ry
     estimated scf accuracy    <          1.9E-09 Ry

     total magnetization       =     9.92 Bohr mag/cell
     absolute magnetization    =    10.77 Bohr mag/cell

     iteration # 68     ecut=    60.00 Ry     beta= 0.20
     Davidson diagonalization with overlap
     ethr =  7.81E-13,  avg # of iterations =  1.0

     negative rho (up, down):  1.555E-04 1.191E-04

     total cpu time spent up to now is    44611.8 secs

     total energy              =   -7077.45794276 Ry
     estimated scf accuracy    <          1.9E-09 Ry

     total magnetization       =     9.92 Bohr mag/cell
     absolute magnetization    =    10.77 Bohr mag/cell

     iteration # 69     ecut=    60.00 Ry     beta= 0.20
     Davidson diagonalization with overlap
     ethr =  7.81E-13,  avg # of iterations =  1.0

     negative rho (up, down):  1.555E-04 1.191E-04

     total cpu time spent up to now is    44845.7 secs

     total energy              =   -7077.45794276 Ry
     estimated scf accuracy    <          2.6E-09 Ry

     total magnetization       =     9.92 Bohr mag/cell
     absolute magnetization    =    10.77 Bohr mag/cell

     iteration # 70     ecut=    60.00 Ry     beta= 0.20
     Davidson diagonalization with overlap
     ethr =  7.81E-13,  avg # of iterations =  1.0

     negative rho (up, down):  1.556E-04 1.191E-04

     total cpu time spent up to now is    45073.6 secs

     total energy              =   -7077.45794276 Ry
     estimated scf accuracy    <          2.3E-09 Ry

     total magnetization       =     9.92 Bohr mag/cell
     absolute magnetization    =    10.77 Bohr mag/cell

     iteration # 71     ecut=    60.00 Ry     beta= 0.20
     Davidson diagonalization with overlap
     ethr =  7.81E-13,  avg # of iterations =  1.0

     negative rho (up, down):  1.557E-04 1.193E-04

     total cpu time spent up to now is    45295.3 secs

     total energy              =   -7077.45794276 Ry
     estimated scf accuracy    <          3.3E-09 Ry

     total magnetization       =     9.92 Bohr mag/cell
     absolute magnetization    =    10.77 Bohr mag/cell

     iteration # 72     ecut=    60.00 Ry     beta= 0.20
     Davidson diagonalization with overlap
     ethr =  7.81E-13,  avg # of iterations =  1.0

     negative rho (up, down):  1.558E-04 1.194E-04

     total cpu time spent up to now is    45514.2 secs

     total energy              =   -7077.45794276 Ry
     estimated scf accuracy    <          2.2E-09 Ry

     total magnetization       =     9.92 Bohr mag/cell
     absolute magnetization    =    10.77 Bohr mag/cell

     iteration # 73     ecut=    60.00 Ry     beta= 0.20
     Davidson diagonalization with overlap
     ethr =  7.81E-13,  avg # of iterations =  1.0

     negative rho (up, down):  1.557E-04 1.193E-04

     total cpu time spent up to now is    45731.3 secs

     total energy              =   -7077.45794276 Ry
     estimated scf accuracy    <          2.1E-09 Ry

     total magnetization       =     9.92 Bohr mag/cell
     absolute magnetization    =    10.77 Bohr mag/cell

     iteration # 74     ecut=    60.00 Ry     beta= 0.20
     Davidson diagonalization with overlap
     ethr =  7.81E-13,  avg # of iterations =  1.0

     negative rho (up, down):  1.559E-04 1.195E-04

     total cpu time spent up to now is    45971.6 secs

     total energy              =   -7077.45794276 Ry
     estimated scf accuracy    <          2.0E-09 Ry

     total magnetization       =     9.92 Bohr mag/cell
     absolute magnetization    =    10.77 Bohr mag/cell

     iteration # 75     ecut=    60.00 Ry     beta= 0.20
     Davidson diagonalization with overlap
     ethr =  7.81E-13,  avg # of iterations =  1.0

     negative rho (up, down):  1.561E-04 1.197E-04

     total cpu time spent up to now is    46199.5 secs

     total energy              =   -7077.45794276 Ry
     estimated scf accuracy    <          1.1E-09 Ry

     total magnetization       =     9.92 Bohr mag/cell
     absolute magnetization    =    10.77 Bohr mag/cell

     iteration # 76     ecut=    60.00 Ry     beta= 0.20
     Davidson diagonalization with overlap
     ethr =  4.54E-13,  avg # of iterations =  1.0

     negative rho (up, down):  1.559E-04 1.195E-04

     total cpu time spent up to now is    46431.7 secs

     total energy              =   -7077.45794276 Ry
     estimated scf accuracy    <          7.8E-10 Ry

     total magnetization       =     9.92 Bohr mag/cell
     absolute magnetization    =    10.77 Bohr mag/cell

     iteration # 77     ecut=    60.00 Ry     beta= 0.20
     Davidson diagonalization with overlap
     ethr =  3.24E-13,  avg # of iterations =  1.0

     negative rho (up, down):  1.558E-04 1.194E-04

     total cpu time spent up to now is    46662.2 secs

     total energy              =   -7077.45794276 Ry
     estimated scf accuracy    <          9.9E-10 Ry

     total magnetization       =     9.92 Bohr mag/cell
     absolute magnetization    =    10.77 Bohr mag/cell

     iteration # 78     ecut=    60.00 Ry     beta= 0.20
     Davidson diagonalization with overlap
     ethr =  3.24E-13,  avg # of iterations =  1.0

     negative rho (up, down):  1.557E-04 1.193E-04

     total cpu time spent up to now is    46900.8 secs

     total energy              =   -7077.45794276 Ry
     estimated scf accuracy    <          9.2E-10 Ry

     total magnetization       =     9.92 Bohr mag/cell
     absolute magnetization    =    10.77 Bohr mag/cell

     iteration # 79     ecut=    60.00 Ry     beta= 0.20
     Davidson diagonalization with overlap
     ethr =  3.24E-13,  avg # of iterations =  1.0

     negative rho (up, down):  1.557E-04 1.193E-04

     total cpu time spent up to now is    47137.9 secs

     total energy              =   -7077.45794276 Ry
     estimated scf accuracy    <          1.1E-09 Ry

     total magnetization       =     9.92 Bohr mag/cell
     absolute magnetization    =    10.77 Bohr mag/cell

     iteration # 80     ecut=    60.00 Ry     beta= 0.20
     Davidson diagonalization with overlap
     ethr =  3.24E-13,  avg # of iterations =  1.0

     negative rho (up, down):  1.557E-04 1.193E-04

     total cpu time spent up to now is    47378.0 secs

     total energy              =   -7077.45794276 Ry
     estimated scf accuracy    <          9.2E-10 Ry

     total magnetization       =     9.92 Bohr mag/cell
     absolute magnetization    =    10.77 Bohr mag/cell

     iteration # 81     ecut=    60.00 Ry     beta= 0.20
     Davidson diagonalization with overlap
     ethr =  3.24E-13,  avg # of iterations =  1.0

     negative rho (up, down):  1.558E-04 1.194E-04

     total cpu time spent up to now is    47612.5 secs

     total energy              =   -7077.45794276 Ry
     estimated scf accuracy    <          8.3E-10 Ry

     total magnetization       =     9.92 Bohr mag/cell
     absolute magnetization    =    10.77 Bohr mag/cell

     iteration # 82     ecut=    60.00 Ry     beta= 0.20
     Davidson diagonalization with overlap
     ethr =  3.24E-13,  avg # of iterations =  1.0

     negative rho (up, down):  1.557E-04 1.193E-04

     total cpu time spent up to now is    47845.9 secs

     total energy              =   -7077.45794276 Ry
     estimated scf accuracy    <          1.1E-09 Ry

     total magnetization       =     9.92 Bohr mag/cell
     absolute magnetization    =    10.77 Bohr mag/cell

     iteration # 83     ecut=    60.00 Ry     beta= 0.20
     Davidson diagonalization with overlap
     ethr =  3.24E-13,  avg # of iterations =  1.0

     negative rho (up, down):  1.556E-04 1.192E-04

     total cpu time spent up to now is    48087.2 secs

     total energy              =   -7077.45794276 Ry
     estimated scf accuracy    <          9.2E-10 Ry

     total magnetization       =     9.92 Bohr mag/cell
     absolute magnetization    =    10.77 Bohr mag/cell

     iteration # 84     ecut=    60.00 Ry     beta= 0.20
     Davidson diagonalization with overlap
     ethr =  3.24E-13,  avg # of iterations =  1.0

     negative rho (up, down):  1.557E-04 1.193E-04

     total cpu time spent up to now is    48326.1 secs

     total energy              =   -7077.45794276 Ry
     estimated scf accuracy    <          8.9E-10 Ry

     total magnetization       =     9.92 Bohr mag/cell
     absolute magnetization    =    10.77 Bohr mag/cell

     iteration # 85     ecut=    60.00 Ry     beta= 0.20
     Davidson diagonalization with overlap
     ethr =  3.24E-13,  avg # of iterations =  1.0

     negative rho (up, down):  1.557E-04 1.192E-04

     total cpu time spent up to now is    48560.0 secs

     total energy              =   -7077.45794276 Ry
     estimated scf accuracy    <          6.7E-10 Ry

     total magnetization       =     9.92 Bohr mag/cell
     absolute magnetization    =    10.77 Bohr mag/cell

     iteration # 86     ecut=    60.00 Ry     beta= 0.20
     Davidson diagonalization with overlap
     ethr =  2.79E-13,  avg # of iterations =  1.0

     negative rho (up, down):  1.557E-04 1.192E-04

     total cpu time spent up to now is    48799.6 secs

     total energy              =   -7077.45794276 Ry
     estimated scf accuracy    <          7.8E-10 Ry

     total magnetization       =     9.92 Bohr mag/cell
     absolute magnetization    =    10.77 Bohr mag/cell

     iteration # 87     ecut=    60.00 Ry     beta= 0.20
     Davidson diagonalization with overlap
     ethr =  2.79E-13,  avg # of iterations =  1.0

     negative rho (up, down):  1.555E-04 1.191E-04

     total cpu time spent up to now is    49025.8 secs

     total energy              =   -7077.45794276 Ry
     estimated scf accuracy    <          4.2E-10 Ry

     total magnetization       =     9.92 Bohr mag/cell
     absolute magnetization    =    10.77 Bohr mag/cell

     iteration # 88     ecut=    60.00 Ry     beta= 0.20
     Davidson diagonalization with overlap
     ethr =  1.76E-13,  avg # of iterations =  1.0

     negative rho (up, down):  1.556E-04 1.191E-04

     total cpu time spent up to now is    49240.1 secs

     total energy              =   -7077.45794276 Ry
     estimated scf accuracy    <          7.3E-10 Ry

     total magnetization       =     9.92 Bohr mag/cell
     absolute magnetization    =    10.77 Bohr mag/cell

     iteration # 89     ecut=    60.00 Ry     beta= 0.20
     Davidson diagonalization with overlap
     ethr =  1.76E-13,  avg # of iterations =  1.0

     negative rho (up, down):  1.555E-04 1.191E-04

     total cpu time spent up to now is    49450.4 secs

     total energy              =   -7077.45794276 Ry
     estimated scf accuracy    <          6.7E-10 Ry

     total magnetization       =     9.92 Bohr mag/cell
     absolute magnetization    =    10.77 Bohr mag/cell

     iteration # 90     ecut=    60.00 Ry     beta= 0.20
     Davidson diagonalization with overlap
     ethr =  1.76E-13,  avg # of iterations =  1.0

     negative rho (up, down):  1.556E-04 1.192E-04

     total cpu time spent up to now is    49674.1 secs

     total energy              =   -7077.45794276 Ry
     estimated scf accuracy    <          6.3E-10 Ry

     total magnetization       =     9.92 Bohr mag/cell
     absolute magnetization    =    10.77 Bohr mag/cell

     iteration # 91     ecut=    60.00 Ry     beta= 0.20
     Davidson diagonalization with overlap
     ethr =  1.76E-13,  avg # of iterations =  1.0

     negative rho (up, down):  1.556E-04 1.192E-04

     total cpu time spent up to now is    49884.2 secs

     total energy              =   -7077.45794276 Ry
     estimated scf accuracy    <          6.0E-10 Ry

     total magnetization       =     9.92 Bohr mag/cell
     absolute magnetization    =    10.77 Bohr mag/cell

     iteration # 92     ecut=    60.00 Ry     beta= 0.20
     Davidson diagonalization with overlap
     ethr =  1.76E-13,  avg # of iterations =  1.0

     negative rho (up, down):  1.556E-04 1.192E-04

     total cpu time spent up to now is    50090.9 secs

     total energy              =   -7077.45794276 Ry
     estimated scf accuracy    <          6.7E-10 Ry

     total magnetization       =     9.92 Bohr mag/cell
     absolute magnetization    =    10.77 Bohr mag/cell

     iteration # 93     ecut=    60.00 Ry     beta= 0.20
     Davidson diagonalization with overlap
     ethr =  1.76E-13,  avg # of iterations =  1.0

     negative rho (up, down):  1.556E-04 1.192E-04

     total cpu time spent up to now is    50321.1 secs

     total energy              =   -7077.45794276 Ry
     estimated scf accuracy    <          6.8E-10 Ry

     total magnetization       =     9.92 Bohr mag/cell
     absolute magnetization    =    10.77 Bohr mag/cell

     iteration # 94     ecut=    60.00 Ry     beta= 0.20
     Davidson diagonalization with overlap
     ethr =  1.76E-13,  avg # of iterations =  1.0

     negative rho (up, down):  1.556E-04 1.192E-04

     total cpu time spent up to now is    50547.0 secs

     total energy              =   -7077.45794276 Ry
     estimated scf accuracy    <          6.3E-10 Ry

     total magnetization       =     9.92 Bohr mag/cell
     absolute magnetization    =    10.77 Bohr mag/cell

     iteration # 95     ecut=    60.00 Ry     beta= 0.20
     Davidson diagonalization with overlap
     ethr =  1.76E-13,  avg # of iterations =  1.0

     negative rho (up, down):  1.557E-04 1.193E-04
 
     Magnetic moment per site  (integrated on atomic sphere of radius R)
     atom   1 (R=0.202)  charge=  8.7462  magn=  0.9673
     atom   2 (R=0.141)  charge=  5.6464  magn=  0.2034
     atom   3 (R=0.141)  charge=  5.6464  magn=  0.2034
     atom   4 (R=0.141)  charge=  5.6464  magn=  0.2034
     atom   5 (R=0.202)  charge=  8.8236  magn=  0.9274
     atom   6 (R=0.141)  charge=  5.6332  magn=  0.2512
     atom   7 (R=0.141)  charge=  5.6332  magn=  0.2512
     atom   8 (R=0.141)  charge=  5.6332  magn=  0.2512
     atom   9 (R=0.202)  charge=  8.8394  magn=  0.8591
     atom  10 (R=0.141)  charge=  5.6298  magn=  0.2455
     atom  11 (R=0.141)  charge=  5.6298  magn=  0.2455
     atom  12 (R=0.141)  charge=  5.6298  magn=  0.2455
     atom  13 (R=0.202)  charge=  8.8429  magn=  0.8388
     atom  14 (R=0.141)  charge=  5.6303  magn=  0.2406
     atom  15 (R=0.141)  charge=  5.6303  magn=  0.2406
     atom  16 (R=0.141)  charge=  5.6303  magn=  0.2406
     atom  17 (R=0.202)  charge=  8.8081  magn=  0.8852
     atom  18 (R=0.141)  charge=  5.6334  magn=  0.2453
     atom  19 (R=0.141)  charge=  5.6334  magn=  0.2453
     atom  20 (R=0.141)  charge=  5.6334  magn=  0.2453
     atom  21 (R=0.202)  charge=  8.7671  magn=  0.9161
     atom  22 (R=0.141)  charge=  5.6421  magn=  0.1385
     atom  23 (R=0.141)  charge=  5.6421  magn=  0.1385
     atom  24 (R=0.141)  charge=  5.6421  magn=  0.1385
     atom  25 (R=0.141)  charge=  1.0192  magn= -0.0030

     total cpu time spent up to now is    50777.8 secs

     End of self-consistent calculation

     Number of k-points >= 100: set verbosity='high' to print the bands.

     the Fermi energy is    -5.1847 ev

!    total energy              =   -7077.45794276 Ry
     total all-electron energy =   -199909.894513 Ry
     estimated scf accuracy    <          3.6E-10 Ry
     smearing contrib. (-TS)   =       0.00067617 Ry
     internal energy E=F+TS    =   -7077.45861893 Ry

     The total energy is F=E-TS. E is the sum of the following terms:
     one-electron contribution =  -61230.87406204 Ry
     hartree contribution      =   30802.66699282 Ry
     xc contribution           =    -835.55013525 Ry
     ewald contribution        =   29320.46056320 Ry
     DFT-D3 Dispersion         =      -2.53345552 Ry
     one-center paw contrib.   =   -5131.62852213 Ry

     total magnetization       =     9.92 Bohr mag/cell
     absolute magnetization    =    10.77 Bohr mag/cell

     convergence has been achieved in  95 iterations

     negative rho (up, down):  1.557E-04 1.193E-04

     Forces acting on atoms (cartesian axes, Ry/au):

     atom    1 type  1   force =    -0.00000001    0.00000000    0.01588581
     atom    2 type  2   force =     0.00000000   -0.01435588   -0.00922047
     atom    3 type  2   force =    -0.01243255    0.00717794   -0.00922048
     atom    4 type  2   force =     0.01243255    0.00717794   -0.00922047
     atom    5 type  1   force =     0.00000000    0.00000001   -0.00096562
     atom    6 type  2   force =    -0.00055844    0.00032239    0.00506037
     atom    7 type  2   force =    -0.00000000   -0.00064481    0.00506042
     atom    8 type  2   force =     0.00055844    0.00032240    0.00506038
     atom    9 type  1   force =    -0.00000001    0.00000000   -0.00078224
     atom   10 type  2   force =     0.00000001   -0.00003792   -0.00071311
     atom   11 type  2   force =     0.00003287    0.00001895   -0.00071320
     atom   12 type  2   force =    -0.00003286    0.00001895   -0.00071319
     atom   13 type  1   force =     0.00000001    0.00000002   -0.00075701
     atom   14 type  2   force =     0.00000067   -0.00000040   -0.00028775
     atom   15 type  2   force =    -0.00000001    0.00000080   -0.00028784
     atom   16 type  2   force =    -0.00000069   -0.00000039   -0.00028776
     atom   17 type  1   force =    -0.00000002   -0.00000003    0.00140855
     atom   18 type  2   force =     0.00024412   -0.00014093    0.00073047
     atom   19 type  2   force =     0.00000003    0.00028190    0.00073042
     atom   20 type  2   force =    -0.00024412   -0.00014096    0.00073045
     atom   21 type  1   force =     0.00000001   -0.00000001   -0.00207430
     atom   22 type  2   force =    -0.00000000    0.00218468    0.00046906
     atom   23 type  2   force =    -0.00189198   -0.00109235    0.00046903
     atom   24 type  2   force =     0.00189198   -0.00109233    0.00046908
     atom   25 type  3   force =    -0.00000001    0.00000001   -0.00083062

     Total force =     0.005173     Total SCF correction =     0.000138


     Computing stress (Cartesian axis) and pressure


     negative rho (up, down):  1.557E-04 1.193E-04
          total   stress  (Ry/bohr**3)                   (kbar)     P=       -6.68
  -0.00007265   0.00000000   0.00000000          -10.69        0.00        0.00
   0.00000000  -0.00007265  -0.00000000            0.00      -10.69       -0.00
   0.00000000  -0.00000000   0.00000903            0.00       -0.00        1.33

     Energy error            =      6.0E-05 Ry
     Gradient error          =      2.2E-03 Ry/Bohr

     number of scf cycles    =   5
     number of bfgs steps    =   4

     energy             old  =   -7077.4578830064 Ry
     energy             new  =   -7077.4579427616 Ry

     CASE: energy            _new < energy            _old

     new trust radius        =       0.0070451887 bohr
     new conv_thr            =       0.0000000003 Ry


ATOMIC_POSITIONS (angstrom)
Ni               5.3171990772        3.0698863186       11.0000000000    0   0   0
Pd               2.6585995386        3.0698851333       11.0000764482    0   0   0
Pd               3.9878982814        0.7674721723       11.0000764482    0   0   0
Pd               1.3293007958        0.7674721723       11.0000764482    0   0   0
Ni               2.6585995386        1.5349431593       13.1707374333    0   0   0
Pd               3.9878982814        3.8373584909       13.1708138815    0   0   0
Pd               5.3171990772        1.5349419740       13.1708138815    0   0   0
Pd               6.6464998731        3.8373584909       13.1708138815    0   0   0
Ni               0.0000000186       -0.0000000547       15.3361355524
Pd               5.3171990193        4.6048563258       15.3354411208
Pd               3.9878760310        2.3024013828       15.3354413203
Pd               6.6465220145        2.3024014024       15.3354413534
Ni               5.3171989883        3.0698862255       17.5128878082
Pd               3.9878553416        0.7674968169       17.5009682547
Pd               2.6585994959        3.0698354234       17.5009685794
Pd               1.3293436967        0.7674968519       17.5009683617
Ni               2.6585994270        1.5349433738       19.6856629095
Pd               3.9947214656        3.8334191732       19.6686534447
Pd               5.3171988998        1.5428209698       19.6686533718
Pd               6.6396763410        3.8334191706       19.6686533451
Ni              -0.0000001220        0.0000003237       21.7473147477
Pd               5.3171989185        4.6022606808       21.9018744355
Pd               3.9901239348        2.3036995167       21.9018745394
Pd               6.6442738162        2.3036994430       21.9018744652
H                2.6585993874        1.5349432464       22.8687528729



     Writing config-only to output data dir /tmpu/isholek_g/isholek/MIGUEL/QE/Hydrogen/111_2x2/SAVE/Ni1Pd3_111-H_fcc_1.save/ :
     XML data file
     NEW-OLD atomic charge density approx. for the potential

     Check: negative core charge=   -0.000002

     negative rho (up, down):  1.459E-04 1.295E-04
     Generating pointlists ...

     total cpu time spent up to now is    51206.8 secs

     Self-consistent Calculation

     iteration #  1     ecut=    60.00 Ry     beta= 0.20
     Davidson diagonalization with overlap
     ethr =  1.00E-06,  avg # of iterations =  4.0

     Threshold (ethr) on eigenvalues was too large:
     Diagonalizing with lowered threshold

     Davidson diagonalization with overlap
     ethr =  3.23E-08,  avg # of iterations =  3.2

     negative rho (up, down):  1.511E-04 1.236E-04

     total cpu time spent up to now is    51963.7 secs

     total energy              =   -7077.45795755 Ry
     estimated scf accuracy    <       0.00005907 Ry

     total magnetization       =     9.92 Bohr mag/cell
     absolute magnetization    =    10.77 Bohr mag/cell

     iteration #  2     ecut=    60.00 Ry     beta= 0.20
     Davidson diagonalization with overlap
     ethr =  2.45E-08,  avg # of iterations =  1.2

     negative rho (up, down):  1.516E-04 1.224E-04

     total cpu time spent up to now is    52194.9 secs

     total energy              =   -7077.45796194 Ry
     estimated scf accuracy    <       0.00002648 Ry

     total magnetization       =     9.92 Bohr mag/cell
     absolute magnetization    =    10.77 Bohr mag/cell

     iteration #  3     ecut=    60.00 Ry     beta= 0.20
     Davidson diagonalization with overlap
     ethr =  1.10E-08,  avg # of iterations =  1.1

     negative rho (up, down):  1.516E-04 1.206E-04

     total cpu time spent up to now is    52413.4 secs

     total energy              =   -7077.45796862 Ry
     estimated scf accuracy    <       0.00002691 Ry

     total magnetization       =     9.92 Bohr mag/cell
     absolute magnetization    =    10.77 Bohr mag/cell

     iteration #  4     ecut=    60.00 Ry     beta= 0.20
     Davidson diagonalization with overlap
     ethr =  1.10E-08,  avg # of iterations =  2.0

     negative rho (up, down):  1.517E-04 1.193E-04

     total cpu time spent up to now is    52625.8 secs

     total energy              =   -7077.45797189 Ry
     estimated scf accuracy    <       0.00000607 Ry

     total magnetization       =     9.92 Bohr mag/cell
     absolute magnetization    =    10.77 Bohr mag/cell

     iteration #  5     ecut=    60.00 Ry     beta= 0.20
     Davidson diagonalization with overlap
     ethr =  2.52E-09,  avg # of iterations =  2.0

     negative rho (up, down):  1.517E-04 1.181E-04

     total cpu time spent up to now is    52865.9 secs

     total energy              =   -7077.45797280 Ry
     estimated scf accuracy    <       0.00000200 Ry

     total magnetization       =     9.92 Bohr mag/cell
     absolute magnetization    =    10.77 Bohr mag/cell

     iteration #  6     ecut=    60.00 Ry     beta= 0.20
     Davidson diagonalization with overlap
     ethr =  8.30E-10,  avg # of iterations =  3.6

     negative rho (up, down):  1.519E-04 1.178E-04

     total cpu time spent up to now is    53144.7 secs

     total energy              =   -7077.45797310 Ry
     estimated scf accuracy    <       0.00000039 Ry

     total magnetization       =     9.92 Bohr mag/cell
     absolute magnetization    =    10.77 Bohr mag/cell

     iteration #  7     ecut=    60.00 Ry     beta= 0.20
     Davidson diagonalization with overlap
     ethr =  1.62E-10,  avg # of iterations =  2.8

     negative rho (up, down):  1.521E-04 1.176E-04

     total cpu time spent up to now is    53401.4 secs

     total energy              =   -7077.45797307 Ry
     estimated scf accuracy    <       0.00000019 Ry

     total magnetization       =     9.92 Bohr mag/cell
     absolute magnetization    =    10.77 Bohr mag/cell

     iteration #  8     ecut=    60.00 Ry     beta= 0.20
     Davidson diagonalization with overlap
     ethr =  8.03E-11,  avg # of iterations =  2.3

     negative rho (up, down):  1.524E-04 1.175E-04

     total cpu time spent up to now is    53658.8 secs

     total energy              =   -7077.45797310 Ry
     estimated scf accuracy    <       0.00000012 Ry

     total magnetization       =     9.92 Bohr mag/cell
     absolute magnetization    =    10.77 Bohr mag/cell

     iteration #  9     ecut=    60.00 Ry     beta= 0.20
     Davidson diagonalization with overlap
     ethr =  5.05E-11,  avg # of iterations =  1.7

     negative rho (up, down):  1.526E-04 1.175E-04

     total cpu time spent up to now is    53901.6 secs

     total energy              =   -7077.45797312 Ry
     estimated scf accuracy    <       0.00000018 Ry

     total magnetization       =     9.92 Bohr mag/cell
     absolute magnetization    =    10.77 Bohr mag/cell

     iteration # 10     ecut=    60.00 Ry     beta= 0.20
     Davidson diagonalization with overlap
     ethr =  5.05E-11,  avg # of iterations =  1.6

     negative rho (up, down):  1.531E-04 1.176E-04

     total cpu time spent up to now is    54142.7 secs

     total energy              =   -7077.45797314 Ry
     estimated scf accuracy    <       0.00000016 Ry

     total magnetization       =     9.92 Bohr mag/cell
     absolute magnetization    =    10.77 Bohr mag/cell

     iteration # 11     ecut=    60.00 Ry     beta= 0.20
     Davidson diagonalization with overlap
     ethr =  5.05E-11,  avg # of iterations =  1.4

     negative rho (up, down):  1.534E-04 1.178E-04

     total cpu time spent up to now is    54380.8 secs

     total energy              =   -7077.45797314 Ry
     estimated scf accuracy    <       0.00000005 Ry

     total magnetization       =     9.92 Bohr mag/cell
     absolute magnetization    =    10.77 Bohr mag/cell

     iteration # 12     ecut=    60.00 Ry     beta= 0.20
     Davidson diagonalization with overlap
     ethr =  2.20E-11,  avg # of iterations =  1.6

     negative rho (up, down):  1.541E-04 1.183E-04

     total cpu time spent up to now is    54619.8 secs

     total energy              =   -7077.45797314 Ry
     estimated scf accuracy    <       0.00000005 Ry

     total magnetization       =     9.92 Bohr mag/cell
     absolute magnetization    =    10.77 Bohr mag/cell

     iteration # 13     ecut=    60.00 Ry     beta= 0.20
     Davidson diagonalization with overlap
     ethr =  2.20E-11,  avg # of iterations =  1.1

     negative rho (up, down):  1.544E-04 1.184E-04

     total cpu time spent up to now is    54832.8 secs

     total energy              =   -7077.45797315 Ry
     estimated scf accuracy    <       0.00000004 Ry

     total magnetization       =     9.92 Bohr mag/cell
     absolute magnetization    =    10.77 Bohr mag/cell

     iteration # 14     ecut=    60.00 Ry     beta= 0.20
     Davidson diagonalization with overlap
     ethr =  1.76E-11,  avg # of iterations =  1.0

     negative rho (up, down):  1.548E-04 1.188E-04

     total cpu time spent up to now is    55038.0 secs

     total energy              =   -7077.45797315 Ry
     estimated scf accuracy    <       0.00000004 Ry

     total magnetization       =     9.92 Bohr mag/cell
     absolute magnetization    =    10.77 Bohr mag/cell

     iteration # 15     ecut=    60.00 Ry     beta= 0.20
     Davidson diagonalization with overlap
     ethr =  1.74E-11,  avg # of iterations =  1.0

     negative rho (up, down):  1.558E-04 1.197E-04

     total cpu time spent up to now is    55274.3 secs

     total energy              =   -7077.45797316 Ry
     estimated scf accuracy    <       0.00000004 Ry

     total magnetization       =     9.92 Bohr mag/cell
     absolute magnetization    =    10.77 Bohr mag/cell

     iteration # 16     ecut=    60.00 Ry     beta= 0.20
     Davidson diagonalization with overlap
     ethr =  1.47E-11,  avg # of iterations =  1.0

     negative rho (up, down):  1.567E-04 1.205E-04

     total cpu time spent up to now is    55508.9 secs

     total energy              =   -7077.45797316 Ry
     estimated scf accuracy    <       0.00000001 Ry

     total magnetization       =     9.92 Bohr mag/cell
     absolute magnetization    =    10.77 Bohr mag/cell

     iteration # 17     ecut=    60.00 Ry     beta= 0.20
     Davidson diagonalization with overlap
     ethr =  5.91E-12,  avg # of iterations =  1.5

     negative rho (up, down):  1.565E-04 1.203E-04

     total cpu time spent up to now is    55747.0 secs

     total energy              =   -7077.45797316 Ry
     estimated scf accuracy    <          4.4E-09 Ry

     total magnetization       =     9.92 Bohr mag/cell
     absolute magnetization    =    10.77 Bohr mag/cell

     iteration # 18     ecut=    60.00 Ry     beta= 0.20
     Davidson diagonalization with overlap
     ethr =  1.82E-12,  avg # of iterations =  2.8

     negative rho (up, down):  1.566E-04 1.203E-04

     total cpu time spent up to now is    56012.6 secs

     total energy              =   -7077.45797316 Ry
     estimated scf accuracy    <          1.2E-09 Ry

     total magnetization       =     9.92 Bohr mag/cell
     absolute magnetization    =    10.77 Bohr mag/cell

     iteration # 19     ecut=    60.00 Ry     beta= 0.20
     Davidson diagonalization with overlap
     ethr =  4.94E-13,  avg # of iterations =  3.8

     negative rho (up, down):  1.565E-04 1.202E-04

     total cpu time spent up to now is    56290.6 secs

     total energy              =   -7077.45797316 Ry
     estimated scf accuracy    <          8.7E-10 Ry

     total magnetization       =     9.92 Bohr mag/cell
     absolute magnetization    =    10.77 Bohr mag/cell

     iteration # 20     ecut=    60.00 Ry     beta= 0.20
     Davidson diagonalization with overlap
     ethr =  3.62E-13,  avg # of iterations =  1.2

     negative rho (up, down):  1.565E-04 1.202E-04

     total cpu time spent up to now is    56520.4 secs

     total energy              =   -7077.45797316 Ry
     estimated scf accuracy    <          5.0E-10 Ry

     total magnetization       =     9.92 Bohr mag/cell
     absolute magnetization    =    10.77 Bohr mag/cell

     iteration # 21     ecut=    60.00 Ry     beta= 0.20
     Davidson diagonalization with overlap
     ethr =  2.07E-13,  avg # of iterations =  2.0

     negative rho (up, down):  1.564E-04 1.201E-04

     total cpu time spent up to now is    56757.1 secs

     total energy              =   -7077.45797316 Ry
     estimated scf accuracy    <          4.6E-10 Ry

     total magnetization       =     9.92 Bohr mag/cell
     absolute magnetization    =    10.77 Bohr mag/cell

     iteration # 22     ecut=    60.00 Ry     beta= 0.20
     Davidson diagonalization with overlap
     ethr =  1.92E-13,  avg # of iterations =  1.0

     negative rho (up, down):  1.557E-04 1.193E-04
 
     Magnetic moment per site  (integrated on atomic sphere of radius R)
     atom   1 (R=0.202)  charge=  8.7463  magn=  0.9671
     atom   2 (R=0.141)  charge=  5.6464  magn=  0.2034
     atom   3 (R=0.141)  charge=  5.6464  magn=  0.2034
     atom   4 (R=0.141)  charge=  5.6464  magn=  0.2034
     atom   5 (R=0.202)  charge=  8.8239  magn=  0.9273
     atom   6 (R=0.141)  charge=  5.6332  magn=  0.2514
     atom   7 (R=0.141)  charge=  5.6332  magn=  0.2514
     atom   8 (R=0.141)  charge=  5.6332  magn=  0.2514
     atom   9 (R=0.202)  charge=  8.8397  magn=  0.8591
     atom  10 (R=0.141)  charge=  5.6298  magn=  0.2457
     atom  11 (R=0.141)  charge=  5.6298  magn=  0.2457
     atom  12 (R=0.141)  charge=  5.6298  magn=  0.2457
     atom  13 (R=0.202)  charge=  8.8427  magn=  0.8388
     atom  14 (R=0.141)  charge=  5.6303  magn=  0.2405
     atom  15 (R=0.141)  charge=  5.6303  magn=  0.2405
     atom  16 (R=0.141)  charge=  5.6303  magn=  0.2405
     atom  17 (R=0.202)  charge=  8.8073  magn=  0.8855
     atom  18 (R=0.141)  charge=  5.6334  magn=  0.2452
     atom  19 (R=0.141)  charge=  5.6334  magn=  0.2452
     atom  20 (R=0.141)  charge=  5.6334  magn=  0.2452
     atom  21 (R=0.202)  charge=  8.7681  magn=  0.9159
     atom  22 (R=0.141)  charge=  5.6421  magn=  0.1381
     atom  23 (R=0.141)  charge=  5.6421  magn=  0.1381
     atom  24 (R=0.141)  charge=  5.6421  magn=  0.1381
     atom  25 (R=0.141)  charge=  1.0232  magn= -0.0030

     total cpu time spent up to now is    56990.3 secs

     End of self-consistent calculation

     Number of k-points >= 100: set verbosity='high' to print the bands.

     the Fermi energy is    -5.1849 ev

!    total energy              =   -7077.45797316 Ry
     total all-electron energy =   -199909.894543 Ry
     estimated scf accuracy    <          5.8E-11 Ry
     smearing contrib. (-TS)   =       0.00071077 Ry
     internal energy E=F+TS    =   -7077.45868393 Ry

     The total energy is F=E-TS. E is the sum of the following terms:
     one-electron contribution =  -61226.58819645 Ry
     hartree contribution      =   30800.52365846 Ry
     xc contribution           =    -835.55058603 Ry
     ewald contribution        =   29318.31821545 Ry
     DFT-D3 Dispersion         =      -2.53322004 Ry
     one-center paw contrib.   =   -5131.62855531 Ry

     total magnetization       =     9.92 Bohr mag/cell
     absolute magnetization    =    10.77 Bohr mag/cell

     convergence has been achieved in  22 iterations

     negative rho (up, down):  1.557E-04 1.193E-04

     Forces acting on atoms (cartesian axes, Ry/au):

     atom    1 type  1   force =    -0.00000000    0.00000000    0.01589271
     atom    2 type  2   force =    -0.00000000   -0.01435482   -0.00920894
     atom    3 type  2   force =    -0.01243163    0.00717740   -0.00920895
     atom    4 type  2   force =     0.01243163    0.00717740   -0.00920894
     atom    5 type  1   force =    -0.00000001    0.00000001   -0.00110207
     atom    6 type  2   force =    -0.00061374    0.00035433    0.00480303
     atom    7 type  2   force =     0.00000000   -0.00070867    0.00480308
     atom    8 type  2   force =     0.00061374    0.00035433    0.00480304
     atom    9 type  1   force =    -0.00000002    0.00000002   -0.00073183
     atom   10 type  2   force =     0.00000001    0.00009122   -0.00045239
     atom   11 type  2   force =    -0.00007898   -0.00004562   -0.00045245
     atom   12 type  2   force =     0.00007900   -0.00004563   -0.00045245
     atom   13 type  1   force =     0.00000000    0.00000001   -0.00074323
     atom   14 type  2   force =     0.00000331   -0.00000191    0.00014988
     atom   15 type  2   force =     0.00000000    0.00000385    0.00014981
     atom   16 type  2   force =    -0.00000333   -0.00000192    0.00014986
     atom   17 type  1   force =    -0.00000001   -0.00000003    0.00118122
     atom   18 type  2   force =     0.00010720   -0.00006189    0.00056301
     atom   19 type  2   force =     0.00000000    0.00012379    0.00056302
     atom   20 type  2   force =    -0.00010718   -0.00006188    0.00056305
     atom   21 type  1   force =    -0.00000002   -0.00000003   -0.00115673
     atom   22 type  2   force =     0.00000001    0.00031720   -0.00037370
     atom   23 type  2   force =    -0.00027469   -0.00015861   -0.00037371
     atom   24 type  2   force =     0.00027472   -0.00015858   -0.00037372
     atom   25 type  3   force =    -0.00000001    0.00000001    0.00021738

     Total force =     0.002509     Total SCF correction =     0.000041


     Computing stress (Cartesian axis) and pressure


     negative rho (up, down):  1.557E-04 1.193E-04
          total   stress  (Ry/bohr**3)                   (kbar)     P=       -6.72
  -0.00007268   0.00000000   0.00000000          -10.69        0.00        0.00
   0.00000000  -0.00007268  -0.00000000            0.00      -10.69       -0.00
   0.00000000  -0.00000000   0.00000834            0.00       -0.00        1.23

     Energy error            =      3.0E-05 Ry
     Gradient error          =      1.2E-03 Ry/Bohr

     number of scf cycles    =   6
     number of bfgs steps    =   5

     energy             old  =   -7077.4579427616 Ry
     energy             new  =   -7077.4579731597 Ry

     CASE: energy            _new < energy            _old

     new trust radius        =       0.0028289329 bohr
     new conv_thr            =       0.0000000002 Ry


ATOMIC_POSITIONS (angstrom)
Ni               5.3171990772        3.0698863186       11.0000000000    0   0   0
Pd               2.6585995386        3.0698851333       11.0000764482    0   0   0
Pd               3.9878982814        0.7674721723       11.0000764482    0   0   0
Pd               1.3293007958        0.7674721723       11.0000764482    0   0   0
Ni               2.6585995386        1.5349431593       13.1707374333    0   0   0
Pd               3.9878982814        3.8373584909       13.1708138815    0   0   0
Pd               5.3171990772        1.5349419740       13.1708138815    0   0   0
Pd               6.6464998731        3.8373584909       13.1708138815    0   0   0
Ni               0.0000000045       -0.0000000413       15.3354838883
Pd               5.3171990276        4.6049003015       15.3349510016
Pd               3.9878379621        2.3023793890       15.3349511554
Pd               6.6465600941        2.3023794053       15.3349511886
Ni               5.3171989936        3.0698862367       17.5122567545
Pd               3.9878634872        0.7674921146       17.5008861675
Pd               2.6585994930        3.0698448561       17.5008864353
Pd               1.3293355314        0.7674921450       17.5008862600
Ni               2.6585994162        1.5349433463       19.6866987539
Pd               3.9948648442        3.8333364010       19.6691170341
Pd               5.3171989072        1.5429865374       19.6691169593
Pd               6.6395329756        3.8333363953       19.6691169557
Ni              -0.0000001350        0.0000002978       21.7458177409
Pd               5.3171989288        4.6028153895       21.9020197865
Pd               3.9896435581        2.3034221556       21.9020198912
Pd               6.6447542114        2.3034220989       21.9020198191
H                2.6585993813        1.5349432575       22.8685628530



     Writing config-only to output data dir /tmpu/isholek_g/isholek/MIGUEL/QE/Hydrogen/111_2x2/SAVE/Ni1Pd3_111-H_fcc_1.save/ :
     XML data file
     NEW-OLD atomic charge density approx. for the potential

     Check: negative core charge=   -0.000002

     negative rho (up, down):  1.456E-04 1.295E-04
     Generating pointlists ...

     total cpu time spent up to now is    57419.4 secs

     Self-consistent Calculation

     iteration #  1     ecut=    60.00 Ry     beta= 0.20
     Davidson diagonalization with overlap
     ethr =  1.00E-06,  avg # of iterations =  2.9

     Threshold (ethr) on eigenvalues was too large:
     Diagonalizing with lowered threshold

     Davidson diagonalization with overlap
     ethr =  5.56E-09,  avg # of iterations =  4.7

     negative rho (up, down):  1.511E-04 1.238E-04

     total cpu time spent up to now is    58159.5 secs

     total energy              =   -7077.45797913 Ry
     estimated scf accuracy    <       0.00001007 Ry

     total magnetization       =     9.92 Bohr mag/cell
     absolute magnetization    =    10.77 Bohr mag/cell

     iteration #  2     ecut=    60.00 Ry     beta= 0.20
     Davidson diagonalization with overlap
     ethr =  4.18E-09,  avg # of iterations =  1.1

     negative rho (up, down):  1.518E-04 1.229E-04

     total cpu time spent up to now is    58381.1 secs

     total energy              =   -7077.45797958 Ry
     estimated scf accuracy    <       0.00002819 Ry

     total magnetization       =     9.92 Bohr mag/cell
     absolute magnetization    =    10.77 Bohr mag/cell

     iteration #  3     ecut=    60.00 Ry     beta= 0.20
     Davidson diagonalization with overlap
     ethr =  4.18E-09,  avg # of iterations =  1.0

     negative rho (up, down):  1.524E-04 1.217E-04

     total cpu time spent up to now is    58589.2 secs

     total energy              =   -7077.45798034 Ry
     estimated scf accuracy    <       0.00000095 Ry

     total magnetization       =     9.92 Bohr mag/cell
     absolute magnetization    =    10.77 Bohr mag/cell

     iteration #  4     ecut=    60.00 Ry     beta= 0.20
     Davidson diagonalization with overlap
     ethr =  3.95E-10,  avg # of iterations =  2.0

     negative rho (up, down):  1.529E-04 1.207E-04

     total cpu time spent up to now is    58820.6 secs

     total energy              =   -7077.45798062 Ry
     estimated scf accuracy    <       0.00000092 Ry

     total magnetization       =     9.92 Bohr mag/cell
     absolute magnetization    =    10.77 Bohr mag/cell

     iteration #  5     ecut=    60.00 Ry     beta= 0.20
     Davidson diagonalization with overlap
     ethr =  3.82E-10,  avg # of iterations =  2.0

     negative rho (up, down):  1.533E-04 1.200E-04

     total cpu time spent up to now is    59068.0 secs

     total energy              =   -7077.45798074 Ry
     estimated scf accuracy    <       0.00000015 Ry

     total magnetization       =     9.92 Bohr mag/cell
     absolute magnetization    =    10.77 Bohr mag/cell

     iteration #  6     ecut=    60.00 Ry     beta= 0.20
     Davidson diagonalization with overlap
     ethr =  6.03E-11,  avg # of iterations =  2.8

     negative rho (up, down):  1.536E-04 1.196E-04

     total cpu time spent up to now is    59347.3 secs

     total energy              =   -7077.45798077 Ry
     estimated scf accuracy    <       0.00000016 Ry

     total magnetization       =     9.92 Bohr mag/cell
     absolute magnetization    =    10.77 Bohr mag/cell

     iteration #  7     ecut=    60.00 Ry     beta= 0.20
     Davidson diagonalization with overlap
     ethr =  6.03E-11,  avg # of iterations =  1.1

     negative rho (up, down):  1.538E-04 1.193E-04

     total cpu time spent up to now is    59576.2 secs

     total energy              =   -7077.45798077 Ry
     estimated scf accuracy    <       0.00000010 Ry

     total magnetization       =     9.92 Bohr mag/cell
     absolute magnetization    =    10.77 Bohr mag/cell

     iteration #  8     ecut=    60.00 Ry     beta= 0.20
     Davidson diagonalization with overlap
     ethr =  4.07E-11,  avg # of iterations =  1.0

     negative rho (up, down):  1.540E-04 1.192E-04

     total cpu time spent up to now is    59810.0 secs

     total energy              =   -7077.45798078 Ry
     estimated scf accuracy    <       0.00000005 Ry

     total magnetization       =     9.92 Bohr mag/cell
     absolute magnetization    =    10.77 Bohr mag/cell

     iteration #  9     ecut=    60.00 Ry     beta= 0.20
     Davidson diagonalization with overlap
     ethr =  2.24E-11,  avg # of iterations =  1.0

     negative rho (up, down):  1.541E-04 1.190E-04

     total cpu time spent up to now is    60045.3 secs

     total energy              =   -7077.45798078 Ry
     estimated scf accuracy    <       0.00000002 Ry

     total magnetization       =     9.92 Bohr mag/cell
     absolute magnetization    =    10.77 Bohr mag/cell

     iteration # 10     ecut=    60.00 Ry     beta= 0.20
     Davidson diagonalization with overlap
     ethr =  9.19E-12,  avg # of iterations =  1.3

     negative rho (up, down):  1.544E-04 1.190E-04

     total cpu time spent up to now is    60285.7 secs

     total energy              =   -7077.45798079 Ry
     estimated scf accuracy    <       0.00000001 Ry

     total magnetization       =     9.92 Bohr mag/cell
     absolute magnetization    =    10.77 Bohr mag/cell

     iteration # 11     ecut=    60.00 Ry     beta= 0.20
     Davidson diagonalization with overlap
     ethr =  4.76E-12,  avg # of iterations =  2.0

     negative rho (up, down):  1.545E-04 1.189E-04

     total cpu time spent up to now is    60523.7 secs

     total energy              =   -7077.45798079 Ry
     estimated scf accuracy    <          2.9E-09 Ry

     total magnetization       =     9.92 Bohr mag/cell
     absolute magnetization    =    10.77 Bohr mag/cell

     iteration # 12     ecut=    60.00 Ry     beta= 0.20
     Davidson diagonalization with overlap
     ethr =  1.22E-12,  avg # of iterations =  4.5

     negative rho (up, down):  1.547E-04 1.189E-04

     total cpu time spent up to now is    60789.7 secs

     total energy              =   -7077.45798079 Ry
     estimated scf accuracy    <          2.7E-09 Ry

     total magnetization       =     9.92 Bohr mag/cell
     absolute magnetization    =    10.77 Bohr mag/cell

     iteration # 13     ecut=    60.00 Ry     beta= 0.20
     Davidson diagonalization with overlap
     ethr =  1.14E-12,  avg # of iterations =  1.5

     negative rho (up, down):  1.550E-04 1.191E-04

     total cpu time spent up to now is    61011.7 secs

     total energy              =   -7077.45798079 Ry
     estimated scf accuracy    <          6.4E-09 Ry

     total magnetization       =     9.92 Bohr mag/cell
     absolute magnetization    =    10.77 Bohr mag/cell

     iteration # 14     ecut=    60.00 Ry     beta= 0.20
     Davidson diagonalization with overlap
     ethr =  1.14E-12,  avg # of iterations =  2.0

     negative rho (up, down):  1.552E-04 1.192E-04

     total cpu time spent up to now is    61253.8 secs

     total energy              =   -7077.45798079 Ry
     estimated scf accuracy    <          3.5E-09 Ry

     total magnetization       =     9.92 Bohr mag/cell
     absolute magnetization    =    10.77 Bohr mag/cell

     iteration # 15     ecut=    60.00 Ry     beta= 0.20
     Davidson diagonalization with overlap
     ethr =  1.14E-12,  avg # of iterations =  1.4

     negative rho (up, down):  1.553E-04 1.192E-04

     total cpu time spent up to now is    61479.1 secs

     total energy              =   -7077.45798079 Ry
     estimated scf accuracy    <          2.9E-09 Ry

     total magnetization       =     9.92 Bohr mag/cell
     absolute magnetization    =    10.77 Bohr mag/cell

     iteration # 16     ecut=    60.00 Ry     beta= 0.20
     Davidson diagonalization with overlap
     ethr =  1.14E-12,  avg # of iterations =  1.1

     negative rho (up, down):  1.556E-04 1.194E-04

     total cpu time spent up to now is    61700.2 secs

     total energy              =   -7077.45798079 Ry
     estimated scf accuracy    <          2.9E-09 Ry

     total magnetization       =     9.92 Bohr mag/cell
     absolute magnetization    =    10.77 Bohr mag/cell

     iteration # 17     ecut=    60.00 Ry     beta= 0.20
     Davidson diagonalization with overlap
     ethr =  1.14E-12,  avg # of iterations =  1.2

     negative rho (up, down):  1.558E-04 1.196E-04

     total cpu time spent up to now is    61927.4 secs

     total energy              =   -7077.45798079 Ry
     estimated scf accuracy    <          1.8E-09 Ry

     total magnetization       =     9.92 Bohr mag/cell
     absolute magnetization    =    10.77 Bohr mag/cell

     iteration # 18     ecut=    60.00 Ry     beta= 0.20
     Davidson diagonalization with overlap
     ethr =  7.66E-13,  avg # of iterations =  1.0

     negative rho (up, down):  1.558E-04 1.196E-04

     total cpu time spent up to now is    62160.1 secs

     total energy              =   -7077.45798079 Ry
     estimated scf accuracy    <          2.9E-10 Ry

     total magnetization       =     9.92 Bohr mag/cell
     absolute magnetization    =    10.77 Bohr mag/cell

     iteration # 19     ecut=    60.00 Ry     beta= 0.20
     Davidson diagonalization with overlap
     ethr =  1.21E-13,  avg # of iterations =  2.5

     negative rho (up, down):  1.557E-04 1.193E-04
 
     Magnetic moment per site  (integrated on atomic sphere of radius R)
     atom   1 (R=0.202)  charge=  8.7463  magn=  0.9671
     atom   2 (R=0.141)  charge=  5.6464  magn=  0.2034
     atom   3 (R=0.141)  charge=  5.6464  magn=  0.2034
     atom   4 (R=0.141)  charge=  5.6464  magn=  0.2034
     atom   5 (R=0.202)  charge=  8.8240  magn=  0.9273
     atom   6 (R=0.141)  charge=  5.6332  magn=  0.2515
     atom   7 (R=0.141)  charge=  5.6332  magn=  0.2515
     atom   8 (R=0.141)  charge=  5.6332  magn=  0.2515
     atom   9 (R=0.202)  charge=  8.8397  magn=  0.8592
     atom  10 (R=0.141)  charge=  5.6298  magn=  0.2457
     atom  11 (R=0.141)  charge=  5.6298  magn=  0.2457
     atom  12 (R=0.141)  charge=  5.6298  magn=  0.2457
     atom  13 (R=0.202)  charge=  8.8424  magn=  0.8387
     atom  14 (R=0.141)  charge=  5.6303  magn=  0.2405
     atom  15 (R=0.141)  charge=  5.6303  magn=  0.2405
     atom  16 (R=0.141)  charge=  5.6303  magn=  0.2405
     atom  17 (R=0.202)  charge=  8.8073  magn=  0.8856
     atom  18 (R=0.141)  charge=  5.6334  magn=  0.2452
     atom  19 (R=0.141)  charge=  5.6334  magn=  0.2452
     atom  20 (R=0.141)  charge=  5.6334  magn=  0.2452
     atom  21 (R=0.202)  charge=  8.7686  magn=  0.9158
     atom  22 (R=0.141)  charge=  5.6422  magn=  0.1382
     atom  23 (R=0.141)  charge=  5.6422  magn=  0.1382
     atom  24 (R=0.141)  charge=  5.6422  magn=  0.1382
     atom  25 (R=0.141)  charge=  1.0240  magn= -0.0030

     total cpu time spent up to now is    62401.1 secs

     End of self-consistent calculation

     Number of k-points >= 100: set verbosity='high' to print the bands.

     the Fermi energy is    -5.1850 ev

!    total energy              =   -7077.45798079 Ry
     total all-electron energy =   -199909.894551 Ry
     estimated scf accuracy    <          9.7E-11 Ry
     smearing contrib. (-TS)   =       0.00071461 Ry
     internal energy E=F+TS    =   -7077.45869540 Ry

     The total energy is F=E-TS. E is the sum of the following terms:
     one-electron contribution =  -61225.87813909 Ry
     hartree contribution      =   30800.16764194 Ry
     xc contribution           =    -835.55117012 Ry
     ewald contribution        =   29317.96483873 Ry
     DFT-D3 Dispersion         =      -2.53321275 Ry
     one-center paw contrib.   =   -5131.62865411 Ry

     total magnetization       =     9.92 Bohr mag/cell
     absolute magnetization    =    10.77 Bohr mag/cell

     convergence has been achieved in  19 iterations

     negative rho (up, down):  1.557E-04 1.193E-04

     Forces acting on atoms (cartesian axes, Ry/au):

     atom    1 type  1   force =     0.00000000   -0.00000000    0.01589653
     atom    2 type  2   force =     0.00000000   -0.01435515   -0.00920726
     atom    3 type  2   force =    -0.01243192    0.00717757   -0.00920727
     atom    4 type  2   force =     0.01243192    0.00717757   -0.00920726
     atom    5 type  1   force =    -0.00000000    0.00000001   -0.00117387
     atom    6 type  2   force =    -0.00062781    0.00036245    0.00465549
     atom    7 type  2   force =     0.00000000   -0.00072491    0.00465553
     atom    8 type  2   force =     0.00062780    0.00036245    0.00465551
     atom    9 type  1   force =    -0.00000001    0.00000001   -0.00052838
     atom   10 type  2   force =     0.00000001    0.00011008   -0.00022424
     atom   11 type  2   force =    -0.00009532   -0.00005504   -0.00022428
     atom   12 type  2   force =     0.00009533   -0.00005505   -0.00022427
     atom   13 type  1   force =     0.00000001    0.00000002   -0.00057342
     atom   14 type  2   force =    -0.00000745    0.00000431    0.00021800
     atom   15 type  2   force =    -0.00000000   -0.00000859    0.00021794
     atom   16 type  2   force =     0.00000744    0.00000430    0.00021799
     atom   17 type  1   force =    -0.00000001   -0.00000003    0.00082949
     atom   18 type  2   force =     0.00003024   -0.00001746    0.00019680
     atom   19 type  2   force =     0.00000000    0.00003493    0.00019677
     atom   20 type  2   force =    -0.00003023   -0.00001746    0.00019681
     atom   21 type  1   force =     0.00000000   -0.00000003   -0.00072079
     atom   22 type  2   force =     0.00000000   -0.00037230   -0.00036593
     atom   23 type  2   force =     0.00032243    0.00018615   -0.00036594
     atom   24 type  2   force =    -0.00032242    0.00018617   -0.00036594
     atom   25 type  3   force =    -0.00000000    0.00000001    0.00045200

     Total force =     0.001813     Total SCF correction =     0.000052


     Computing stress (Cartesian axis) and pressure


     negative rho (up, down):  1.557E-04 1.193E-04
          total   stress  (Ry/bohr**3)                   (kbar)     P=       -6.70
  -0.00007258   0.00000000   0.00000000          -10.68        0.00        0.00
   0.00000000  -0.00007258  -0.00000000            0.00      -10.68       -0.00
   0.00000000  -0.00000000   0.00000844            0.00       -0.00        1.24

     Energy error            =      7.6E-06 Ry
     Gradient error          =      8.3E-04 Ry/Bohr

     number of scf cycles    =   7
     number of bfgs steps    =   6

     energy             old  =   -7077.4579731597 Ry
     energy             new  =   -7077.4579807942 Ry

     CASE: energy            _new < energy            _old

     new trust radius        =       0.0025627680 bohr
     new conv_thr            =            1.0E-10 Ry


ATOMIC_POSITIONS (angstrom)
Ni               5.3171990772        3.0698863186       11.0000000000    0   0   0
Pd               2.6585995386        3.0698851333       11.0000764482    0   0   0
Pd               3.9878982814        0.7674721723       11.0000764482    0   0   0
Pd               1.3293007958        0.7674721723       11.0000764482    0   0   0
Ni               2.6585995386        1.5349431593       13.1707374333    0   0   0
Pd               3.9878982814        3.8373584909       13.1708138815    0   0   0
Pd               5.3171990772        1.5349419740       13.1708138815    0   0   0
Pd               6.6464998731        3.8373584909       13.1708138815    0   0   0
Ni              -0.0000000118       -0.0000000286       15.3347081990
Pd               5.3171990394        4.6050066645       15.3345117541
Pd               3.9877458625        2.3023261981       15.3345118450
Pd               6.6466522053        2.3023262069       15.3345118854
Ni               5.3171990020        3.0698862581       17.5114476981
Pd               3.9878584935        0.7674950050       17.5010265385
Pd               2.6585994877        3.0698391214       17.5010267221
Pd               1.3293405006        0.7674950266       17.5010266104
Ni               2.6585994052        1.5349433056       19.6879483827
Pd               3.9949630923        3.8332796765       19.6695250708
Pd               5.3171989167        1.5430999984       19.6695249707
Pd               6.6394347416        3.8332796656       19.6695250109
Ni              -0.0000001363        0.0000002623       21.7444615825
Pd               5.3171989323        4.6029804909       21.9017877170
Pd               3.9895005871        2.3033396037       21.9017878092
Pd               6.6448971964        2.3033395672       21.9017877407
H                2.6585993763        1.5349432702       22.8688030169



     Writing config-only to output data dir /tmpu/isholek_g/isholek/MIGUEL/QE/Hydrogen/111_2x2/SAVE/Ni1Pd3_111-H_fcc_1.save/ :
     XML data file
     NEW-OLD atomic charge density approx. for the potential

     Check: negative core charge=   -0.000002

     negative rho (up, down):  1.456E-04 1.295E-04
     Generating pointlists ...

     total cpu time spent up to now is    62834.0 secs

     Self-consistent Calculation

     iteration #  1     ecut=    60.00 Ry     beta= 0.20
     Davidson diagonalization with overlap
     ethr =  1.00E-06,  avg # of iterations =  2.8

     Threshold (ethr) on eigenvalues was too large:
     Diagonalizing with lowered threshold

     Davidson diagonalization with overlap
     ethr =  6.99E-09,  avg # of iterations =  3.6

     negative rho (up, down):  1.512E-04 1.239E-04

     total cpu time spent up to now is    63532.2 secs

     total energy              =   -7077.45798394 Ry
     estimated scf accuracy    <       0.00001408 Ry

     total magnetization       =     9.92 Bohr mag/cell
     absolute magnetization    =    10.77 Bohr mag/cell

     iteration #  2     ecut=    60.00 Ry     beta= 0.20
     Davidson diagonalization with overlap
     ethr =  5.84E-09,  avg # of iterations =  1.3

     negative rho (up, down):  1.520E-04 1.231E-04

     total cpu time spent up to now is    63729.4 secs

     total energy              =   -7077.45798440 Ry
     estimated scf accuracy    <       0.00002820 Ry

     total magnetization       =     9.92 Bohr mag/cell
     absolute magnetization    =    10.77 Bohr mag/cell

     iteration #  3     ecut=    60.00 Ry     beta= 0.20
     Davidson diagonalization with overlap
     ethr =  5.84E-09,  avg # of iterations =  1.0

     negative rho (up, down):  1.528E-04 1.221E-04

     total cpu time spent up to now is    63928.0 secs

     total energy              =   -7077.45798523 Ry
     estimated scf accuracy    <       0.00000218 Ry

     total magnetization       =     9.92 Bohr mag/cell
     absolute magnetization    =    10.77 Bohr mag/cell

     iteration #  4     ecut=    60.00 Ry     beta= 0.20
     Davidson diagonalization with overlap
     ethr =  9.04E-10,  avg # of iterations =  1.3

     negative rho (up, down):  1.533E-04 1.213E-04

     total cpu time spent up to now is    64119.9 secs

     total energy              =   -7077.45798541 Ry
     estimated scf accuracy    <       0.00000095 Ry

     total magnetization       =     9.92 Bohr mag/cell
     absolute magnetization    =    10.77 Bohr mag/cell

     iteration #  5     ecut=    60.00 Ry     beta= 0.20
     Davidson diagonalization with overlap
     ethr =  3.93E-10,  avg # of iterations =  1.0

     negative rho (up, down):  1.538E-04 1.205E-04

     total cpu time spent up to now is    64312.1 secs

     total energy              =   -7077.45798553 Ry
     estimated scf accuracy    <       0.00000032 Ry

     total magnetization       =     9.92 Bohr mag/cell
     absolute magnetization    =    10.77 Bohr mag/cell

     iteration #  6     ecut=    60.00 Ry     beta= 0.20
     Davidson diagonalization with overlap
     ethr =  1.34E-10,  avg # of iterations =  2.1

     negative rho (up, down):  1.541E-04 1.201E-04

     total cpu time spent up to now is    64564.1 secs

     total energy              =   -7077.45798557 Ry
     estimated scf accuracy    <       0.00000029 Ry

     total magnetization       =     9.92 Bohr mag/cell
     absolute magnetization    =    10.77 Bohr mag/cell

     iteration #  7     ecut=    60.00 Ry     beta= 0.20
     Davidson diagonalization with overlap
     ethr =  1.19E-10,  avg # of iterations =  1.0

     negative rho (up, down):  1.543E-04 1.198E-04

     total cpu time spent up to now is    64793.6 secs

     total energy              =   -7077.45798558 Ry
     estimated scf accuracy    <       0.00000009 Ry

     total magnetization       =     9.92 Bohr mag/cell
     absolute magnetization    =    10.77 Bohr mag/cell

     iteration #  8     ecut=    60.00 Ry     beta= 0.20
     Davidson diagonalization with overlap
     ethr =  3.75E-11,  avg # of iterations =  1.4

     negative rho (up, down):  1.544E-04 1.195E-04

     total cpu time spent up to now is    65033.4 secs

     total energy              =   -7077.45798558 Ry
     estimated scf accuracy    <       0.00000001 Ry

     total magnetization       =     9.92 Bohr mag/cell
     absolute magnetization    =    10.77 Bohr mag/cell

     iteration #  9     ecut=    60.00 Ry     beta= 0.20
     Davidson diagonalization with overlap
     ethr =  5.36E-12,  avg # of iterations =  4.8

     negative rho (up, down):  1.545E-04 1.194E-04

     total cpu time spent up to now is    65350.4 secs

     total energy              =   -7077.45798559 Ry
     estimated scf accuracy    <       0.00000001 Ry

     total magnetization       =     9.92 Bohr mag/cell
     absolute magnetization    =    10.77 Bohr mag/cell

     iteration # 10     ecut=    60.00 Ry     beta= 0.20
     Davidson diagonalization with overlap
     ethr =  4.45E-12,  avg # of iterations =  1.3

     negative rho (up, down):  1.546E-04 1.192E-04

     total cpu time spent up to now is    65591.6 secs

     total energy              =   -7077.45798559 Ry
     estimated scf accuracy    <          4.2E-09 Ry

     total magnetization       =     9.92 Bohr mag/cell
     absolute magnetization    =    10.77 Bohr mag/cell

     iteration # 11     ecut=    60.00 Ry     beta= 0.20
     Davidson diagonalization with overlap
     ethr =  1.75E-12,  avg # of iterations =  1.3

     negative rho (up, down):  1.547E-04 1.191E-04

     total cpu time spent up to now is    65829.8 secs

     total energy              =   -7077.45798559 Ry
     estimated scf accuracy    <          3.6E-09 Ry

     total magnetization       =     9.92 Bohr mag/cell
     absolute magnetization    =    10.77 Bohr mag/cell

     iteration # 12     ecut=    60.00 Ry     beta= 0.20
     Davidson diagonalization with overlap
     ethr =  1.51E-12,  avg # of iterations =  1.7

     negative rho (up, down):  1.548E-04 1.191E-04

     total cpu time spent up to now is    66072.4 secs

     total energy              =   -7077.45798559 Ry
     estimated scf accuracy    <          3.6E-09 Ry

     total magnetization       =     9.92 Bohr mag/cell
     absolute magnetization    =    10.77 Bohr mag/cell

     iteration # 13     ecut=    60.00 Ry     beta= 0.20
     Davidson diagonalization with overlap
     ethr =  1.48E-12,  avg # of iterations =  1.0

     negative rho (up, down):  1.550E-04 1.191E-04

     total cpu time spent up to now is    66305.5 secs

     total energy              =   -7077.45798559 Ry
     estimated scf accuracy    <          3.5E-09 Ry

     total magnetization       =     9.92 Bohr mag/cell
     absolute magnetization    =    10.77 Bohr mag/cell

     iteration # 14     ecut=    60.00 Ry     beta= 0.20
     Davidson diagonalization with overlap
     ethr =  1.44E-12,  avg # of iterations =  1.1

     negative rho (up, down):  1.552E-04 1.192E-04

     total cpu time spent up to now is    66536.8 secs

     total energy              =   -7077.45798560 Ry
     estimated scf accuracy    <          8.6E-10 Ry

     total magnetization       =     9.92 Bohr mag/cell
     absolute magnetization    =    10.77 Bohr mag/cell

     iteration # 15     ecut=    60.00 Ry     beta= 0.20
     Davidson diagonalization with overlap
     ethr =  3.59E-13,  avg # of iterations =  2.2

     negative rho (up, down):  1.554E-04 1.193E-04

     total cpu time spent up to now is    66793.8 secs

     total energy              =   -7077.45798560 Ry
     estimated scf accuracy    <          1.2E-09 Ry

     total magnetization       =     9.92 Bohr mag/cell
     absolute magnetization    =    10.77 Bohr mag/cell

     iteration # 16     ecut=    60.00 Ry     beta= 0.20
     Davidson diagonalization with overlap
     ethr =  3.59E-13,  avg # of iterations =  2.0

     negative rho (up, down):  1.555E-04 1.193E-04

     total cpu time spent up to now is    67028.2 secs

     total energy              =   -7077.45798560 Ry
     estimated scf accuracy    <          2.5E-10 Ry

     total magnetization       =     9.92 Bohr mag/cell
     absolute magnetization    =    10.77 Bohr mag/cell

     iteration # 17     ecut=    60.00 Ry     beta= 0.20
     Davidson diagonalization with overlap
     ethr =  1.03E-13,  avg # of iterations =  3.6

     negative rho (up, down):  1.556E-04 1.194E-04

     total cpu time spent up to now is    67252.9 secs

     total energy              =   -7077.45798560 Ry
     estimated scf accuracy    <          2.8E-10 Ry

     total magnetization       =     9.92 Bohr mag/cell
     absolute magnetization    =    10.77 Bohr mag/cell

     iteration # 18     ecut=    60.00 Ry     beta= 0.20
     Davidson diagonalization with overlap
     ethr =  1.03E-13,  avg # of iterations =  1.6

     negative rho (up, down):  1.557E-04 1.195E-04

     total cpu time spent up to now is    67485.9 secs

     total energy              =   -7077.45798560 Ry
     estimated scf accuracy    <          3.3E-10 Ry

     total magnetization       =     9.92 Bohr mag/cell
     absolute magnetization    =    10.77 Bohr mag/cell

     iteration # 19     ecut=    60.00 Ry     beta= 0.20
     Davidson diagonalization with overlap
     ethr =  1.03E-13,  avg # of iterations =  1.4

     negative rho (up, down):  1.558E-04 1.193E-04
 
     Magnetic moment per site  (integrated on atomic sphere of radius R)
     atom   1 (R=0.202)  charge=  8.7463  magn=  0.9671
     atom   2 (R=0.141)  charge=  5.6464  magn=  0.2035
     atom   3 (R=0.141)  charge=  5.6464  magn=  0.2035
     atom   4 (R=0.141)  charge=  5.6464  magn=  0.2035
     atom   5 (R=0.202)  charge=  8.8242  magn=  0.9272
     atom   6 (R=0.141)  charge=  5.6332  magn=  0.2517
     atom   7 (R=0.141)  charge=  5.6332  magn=  0.2517
     atom   8 (R=0.141)  charge=  5.6332  magn=  0.2517
     atom   9 (R=0.202)  charge=  8.8397  magn=  0.8593
     atom  10 (R=0.141)  charge=  5.6298  magn=  0.2458
     atom  11 (R=0.141)  charge=  5.6298  magn=  0.2458
     atom  12 (R=0.141)  charge=  5.6298  magn=  0.2458
     atom  13 (R=0.202)  charge=  8.8422  magn=  0.8387
     atom  14 (R=0.141)  charge=  5.6303  magn=  0.2404
     atom  15 (R=0.141)  charge=  5.6303  magn=  0.2404
     atom  16 (R=0.141)  charge=  5.6303  magn=  0.2404
     atom  17 (R=0.202)  charge=  8.8074  magn=  0.8857
     atom  18 (R=0.141)  charge=  5.6334  magn=  0.2453
     atom  19 (R=0.141)  charge=  5.6334  magn=  0.2453
     atom  20 (R=0.141)  charge=  5.6334  magn=  0.2453
     atom  21 (R=0.202)  charge=  8.7692  magn=  0.9158
     atom  22 (R=0.141)  charge=  5.6422  magn=  0.1383
     atom  23 (R=0.141)  charge=  5.6422  magn=  0.1383
     atom  24 (R=0.141)  charge=  5.6422  magn=  0.1383
     atom  25 (R=0.141)  charge=  1.0239  magn= -0.0030

     total cpu time spent up to now is    67720.9 secs

     End of self-consistent calculation

     Number of k-points >= 100: set verbosity='high' to print the bands.

     the Fermi energy is    -5.1850 ev

!    total energy              =   -7077.45798560 Ry
     total all-electron energy =   -199909.894556 Ry
     estimated scf accuracy    <          4.6E-11 Ry
     smearing contrib. (-TS)   =       0.00071282 Ry
     internal energy E=F+TS    =   -7077.45869842 Ry

     The total energy is F=E-TS. E is the sum of the following terms:
     one-electron contribution =  -61226.06040312 Ry
     hartree contribution      =   30800.25817586 Ry
     xc contribution           =    -835.55173659 Ry
     ewald contribution        =   29318.05729457 Ry
     DFT-D3 Dispersion         =      -2.53325534 Ry
     one-center paw contrib.   =   -5131.62877379 Ry

     total magnetization       =     9.92 Bohr mag/cell
     absolute magnetization    =    10.77 Bohr mag/cell

     convergence has been achieved in  19 iterations

     negative rho (up, down):  1.558E-04 1.193E-04

     Forces acting on atoms (cartesian axes, Ry/au):

     atom    1 type  1   force =    -0.00000000    0.00000000    0.01589926
     atom    2 type  2   force =     0.00000000   -0.01435577   -0.00920728
     atom    3 type  2   force =    -0.01243245    0.00717788   -0.00920729
     atom    4 type  2   force =     0.01243245    0.00717788   -0.00920728
     atom    5 type  1   force =    -0.00000001    0.00000001   -0.00125252
     atom    6 type  2   force =    -0.00062961    0.00036350    0.00451362
     atom    7 type  2   force =     0.00000000   -0.00072700    0.00451363
     atom    8 type  2   force =     0.00062961    0.00036350    0.00451362
     atom    9 type  1   force =    -0.00000001    0.00000001   -0.00026002
     atom   10 type  2   force =    -0.00000000    0.00007509    0.00001186
     atom   11 type  2   force =    -0.00006504   -0.00003755    0.00001184
     atom   12 type  2   force =     0.00006505   -0.00003756    0.00001183
     atom   13 type  1   force =    -0.00000000    0.00000001   -0.00035412
     atom   14 type  2   force =    -0.00002649    0.00001531    0.00016670
     atom   15 type  2   force =     0.00000000   -0.00003057    0.00016667
     atom   16 type  2   force =     0.00002648    0.00001530    0.00016669
     atom   17 type  1   force =     0.00000000   -0.00000001    0.00044709
     atom   18 type  2   force =    -0.00001343    0.00000774   -0.00018651
     atom   19 type  2   force =     0.00000000   -0.00001551   -0.00018650
     atom   20 type  2   force =     0.00001345    0.00000775   -0.00018649
     atom   21 type  1   force =    -0.00000002   -0.00000002   -0.00033518
     atom   22 type  2   force =     0.00000000   -0.00050693   -0.00015714
     atom   23 type  2   force =     0.00043903    0.00025345   -0.00015715
     atom   24 type  2   force =    -0.00043901    0.00025346   -0.00015714
     atom   25 type  3   force =    -0.00000000    0.00000001    0.00043184

     Total force =     0.001321     Total SCF correction =     0.000041


     Computing stress (Cartesian axis) and pressure


     negative rho (up, down):  1.558E-04 1.193E-04
          total   stress  (Ry/bohr**3)                   (kbar)     P=       -6.66
  -0.00007236   0.00000000   0.00000000          -10.64        0.00        0.00
   0.00000000  -0.00007236  -0.00000000            0.00      -10.64       -0.00
   0.00000000  -0.00000000   0.00000885            0.00       -0.00        1.30

     Energy error            =      4.8E-06 Ry
     Gradient error          =      5.1E-04 Ry/Bohr

     bfgs converged in   8 scf cycles and   7 bfgs steps
     (criteria: energy <  1.8E-05 Ry, force <  7.8E-04 Ry/Bohr)

     End of BFGS Geometry Optimization

     Final energy             =   -7077.4579855964 Ry

     File /tmpu/isholek_g/isholek/MIGUEL/QE/Hydrogen/111_2x2/SAVE/Ni1Pd3_111-H_fcc_1.bfgs deleted, as requested
Begin final coordinates

ATOMIC_POSITIONS (angstrom)
Ni               5.3171990772        3.0698863186       11.0000000000    0   0   0
Pd               2.6585995386        3.0698851333       11.0000764482    0   0   0
Pd               3.9878982814        0.7674721723       11.0000764482    0   0   0
Pd               1.3293007958        0.7674721723       11.0000764482    0   0   0
Ni               2.6585995386        1.5349431593       13.1707374333    0   0   0
Pd               3.9878982814        3.8373584909       13.1708138815    0   0   0
Pd               5.3171990772        1.5349419740       13.1708138815    0   0   0
Pd               6.6464998731        3.8373584909       13.1708138815    0   0   0
Ni              -0.0000000118       -0.0000000286       15.3347081990
Pd               5.3171990394        4.6050066645       15.3345117541
Pd               3.9877458625        2.3023261981       15.3345118450
Pd               6.6466522053        2.3023262069       15.3345118854
Ni               5.3171990020        3.0698862581       17.5114476981
Pd               3.9878584935        0.7674950050       17.5010265385
Pd               2.6585994877        3.0698391214       17.5010267221
Pd               1.3293405006        0.7674950266       17.5010266104
Ni               2.6585994052        1.5349433056       19.6879483827
Pd               3.9949630923        3.8332796765       19.6695250708
Pd               5.3171989167        1.5430999984       19.6695249707
Pd               6.6394347416        3.8332796656       19.6695250109
Ni              -0.0000001363        0.0000002623       21.7444615825
Pd               5.3171989323        4.6029804909       21.9017877170
Pd               3.9895005871        2.3033396037       21.9017878092
Pd               6.6448971964        2.3033395672       21.9017877407
H                2.6585993763        1.5349432702       22.8688030169
End final coordinates



     Writing all to output data dir /tmpu/isholek_g/isholek/MIGUEL/QE/Hydrogen/111_2x2/SAVE/Ni1Pd3_111-H_fcc_1.save/ :
     XML data file, charge density, pseudopotentials, collected wavefunctions
 
     init_run     :    103.17s CPU    105.40s WALL (       1 calls)
     electrons    :  63609.98s CPU  64599.84s WALL (       8 calls)
     update_pot   :     11.34s CPU     11.69s WALL (       7 calls)
     forces       :    170.82s CPU    173.42s WALL (       8 calls)
     force_dftd3  :      7.51s CPU      7.78s WALL (       8 calls)
     stress       :   3181.57s CPU   3206.40s WALL (       8 calls)
     stres_dftd3  :      8.91s CPU      9.01s WALL (       8 calls)

     Called by init_run:
     wfcinit      :     36.86s CPU     38.49s WALL (       1 calls)
     potinit      :      1.89s CPU      2.08s WALL (       1 calls)
     hinit0       :      0.45s CPU      0.52s WALL (       1 calls)

     Called by electrons:
     c_bands      :  51573.69s CPU  52388.42s WALL (     272 calls)
     sum_band     :  11370.54s CPU  11518.51s WALL (     272 calls)
     v_of_rho     :    131.67s CPU    140.97s WALL (     276 calls)
     newd         :     97.26s CPU    103.57s WALL (     276 calls)
     PAW_pot      :    231.32s CPU    232.11s WALL (     283 calls)
     mix_rho      :    178.35s CPU    186.63s WALL (     272 calls)
     energy_dftd3 :      1.62s CPU      1.64s WALL (       8 calls)

     Called by c_bands:
     init_us_2    :    222.69s CPU    224.80s WALL (   14200 calls)
     init_us_2:cp :    222.50s CPU    224.67s WALL (   14200 calls)
     cegterg      :  15381.92s CPU  15959.16s WALL (    6800 calls)

     Called by *egterg:
     cdiaghg      :    347.11s CPU    350.12s WALL (   18263 calls)
     h_psi        :  11129.25s CPU  11625.30s WALL (   18563 calls)
     s_psi        :   1202.73s CPU   1209.35s WALL (   18563 calls)
     g_psi        :     45.41s CPU     45.86s WALL (   11738 calls)

     Called by h_psi:
     h_psi:calbec :   1178.34s CPU   1185.73s WALL (   18563 calls)
     vloc_psi     :   8676.90s CPU   9104.19s WALL (   18563 calls)
     add_vuspsi   :   1205.28s CPU   1211.95s WALL (   18563 calls)

     General routines
     calbec       :   2204.04s CPU   2217.79s WALL (   26538 calls)
     fft          :     87.05s CPU     96.01s WALL (    7219 calls)
     ffts         :     50.31s CPU     56.22s WALL (   33076 calls)
     fftw         :   6703.52s CPU   7068.46s WALL ( 5153676 calls)
     interpolate  :      7.61s CPU      8.40s WALL (     552 calls)
 
     Parallel routines
 
     PWSCF        :     18h39m CPU     18h56m WALL

 
   This run was terminated on:   0:54:59  24Mar2026            

=------------------------------------------------------------------------------=
   JOB DONE.
=------------------------------------------------------------------------------=
