
     Program PWSCF v.7.3 starts on 29Apr2026 at 14:23:52 

     This program is part of the open-source Quantum ESPRESSO suite
     for quantum simulation of materials; please cite
         "P. Giannozzi et al., J. Phys.:Condens. Matter 21 395502 (2009);
         "P. Giannozzi et al., J. Phys.:Condens. Matter 29 465901 (2017);
         "P. Giannozzi et al., J. Chem. Phys. 152 154105 (2020);
          URL http://www.quantum-espresso.org", 
     in publications or presentations arising from this work. More details at
     http://www.quantum-espresso.org/quote

     Parallel version (MPI), running on    64 processors

     MPI processes distributed on     4 nodes
     58527 MiB available memory on the printing compute node when the environment starts
 
     Reading input from /tmpu/isholek_g/isholek/MIGUEL/QE/Hydrogen/111_2x2/RELAX/Ni1Pd3_111-T1-relax.in

     Current dimensions of program PWSCF are:
     Max number of different atomic species (ntypx) = 10
     Max number of k-points (npk) =  40000
     Max angular momentum in pseudopotentials (lmaxx) =  4
     file Ni.upf: wavefunction(s)  4S 3D renormalized
     file Pd.upf: wavefunction(s)  5S 4D renormalized
     file H.upf: wavefunction(s)  1S renormalized

     IMPORTANT: XC functional enforced from input :
     Exchange-correlation= PBE
                           (   1   4   3   4   0   0   0)
     Any further DFT definition will be discarded
     Please, verify this is what you really want

 
     K-points division:     npool     =       8
     R & G space division:  proc/nbgrp/npool/nimage =       8
     Subspace diagonalization in iterative solution of the eigenvalue problem:
     one sub-group per band group will be used
     scalapack distributed-memory algorithm (size of sub-group:  2*  2 procs)

 
     Parallelization info
     --------------------
     sticks:   dense  smooth     PW     G-vecs:    dense   smooth      PW
     Min         416     207     59               120460    42599    6547
     Max         417     208     60               120479    42626    6574
     Sum        3331    1663    475               963739   340921   52455
 
     Using Slab Decomposition
 

     Title: 
     Ni1Pd3_111-T1-relax                                                        


     bravais-lattice index     =            0
     lattice parameter (alat)  =      10.0481  a.u.
     unit-cell volume          =    5428.4795 (a.u.)^3
     number of atoms/cell      =           25
     number of atomic types    =            3
     number of electrons       =       241.00
     number of Kohn-Sham states=          145
     kinetic-energy cutoff     =      60.0000  Ry
     charge density cutoff     =     480.0000  Ry
     scf convergence threshold =      1.0E-08
     mixing beta               =       0.2000
     number of iterations used =           12  local-TF  mixing
     energy convergence thresh.=      1.8E-05
     force convergence thresh. =      7.8E-04
     Exchange-correlation= PBE
                           (   1   4   3   4   0   0   0)
     nstep                     =           50


     celldm(1)=  10.048050  celldm(2)=   0.000000  celldm(3)=   0.000000
     celldm(4)=   0.000000  celldm(5)=   0.000000  celldm(6)=   0.000000

     crystal axes: (cart. coord. in units of alat)
               a(1) = (   1.000000   0.000000   0.000000 )  
               a(2) = (   0.500000   0.866025   0.000000 )  
               a(3) = (   0.000000   0.000000   6.178773 )  

     reciprocal axes: (cart. coord. in units 2 pi/alat)
               b(1) = (  1.000000 -0.577350  0.000000 )  
               b(2) = (  0.000000  1.154701  0.000000 )  
               b(3) = (  0.000000  0.000000  0.161844 )  


     PseudoPot. # 1 for Ni read from file:
     /tmpu/isholek_g/isholek/MIGUEL/PP/PAW/Ni.upf
     MD5 check sum: d88365a95a5e142bd87181c2c8b16588
     Pseudo is Projector augmented-wave + core cor, Zval = 10.0
     Generated using "atomic" code by A. Dal Corso  v.5.0.2 svn rev. 9415
     Shape of augmentation charge: PSQ
     Using radial grid of 1195 points,  6 beta functions with: 
                l(1) =   0
                l(2) =   0
                l(3) =   1
                l(4) =   1
                l(5) =   2
                l(6) =   2
     Q(r) pseudized with 0 coefficients 


     PseudoPot. # 2 for Pd read from file:
     /tmpu/isholek_g/isholek/MIGUEL/PP/PAW/Pd.upf
     MD5 check sum: e9d6f14fd83b79f8105499163af174c9
     Pseudo is Projector augmented-wave + core cor, Zval = 10.0
     Generated using "atomic" code by A. Dal Corso  v.5.0.2 svn rev. 9415
     Shape of augmentation charge: PSQ
     Using radial grid of 1235 points,  6 beta functions with: 
                l(1) =   0
                l(2) =   0
                l(3) =   1
                l(4) =   1
                l(5) =   2
                l(6) =   2
     Q(r) pseudized with 0 coefficients 


     PseudoPot. # 3 for H  read from file:
     /tmpu/isholek_g/isholek/MIGUEL/PP/PAW/H.upf
     MD5 check sum: 4cbe42a24e15140179a93d5bf84f2220
     Pseudo is Projector augmented-wave, Zval =  1.0
     Generated using "atomic" code by A. Dal Corso  v.5.0.2 svn rev. 9415
     Shape of augmentation charge: PSQ
     Using radial grid of  929 points,  2 beta functions with: 
                l(1) =   0
                l(2) =   0
     Q(r) pseudized with 0 coefficients 


     atomic species   valence    mass     pseudopotential
     Ni               10.00    58.69340     Ni( 1.00)
     Pd               10.00   106.42000     Pd( 1.00)
     H                 1.00     1.00794     H ( 1.00)

     Starting magnetic structure 
     atomic species   magnetization
     Ni              0.650
     Pd              0.100
     H               0.000

     No symmetry found



   Cartesian axes

     site n.     atom                  positions (alat units)
         1        Ni     tau(   1) = (   1.0000000   0.5773503   2.0687584  )
         2        Pd     tau(   2) = (   0.5000000   0.5773500   2.0687727  )
         3        Pd     tau(   3) = (   0.7499998   0.1443377   2.0687727  )
         4        Pd     tau(   4) = (   0.2500002   0.1443377   2.0687727  )
         5        Ni     tau(   5) = (   0.5000000   0.2886751   2.4770066  )
         6        Pd     tau(   6) = (   0.7499998   0.7216879   2.4770210  )
         7        Pd     tau(   7) = (   1.0000000   0.2886749   2.4770210  )
         8        Pd     tau(   8) = (   1.2500002   0.7216879   2.4770210  )
         9        Ni     tau(   9) = (   0.0000000  -0.0000000   2.8841673  )
        10        Pd     tau(  10) = (   1.0000000   0.8661098   2.8846297  )
        11        Pd     tau(  11) = (   0.7499269   0.4329705   2.8846297  )
        12        Pd     tau(  12) = (   1.2500730   0.4329705   2.8846297  )
        13        Ni     tau(  13) = (   1.0000000   0.5773503   3.2932083  )
        14        Pd     tau(  14) = (   0.7498729   0.1444109   3.2930618  )
        15        Pd     tau(  15) = (   0.5000000   0.5772035   3.2930618  )
        16        Pd     tau(  16) = (   0.2501271   0.1444109   3.2930618  )
        17        Ni     tau(  17) = (   0.5000000   0.2886751   3.7031032  )
        18        Pd     tau(  18) = (   0.7510407   0.7210870   3.7001030  )
        19        Pd     tau(  19) = (   1.0000000   0.2898768   3.7001029  )
        20        Pd     tau(  20) = (   1.2489593   0.7210870   3.7001030  )
        21        Ni     tau(  21) = (  -0.0000000   0.0000001   4.0940899  )
        22        Pd     tau(  22) = (   1.0000000   0.8682452   4.1148844  )
        23        Pd     tau(  23) = (   0.7480776   0.4319029   4.1148844  )
        24        Pd     tau(  24) = (   1.2519223   0.4319029   4.1148844  )
        25        H      tau(  25) = (   0.7480776   0.4319029   4.4910223  )

     --------------------------------------------
     DFT-D3 Dispersion Correction (3-body terms):
     --------------------------------------------
       Reference C6 values for interpolation: 

         atom   Coordination number   C6
         H          0.912             6.05
         H          0.000            15.18
         Ni         0.000          1149.49
         Ni         1.794           356.66
         Ni         6.546           257.56
         Ni         6.292           283.75
         Pd         0.000          1217.01
         Pd         1.863           573.90
         Pd         5.710           531.75

       Values used:

         atom   Coordination number  R0_AB[au]  C6      C8
         Ni         5.893            3.162    276.72  23187.44
         Pd         6.810            3.168    531.75  48720.73
         Pd         6.810            3.168    531.75  48720.73
         Pd         6.810            3.168    531.75  48720.73
         Ni         7.888            3.162    258.74  21680.87
         Pd         9.139            3.168    531.75  48720.73
         Pd         9.139            3.168    531.75  48720.73
         Pd         9.139            3.168    531.75  48720.73
         Ni         7.889            3.162    258.74  21680.67
         Pd         9.144            3.168    531.75  48720.73
         Pd         9.144            3.168    531.75  48720.73
         Pd         9.144            3.168    531.75  48720.73
         Ni         7.915            3.162    258.68  21675.80
         Pd         9.128            3.168    531.75  48720.73
         Pd         9.128            3.168    531.75  48720.73
         Pd         9.128            3.168    531.75  48720.73
         Ni         7.809            3.162    258.94  21697.12
         Pd         9.154            3.168    531.75  48720.73
         Pd         9.154            3.168    531.75  48720.73
         Pd         9.154            3.168    531.75  48720.73
         Ni         6.118            3.162    274.15  22971.66
         Pd         6.718            3.168    531.75  48720.73
         Pd         6.972            3.168    531.75  48720.73
         Pd         6.718            3.168    531.75  48720.73
         H          0.263            2.062     13.03    157.53

         Molecular C6 ( Ry / a.u.^6 ) =    266368.05


     number of k points=   100  Marzari-Vanderbilt smearing, width (Ry)=  0.0147

     Number of k-points >= 100: set verbosity='high' to print them.

     Dense  grid:   963739 G-vectors     FFT dimensions: (  72,  72, 450)

     Smooth grid:   340921 G-vectors     FFT dimensions: (  50,  50, 320)

     Estimated max dynamical RAM per process >     574.07 MB

     Estimated total dynamical RAM >      31.05 GB
 ----2D----2D----2D----2D----2D----2D----2D----2D----2D----2D----2D----2D
  The code is running with the 2D cutoff
  Please refer to:
  Sohier, T., Calandra, M., & Mauri, F. (2017), 
  Density functional perturbation theory for gated two-dimensional heterostructu
 res:
  Theoretical developments and application to flexural phonons in graphene.
  Physical Review B, 96(7), 75448. https://doi.org/10.1103/PhysRevB.96.075448
 ----2D----2D----2D----2D----2D----2D----2D----2D----2D----2D----2D----2D

     Check: negative core charge=   -0.000002
     Generating pointlists ...
     new r_m :   0.2018 (alat units)  2.0274 (a.u.) for type    1
     new r_m :   0.1552 (alat units)  1.5590 (a.u.) for type    2
     new r_m :   0.1552 (alat units)  1.5590 (a.u.) for type    3

     Initial potential from superposition of free atoms

     starting charge     240.9891, renormalised to     241.0000

     negative rho (up, down):  1.878E-04 4.812E-05
     Starting wfcs are  217 randomized atomic wfcs
     Checking if some PAW data can be deallocated... 

     total cpu time spent up to now is       96.4 secs

     Self-consistent Calculation

     iteration #  1     ecut=    60.00 Ry     beta= 0.20
     Davidson diagonalization with overlap
     ethr =  1.00E-02,  avg # of iterations =  3.0

     negative rho (up, down):  5.834E-04 5.273E-04

     total cpu time spent up to now is      300.8 secs

     total energy              =   -7076.03366903 Ry
     estimated scf accuracy    <      23.59323280 Ry

     total magnetization       =    10.98 Bohr mag/cell
     absolute magnetization    =    10.98 Bohr mag/cell

     iteration #  2     ecut=    60.00 Ry     beta= 0.20
     Davidson diagonalization with overlap
     ethr =  9.79E-03,  avg # of iterations =  1.0

     negative rho (up, down):  1.363E-03 1.335E-03

     total cpu time spent up to now is      469.0 secs

     total energy              =   -7076.65477869 Ry
     estimated scf accuracy    <       5.71680082 Ry

     total magnetization       =    16.27 Bohr mag/cell
     absolute magnetization    =    16.28 Bohr mag/cell

     iteration #  3     ecut=    60.00 Ry     beta= 0.20
     Davidson diagonalization with overlap
     ethr =  2.37E-03,  avg # of iterations =  1.0

     negative rho (up, down):  1.502E-03 1.484E-03

     total cpu time spent up to now is      640.1 secs

     total energy              =   -7076.89830549 Ry
     estimated scf accuracy    <       1.75919238 Ry

     total magnetization       =    16.98 Bohr mag/cell
     absolute magnetization    =    17.03 Bohr mag/cell

     iteration #  4     ecut=    60.00 Ry     beta= 0.20
     Davidson diagonalization with overlap
     ethr =  7.30E-04,  avg # of iterations =  1.6

     negative rho (up, down):  1.414E-03 1.412E-03

     total cpu time spent up to now is      819.7 secs

     total energy              =   -7077.10638410 Ry
     estimated scf accuracy    <       2.08815669 Ry

     total magnetization       =    14.37 Bohr mag/cell
     absolute magnetization    =    14.52 Bohr mag/cell

     iteration #  5     ecut=    60.00 Ry     beta= 0.20
     Davidson diagonalization with overlap
     ethr =  7.30E-04,  avg # of iterations =  1.2

     negative rho (up, down):  5.878E-04 5.807E-04

     total cpu time spent up to now is      992.1 secs

     total energy              =   -7077.20806037 Ry
     estimated scf accuracy    <       0.98209452 Ry

     total magnetization       =    12.05 Bohr mag/cell
     absolute magnetization    =    12.58 Bohr mag/cell

     iteration #  6     ecut=    60.00 Ry     beta= 0.20
     Davidson diagonalization with overlap
     ethr =  4.08E-04,  avg # of iterations =  2.2

     negative rho (up, down):  1.736E-04 1.786E-04

     total cpu time spent up to now is     1178.9 secs

     total energy              =   -7077.34093188 Ry
     estimated scf accuracy    <       2.69767133 Ry

     total magnetization       =    13.32 Bohr mag/cell
     absolute magnetization    =    14.09 Bohr mag/cell

     iteration #  7     ecut=    60.00 Ry     beta= 0.20
     Davidson diagonalization with overlap
     ethr =  4.08E-04,  avg # of iterations =  1.3

     negative rho (up, down):  1.954E-07 7.183E-07

     total cpu time spent up to now is     1356.8 secs

     total energy              =   -7077.29966114 Ry
     estimated scf accuracy    <       1.32823423 Ry

     total magnetization       =    12.83 Bohr mag/cell
     absolute magnetization    =    13.64 Bohr mag/cell

     iteration #  8     ecut=    60.00 Ry     beta= 0.20
     Davidson diagonalization with overlap
     ethr =  4.08E-04,  avg # of iterations =  1.4

     negative rho (up, down):  3.507E-08 1.404E-07

     total cpu time spent up to now is     1530.8 secs

     total energy              =   -7077.36309194 Ry
     estimated scf accuracy    <       0.15685232 Ry

     total magnetization       =    10.75 Bohr mag/cell
     absolute magnetization    =    11.61 Bohr mag/cell

     iteration #  9     ecut=    60.00 Ry     beta= 0.20
     Davidson diagonalization with overlap
     ethr =  6.51E-05,  avg # of iterations = 11.2

     negative rho (up, down):  1.002E-08 4.092E-08

     total cpu time spent up to now is     1754.9 secs

     total energy              =   -7077.37006842 Ry
     estimated scf accuracy    <       0.06202567 Ry

     total magnetization       =    10.40 Bohr mag/cell
     absolute magnetization    =    11.33 Bohr mag/cell

     iteration # 10     ecut=    60.00 Ry     beta= 0.20
     Davidson diagonalization with overlap
     ethr =  2.57E-05,  avg # of iterations =  3.9

     negative rho (up, down):  1.515E-09 1.607E-08

     total cpu time spent up to now is     1947.1 secs

     total energy              =   -7077.37234435 Ry
     estimated scf accuracy    <       0.07083399 Ry

     total magnetization       =    10.22 Bohr mag/cell
     absolute magnetization    =    11.20 Bohr mag/cell

     iteration # 11     ecut=    60.00 Ry     beta= 0.20
     Davidson diagonalization with overlap
     ethr =  2.57E-05,  avg # of iterations =  1.3

     total cpu time spent up to now is     2114.6 secs

     total energy              =   -7077.37292764 Ry
     estimated scf accuracy    <       0.03907537 Ry

     total magnetization       =    10.02 Bohr mag/cell
     absolute magnetization    =    11.00 Bohr mag/cell

     iteration # 12     ecut=    60.00 Ry     beta= 0.20
     Davidson diagonalization with overlap
     ethr =  1.62E-05,  avg # of iterations =  1.4

     total cpu time spent up to now is     2286.6 secs

     total energy              =   -7077.37320895 Ry
     estimated scf accuracy    <       0.01596084 Ry

     total magnetization       =     9.92 Bohr mag/cell
     absolute magnetization    =    10.89 Bohr mag/cell

     iteration # 13     ecut=    60.00 Ry     beta= 0.20
     Davidson diagonalization with overlap
     ethr =  6.62E-06,  avg # of iterations =  4.8

     negative rho (up, down):  3.613E-09 1.464E-08

     total cpu time spent up to now is     2472.2 secs

     total energy              =   -7077.37369258 Ry
     estimated scf accuracy    <       0.01316495 Ry

     total magnetization       =     9.74 Bohr mag/cell
     absolute magnetization    =    10.69 Bohr mag/cell

     iteration # 14     ecut=    60.00 Ry     beta= 0.20
     Davidson diagonalization with overlap
     ethr =  5.46E-06,  avg # of iterations =  1.6

     negative rho (up, down):  8.306E-09 1.984E-08

     total cpu time spent up to now is     2647.7 secs

     total energy              =   -7077.37393265 Ry
     estimated scf accuracy    <       0.00991085 Ry

     total magnetization       =     9.82 Bohr mag/cell
     absolute magnetization    =    10.73 Bohr mag/cell

     iteration # 15     ecut=    60.00 Ry     beta= 0.20
     Davidson diagonalization with overlap
     ethr =  4.11E-06,  avg # of iterations =  2.1

     negative rho (up, down):  7.975E-08 1.156E-07

     total cpu time spent up to now is     2828.2 secs

     total energy              =   -7077.37254410 Ry
     estimated scf accuracy    <       0.01102545 Ry

     total magnetization       =     9.75 Bohr mag/cell
     absolute magnetization    =    10.64 Bohr mag/cell

     iteration # 16     ecut=    60.00 Ry     beta= 0.20
     Davidson diagonalization with overlap
     ethr =  4.11E-06,  avg # of iterations =  1.4

     negative rho (up, down):  1.788E-07 2.167E-07

     total cpu time spent up to now is     3001.3 secs

     total energy              =   -7077.37177438 Ry
     estimated scf accuracy    <       0.00529233 Ry

     total magnetization       =     9.89 Bohr mag/cell
     absolute magnetization    =    10.74 Bohr mag/cell

     iteration # 17     ecut=    60.00 Ry     beta= 0.20
     Davidson diagonalization with overlap
     c_bands:  1 eigenvalues not converged
     c_bands:  1 eigenvalues not converged
     c_bands:  1 eigenvalues not converged
     ethr =  2.20E-06,  avg # of iterations =  6.0

     negative rho (up, down):  1.441E-07 1.629E-07

     total cpu time spent up to now is     3194.7 secs

     total energy              =   -7077.37166578 Ry
     estimated scf accuracy    <       0.00380789 Ry

     total magnetization       =     9.92 Bohr mag/cell
     absolute magnetization    =    10.74 Bohr mag/cell

     iteration # 18     ecut=    60.00 Ry     beta= 0.20
     Davidson diagonalization with overlap
     ethr =  1.58E-06,  avg # of iterations =  2.0

     negative rho (up, down):  9.519E-08 1.031E-07

     total cpu time spent up to now is     3376.4 secs

     total energy              =   -7077.37178300 Ry
     estimated scf accuracy    <       0.00139504 Ry

     total magnetization       =     9.94 Bohr mag/cell
     absolute magnetization    =    10.75 Bohr mag/cell

     iteration # 19     ecut=    60.00 Ry     beta= 0.20
     Davidson diagonalization with overlap
     ethr =  5.79E-07,  avg # of iterations =  1.6

     negative rho (up, down):  3.486E-08 3.821E-08

     total cpu time spent up to now is     3555.0 secs

     total energy              =   -7077.37196251 Ry
     estimated scf accuracy    <       0.00111170 Ry

     total magnetization       =     9.96 Bohr mag/cell
     absolute magnetization    =    10.79 Bohr mag/cell

     iteration # 20     ecut=    60.00 Ry     beta= 0.20
     Davidson diagonalization with overlap
     ethr =  4.61E-07,  avg # of iterations =  1.6

     negative rho (up, down):  1.757E-08 1.965E-08

     total cpu time spent up to now is     3732.1 secs

     total energy              =   -7077.37204770 Ry
     estimated scf accuracy    <       0.00130488 Ry

     total magnetization       =     9.97 Bohr mag/cell
     absolute magnetization    =    10.82 Bohr mag/cell

     iteration # 21     ecut=    60.00 Ry     beta= 0.20
     Davidson diagonalization with overlap
     ethr =  4.61E-07,  avg # of iterations =  1.5

     negative rho (up, down):  1.036E-08 1.139E-08

     total cpu time spent up to now is     3902.2 secs

     total energy              =   -7077.37206043 Ry
     estimated scf accuracy    <       0.00127403 Ry

     total magnetization       =     9.98 Bohr mag/cell
     absolute magnetization    =    10.84 Bohr mag/cell

     iteration # 22     ecut=    60.00 Ry     beta= 0.20
     Davidson diagonalization with overlap
     ethr =  4.61E-07,  avg # of iterations =  1.5

     total cpu time spent up to now is     4069.5 secs

     total energy              =   -7077.37206694 Ry
     estimated scf accuracy    <       0.00151260 Ry

     total magnetization       =    10.00 Bohr mag/cell
     absolute magnetization    =    10.86 Bohr mag/cell

     iteration # 23     ecut=    60.00 Ry     beta= 0.20
     Davidson diagonalization with overlap
     ethr =  4.61E-07,  avg # of iterations =  1.2

     total cpu time spent up to now is     4240.9 secs

     total energy              =   -7077.37208337 Ry
     estimated scf accuracy    <       0.00131813 Ry

     total magnetization       =    10.03 Bohr mag/cell
     absolute magnetization    =    10.89 Bohr mag/cell

     iteration # 24     ecut=    60.00 Ry     beta= 0.20
     Davidson diagonalization with overlap
     ethr =  4.61E-07,  avg # of iterations =  1.0

     total cpu time spent up to now is     4406.8 secs

     total energy              =   -7077.37208597 Ry
     estimated scf accuracy    <       0.00119686 Ry

     total magnetization       =    10.03 Bohr mag/cell
     absolute magnetization    =    10.89 Bohr mag/cell

     iteration # 25     ecut=    60.00 Ry     beta= 0.20
     Davidson diagonalization with overlap
     ethr =  4.61E-07,  avg # of iterations =  1.4

     negative rho (up, down):  3.618E-06 3.533E-06

     total cpu time spent up to now is     4578.7 secs

     total energy              =   -7077.37200788 Ry
     estimated scf accuracy    <       0.00093772 Ry

     total magnetization       =    10.05 Bohr mag/cell
     absolute magnetization    =    10.91 Bohr mag/cell

     iteration # 26     ecut=    60.00 Ry     beta= 0.20
     Davidson diagonalization with overlap
     ethr =  3.89E-07,  avg # of iterations =  2.5

     negative rho (up, down):  3.724E-04 3.657E-04

     total cpu time spent up to now is     4766.2 secs

     total energy              =   -7077.37205145 Ry
     estimated scf accuracy    <       0.00141669 Ry

     total magnetization       =    10.08 Bohr mag/cell
     absolute magnetization    =    10.94 Bohr mag/cell

     iteration # 27     ecut=    60.00 Ry     beta= 0.20
     Davidson diagonalization with overlap
     ethr =  3.89E-07,  avg # of iterations =  2.1

     negative rho (up, down):  3.614E-04 3.535E-04

     total cpu time spent up to now is     4947.8 secs

     total energy              =   -7077.37209285 Ry
     estimated scf accuracy    <       0.00053595 Ry

     total magnetization       =    10.09 Bohr mag/cell
     absolute magnetization    =    10.96 Bohr mag/cell

     iteration # 28     ecut=    60.00 Ry     beta= 0.20
     Davidson diagonalization with overlap
     ethr =  2.22E-07,  avg # of iterations =  1.2

     negative rho (up, down):  3.297E-04 3.212E-04

     total cpu time spent up to now is     5114.9 secs

     total energy              =   -7077.37209554 Ry
     estimated scf accuracy    <       0.00051485 Ry

     total magnetization       =    10.08 Bohr mag/cell
     absolute magnetization    =    10.96 Bohr mag/cell

     iteration # 29     ecut=    60.00 Ry     beta= 0.20
     Davidson diagonalization with overlap
     ethr =  2.14E-07,  avg # of iterations =  1.1

     negative rho (up, down):  1.555E-04 1.468E-04

     total cpu time spent up to now is     5283.7 secs

     total energy              =   -7077.37208236 Ry
     estimated scf accuracy    <       0.00040314 Ry

     total magnetization       =    10.08 Bohr mag/cell
     absolute magnetization    =    10.95 Bohr mag/cell

     iteration # 30     ecut=    60.00 Ry     beta= 0.20
     Davidson diagonalization with overlap
     ethr =  1.67E-07,  avg # of iterations =  1.1

     negative rho (up, down):  4.911E-04 4.823E-04

     total cpu time spent up to now is     5455.7 secs

     total energy              =   -7077.37208985 Ry
     estimated scf accuracy    <       0.00011157 Ry

     total magnetization       =    10.06 Bohr mag/cell
     absolute magnetization    =    10.94 Bohr mag/cell

     iteration # 31     ecut=    60.00 Ry     beta= 0.20
     Davidson diagonalization with overlap
     ethr =  4.63E-08,  avg # of iterations =  2.8

     negative rho (up, down):  2.694E-04 2.522E-04

     total cpu time spent up to now is     5647.6 secs

     total energy              =   -7077.37210081 Ry
     estimated scf accuracy    <       0.00005081 Ry

     total magnetization       =    10.05 Bohr mag/cell
     absolute magnetization    =    10.92 Bohr mag/cell

     iteration # 32     ecut=    60.00 Ry     beta= 0.20
     Davidson diagonalization with overlap
     ethr =  2.11E-08,  avg # of iterations =  2.5

     negative rho (up, down):  9.516E-05 6.631E-05

     total cpu time spent up to now is     5824.7 secs

     total energy              =   -7077.37210140 Ry
     estimated scf accuracy    <       0.00001939 Ry

     total magnetization       =    10.05 Bohr mag/cell
     absolute magnetization    =    10.92 Bohr mag/cell

     iteration # 33     ecut=    60.00 Ry     beta= 0.20
     Davidson diagonalization with overlap
     ethr =  8.05E-09,  avg # of iterations =  3.4

     negative rho (up, down):  9.686E-05 6.767E-05

     total cpu time spent up to now is     6018.3 secs

     total energy              =   -7077.37210311 Ry
     estimated scf accuracy    <       0.00001488 Ry

     total magnetization       =    10.05 Bohr mag/cell
     absolute magnetization    =    10.92 Bohr mag/cell

     iteration # 34     ecut=    60.00 Ry     beta= 0.20
     Davidson diagonalization with overlap
     ethr =  6.17E-09,  avg # of iterations =  1.2

     negative rho (up, down):  1.438E-04 1.151E-04

     total cpu time spent up to now is     6186.8 secs

     total energy              =   -7077.37210332 Ry
     estimated scf accuracy    <       0.00001314 Ry

     total magnetization       =    10.05 Bohr mag/cell
     absolute magnetization    =    10.92 Bohr mag/cell

     iteration # 35     ecut=    60.00 Ry     beta= 0.20
     Davidson diagonalization with overlap
     ethr =  5.45E-09,  avg # of iterations =  1.0

     negative rho (up, down):  1.455E-04 1.131E-04

     total cpu time spent up to now is     6354.2 secs

     total energy              =   -7077.37210345 Ry
     estimated scf accuracy    <       0.00000338 Ry

     total magnetization       =    10.05 Bohr mag/cell
     absolute magnetization    =    10.92 Bohr mag/cell

     iteration # 36     ecut=    60.00 Ry     beta= 0.20
     Davidson diagonalization with overlap
     ethr =  1.40E-09,  avg # of iterations =  2.7

     negative rho (up, down):  1.117E-04 7.945E-05

     total cpu time spent up to now is     6530.8 secs

     total energy              =   -7077.37210347 Ry
     estimated scf accuracy    <       0.00000198 Ry

     total magnetization       =    10.06 Bohr mag/cell
     absolute magnetization    =    10.92 Bohr mag/cell

     iteration # 37     ecut=    60.00 Ry     beta= 0.20
     Davidson diagonalization with overlap
     ethr =  8.21E-10,  avg # of iterations =  1.6

     negative rho (up, down):  1.453E-04 1.107E-04

     total cpu time spent up to now is     6709.9 secs

     total energy              =   -7077.37210358 Ry
     estimated scf accuracy    <       0.00000372 Ry

     total magnetization       =    10.06 Bohr mag/cell
     absolute magnetization    =    10.92 Bohr mag/cell

     iteration # 38     ecut=    60.00 Ry     beta= 0.20
     Davidson diagonalization with overlap
     ethr =  8.21E-10,  avg # of iterations =  1.2

     negative rho (up, down):  1.631E-04 1.283E-04

     total cpu time spent up to now is     6877.4 secs

     total energy              =   -7077.37210372 Ry
     estimated scf accuracy    <       0.00000040 Ry

     total magnetization       =    10.05 Bohr mag/cell
     absolute magnetization    =    10.92 Bohr mag/cell

     iteration # 39     ecut=    60.00 Ry     beta= 0.20
     Davidson diagonalization with overlap
     ethr =  1.67E-10,  avg # of iterations =  2.4

     negative rho (up, down):  1.579E-04 1.228E-04

     total cpu time spent up to now is     7058.5 secs

     total energy              =   -7077.37210375 Ry
     estimated scf accuracy    <       0.00000013 Ry

     total magnetization       =    10.05 Bohr mag/cell
     absolute magnetization    =    10.92 Bohr mag/cell

     iteration # 40     ecut=    60.00 Ry     beta= 0.20
     Davidson diagonalization with overlap
     ethr =  5.55E-11,  avg # of iterations =  2.4

     negative rho (up, down):  1.552E-04 1.199E-04

     total cpu time spent up to now is     7242.2 secs

     total energy              =   -7077.37210376 Ry
     estimated scf accuracy    <       0.00000006 Ry

     total magnetization       =    10.05 Bohr mag/cell
     absolute magnetization    =    10.92 Bohr mag/cell

     iteration # 41     ecut=    60.00 Ry     beta= 0.20
     Davidson diagonalization with overlap
     ethr =  2.35E-11,  avg # of iterations =  2.1

     negative rho (up, down):  1.535E-04 1.180E-04

     total cpu time spent up to now is     7422.4 secs

     total energy              =   -7077.37210376 Ry
     estimated scf accuracy    <       0.00000004 Ry

     total magnetization       =    10.05 Bohr mag/cell
     absolute magnetization    =    10.92 Bohr mag/cell

     iteration # 42     ecut=    60.00 Ry     beta= 0.20
     Davidson diagonalization with overlap
     ethr =  1.71E-11,  avg # of iterations =  1.9

     negative rho (up, down):  1.529E-04 1.174E-04

     total cpu time spent up to now is     7617.9 secs

     total energy              =   -7077.37210378 Ry
     estimated scf accuracy    <       0.00000003 Ry

     total magnetization       =    10.05 Bohr mag/cell
     absolute magnetization    =    10.92 Bohr mag/cell

     iteration # 43     ecut=    60.00 Ry     beta= 0.20
     Davidson diagonalization with overlap
     ethr =  1.40E-11,  avg # of iterations =  1.2

     negative rho (up, down):  1.527E-04 1.171E-04

     total cpu time spent up to now is     7788.7 secs

     total energy              =   -7077.37210378 Ry
     estimated scf accuracy    <       0.00000001 Ry

     total magnetization       =    10.05 Bohr mag/cell
     absolute magnetization    =    10.92 Bohr mag/cell

     iteration # 44     ecut=    60.00 Ry     beta= 0.20
     Davidson diagonalization with overlap
     ethr =  4.78E-12,  avg # of iterations =  2.2

     negative rho (up, down):  1.517E-04 1.162E-04
 
     Magnetic moment per site  (integrated on atomic sphere of radius R)
     atom   1 (R=0.202)  charge=  8.7469  magn=  0.9610
     atom   2 (R=0.155)  charge=  6.3346  magn=  0.2249
     atom   3 (R=0.155)  charge=  6.3346  magn=  0.2249
     atom   4 (R=0.155)  charge=  6.3347  magn=  0.2218
     atom   5 (R=0.202)  charge=  8.8235  magn=  0.9258
     atom   6 (R=0.155)  charge=  6.3218  magn=  0.2775
     atom   7 (R=0.155)  charge=  6.3218  magn=  0.2775
     atom   8 (R=0.155)  charge=  6.3205  magn=  0.2749
     atom   9 (R=0.202)  charge=  8.8363  magn=  0.8647
     atom  10 (R=0.155)  charge=  6.3203  magn=  0.2674
     atom  11 (R=0.155)  charge=  6.3200  magn=  0.2630
     atom  12 (R=0.155)  charge=  6.3203  magn=  0.2674
     atom  13 (R=0.202)  charge=  8.8406  magn=  0.8496
     atom  14 (R=0.155)  charge=  6.3190  magn=  0.2571
     atom  15 (R=0.155)  charge=  6.3190  magn=  0.2571
     atom  16 (R=0.155)  charge=  6.3248  magn=  0.2631
     atom  17 (R=0.202)  charge=  8.8229  magn=  0.8713
     atom  18 (R=0.155)  charge=  6.3193  magn=  0.2552
     atom  19 (R=0.155)  charge=  6.3193  magn=  0.2552
     atom  20 (R=0.155)  charge=  6.3198  magn=  0.2774
     atom  21 (R=0.202)  charge=  8.7592  magn=  0.9601
     atom  22 (R=0.155)  charge=  6.3367  magn=  0.2123
     atom  23 (R=0.155)  charge=  6.2892  magn=  0.1417
     atom  24 (R=0.155)  charge=  6.3367  magn=  0.2123
     atom  25 (R=0.155)  charge=  0.7904  magn= -0.0071

     total cpu time spent up to now is     7972.1 secs

     End of self-consistent calculation

     Number of k-points >= 100: set verbosity='high' to print the bands.

     the Fermi energy is    -5.3085 ev

!    total energy              =   -7077.37210377 Ry
     total all-electron energy =   -199909.808674 Ry
     estimated scf accuracy    <          9.2E-09 Ry
     smearing contrib. (-TS)   =      -0.00027881 Ry
     internal energy E=F+TS    =   -7077.37182496 Ry

     The total energy is F=E-TS. E is the sum of the following terms:
     one-electron contribution =  -61126.36231747 Ry
     hartree contribution      =   30749.32462445 Ry
     xc contribution           =    -835.34918862 Ry
     ewald contribution        =   29269.16135489 Ry
     DFT-D3 Dispersion         =      -2.53504710 Ry
     one-center paw contrib.   =   -5131.61125111 Ry

     total magnetization       =    10.05 Bohr mag/cell
     absolute magnetization    =    10.92 Bohr mag/cell

     convergence has been achieved in  44 iterations

     negative rho (up, down):  1.517E-04 1.162E-04

     Forces acting on atoms (cartesian axes, Ry/au):

     atom    1 type  1   force =     0.00007537    0.00004319    0.01604962
     atom    2 type  2   force =    -0.00035396   -0.01425252   -0.00889345
     atom    3 type  2   force =    -0.01251986    0.00681986   -0.00889266
     atom    4 type  2   force =     0.01245792    0.00719272   -0.00941276
     atom    5 type  1   force =     0.00000737    0.00000426   -0.00026764
     atom    6 type  2   force =    -0.00020367   -0.00006200    0.00429709
     atom    7 type  2   force =    -0.00015553   -0.00014520    0.00429679
     atom    8 type  2   force =     0.00066989    0.00038654    0.00668351
     atom    9 type  1   force =     0.00018047    0.00010382   -0.00008643
     atom   10 type  2   force =     0.00028828   -0.00005420   -0.00052228
     atom   11 type  2   force =     0.00002579    0.00001509    0.00038254
     atom   12 type  2   force =     0.00009755    0.00027682   -0.00052233
     atom   13 type  1   force =    -0.00013081   -0.00007545    0.00133446
     atom   14 type  2   force =    -0.00029551    0.00062568    0.00222038
     atom   15 type  2   force =     0.00039415   -0.00056879    0.00222015
     atom   16 type  2   force =    -0.00017118   -0.00009878   -0.00821722
     atom   17 type  1   force =    -0.00113293   -0.00065387    0.00076046
     atom   18 type  2   force =    -0.00028867   -0.00038652    0.00122937
     atom   19 type  2   force =    -0.00047915   -0.00005691    0.00122986
     atom   20 type  2   force =    -0.00016057   -0.00009249   -0.00135527
     atom   21 type  1   force =     0.00076759    0.00044299    0.00000156
     atom   22 type  2   force =    -0.00143902    0.00163871    0.00219907
     atom   23 type  2   force =     0.00352424    0.00203500    0.08446643
     atom   24 type  2   force =     0.00069999   -0.00206540    0.00219989
     atom   25 type  3   force =    -0.00185775   -0.00107255   -0.09140117

     Total force =     0.124956     Total SCF correction =     0.000465


     Computing stress (Cartesian axis) and pressure


     negative rho (up, down):  1.517E-04 1.162E-04
          total   stress  (Ry/bohr**3)                   (kbar)     P=      -11.39
  -0.00008695   0.00000027  -0.00000051          -12.79        0.04       -0.08
   0.00000027  -0.00008727  -0.00000030            0.04      -12.84       -0.04
  -0.00000051  -0.00000030  -0.00005813           -0.08       -0.04       -8.55


     BFGS Geometry Optimization
     Energy error            =      0.0E+00 Ry
     Gradient error          =      9.1E-02 Ry/Bohr

     number of scf cycles    =   1
     number of bfgs steps    =   0

     energy             new  =   -7077.3721037685 Ry

     new trust radius        =       0.0914011695 bohr
     new conv_thr            =       0.0000000100 Ry


ATOMIC_POSITIONS (angstrom)
Ni               5.3171990772        3.0698863186       11.0000000000    0   0   0
Pd               2.6585995386        3.0698851333       11.0000764482    0   0   0
Pd               3.9878982814        0.7674721723       11.0000764482    0   0   0
Pd               1.3293007958        0.7674721723       11.0000764482    0   0   0
Ni               2.6585995386        1.5349431593       13.1707374333    0   0   0
Pd               3.9878982814        3.8373584909       13.1708138815    0   0   0
Pd               5.3171990772        1.5349419740       13.1708138815    0   0   0
Pd               6.6464998731        3.8373584909       13.1708138815    0   0   0
Ni               0.0000955509        0.0000548744       15.3356457340
Pd               5.3173516209        4.6052494030       15.3378740784
Pd               3.9875243923        2.3021983925       15.3383529394
Pd               6.6469388661        2.3023369554       15.3378741979
Ni               5.3171298116        3.0698463152       17.5113502552
Pd               3.9870672156        0.7681926675       17.5110399361
Pd               2.6588081395        3.0688048349       17.5110400399
Pd               1.3298850293        0.7678093430       17.5055167287
Ni               2.6579999184        1.5345971561       19.6905391342
Pd               3.9932800807        3.8339585879       19.6748346237
Pd               5.3169454298        1.5413027758       19.6748346756
Pd               6.6408801513        3.8341142136       19.6734668594
Ni               0.0004059432        0.0002348501       21.7690921199
Pd               5.3164373428        4.6174996730       21.8808233032
Pd               3.9795424353        2.2975903685       21.9243571041
Pd               6.6570906651        2.2954205935       21.8808236208
H                3.9776774860        2.2965134952       23.8312919787    0   0   1



     Writing config-only to output data dir /tmpu/isholek_g/isholek/MIGUEL/QE/Hydrogen/111_2x2/SAVE/Ni1Pd3_111-T1.save/ :
     XML data file
     NEW-OLD atomic charge density approx. for the potential

     Check: negative core charge=   -0.000002

     negative rho (up, down):  5.062E-04 1.379E-04
     Generating pointlists ...
     new r_m :   0.1479 (alat units)  1.4865 (a.u.) for type    2
     new r_m :   0.1479 (alat units)  1.4865 (a.u.) for type    3

     total cpu time spent up to now is     8246.4 secs

     Self-consistent Calculation

     iteration #  1     ecut=    60.00 Ry     beta= 0.20
     Davidson diagonalization with overlap
     c_bands:  1 eigenvalues not converged
     ethr =  1.00E-06,  avg # of iterations = 10.6

     negative rho (up, down):  8.097E-03 7.780E-03

     total cpu time spent up to now is     8802.4 secs

     total energy              =   -7077.36550065 Ry
     estimated scf accuracy    <       0.43888889 Ry

     total magnetization       =     9.78 Bohr mag/cell
     absolute magnetization    =    10.67 Bohr mag/cell

     iteration #  2     ecut=    60.00 Ry     beta= 0.20
     Davidson diagonalization with overlap
     ethr =  1.82E-04,  avg # of iterations =  1.0

     negative rho (up, down):  6.404E-03 6.138E-03

     total cpu time spent up to now is     8971.1 secs

     total energy              =   -7077.37288994 Ry
     estimated scf accuracy    <       0.04592984 Ry

     total magnetization       =    10.08 Bohr mag/cell
     absolute magnetization    =    10.95 Bohr mag/cell

     iteration #  3     ecut=    60.00 Ry     beta= 0.20
     Davidson diagonalization with overlap
     ethr =  1.91E-05,  avg # of iterations =  1.4

     negative rho (up, down):  5.064E-03 4.837E-03

     total cpu time spent up to now is     9144.1 secs

     total energy              =   -7077.37725501 Ry
     estimated scf accuracy    <       0.03086385 Ry

     total magnetization       =    10.01 Bohr mag/cell
     absolute magnetization    =    10.88 Bohr mag/cell

     iteration #  4     ecut=    60.00 Ry     beta= 0.20
     Davidson diagonalization with overlap
     ethr =  1.28E-05,  avg # of iterations =  1.0

     negative rho (up, down):  4.023E-03 3.817E-03

     total cpu time spent up to now is     9312.3 secs

     total energy              =   -7077.38000836 Ry
     estimated scf accuracy    <       0.02494207 Ry

     total magnetization       =    10.00 Bohr mag/cell
     absolute magnetization    =    10.87 Bohr mag/cell

     iteration #  5     ecut=    60.00 Ry     beta= 0.20
     Davidson diagonalization with overlap
     ethr =  1.03E-05,  avg # of iterations =  1.0

     negative rho (up, down):  3.207E-03 3.023E-03

     total cpu time spent up to now is     9479.3 secs

     total energy              =   -7077.38184614 Ry
     estimated scf accuracy    <       0.01347713 Ry

     total magnetization       =    10.04 Bohr mag/cell
     absolute magnetization    =    10.91 Bohr mag/cell

     iteration #  6     ecut=    60.00 Ry     beta= 0.20
     Davidson diagonalization with overlap
     ethr =  5.59E-06,  avg # of iterations =  1.0

     negative rho (up, down):  2.592E-03 2.425E-03

     total cpu time spent up to now is     9647.7 secs

     total energy              =   -7077.38299327 Ry
     estimated scf accuracy    <       0.00809508 Ry

     total magnetization       =    10.04 Bohr mag/cell
     absolute magnetization    =    10.91 Bohr mag/cell

     iteration #  7     ecut=    60.00 Ry     beta= 0.20
     Davidson diagonalization with overlap
     ethr =  3.36E-06,  avg # of iterations =  1.0

     negative rho (up, down):  2.017E-03 1.880E-03

     total cpu time spent up to now is     9807.8 secs

     total energy              =   -7077.38458216 Ry
     estimated scf accuracy    <       0.00591037 Ry

     total magnetization       =    10.03 Bohr mag/cell
     absolute magnetization    =    10.90 Bohr mag/cell

     iteration #  8     ecut=    60.00 Ry     beta= 0.20
     Davidson diagonalization with overlap
     ethr =  2.45E-06,  avg # of iterations =  1.0

     negative rho (up, down):  1.669E-03 1.545E-03

     total cpu time spent up to now is     9974.9 secs

     total energy              =   -7077.38499495 Ry
     estimated scf accuracy    <       0.00411848 Ry

     total magnetization       =    10.03 Bohr mag/cell
     absolute magnetization    =    10.90 Bohr mag/cell

     iteration #  9     ecut=    60.00 Ry     beta= 0.20
     Davidson diagonalization with overlap
     ethr =  1.71E-06,  avg # of iterations =  1.0

     negative rho (up, down):  1.108E-03 1.039E-03

     total cpu time spent up to now is    10144.3 secs

     total energy              =   -7077.38645028 Ry
     estimated scf accuracy    <       0.00363427 Ry

     total magnetization       =    10.03 Bohr mag/cell
     absolute magnetization    =    10.90 Bohr mag/cell

     iteration # 10     ecut=    60.00 Ry     beta= 0.20
     Davidson diagonalization with overlap
     ethr =  1.51E-06,  avg # of iterations =  1.3

     negative rho (up, down):  8.480E-04 7.906E-04

     total cpu time spent up to now is    10313.4 secs

     total energy              =   -7077.38664240 Ry
     estimated scf accuracy    <       0.00091758 Ry

     total magnetization       =    10.03 Bohr mag/cell
     absolute magnetization    =    10.89 Bohr mag/cell

     iteration # 11     ecut=    60.00 Ry     beta= 0.20
     Davidson diagonalization with overlap
     ethr =  3.81E-07,  avg # of iterations =  1.1

     negative rho (up, down):  6.590E-04 6.234E-04

     total cpu time spent up to now is    10481.5 secs

     total energy              =   -7077.38674995 Ry
     estimated scf accuracy    <       0.00059039 Ry

     total magnetization       =    10.02 Bohr mag/cell
     absolute magnetization    =    10.89 Bohr mag/cell

     iteration # 12     ecut=    60.00 Ry     beta= 0.20
     Davidson diagonalization with overlap
     ethr =  2.45E-07,  avg # of iterations =  1.0

     negative rho (up, down):  5.160E-04 4.858E-04

     total cpu time spent up to now is    10649.2 secs

     total energy              =   -7077.38677366 Ry
     estimated scf accuracy    <       0.00019179 Ry

     total magnetization       =    10.02 Bohr mag/cell
     absolute magnetization    =    10.89 Bohr mag/cell

     iteration # 13     ecut=    60.00 Ry     beta= 0.20
     Davidson diagonalization with overlap
     ethr =  7.96E-08,  avg # of iterations =  1.1

     negative rho (up, down):  4.018E-04 3.746E-04

     total cpu time spent up to now is    10822.4 secs

     total energy              =   -7077.38678266 Ry
     estimated scf accuracy    <       0.00011745 Ry

     total magnetization       =    10.02 Bohr mag/cell
     absolute magnetization    =    10.88 Bohr mag/cell

     iteration # 14     ecut=    60.00 Ry     beta= 0.20
     Davidson diagonalization with overlap
     ethr =  4.87E-08,  avg # of iterations =  1.0

     negative rho (up, down):  2.947E-04 2.675E-04

     total cpu time spent up to now is    10992.1 secs

     total energy              =   -7077.38678469 Ry
     estimated scf accuracy    <       0.00008367 Ry

     total magnetization       =    10.02 Bohr mag/cell
     absolute magnetization    =    10.88 Bohr mag/cell

     iteration # 15     ecut=    60.00 Ry     beta= 0.20
     Davidson diagonalization with overlap
     ethr =  3.47E-08,  avg # of iterations =  1.0

     negative rho (up, down):  2.302E-04 2.055E-04

     total cpu time spent up to now is    11158.4 secs

     total energy              =   -7077.38678835 Ry
     estimated scf accuracy    <       0.00002096 Ry

     total magnetization       =    10.01 Bohr mag/cell
     absolute magnetization    =    10.88 Bohr mag/cell

     iteration # 16     ecut=    60.00 Ry     beta= 0.20
     Davidson diagonalization with overlap
     ethr =  8.70E-09,  avg # of iterations =  1.2

     negative rho (up, down):  1.824E-04 1.584E-04

     total cpu time spent up to now is    11329.9 secs

     total energy              =   -7077.38679112 Ry
     estimated scf accuracy    <       0.00000357 Ry

     total magnetization       =    10.01 Bohr mag/cell
     absolute magnetization    =    10.88 Bohr mag/cell

     iteration # 17     ecut=    60.00 Ry     beta= 0.20
     Davidson diagonalization with overlap
     ethr =  1.48E-09,  avg # of iterations =  2.8

     negative rho (up, down):  1.528E-04 1.275E-04

     total cpu time spent up to now is    11513.6 secs

     total energy              =   -7077.38679274 Ry
     estimated scf accuracy    <       0.00000132 Ry

     total magnetization       =    10.01 Bohr mag/cell
     absolute magnetization    =    10.88 Bohr mag/cell

     iteration # 18     ecut=    60.00 Ry     beta= 0.20
     Davidson diagonalization with overlap
     ethr =  5.47E-10,  avg # of iterations =  3.0

     negative rho (up, down):  1.274E-04 1.006E-04

     total cpu time spent up to now is    11712.1 secs

     total energy              =   -7077.38679423 Ry
     estimated scf accuracy    <       0.00000119 Ry

     total magnetization       =    10.01 Bohr mag/cell
     absolute magnetization    =    10.88 Bohr mag/cell

     iteration # 19     ecut=    60.00 Ry     beta= 0.20
     Davidson diagonalization with overlap
     ethr =  4.92E-10,  avg # of iterations =  1.1

     negative rho (up, down):  1.112E-04 8.400E-05

     total cpu time spent up to now is    11878.5 secs

     total energy              =   -7077.38679494 Ry
     estimated scf accuracy    <       0.00000122 Ry

     total magnetization       =    10.01 Bohr mag/cell
     absolute magnetization    =    10.88 Bohr mag/cell

     iteration # 20     ecut=    60.00 Ry     beta= 0.20
     Davidson diagonalization with overlap
     ethr =  4.92E-10,  avg # of iterations =  1.1

     negative rho (up, down):  1.096E-04 7.976E-05

     total cpu time spent up to now is    12049.2 secs

     total energy              =   -7077.38679549 Ry
     estimated scf accuracy    <       0.00000116 Ry

     total magnetization       =    10.01 Bohr mag/cell
     absolute magnetization    =    10.88 Bohr mag/cell

     iteration # 21     ecut=    60.00 Ry     beta= 0.20
     Davidson diagonalization with overlap
     ethr =  4.81E-10,  avg # of iterations =  1.2

     negative rho (up, down):  1.164E-04 8.605E-05

     total cpu time spent up to now is    12213.3 secs

     total energy              =   -7077.38679549 Ry
     estimated scf accuracy    <       0.00000148 Ry

     total magnetization       =    10.01 Bohr mag/cell
     absolute magnetization    =    10.88 Bohr mag/cell

     iteration # 22     ecut=    60.00 Ry     beta= 0.20
     Davidson diagonalization with overlap
     ethr =  4.81E-10,  avg # of iterations =  1.6

     negative rho (up, down):  1.176E-04 8.515E-05

     total cpu time spent up to now is    12389.7 secs

     total energy              =   -7077.38679594 Ry
     estimated scf accuracy    <       0.00000028 Ry

     total magnetization       =    10.01 Bohr mag/cell
     absolute magnetization    =    10.88 Bohr mag/cell

     iteration # 23     ecut=    60.00 Ry     beta= 0.20
     Davidson diagonalization with overlap
     ethr =  1.17E-10,  avg # of iterations =  2.1

     negative rho (up, down):  1.211E-04 8.819E-05

     total cpu time spent up to now is    12574.5 secs

     total energy              =   -7077.38679599 Ry
     estimated scf accuracy    <       0.00000081 Ry

     total magnetization       =    10.01 Bohr mag/cell
     absolute magnetization    =    10.88 Bohr mag/cell

     iteration # 24     ecut=    60.00 Ry     beta= 0.20
     Davidson diagonalization with overlap
     ethr =  1.17E-10,  avg # of iterations =  1.4

     negative rho (up, down):  1.379E-04 1.028E-04

     total cpu time spent up to now is    12751.3 secs

     total energy              =   -7077.38679633 Ry
     estimated scf accuracy    <       0.00000031 Ry

     total magnetization       =    10.01 Bohr mag/cell
     absolute magnetization    =    10.88 Bohr mag/cell

     iteration # 25     ecut=    60.00 Ry     beta= 0.20
     Davidson diagonalization with overlap
     ethr =  1.17E-10,  avg # of iterations =  1.9

     negative rho (up, down):  1.512E-04 1.156E-04

     total cpu time spent up to now is    12933.5 secs

     total energy              =   -7077.38679646 Ry
     estimated scf accuracy    <       0.00000036 Ry

     total magnetization       =    10.01 Bohr mag/cell
     absolute magnetization    =    10.88 Bohr mag/cell

     iteration # 26     ecut=    60.00 Ry     beta= 0.20
     Davidson diagonalization with overlap
     ethr =  1.17E-10,  avg # of iterations =  1.2

     negative rho (up, down):  1.500E-04 1.143E-04

     total cpu time spent up to now is    13103.7 secs

     total energy              =   -7077.38679659 Ry
     estimated scf accuracy    <       0.00000011 Ry

     total magnetization       =    10.01 Bohr mag/cell
     absolute magnetization    =    10.88 Bohr mag/cell

     iteration # 27     ecut=    60.00 Ry     beta= 0.20
     Davidson diagonalization with overlap
     ethr =  4.72E-11,  avg # of iterations =  1.8

     negative rho (up, down):  1.503E-04 1.145E-04

     total cpu time spent up to now is    13283.4 secs

     total energy              =   -7077.38679667 Ry
     estimated scf accuracy    <       0.00000004 Ry

     total magnetization       =    10.01 Bohr mag/cell
     absolute magnetization    =    10.88 Bohr mag/cell

     iteration # 28     ecut=    60.00 Ry     beta= 0.20
     Davidson diagonalization with overlap
     ethr =  1.52E-11,  avg # of iterations =  2.7

     negative rho (up, down):  1.517E-04 1.157E-04

     total cpu time spent up to now is    13469.0 secs

     total energy              =   -7077.38679672 Ry
     estimated scf accuracy    <       0.00000003 Ry

     total magnetization       =    10.01 Bohr mag/cell
     absolute magnetization    =    10.88 Bohr mag/cell

     iteration # 29     ecut=    60.00 Ry     beta= 0.20
     Davidson diagonalization with overlap
     ethr =  1.04E-11,  avg # of iterations =  2.1

     negative rho (up, down):  1.521E-04 1.165E-04
 
     Magnetic moment per site  (integrated on atomic sphere of radius R)
     atom   1 (R=0.202)  charge=  8.7469  magn=  0.9609
     atom   2 (R=0.148)  charge=  5.9863  magn=  0.2154
     atom   3 (R=0.148)  charge=  5.9863  magn=  0.2154
     atom   4 (R=0.148)  charge=  5.9863  magn=  0.2125
     atom   5 (R=0.202)  charge=  8.8235  magn=  0.9257
     atom   6 (R=0.148)  charge=  5.9727  magn=  0.2660
     atom   7 (R=0.148)  charge=  5.9727  magn=  0.2660
     atom   8 (R=0.148)  charge=  5.9714  magn=  0.2645
     atom   9 (R=0.202)  charge=  8.8364  magn=  0.8656
     atom  10 (R=0.148)  charge=  5.9703  magn=  0.2571
     atom  11 (R=0.148)  charge=  5.9701  magn=  0.2523
     atom  12 (R=0.148)  charge=  5.9703  magn=  0.2571
     atom  13 (R=0.202)  charge=  8.8405  magn=  0.8501
     atom  14 (R=0.148)  charge=  5.9694  magn=  0.2465
     atom  15 (R=0.148)  charge=  5.9694  magn=  0.2465
     atom  16 (R=0.148)  charge=  5.9749  magn=  0.2509
     atom  17 (R=0.202)  charge=  8.8194  magn=  0.8684
     atom  18 (R=0.148)  charge=  5.9705  magn=  0.2425
     atom  19 (R=0.148)  charge=  5.9705  magn=  0.2425
     atom  20 (R=0.148)  charge=  5.9708  magn=  0.2648
     atom  21 (R=0.202)  charge=  8.7592  magn=  0.9543
     atom  22 (R=0.148)  charge=  5.9879  magn=  0.1988
     atom  23 (R=0.148)  charge=  5.9415  magn=  0.1234
     atom  24 (R=0.148)  charge=  5.9879  magn=  0.1988
     atom  25 (R=0.148)  charge=  0.7736  magn= -0.0077

     total cpu time spent up to now is    13655.7 secs

     End of self-consistent calculation

     Number of k-points >= 100: set verbosity='high' to print the bands.

     the Fermi energy is    -5.2879 ev

!    total energy              =   -7077.38679680 Ry
     total all-electron energy =   -199909.823367 Ry
     estimated scf accuracy    <          5.8E-09 Ry
     smearing contrib. (-TS)   =      -0.00014235 Ry
     internal energy E=F+TS    =   -7077.38665445 Ry

     The total energy is F=E-TS. E is the sum of the following terms:
     one-electron contribution =  -61081.73017593 Ry
     hartree contribution      =   30727.19230662 Ry
     xc contribution           =    -835.34671579 Ry
     ewald contribution        =   29246.63809354 Ry
     DFT-D3 Dispersion         =      -2.53216785 Ry
     one-center paw contrib.   =   -5131.60799504 Ry

     total magnetization       =    10.01 Bohr mag/cell
     absolute magnetization    =    10.88 Bohr mag/cell

     convergence has been achieved in  29 iterations

     negative rho (up, down):  1.521E-04 1.165E-04

     Forces acting on atoms (cartesian axes, Ry/au):

     atom    1 type  1   force =     0.00005197    0.00002998    0.01608924
     atom    2 type  2   force =    -0.00036512   -0.01424551   -0.00886446
     atom    3 type  2   force =    -0.01251955    0.00680657   -0.00886411
     atom    4 type  2   force =     0.01245811    0.00719275   -0.00939619
     atom    5 type  1   force =     0.00001100    0.00000633   -0.00029373
     atom    6 type  2   force =    -0.00023233   -0.00006930    0.00427535
     atom    7 type  2   force =    -0.00017627   -0.00016655    0.00427530
     atom    8 type  2   force =     0.00070858    0.00040923    0.00673813
     atom    9 type  1   force =     0.00002091    0.00001222   -0.00019760
     atom   10 type  2   force =     0.00066933   -0.00011954   -0.00075432
     atom   11 type  2   force =     0.00006439    0.00003700    0.00052863
     atom   12 type  2   force =     0.00023103    0.00063934   -0.00075436
     atom   13 type  1   force =    -0.00007779   -0.00004495    0.00098474
     atom   14 type  2   force =    -0.00019283    0.00044052    0.00161949
     atom   15 type  2   force =     0.00028505   -0.00038719    0.00161957
     atom   16 type  2   force =    -0.00069743   -0.00040267   -0.00671118
     atom   17 type  1   force =     0.00013105    0.00007560    0.00260163
     atom   18 type  2   force =    -0.00030583   -0.00295685    0.00512092
     atom   19 type  2   force =    -0.00271350    0.00121367    0.00512100
     atom   20 type  2   force =    -0.00033643   -0.00019435   -0.00028085
     atom   21 type  1   force =     0.00051046    0.00029458    0.00004774
     atom   22 type  2   force =    -0.00064892    0.00130346    0.00122480
     atom   23 type  2   force =     0.00407768    0.00235417    0.06906942
     atom   24 type  2   force =     0.00080424   -0.00121368    0.00122474
     atom   25 type  3   force =    -0.00175778   -0.00101484   -0.08442388

     Total force =     0.109816     Total SCF correction =     0.000436


     Computing stress (Cartesian axis) and pressure


     negative rho (up, down):  1.521E-04 1.165E-04
          total   stress  (Ry/bohr**3)                   (kbar)     P=      -11.79
  -0.00009033   0.00000066   0.00000057          -13.29        0.10        0.08
   0.00000066  -0.00009109   0.00000033            0.10      -13.40        0.05
   0.00000057   0.00000033  -0.00005897            0.08        0.05       -8.67

     Energy error            =      1.5E-02 Ry
     Gradient error          =      8.4E-02 Ry/Bohr

     number of scf cycles    =   2
     number of bfgs steps    =   1

     energy             old  =   -7077.3721037685 Ry
     energy             new  =   -7077.3867968046 Ry

     CASE: energy            _new < energy            _old


     WARNING: bfgs curvature condition failed, Theta= 0.914
     new trust radius        =       0.1005412864 bohr
     new conv_thr            =       0.0000000100 Ry


ATOMIC_POSITIONS (angstrom)
Ni               5.3171990772        3.0698863186       11.0000000000    0   0   0
Pd               2.6585995386        3.0698851333       11.0000764482    0   0   0
Pd               3.9878982814        0.7674721723       11.0000764482    0   0   0
Pd               1.3293007958        0.7674721723       11.0000764482    0   0   0
Ni               2.6585995386        1.5349431593       13.1707374333    0   0   0
Pd               3.9878982814        3.8373584909       13.1708138815    0   0   0
Pd               5.3171990772        1.5349419740       13.1708138815    0   0   0
Pd               6.6464998731        3.8373584909       13.1708138815    0   0   0
Ni               0.0001223767        0.0000704059       15.3355322287
Pd               5.3177357071        4.6051805724       15.3374241550
Pd               3.9875611722        2.3022195498       15.3386696761
Pd               6.6470712679        2.3027039590       15.3374242480
Ni               5.3170767584        3.0698156731       17.5119940395
Pd               3.9869381949        0.7684831461       17.5121009243
Pd               2.6589951737        3.0685478937       17.5121010507
Pd               1.3294959904        0.7675847336       17.5012050693
Ni               2.6579722836        1.5345811882       19.6920009084
Pd               3.9930910154        3.8323385320       19.6776887820
Pd               5.3154479447        1.5419491089       19.6776889242
Pd               6.6406857424        3.8340019295       19.6731989781
Ni               0.0007462197        0.0004312217       21.7691178718
Pd               5.3159647157        4.6183407887       21.8816706596
Pd               3.9820352142        2.2990295553       21.9687225288
Pd               6.6575827361        2.2945907598       21.8816710172
H                3.9776774860        2.2965134952       23.7780878211    0   0   1



     Writing config-only to output data dir /tmpu/isholek_g/isholek/MIGUEL/QE/Hydrogen/111_2x2/SAVE/Ni1Pd3_111-T1.save/ :
     XML data file
     NEW-OLD atomic charge density approx. for the potential

     Check: negative core charge=   -0.000002

     negative rho (up, down):  1.558E-04 3.600E-04
     Generating pointlists ...
     new r_m :   0.1404 (alat units)  1.4104 (a.u.) for type    2
     new r_m :   0.1404 (alat units)  1.4104 (a.u.) for type    3

     total cpu time spent up to now is    13931.5 secs

     Self-consistent Calculation

     iteration #  1     ecut=    60.00 Ry     beta= 0.20
     Davidson diagonalization with overlap
     c_bands:  1 eigenvalues not converged
     ethr =  1.00E-06,  avg # of iterations = 11.5

     negative rho (up, down):  5.313E-03 5.492E-03

     total cpu time spent up to now is    14492.8 secs

     total energy              =   -7077.38152486 Ry
     estimated scf accuracy    <       0.40313252 Ry

     total magnetization       =     9.76 Bohr mag/cell
     absolute magnetization    =    10.65 Bohr mag/cell

     iteration #  2     ecut=    60.00 Ry     beta= 0.20
     Davidson diagonalization with overlap
     ethr =  1.67E-04,  avg # of iterations =  1.0

     negative rho (up, down):  4.227E-03 4.373E-03

     total cpu time spent up to now is    14658.8 secs

     total energy              =   -7077.38789791 Ry
     estimated scf accuracy    <       0.04117259 Ry

     total magnetization       =    10.04 Bohr mag/cell
     absolute magnetization    =    10.91 Bohr mag/cell

     iteration #  3     ecut=    60.00 Ry     beta= 0.20
     Davidson diagonalization with overlap
     ethr =  1.71E-05,  avg # of iterations =  1.6

     negative rho (up, down):  3.358E-03 3.478E-03

     total cpu time spent up to now is    14833.0 secs

     total energy              =   -7077.39181655 Ry
     estimated scf accuracy    <       0.03411205 Ry

     total magnetization       =     9.97 Bohr mag/cell
     absolute magnetization    =    10.85 Bohr mag/cell

     iteration #  4     ecut=    60.00 Ry     beta= 0.20
     Davidson diagonalization with overlap
     ethr =  1.42E-05,  avg # of iterations =  1.0

     negative rho (up, down):  2.671E-03 2.775E-03

     total cpu time spent up to now is    14998.6 secs

     total energy              =   -7077.39430229 Ry
     estimated scf accuracy    <       0.01730856 Ry

     total magnetization       =     9.96 Bohr mag/cell
     absolute magnetization    =    10.83 Bohr mag/cell

     iteration #  5     ecut=    60.00 Ry     beta= 0.20
     Davidson diagonalization with overlap
     ethr =  7.18E-06,  avg # of iterations =  1.0

     negative rho (up, down):  2.135E-03 2.225E-03

     total cpu time spent up to now is    15164.9 secs

     total energy              =   -7077.39581770 Ry
     estimated scf accuracy    <       0.00954886 Ry

     total magnetization       =    10.01 Bohr mag/cell
     absolute magnetization    =    10.87 Bohr mag/cell

     iteration #  6     ecut=    60.00 Ry     beta= 0.20
     Davidson diagonalization with overlap
     ethr =  3.96E-06,  avg # of iterations =  1.0

     negative rho (up, down):  1.735E-03 1.816E-03

     total cpu time spent up to now is    15332.3 secs

     total energy              =   -7077.39671951 Ry
     estimated scf accuracy    <       0.00587195 Ry

     total magnetization       =    10.00 Bohr mag/cell
     absolute magnetization    =    10.87 Bohr mag/cell

     iteration #  7     ecut=    60.00 Ry     beta= 0.20
     Davidson diagonalization with overlap
     ethr =  2.44E-06,  avg # of iterations =  1.0

     negative rho (up, down):  1.326E-03 1.382E-03

     total cpu time spent up to now is    15499.5 secs

     total energy              =   -7077.39857494 Ry
     estimated scf accuracy    <       0.00441384 Ry

     total magnetization       =    10.00 Bohr mag/cell
     absolute magnetization    =    10.86 Bohr mag/cell

     iteration #  8     ecut=    60.00 Ry     beta= 0.20
     Davidson diagonalization with overlap
     ethr =  1.83E-06,  avg # of iterations =  1.0

     negative rho (up, down):  1.081E-03 1.130E-03

     total cpu time spent up to now is    15668.9 secs

     total energy              =   -7077.39894899 Ry
     estimated scf accuracy    <       0.00270109 Ry

     total magnetization       =     9.99 Bohr mag/cell
     absolute magnetization    =    10.86 Bohr mag/cell

     iteration #  9     ecut=    60.00 Ry     beta= 0.20
     Davidson diagonalization with overlap
     ethr =  1.12E-06,  avg # of iterations =  1.0

     negative rho (up, down):  7.616E-04 7.754E-04

     total cpu time spent up to now is    15837.3 secs

     total energy              =   -7077.40002955 Ry
     estimated scf accuracy    <       0.00244837 Ry

     total magnetization       =     9.99 Bohr mag/cell
     absolute magnetization    =    10.86 Bohr mag/cell

     iteration # 10     ecut=    60.00 Ry     beta= 0.20
     Davidson diagonalization with overlap
     ethr =  1.02E-06,  avg # of iterations =  1.2

     negative rho (up, down):  5.907E-04 5.991E-04

     total cpu time spent up to now is    15999.9 secs

     total energy              =   -7077.40013079 Ry
     estimated scf accuracy    <       0.00086824 Ry

     total magnetization       =     9.99 Bohr mag/cell
     absolute magnetization    =    10.86 Bohr mag/cell

     iteration # 11     ecut=    60.00 Ry     beta= 0.20
     Davidson diagonalization with overlap
     ethr =  3.60E-07,  avg # of iterations =  1.0

     negative rho (up, down):  4.473E-04 4.416E-04

     total cpu time spent up to now is    16167.9 secs

     total energy              =   -7077.40024240 Ry
     estimated scf accuracy    <       0.00069569 Ry

     total magnetization       =     9.99 Bohr mag/cell
     absolute magnetization    =    10.86 Bohr mag/cell

     iteration # 12     ecut=    60.00 Ry     beta= 0.20
     Davidson diagonalization with overlap
     ethr =  2.89E-07,  avg # of iterations =  1.0

     negative rho (up, down):  3.456E-04 3.354E-04

     total cpu time spent up to now is    16337.1 secs

     total energy              =   -7077.40026943 Ry
     estimated scf accuracy    <       0.00025340 Ry

     total magnetization       =     9.98 Bohr mag/cell
     absolute magnetization    =    10.85 Bohr mag/cell

     iteration # 13     ecut=    60.00 Ry     beta= 0.20
     Davidson diagonalization with overlap
     ethr =  1.05E-07,  avg # of iterations =  1.1

     negative rho (up, down):  2.702E-04 2.565E-04

     total cpu time spent up to now is    16505.4 secs

     total energy              =   -7077.40028480 Ry
     estimated scf accuracy    <       0.00019754 Ry

     total magnetization       =     9.98 Bohr mag/cell
     absolute magnetization    =    10.85 Bohr mag/cell

     iteration # 14     ecut=    60.00 Ry     beta= 0.20
     Davidson diagonalization with overlap
     ethr =  8.20E-08,  avg # of iterations =  1.0

     negative rho (up, down):  2.181E-04 2.022E-04

     total cpu time spent up to now is    16673.3 secs

     total energy              =   -7077.40029212 Ry
     estimated scf accuracy    <       0.00013711 Ry

     total magnetization       =     9.98 Bohr mag/cell
     absolute magnetization    =    10.85 Bohr mag/cell

     iteration # 15     ecut=    60.00 Ry     beta= 0.20
     Davidson diagonalization with overlap
     ethr =  5.69E-08,  avg # of iterations =  1.0

     negative rho (up, down):  1.844E-04 1.657E-04

     total cpu time spent up to now is    16842.1 secs

     total energy              =   -7077.40029792 Ry
     estimated scf accuracy    <       0.00002743 Ry

     total magnetization       =     9.98 Bohr mag/cell
     absolute magnetization    =    10.85 Bohr mag/cell

     iteration # 16     ecut=    60.00 Ry     beta= 0.20
     Davidson diagonalization with overlap
     ethr =  1.14E-08,  avg # of iterations =  1.3

     negative rho (up, down):  1.523E-04 1.320E-04

     total cpu time spent up to now is    17010.8 secs

     total energy              =   -7077.40029996 Ry
     estimated scf accuracy    <       0.00000217 Ry

     total magnetization       =     9.98 Bohr mag/cell
     absolute magnetization    =    10.85 Bohr mag/cell

     iteration # 17     ecut=    60.00 Ry     beta= 0.20
     Davidson diagonalization with overlap
     ethr =  9.00E-10,  avg # of iterations =  4.0

     negative rho (up, down):  1.381E-04 1.153E-04

     total cpu time spent up to now is    17209.7 secs

     total energy              =   -7077.40030103 Ry
     estimated scf accuracy    <       0.00000141 Ry

     total magnetization       =     9.98 Bohr mag/cell
     absolute magnetization    =    10.85 Bohr mag/cell

     iteration # 18     ecut=    60.00 Ry     beta= 0.20
     Davidson diagonalization with overlap
     ethr =  5.87E-10,  avg # of iterations =  2.0

     negative rho (up, down):  1.225E-04 9.788E-05

     total cpu time spent up to now is    17400.4 secs

     total energy              =   -7077.40030160 Ry
     estimated scf accuracy    <       0.00000181 Ry

     total magnetization       =     9.98 Bohr mag/cell
     absolute magnetization    =    10.85 Bohr mag/cell

     iteration # 19     ecut=    60.00 Ry     beta= 0.20
     Davidson diagonalization with overlap
     ethr =  5.87E-10,  avg # of iterations =  1.0

     negative rho (up, down):  1.119E-04 8.588E-05

     total cpu time spent up to now is    17568.2 secs

     total energy              =   -7077.40030184 Ry
     estimated scf accuracy    <       0.00000123 Ry

     total magnetization       =     9.98 Bohr mag/cell
     absolute magnetization    =    10.85 Bohr mag/cell

     iteration # 20     ecut=    60.00 Ry     beta= 0.20
     Davidson diagonalization with overlap
     ethr =  5.12E-10,  avg # of iterations =  1.0

     negative rho (up, down):  1.157E-04 8.693E-05

     total cpu time spent up to now is    17737.5 secs

     total energy              =   -7077.40030205 Ry
     estimated scf accuracy    <       0.00000111 Ry

     total magnetization       =     9.98 Bohr mag/cell
     absolute magnetization    =    10.85 Bohr mag/cell

     iteration # 21     ecut=    60.00 Ry     beta= 0.20
     Davidson diagonalization with overlap
     ethr =  4.61E-10,  avg # of iterations =  1.3

     negative rho (up, down):  1.214E-04 9.085E-05

     total cpu time spent up to now is    17909.0 secs

     total energy              =   -7077.40030189 Ry
     estimated scf accuracy    <       0.00000107 Ry

     total magnetization       =     9.98 Bohr mag/cell
     absolute magnetization    =    10.85 Bohr mag/cell

     iteration # 22     ecut=    60.00 Ry     beta= 0.20
     Davidson diagonalization with overlap
     ethr =  4.43E-10,  avg # of iterations =  1.1

     negative rho (up, down):  1.257E-04 9.362E-05

     total cpu time spent up to now is    18082.8 secs

     total energy              =   -7077.40030200 Ry
     estimated scf accuracy    <       0.00000059 Ry

     total magnetization       =     9.98 Bohr mag/cell
     absolute magnetization    =    10.85 Bohr mag/cell

     iteration # 23     ecut=    60.00 Ry     beta= 0.20
     Davidson diagonalization with overlap
     ethr =  2.46E-10,  avg # of iterations =  1.2

     negative rho (up, down):  1.313E-04 9.793E-05

     total cpu time spent up to now is    18251.7 secs

     total energy              =   -7077.40030218 Ry
     estimated scf accuracy    <       0.00000073 Ry

     total magnetization       =     9.98 Bohr mag/cell
     absolute magnetization    =    10.85 Bohr mag/cell

     iteration # 24     ecut=    60.00 Ry     beta= 0.20
     Davidson diagonalization with overlap
     ethr =  2.46E-10,  avg # of iterations =  1.3

     negative rho (up, down):  1.360E-04 1.017E-04

     total cpu time spent up to now is    18425.5 secs

     total energy              =   -7077.40030249 Ry
     estimated scf accuracy    <       0.00000056 Ry

     total magnetization       =     9.98 Bohr mag/cell
     absolute magnetization    =    10.85 Bohr mag/cell

     iteration # 25     ecut=    60.00 Ry     beta= 0.20
     Davidson diagonalization with overlap
     ethr =  2.32E-10,  avg # of iterations =  1.4

     negative rho (up, down):  1.239E-04 9.004E-05

     total cpu time spent up to now is    18604.6 secs

     total energy              =   -7077.40030225 Ry
     estimated scf accuracy    <       0.00000074 Ry

     total magnetization       =     9.98 Bohr mag/cell
     absolute magnetization    =    10.85 Bohr mag/cell

     iteration # 26     ecut=    60.00 Ry     beta= 0.20
     Davidson diagonalization with overlap
     ethr =  2.32E-10,  avg # of iterations =  1.3

     negative rho (up, down):  1.232E-04 8.906E-05

     total cpu time spent up to now is    18775.9 secs

     total energy              =   -7077.40030229 Ry
     estimated scf accuracy    <       0.00000046 Ry

     total magnetization       =     9.98 Bohr mag/cell
     absolute magnetization    =    10.85 Bohr mag/cell

     iteration # 27     ecut=    60.00 Ry     beta= 0.20
     Davidson diagonalization with overlap
     ethr =  1.91E-10,  avg # of iterations =  1.0

     negative rho (up, down):  1.227E-04 8.833E-05

     total cpu time spent up to now is    18943.7 secs

     total energy              =   -7077.40030230 Ry
     estimated scf accuracy    <       0.00000061 Ry

     total magnetization       =     9.98 Bohr mag/cell
     absolute magnetization    =    10.85 Bohr mag/cell

     iteration # 28     ecut=    60.00 Ry     beta= 0.20
     Davidson diagonalization with overlap
     ethr =  1.91E-10,  avg # of iterations =  1.0

     negative rho (up, down):  1.273E-04 9.244E-05

     total cpu time spent up to now is    19110.8 secs

     total energy              =   -7077.40030204 Ry
     estimated scf accuracy    <       0.00000062 Ry

     total magnetization       =     9.98 Bohr mag/cell
     absolute magnetization    =    10.85 Bohr mag/cell

     iteration # 29     ecut=    60.00 Ry     beta= 0.20
     Davidson diagonalization with overlap
     ethr =  1.91E-10,  avg # of iterations =  1.0

     negative rho (up, down):  1.279E-04 9.284E-05

     total cpu time spent up to now is    19278.7 secs

     total energy              =   -7077.40030236 Ry
     estimated scf accuracy    <       0.00000034 Ry

     total magnetization       =     9.98 Bohr mag/cell
     absolute magnetization    =    10.85 Bohr mag/cell

     iteration # 30     ecut=    60.00 Ry     beta= 0.20
     Davidson diagonalization with overlap
     ethr =  1.42E-10,  avg # of iterations =  1.3

     negative rho (up, down):  1.434E-04 1.075E-04

     total cpu time spent up to now is    19450.3 secs

     total energy              =   -7077.40030262 Ry
     estimated scf accuracy    <       0.00000138 Ry

     total magnetization       =     9.98 Bohr mag/cell
     absolute magnetization    =    10.85 Bohr mag/cell

     iteration # 31     ecut=    60.00 Ry     beta= 0.20
     Davidson diagonalization with overlap
     ethr =  1.42E-10,  avg # of iterations =  1.4

     negative rho (up, down):  1.479E-04 1.119E-04

     total cpu time spent up to now is    19622.4 secs

     total energy              =   -7077.40030268 Ry
     estimated scf accuracy    <       0.00000024 Ry

     total magnetization       =     9.98 Bohr mag/cell
     absolute magnetization    =    10.85 Bohr mag/cell

     iteration # 32     ecut=    60.00 Ry     beta= 0.20
     Davidson diagonalization with overlap
     ethr =  1.00E-10,  avg # of iterations =  1.0

     negative rho (up, down):  1.496E-04 1.136E-04

     total cpu time spent up to now is    19790.9 secs

     total energy              =   -7077.40030270 Ry
     estimated scf accuracy    <       0.00000008 Ry

     total magnetization       =     9.98 Bohr mag/cell
     absolute magnetization    =    10.85 Bohr mag/cell

     iteration # 33     ecut=    60.00 Ry     beta= 0.20
     Davidson diagonalization with overlap
     ethr =  3.29E-11,  avg # of iterations =  1.0

     negative rho (up, down):  1.502E-04 1.143E-04

     total cpu time spent up to now is    19959.8 secs

     total energy              =   -7077.40030271 Ry
     estimated scf accuracy    <       0.00000005 Ry

     total magnetization       =     9.98 Bohr mag/cell
     absolute magnetization    =    10.85 Bohr mag/cell

     iteration # 34     ecut=    60.00 Ry     beta= 0.20
     Davidson diagonalization with overlap
     ethr =  1.97E-11,  avg # of iterations =  1.1

     negative rho (up, down):  1.492E-04 1.133E-04

     total cpu time spent up to now is    20129.7 secs

     total energy              =   -7077.40030271 Ry
     estimated scf accuracy    <       0.00000002 Ry

     total magnetization       =     9.98 Bohr mag/cell
     absolute magnetization    =    10.85 Bohr mag/cell

     iteration # 35     ecut=    60.00 Ry     beta= 0.20
     Davidson diagonalization with overlap
     ethr =  9.13E-12,  avg # of iterations =  1.7

     negative rho (up, down):  1.528E-04 1.171E-04
 
     Magnetic moment per site  (integrated on atomic sphere of radius R)
     atom   1 (R=0.202)  charge=  8.7469  magn=  0.9609
     atom   2 (R=0.140)  charge=  5.5943  magn=  0.2038
     atom   3 (R=0.140)  charge=  5.5943  magn=  0.2038
     atom   4 (R=0.140)  charge=  5.5944  magn=  0.2010
     atom   5 (R=0.202)  charge=  8.8236  magn=  0.9256
     atom   6 (R=0.140)  charge=  5.5810  magn=  0.2518
     atom   7 (R=0.140)  charge=  5.5810  magn=  0.2518
     atom   8 (R=0.140)  charge=  5.5799  magn=  0.2512
     atom   9 (R=0.202)  charge=  8.8365  magn=  0.8665
     atom  10 (R=0.140)  charge=  5.5781  magn=  0.2440
     atom  11 (R=0.140)  charge=  5.5780  magn=  0.2390
     atom  12 (R=0.140)  charge=  5.5781  magn=  0.2440
     atom  13 (R=0.202)  charge=  8.8400  magn=  0.8506
     atom  14 (R=0.140)  charge=  5.5775  magn=  0.2333
     atom  15 (R=0.140)  charge=  5.5775  magn=  0.2333
     atom  16 (R=0.140)  charge=  5.5826  magn=  0.2362
     atom  17 (R=0.202)  charge=  8.8163  magn=  0.8662
     atom  18 (R=0.140)  charge=  5.5791  magn=  0.2279
     atom  19 (R=0.140)  charge=  5.5791  magn=  0.2279
     atom  20 (R=0.140)  charge=  5.5790  magn=  0.2495
     atom  21 (R=0.202)  charge=  8.7596  magn=  0.9476
     atom  22 (R=0.140)  charge=  5.5961  magn=  0.1840
     atom  23 (R=0.140)  charge=  5.5523  magn=  0.1063
     atom  24 (R=0.140)  charge=  5.5961  magn=  0.1840
     atom  25 (R=0.140)  charge=  0.7568  magn= -0.0078

     total cpu time spent up to now is    20308.2 secs

     End of self-consistent calculation

     Number of k-points >= 100: set verbosity='high' to print the bands.

     the Fermi energy is    -5.2676 ev

!    total energy              =   -7077.40030271 Ry
     total all-electron energy =   -199909.836873 Ry
     estimated scf accuracy    <          9.6E-09 Ry
     smearing contrib. (-TS)   =      -0.00000801 Ry
     internal energy E=F+TS    =   -7077.40029470 Ry

     The total energy is F=E-TS. E is the sum of the following terms:
     one-electron contribution =  -61034.71551816 Ry
     hartree contribution      =   30703.86925089 Ry
     xc contribution           =    -835.35048264 Ry
     ewald contribution        =   29222.93104611 Ry
     DFT-D3 Dispersion         =      -2.52881992 Ry
     one-center paw contrib.   =   -5131.60577098 Ry

     total magnetization       =     9.98 Bohr mag/cell
     absolute magnetization    =    10.85 Bohr mag/cell

     convergence has been achieved in  35 iterations

     negative rho (up, down):  1.528E-04 1.171E-04

     Forces acting on atoms (cartesian axes, Ry/au):

     atom    1 type  1   force =     0.00002459    0.00001418    0.01598279
     atom    2 type  2   force =    -0.00036253   -0.01423552   -0.00894434
     atom    3 type  2   force =    -0.01250959    0.00680378   -0.00894433
     atom    4 type  2   force =     0.01244201    0.00718342   -0.00948776
     atom    5 type  1   force =     0.00002381    0.00001374   -0.00028837
     atom    6 type  2   force =    -0.00026621   -0.00008112    0.00424241
     atom    7 type  2   force =    -0.00020337   -0.00018996    0.00424243
     atom    8 type  2   force =     0.00075818    0.00043775    0.00663689
     atom    9 type  1   force =    -0.00006580   -0.00003791   -0.00015633
     atom   10 type  2   force =     0.00088087   -0.00008608   -0.00087054
     atom   11 type  2   force =     0.00014588    0.00008416    0.00064251
     atom   12 type  2   force =     0.00036583    0.00080585   -0.00087056
     atom   13 type  1   force =    -0.00005506   -0.00003174    0.00097652
     atom   14 type  2   force =    -0.00010137    0.00030752    0.00134786
     atom   15 type  2   force =     0.00021559   -0.00024150    0.00134786
     atom   16 type  2   force =    -0.00117658   -0.00067925   -0.00427565
     atom   17 type  1   force =     0.00067710    0.00039071    0.00368317
     atom   18 type  2   force =    -0.00077238   -0.00381627    0.00710782
     atom   19 type  2   force =    -0.00369112    0.00123933    0.00710773
     atom   20 type  2   force =    -0.00039356   -0.00022725    0.00028668
     atom   21 type  1   force =     0.00028234    0.00016290    0.00043295
     atom   22 type  2   force =     0.00021532    0.00130183    0.00068641
     atom   23 type  2   force =     0.00395645    0.00228422    0.05578459
     atom   24 type  2   force =     0.00123483   -0.00046449    0.00068655
     atom   25 type  3   force =    -0.00162525   -0.00093830   -0.07735730

     Total force =     0.096416     Total SCF correction =     0.000409


     Computing stress (Cartesian axis) and pressure


     negative rho (up, down):  1.528E-04 1.171E-04
          total   stress  (Ry/bohr**3)                   (kbar)     P=      -11.86
  -0.00009191   0.00000089   0.00000149          -13.52        0.13        0.22
   0.00000089  -0.00009294   0.00000086            0.13      -13.67        0.13
   0.00000149   0.00000086  -0.00005710            0.22        0.13       -8.40

     Energy error            =      1.4E-02 Ry
     Gradient error          =      7.7E-02 Ry/Bohr

     number of scf cycles    =   3
     number of bfgs steps    =   2

     energy             old  =   -7077.3867968046 Ry
     energy             new  =   -7077.4003027098 Ry

     CASE: energy            _new < energy            _old

     new trust radius        =       0.1508119296 bohr
     new conv_thr            =       0.0000000099 Ry


ATOMIC_POSITIONS (angstrom)
Ni               5.3171990772        3.0698863186       11.0000000000    0   0   0
Pd               2.6585995386        3.0698851333       11.0000764482    0   0   0
Pd               3.9878982814        0.7674721723       11.0000764482    0   0   0
Pd               1.3293007958        0.7674721723       11.0000764482    0   0   0
Ni               2.6585995386        1.5349431593       13.1707374333    0   0   0
Pd               3.9878982814        3.8373584909       13.1708138815    0   0   0
Pd               5.3171990772        1.5349419740       13.1708138815    0   0   0
Pd               6.6464998731        3.8373584909       13.1708138815    0   0   0
Ni               0.0000938597        0.0000539488       15.3353853723
Pd               5.3185295523        4.6050986322       15.3366033613
Pd               3.9876889476        2.3022932923       15.3392747800
Pd               6.6473972245        2.3034323927       15.3366034349
Ni               5.3170099865        3.0697771731       17.5130277093
Pd               3.9868066542        0.7688404881       17.5135864700
Pd               2.6592388410        3.0682553400       17.5135865648
Pd               1.3284693192        0.7669920373       17.4963034062
Ni               2.6583769211        1.5348146629       19.6952520524
Pd               3.9923921008        3.8290274720       19.6839282215
Pd               5.3122310612        1.5429994168       19.6839283633
Pd               6.6403259867        3.8337942280       19.6732366254
Ni               0.0011040761        0.0006377111       21.7694846213
Pd               5.3159262358        4.6196977827       21.8825901968
Pd               3.9859430823        2.3012857742       22.0291152677
Pd               6.6587385285        2.2938789216       21.8825907880
H                3.9776774860        2.2965134952       23.6982815849    0   0   1



     Writing config-only to output data dir /tmpu/isholek_g/isholek/MIGUEL/QE/Hydrogen/111_2x2/SAVE/Ni1Pd3_111-T1.save/ :
     XML data file
     NEW-OLD atomic charge density approx. for the potential

     Check: negative core charge=   -0.000002

     negative rho (up, down):  1.681E-04 1.416E-04
     Generating pointlists ...
     new r_m :   0.1295 (alat units)  1.3012 (a.u.) for type    2
     new r_m :   0.1295 (alat units)  1.3012 (a.u.) for type    3

     total cpu time spent up to now is    20584.0 secs

     Self-consistent Calculation

     iteration #  1     ecut=    60.00 Ry     beta= 0.20
     Davidson diagonalization with overlap
     c_bands:  1 eigenvalues not converged
     c_bands:  1 eigenvalues not converged
     c_bands:  1 eigenvalues not converged
     c_bands:  1 eigenvalues not converged
     c_bands:  1 eigenvalues not converged
     c_bands:  1 eigenvalues not converged
     ethr =  1.00E-06,  avg # of iterations = 17.8

     negative rho (up, down):  2.806E-04 2.498E-04

     total cpu time spent up to now is    21216.6 secs

     total energy              =   -7077.34658475 Ry
     estimated scf accuracy    <       1.55565200 Ry

     total magnetization       =     9.39 Bohr mag/cell
     absolute magnetization    =    10.30 Bohr mag/cell

     iteration #  2     ecut=    60.00 Ry     beta= 0.20
     Davidson diagonalization with overlap
     ethr =  6.45E-04,  avg # of iterations =  1.0

     negative rho (up, down):  3.146E-04 2.846E-04

     total cpu time spent up to now is    21382.3 secs

     total energy              =   -7077.37484067 Ry
     estimated scf accuracy    <       0.15345301 Ry

     total magnetization       =    10.08 Bohr mag/cell
     absolute magnetization    =    10.94 Bohr mag/cell

     iteration #  3     ecut=    60.00 Ry     beta= 0.20
     Davidson diagonalization with overlap
     ethr =  6.37E-05,  avg # of iterations =  1.5

     negative rho (up, down):  3.096E-04 2.789E-04

     total cpu time spent up to now is    21558.2 secs

     total energy              =   -7077.38799971 Ry
     estimated scf accuracy    <       0.10748651 Ry

     total magnetization       =     9.92 Bohr mag/cell
     absolute magnetization    =    10.79 Bohr mag/cell

     iteration #  4     ecut=    60.00 Ry     beta= 0.20
     Davidson diagonalization with overlap
     ethr =  4.46E-05,  avg # of iterations =  1.0

     negative rho (up, down):  2.913E-04 2.595E-04

     total cpu time spent up to now is    21724.3 secs

     total energy              =   -7077.39589127 Ry
     estimated scf accuracy    <       0.05902184 Ry

     total magnetization       =     9.89 Bohr mag/cell
     absolute magnetization    =    10.76 Bohr mag/cell

     iteration #  5     ecut=    60.00 Ry     beta= 0.20
     Davidson diagonalization with overlap
     ethr =  2.45E-05,  avg # of iterations =  1.0

     negative rho (up, down):  2.708E-04 2.377E-04

     total cpu time spent up to now is    21892.0 secs

     total energy              =   -7077.40144309 Ry
     estimated scf accuracy    <       0.03403723 Ry

     total magnetization       =     9.98 Bohr mag/cell
     absolute magnetization    =    10.84 Bohr mag/cell

     iteration #  6     ecut=    60.00 Ry     beta= 0.20
     Davidson diagonalization with overlap
     ethr =  1.41E-05,  avg # of iterations =  1.0

     negative rho (up, down):  2.532E-04 2.189E-04

     total cpu time spent up to now is    22056.0 secs

     total energy              =   -7077.40440977 Ry
     estimated scf accuracy    <       0.02142111 Ry

     total magnetization       =     9.97 Bohr mag/cell
     absolute magnetization    =    10.84 Bohr mag/cell

     iteration #  7     ecut=    60.00 Ry     beta= 0.20
     Davidson diagonalization with overlap
     ethr =  8.89E-06,  avg # of iterations =  1.1

     negative rho (up, down):  2.097E-04 1.745E-04

     total cpu time spent up to now is    22227.1 secs

     total energy              =   -7077.40928359 Ry
     estimated scf accuracy    <       0.01727084 Ry

     total magnetization       =     9.96 Bohr mag/cell
     absolute magnetization    =    10.83 Bohr mag/cell

     iteration #  8     ecut=    60.00 Ry     beta= 0.20
     Davidson diagonalization with overlap
     ethr =  7.17E-06,  avg # of iterations =  1.0

     negative rho (up, down):  1.938E-04 1.585E-04

     total cpu time spent up to now is    22393.4 secs

     total energy              =   -7077.41071470 Ry
     estimated scf accuracy    <       0.01198626 Ry

     total magnetization       =     9.96 Bohr mag/cell
     absolute magnetization    =    10.83 Bohr mag/cell

     iteration #  9     ecut=    60.00 Ry     beta= 0.20
     Davidson diagonalization with overlap
     ethr =  4.97E-06,  avg # of iterations =  1.0

     negative rho (up, down):  1.320E-04 1.001E-04

     total cpu time spent up to now is    22562.0 secs

     total energy              =   -7077.41450449 Ry
     estimated scf accuracy    <       0.01021396 Ry

     total magnetization       =     9.96 Bohr mag/cell
     absolute magnetization    =    10.83 Bohr mag/cell

     iteration # 10     ecut=    60.00 Ry     beta= 0.20
     Davidson diagonalization with overlap
     ethr =  4.24E-06,  avg # of iterations =  1.1

     negative rho (up, down):  1.169E-04 8.589E-05

     total cpu time spent up to now is    22730.2 secs

     total energy              =   -7077.41497894 Ry
     estimated scf accuracy    <       0.00322711 Ry

     total magnetization       =     9.95 Bohr mag/cell
     absolute magnetization    =    10.82 Bohr mag/cell

     iteration # 11     ecut=    60.00 Ry     beta= 0.20
     Davidson diagonalization with overlap
     ethr =  1.34E-06,  avg # of iterations =  1.3

     negative rho (up, down):  7.594E-05 4.919E-05

     total cpu time spent up to now is    22904.6 secs

     total energy              =   -7077.41551303 Ry
     estimated scf accuracy    <       0.00247019 Ry

     total magnetization       =     9.95 Bohr mag/cell
     absolute magnetization    =    10.82 Bohr mag/cell

     iteration # 12     ecut=    60.00 Ry     beta= 0.20
     Davidson diagonalization with overlap
     ethr =  1.02E-06,  avg # of iterations =  1.2

     negative rho (up, down):  6.091E-05 3.683E-05

     total cpu time spent up to now is    23077.7 secs

     total energy              =   -7077.41565309 Ry
     estimated scf accuracy    <       0.00100340 Ry

     total magnetization       =     9.94 Bohr mag/cell
     absolute magnetization    =    10.81 Bohr mag/cell

     iteration # 13     ecut=    60.00 Ry     beta= 0.20
     Davidson diagonalization with overlap
     ethr =  4.16E-07,  avg # of iterations =  1.1

     negative rho (up, down):  4.952E-05 2.796E-05

     total cpu time spent up to now is    23247.0 secs

     total energy              =   -7077.41571799 Ry
     estimated scf accuracy    <       0.00049982 Ry

     total magnetization       =     9.94 Bohr mag/cell
     absolute magnetization    =    10.81 Bohr mag/cell

     iteration # 14     ecut=    60.00 Ry     beta= 0.20
     Davidson diagonalization with overlap
     ethr =  2.07E-07,  avg # of iterations =  1.1

     negative rho (up, down):  3.845E-05 1.976E-05

     total cpu time spent up to now is    23418.9 secs

     total energy              =   -7077.41572506 Ry
     estimated scf accuracy    <       0.00022118 Ry

     total magnetization       =     9.94 Bohr mag/cell
     absolute magnetization    =    10.81 Bohr mag/cell

     iteration # 15     ecut=    60.00 Ry     beta= 0.20
     Davidson diagonalization with overlap
     ethr =  9.18E-08,  avg # of iterations =  1.1

     negative rho (up, down):  3.279E-05 1.584E-05

     total cpu time spent up to now is    23590.8 secs

     total energy              =   -7077.41572602 Ry
     estimated scf accuracy    <       0.00004595 Ry

     total magnetization       =     9.94 Bohr mag/cell
     absolute magnetization    =    10.81 Bohr mag/cell

     iteration # 16     ecut=    60.00 Ry     beta= 0.20
     Davidson diagonalization with overlap
     ethr =  1.91E-08,  avg # of iterations =  2.0

     negative rho (up, down):  3.447E-05 1.665E-05

     total cpu time spent up to now is    23775.9 secs

     total energy              =   -7077.41572610 Ry
     estimated scf accuracy    <       0.00000516 Ry

     total magnetization       =     9.94 Bohr mag/cell
     absolute magnetization    =    10.81 Bohr mag/cell

     iteration # 17     ecut=    60.00 Ry     beta= 0.20
     Davidson diagonalization with overlap
     ethr =  2.14E-09,  avg # of iterations =  5.2

     negative rho (up, down):  3.697E-05 1.799E-05

     total cpu time spent up to now is    23986.8 secs

     total energy              =   -7077.41572803 Ry
     estimated scf accuracy    <       0.00000281 Ry

     total magnetization       =     9.94 Bohr mag/cell
     absolute magnetization    =    10.81 Bohr mag/cell

     iteration # 18     ecut=    60.00 Ry     beta= 0.20
     Davidson diagonalization with overlap
     ethr =  1.17E-09,  avg # of iterations =  2.0

     negative rho (up, down):  4.117E-05 2.062E-05

     total cpu time spent up to now is    24173.5 secs

     total energy              =   -7077.41572814 Ry
     estimated scf accuracy    <       0.00000228 Ry

     total magnetization       =     9.94 Bohr mag/cell
     absolute magnetization    =    10.81 Bohr mag/cell

     iteration # 19     ecut=    60.00 Ry     beta= 0.20
     Davidson diagonalization with overlap
     ethr =  9.44E-10,  avg # of iterations =  2.0

     negative rho (up, down):  4.148E-05 2.080E-05

     total cpu time spent up to now is    24359.4 secs

     total energy              =   -7077.41572835 Ry
     estimated scf accuracy    <       0.00000290 Ry

     total magnetization       =     9.94 Bohr mag/cell
     absolute magnetization    =    10.81 Bohr mag/cell

     iteration # 20     ecut=    60.00 Ry     beta= 0.20
     Davidson diagonalization with overlap
     ethr =  9.44E-10,  avg # of iterations =  1.0

     negative rho (up, down):  4.523E-05 2.330E-05

     total cpu time spent up to now is    24526.0 secs

     total energy              =   -7077.41572825 Ry
     estimated scf accuracy    <       0.00000198 Ry

     total magnetization       =     9.94 Bohr mag/cell
     absolute magnetization    =    10.81 Bohr mag/cell

     iteration # 21     ecut=    60.00 Ry     beta= 0.20
     Davidson diagonalization with overlap
     ethr =  8.20E-10,  avg # of iterations =  1.0

     negative rho (up, down):  5.704E-05 3.172E-05

     total cpu time spent up to now is    24696.6 secs

     total energy              =   -7077.41572766 Ry
     estimated scf accuracy    <       0.00000264 Ry

     total magnetization       =     9.94 Bohr mag/cell
     absolute magnetization    =    10.81 Bohr mag/cell

     iteration # 22     ecut=    60.00 Ry     beta= 0.20
     Davidson diagonalization with overlap
     ethr =  8.20E-10,  avg # of iterations =  1.1

     negative rho (up, down):  6.844E-05 4.054E-05

     total cpu time spent up to now is    24867.6 secs

     total energy              =   -7077.41572820 Ry
     estimated scf accuracy    <       0.00000166 Ry

     total magnetization       =     9.94 Bohr mag/cell
     absolute magnetization    =    10.81 Bohr mag/cell

     iteration # 23     ecut=    60.00 Ry     beta= 0.20
     Davidson diagonalization with overlap
     ethr =  6.91E-10,  avg # of iterations =  1.3

     negative rho (up, down):  7.680E-05 4.724E-05

     total cpu time spent up to now is    25040.8 secs

     total energy              =   -7077.41572773 Ry
     estimated scf accuracy    <       0.00000119 Ry

     total magnetization       =     9.94 Bohr mag/cell
     absolute magnetization    =    10.81 Bohr mag/cell

     iteration # 24     ecut=    60.00 Ry     beta= 0.20
     Davidson diagonalization with overlap
     ethr =  4.96E-10,  avg # of iterations =  1.2

     negative rho (up, down):  9.156E-05 5.962E-05

     total cpu time spent up to now is    25212.7 secs

     total energy              =   -7077.41572787 Ry
     estimated scf accuracy    <       0.00000085 Ry

     total magnetization       =     9.94 Bohr mag/cell
     absolute magnetization    =    10.81 Bohr mag/cell

     iteration # 25     ecut=    60.00 Ry     beta= 0.20
     Davidson diagonalization with overlap
     ethr =  3.54E-10,  avg # of iterations =  1.0

     negative rho (up, down):  1.069E-04 7.325E-05

     total cpu time spent up to now is    25380.6 secs

     total energy              =   -7077.41572764 Ry
     estimated scf accuracy    <       0.00000069 Ry

     total magnetization       =     9.94 Bohr mag/cell
     absolute magnetization    =    10.81 Bohr mag/cell

     iteration # 26     ecut=    60.00 Ry     beta= 0.20
     Davidson diagonalization with overlap
     ethr =  2.87E-10,  avg # of iterations =  1.3

     negative rho (up, down):  1.188E-04 8.430E-05

     total cpu time spent up to now is    25554.9 secs

     total energy              =   -7077.41572776 Ry
     estimated scf accuracy    <       0.00000054 Ry

     total magnetization       =     9.94 Bohr mag/cell
     absolute magnetization    =    10.81 Bohr mag/cell

     iteration # 27     ecut=    60.00 Ry     beta= 0.20
     Davidson diagonalization with overlap
     ethr =  2.24E-10,  avg # of iterations =  1.2

     negative rho (up, down):  1.370E-04 1.016E-04

     total cpu time spent up to now is    25726.1 secs

     total energy              =   -7077.41572826 Ry
     estimated scf accuracy    <       0.00000032 Ry

     total magnetization       =     9.94 Bohr mag/cell
     absolute magnetization    =    10.81 Bohr mag/cell

     iteration # 28     ecut=    60.00 Ry     beta= 0.20
     Davidson diagonalization with overlap
     ethr =  1.33E-10,  avg # of iterations =  2.2

     negative rho (up, down):  1.363E-04 1.007E-04

     total cpu time spent up to now is    25915.8 secs

     total energy              =   -7077.41572835 Ry
     estimated scf accuracy    <       0.00000016 Ry

     total magnetization       =     9.94 Bohr mag/cell
     absolute magnetization    =    10.81 Bohr mag/cell

     iteration # 29     ecut=    60.00 Ry     beta= 0.20
     Davidson diagonalization with overlap
     ethr =  6.67E-11,  avg # of iterations =  2.2

     negative rho (up, down):  1.520E-04 1.161E-04

     total cpu time spent up to now is    26102.8 secs

     total energy              =   -7077.41572839 Ry
     estimated scf accuracy    <       0.00000011 Ry

     total magnetization       =     9.94 Bohr mag/cell
     absolute magnetization    =    10.81 Bohr mag/cell

     iteration # 30     ecut=    60.00 Ry     beta= 0.20
     Davidson diagonalization with overlap
     ethr =  4.37E-11,  avg # of iterations =  1.9

     negative rho (up, down):  1.520E-04 1.161E-04

     total cpu time spent up to now is    26283.9 secs

     total energy              =   -7077.41572839 Ry
     estimated scf accuracy    <       0.00000001 Ry

     total magnetization       =     9.94 Bohr mag/cell
     absolute magnetization    =    10.81 Bohr mag/cell

     iteration # 31     ecut=    60.00 Ry     beta= 0.20
     Davidson diagonalization with overlap
     ethr =  5.89E-12,  avg # of iterations =  4.6

     negative rho (up, down):  1.521E-04 1.163E-04

     total cpu time spent up to now is    26492.0 secs

     total energy              =   -7077.41572840 Ry
     estimated scf accuracy    <       0.00000002 Ry

     total magnetization       =     9.94 Bohr mag/cell
     absolute magnetization    =    10.81 Bohr mag/cell

     iteration # 32     ecut=    60.00 Ry     beta= 0.20
     Davidson diagonalization with overlap
     ethr =  5.89E-12,  avg # of iterations =  1.1

     negative rho (up, down):  1.538E-04 1.179E-04
 
     Magnetic moment per site  (integrated on atomic sphere of radius R)
     atom   1 (R=0.202)  charge=  8.7469  magn=  0.9608
     atom   2 (R=0.129)  charge=  4.9925  magn=  0.1843
     atom   3 (R=0.129)  charge=  4.9925  magn=  0.1843
     atom   4 (R=0.129)  charge=  4.9925  magn=  0.1817
     atom   5 (R=0.202)  charge=  8.8236  magn=  0.9256
     atom   6 (R=0.129)  charge=  4.9813  magn=  0.2279
     atom   7 (R=0.129)  charge=  4.9813  magn=  0.2279
     atom   8 (R=0.129)  charge=  4.9803  magn=  0.2283
     atom   9 (R=0.202)  charge=  8.8365  magn=  0.8677
     atom  10 (R=0.129)  charge=  4.9781  magn=  0.2214
     atom  11 (R=0.129)  charge=  4.9778  magn=  0.2166
     atom  12 (R=0.129)  charge=  4.9781  magn=  0.2214
     atom  13 (R=0.202)  charge=  8.8388  magn=  0.8514
     atom  14 (R=0.129)  charge=  4.9772  magn=  0.2112
     atom  15 (R=0.129)  charge=  4.9772  magn=  0.2112
     atom  16 (R=0.129)  charge=  4.9822  magn=  0.2122
     atom  17 (R=0.202)  charge=  8.8130  magn=  0.8644
     atom  18 (R=0.129)  charge=  4.9799  magn=  0.2048
     atom  19 (R=0.129)  charge=  4.9799  magn=  0.2048
     atom  20 (R=0.129)  charge=  4.9791  magn=  0.2245
     atom  21 (R=0.202)  charge=  8.7606  magn=  0.9371
     atom  22 (R=0.129)  charge=  4.9936  magn=  0.1621
     atom  23 (R=0.129)  charge=  4.9571  magn=  0.0846
     atom  24 (R=0.129)  charge=  4.9936  magn=  0.1621
     atom  25 (R=0.129)  charge=  0.7346  magn= -0.0072

     total cpu time spent up to now is    26658.8 secs

     End of self-consistent calculation

     Number of k-points >= 100: set verbosity='high' to print the bands.

     the Fermi energy is    -5.2407 ev

!    total energy              =   -7077.41572839 Ry
     total all-electron energy =   -199909.852299 Ry
     estimated scf accuracy    <          4.8E-09 Ry
     smearing contrib. (-TS)   =       0.00018383 Ry
     internal energy E=F+TS    =   -7077.41591222 Ry

     The total energy is F=E-TS. E is the sum of the following terms:
     one-electron contribution =  -60967.06020883 Ry
     hartree contribution      =   30670.27028217 Ry
     xc contribution           =    -835.36816446 Ry
     ewald contribution        =   29188.87304842 Ry
     DFT-D3 Dispersion         =      -2.52530947 Ry
     one-center paw contrib.   =   -5131.60556005 Ry

     total magnetization       =     9.94 Bohr mag/cell
     absolute magnetization    =    10.81 Bohr mag/cell

     convergence has been achieved in  32 iterations

     negative rho (up, down):  1.538E-04 1.179E-04

     Forces acting on atoms (cartesian axes, Ry/au):

     atom    1 type  1   force =    -0.00001914   -0.00001104    0.01603738
     atom    2 type  2   force =    -0.00034407   -0.01423231   -0.00893484
     atom    3 type  2   force =    -0.01249758    0.00681817   -0.00893480
     atom    4 type  2   force =     0.01242698    0.00717476   -0.00948388
     atom    5 type  1   force =     0.00006195    0.00003576   -0.00033320
     atom    6 type  2   force =    -0.00032521   -0.00010612    0.00422484
     atom    7 type  2   force =    -0.00025448   -0.00022861    0.00422489
     atom    8 type  2   force =     0.00084427    0.00048743    0.00631609
     atom    9 type  1   force =    -0.00008613   -0.00004967   -0.00019905
     atom   10 type  2   force =     0.00092530    0.00010124   -0.00081834
     atom   11 type  2   force =     0.00027958    0.00016136    0.00073329
     atom   12 type  2   force =     0.00055029    0.00075068   -0.00081833
     atom   13 type  1   force =    -0.00005182   -0.00002997    0.00100503
     atom   14 type  2   force =    -0.00008866    0.00019088    0.00115974
     atom   15 type  2   force =     0.00012098   -0.00017221    0.00115978
     atom   16 type  2   force =    -0.00150365   -0.00086809   -0.00060175
     atom   17 type  1   force =     0.00075039    0.00043329    0.00403747
     atom   18 type  2   force =    -0.00150725   -0.00367819    0.00801077
     atom   19 type  2   force =    -0.00393901    0.00053387    0.00801075
     atom   20 type  2   force =    -0.00061576   -0.00035561    0.00062642
     atom   21 type  1   force =     0.00004632    0.00002675    0.00143333
     atom   22 type  2   force =     0.00136384    0.00143869    0.00058961
     atom   23 type  2   force =     0.00339235    0.00195850    0.02458032
     atom   24 type  2   force =     0.00192780    0.00046178    0.00058950
     atom   25 type  3   force =    -0.00145727   -0.00084136   -0.05261502

     Total force =     0.059894     Total SCF correction =     0.000383


     Computing stress (Cartesian axis) and pressure


     negative rho (up, down):  1.538E-04 1.179E-04
          total   stress  (Ry/bohr**3)                   (kbar)     P=      -11.90
  -0.00009696   0.00000095   0.00000250          -14.26        0.14        0.37
   0.00000095  -0.00009806   0.00000145            0.14      -14.43        0.21
   0.00000250   0.00000145  -0.00004775            0.37        0.21       -7.02

     Energy error            =      1.5E-02 Ry
     Gradient error          =      5.3E-02 Ry/Bohr

     number of scf cycles    =   4
     number of bfgs steps    =   3

     energy             old  =   -7077.4003027098 Ry
     energy             new  =   -7077.4157283927 Ry

     CASE: energy            _new < energy            _old

     new trust radius        =       0.2262178944 bohr
     new conv_thr            =       0.0000000067 Ry


ATOMIC_POSITIONS (angstrom)
Ni               5.3171990772        3.0698863186       11.0000000000    0   0   0
Pd               2.6585995386        3.0698851333       11.0000764482    0   0   0
Pd               3.9878982814        0.7674721723       11.0000764482    0   0   0
Pd               1.3293007958        0.7674721723       11.0000764482    0   0   0
Ni               2.6585995386        1.5349431593       13.1707374333    0   0   0
Pd               3.9878982814        3.8373584909       13.1708138815    0   0   0
Pd               5.3171990772        1.5349419740       13.1708138815    0   0   0
Pd               6.6464998731        3.8373584909       13.1708138815    0   0   0
Ni               0.0000111977        0.0000062313       15.3350574624
Pd               5.3200840291        4.6051699598       15.3351193061
Pd               3.9880921488        2.3025260431       15.3405246426
Pd               6.6482362456        2.3047429048       15.3351193692
Ni               5.3168899893        3.0697078717       17.5149957416
Pd               3.9865789263        0.7693645353       17.5161315149
Pd               2.6595788131        3.0677961301       17.5161316024
Pd               1.3261291974        0.7656410593       17.4916075365
Ni               2.6592582682        1.5353235448       19.7018353430
Pd               3.9901851304        3.8229171437       19.6968348952
Pd               5.3058358957        1.5441433960       19.6968351140
Pd               6.6393792011        3.8332475257       19.6737472331
Ni               0.0014820242        0.0008558388       21.7713863800
Pd               5.3172693318        4.6224033505       21.8841705508
Pd               3.9926042489        2.3051315641       22.1043321790
Pd               6.6617530871        2.2936893255       21.8841712767
H                3.9776774860        2.2965134952       23.5785722304    0   0   1



     Writing config-only to output data dir /tmpu/isholek_g/isholek/MIGUEL/QE/Hydrogen/111_2x2/SAVE/Ni1Pd3_111-T1.save/ :
     XML data file
     NEW-OLD atomic charge density approx. for the potential

     Check: negative core charge=   -0.000002

     negative rho (up, down):  1.701E-04 1.467E-04
     Generating pointlists ...
     new r_m :   0.1144 (alat units)  1.1493 (a.u.) for type    2
     new r_m :   0.1144 (alat units)  1.1493 (a.u.) for type    3

     total cpu time spent up to now is    26932.7 secs

     Self-consistent Calculation

     iteration #  1     ecut=    60.00 Ry     beta= 0.20
     Davidson diagonalization with overlap
     c_bands:  1 eigenvalues not converged
     c_bands:  2 eigenvalues not converged
     c_bands:  1 eigenvalues not converged
     c_bands:  1 eigenvalues not converged
     c_bands:  1 eigenvalues not converged
     c_bands:  1 eigenvalues not converged
     c_bands:  1 eigenvalues not converged
     c_bands:  1 eigenvalues not converged
     c_bands:  1 eigenvalues not converged
     c_bands:  1 eigenvalues not converged
     c_bands:  1 eigenvalues not converged
     c_bands:  1 eigenvalues not converged
     c_bands:  1 eigenvalues not converged
     c_bands:  1 eigenvalues not converged
     c_bands:  1 eigenvalues not converged
     c_bands:  1 eigenvalues not converged
     ethr =  1.00E-06,  avg # of iterations = 19.5

     negative rho (up, down):  3.449E-04 3.200E-04

     total cpu time spent up to now is    27702.8 secs

     total energy              =   -7077.23393536 Ry
     estimated scf accuracy    <       4.34218143 Ry

     total magnetization       =     8.80 Bohr mag/cell
     absolute magnetization    =     9.73 Bohr mag/cell

     iteration #  2     ecut=    60.00 Ry     beta= 0.20
     Davidson diagonalization with overlap
     ethr =  1.80E-03,  avg # of iterations =  1.0

     negative rho (up, down):  4.281E-04 4.046E-04

     total cpu time spent up to now is    27869.8 secs

     total energy              =   -7077.32333819 Ry
     estimated scf accuracy    <       0.43584920 Ry

     total magnetization       =    10.20 Bohr mag/cell
     absolute magnetization    =    11.06 Bohr mag/cell

     iteration #  3     ecut=    60.00 Ry     beta= 0.20
     Davidson diagonalization with overlap
     ethr =  1.81E-04,  avg # of iterations =  1.5

     negative rho (up, down):  4.380E-04 4.144E-04

     total cpu time spent up to now is    28043.7 secs

     total energy              =   -7077.35237385 Ry
     estimated scf accuracy    <       0.21318429 Ry

     total magnetization       =     9.84 Bohr mag/cell
     absolute magnetization    =    10.71 Bohr mag/cell

     iteration #  4     ecut=    60.00 Ry     beta= 0.20
     Davidson diagonalization with overlap
     ethr =  8.85E-05,  avg # of iterations =  1.0

     negative rho (up, down):  4.210E-04 3.966E-04

     total cpu time spent up to now is    28211.3 secs

     total energy              =   -7077.37003475 Ry
     estimated scf accuracy    <       0.14410568 Ry

     total magnetization       =     9.80 Bohr mag/cell
     absolute magnetization    =    10.67 Bohr mag/cell

     iteration #  5     ecut=    60.00 Ry     beta= 0.20
     Davidson diagonalization with overlap
     ethr =  5.98E-05,  avg # of iterations =  1.0

     negative rho (up, down):  3.922E-04 3.665E-04

     total cpu time spent up to now is    28379.4 secs

     total energy              =   -7077.38401876 Ry
     estimated scf accuracy    <       0.08543746 Ry

     total magnetization       =     9.94 Bohr mag/cell
     absolute magnetization    =    10.80 Bohr mag/cell

     iteration #  6     ecut=    60.00 Ry     beta= 0.20
     Davidson diagonalization with overlap
     ethr =  3.55E-05,  avg # of iterations =  1.0

     negative rho (up, down):  3.681E-04 3.413E-04

     total cpu time spent up to now is    28540.3 secs

     total energy              =   -7077.39018327 Ry
     estimated scf accuracy    <       0.05427909 Ry

     total magnetization       =     9.94 Bohr mag/cell
     absolute magnetization    =    10.80 Bohr mag/cell

     iteration #  7     ecut=    60.00 Ry     beta= 0.20
     Davidson diagonalization with overlap
     ethr =  2.25E-05,  avg # of iterations =  1.2

     negative rho (up, down):  2.833E-04 2.525E-04

     total cpu time spent up to now is    28711.5 secs

     total energy              =   -7077.40183225 Ry
     estimated scf accuracy    <       0.04534770 Ry

     total magnetization       =     9.93 Bohr mag/cell
     absolute magnetization    =    10.79 Bohr mag/cell

     iteration #  8     ecut=    60.00 Ry     beta= 0.20
     Davidson diagonalization with overlap
     ethr =  1.88E-05,  avg # of iterations =  1.0

     negative rho (up, down):  2.507E-04 2.188E-04

     total cpu time spent up to now is    28882.4 secs

     total energy              =   -7077.40523009 Ry
     estimated scf accuracy    <       0.03159502 Ry

     total magnetization       =     9.92 Bohr mag/cell
     absolute magnetization    =    10.78 Bohr mag/cell

     iteration #  9     ecut=    60.00 Ry     beta= 0.20
     Davidson diagonalization with overlap
     ethr =  1.31E-05,  avg # of iterations =  1.1

     negative rho (up, down):  1.592E-04 1.281E-04

     total cpu time spent up to now is    29053.6 secs

     total energy              =   -7077.41210620 Ry
     estimated scf accuracy    <       0.02620890 Ry

     total magnetization       =     9.92 Bohr mag/cell
     absolute magnetization    =    10.78 Bohr mag/cell

     iteration # 10     ecut=    60.00 Ry     beta= 0.20
     Davidson diagonalization with overlap
     ethr =  1.09E-05,  avg # of iterations =  1.1

     negative rho (up, down):  1.359E-04 1.057E-04

     total cpu time spent up to now is    29223.6 secs

     total energy              =   -7077.41321091 Ry
     estimated scf accuracy    <       0.00919920 Ry

     total magnetization       =     9.92 Bohr mag/cell
     absolute magnetization    =    10.78 Bohr mag/cell

     iteration # 11     ecut=    60.00 Ry     beta= 0.20
     Davidson diagonalization with overlap
     ethr =  3.82E-06,  avg # of iterations =  2.8

     negative rho (up, down):  8.813E-05 6.260E-05

     total cpu time spent up to now is    29410.5 secs

     total energy              =   -7077.41461607 Ry
     estimated scf accuracy    <       0.00690449 Ry

     total magnetization       =     9.91 Bohr mag/cell
     absolute magnetization    =    10.78 Bohr mag/cell

     iteration # 12     ecut=    60.00 Ry     beta= 0.20
     Davidson diagonalization with overlap
     ethr =  2.86E-06,  avg # of iterations =  1.8

     negative rho (up, down):  6.118E-05 4.027E-05

     total cpu time spent up to now is    29589.6 secs

     total energy              =   -7077.41511752 Ry
     estimated scf accuracy    <       0.00314247 Ry

     total magnetization       =     9.90 Bohr mag/cell
     absolute magnetization    =    10.77 Bohr mag/cell

     iteration # 13     ecut=    60.00 Ry     beta= 0.20
     Davidson diagonalization with overlap
     ethr =  1.30E-06,  avg # of iterations =  1.4

     negative rho (up, down):  4.856E-05 3.028E-05

     total cpu time spent up to now is    29760.3 secs

     total energy              =   -7077.41526972 Ry
     estimated scf accuracy    <       0.00114357 Ry

     total magnetization       =     9.90 Bohr mag/cell
     absolute magnetization    =    10.77 Bohr mag/cell

     iteration # 14     ecut=    60.00 Ry     beta= 0.20
     Davidson diagonalization with overlap
     ethr =  4.75E-07,  avg # of iterations =  1.1

     negative rho (up, down):  3.215E-05 1.661E-05

     total cpu time spent up to now is    29928.9 secs

     total energy              =   -7077.41528051 Ry
     estimated scf accuracy    <       0.00048533 Ry

     total magnetization       =     9.90 Bohr mag/cell
     absolute magnetization    =    10.77 Bohr mag/cell

     iteration # 15     ecut=    60.00 Ry     beta= 0.20
     Davidson diagonalization with overlap
     ethr =  2.01E-07,  avg # of iterations =  1.2

     negative rho (up, down):  2.396E-05 1.095E-05

     total cpu time spent up to now is    30101.5 secs

     total energy              =   -7077.41530593 Ry
     estimated scf accuracy    <       0.00014931 Ry

     total magnetization       =     9.89 Bohr mag/cell
     absolute magnetization    =    10.77 Bohr mag/cell

     iteration # 16     ecut=    60.00 Ry     beta= 0.20
     Davidson diagonalization with overlap
     ethr =  6.20E-08,  avg # of iterations =  1.6

     negative rho (up, down):  2.193E-05 9.356E-06

     total cpu time spent up to now is    30279.0 secs

     total energy              =   -7077.41530360 Ry
     estimated scf accuracy    <       0.00002346 Ry

     total magnetization       =     9.89 Bohr mag/cell
     absolute magnetization    =    10.76 Bohr mag/cell

     iteration # 17     ecut=    60.00 Ry     beta= 0.20
     Davidson diagonalization with overlap
     ethr =  9.73E-09,  avg # of iterations =  3.1

     negative rho (up, down):  2.449E-05 1.046E-05

     total cpu time spent up to now is    30464.9 secs

     total energy              =   -7077.41531156 Ry
     estimated scf accuracy    <       0.00001007 Ry

     total magnetization       =     9.89 Bohr mag/cell
     absolute magnetization    =    10.76 Bohr mag/cell

     iteration # 18     ecut=    60.00 Ry     beta= 0.20
     Davidson diagonalization with overlap
     ethr =  4.18E-09,  avg # of iterations =  3.8

     negative rho (up, down):  2.799E-05 1.234E-05

     total cpu time spent up to now is    30682.6 secs

     total energy              =   -7077.41531319 Ry
     estimated scf accuracy    <       0.00000470 Ry

     total magnetization       =     9.89 Bohr mag/cell
     absolute magnetization    =    10.76 Bohr mag/cell

     iteration # 19     ecut=    60.00 Ry     beta= 0.20
     Davidson diagonalization with overlap
     ethr =  1.95E-09,  avg # of iterations =  1.5

     negative rho (up, down):  3.085E-05 1.399E-05

     total cpu time spent up to now is    30858.7 secs

     total energy              =   -7077.41531328 Ry
     estimated scf accuracy    <       0.00000252 Ry

     total magnetization       =     9.89 Bohr mag/cell
     absolute magnetization    =    10.77 Bohr mag/cell

     iteration # 20     ecut=    60.00 Ry     beta= 0.20
     Davidson diagonalization with overlap
     ethr =  1.04E-09,  avg # of iterations =  2.0

     negative rho (up, down):  3.492E-05 1.646E-05

     total cpu time spent up to now is    31045.0 secs

     total energy              =   -7077.41531361 Ry
     estimated scf accuracy    <       0.00000320 Ry

     total magnetization       =     9.89 Bohr mag/cell
     absolute magnetization    =    10.77 Bohr mag/cell

     iteration # 21     ecut=    60.00 Ry     beta= 0.20
     Davidson diagonalization with overlap
     ethr =  1.04E-09,  avg # of iterations =  1.1

     negative rho (up, down):  4.252E-05 2.138E-05

     total cpu time spent up to now is    31217.4 secs

     total energy              =   -7077.41531351 Ry
     estimated scf accuracy    <       0.00000211 Ry

     total magnetization       =     9.89 Bohr mag/cell
     absolute magnetization    =    10.77 Bohr mag/cell

     iteration # 22     ecut=    60.00 Ry     beta= 0.20
     Davidson diagonalization with overlap
     ethr =  8.76E-10,  avg # of iterations =  1.3

     negative rho (up, down):  4.494E-05 2.300E-05

     total cpu time spent up to now is    31392.2 secs

     total energy              =   -7077.41531357 Ry
     estimated scf accuracy    <       0.00000239 Ry

     total magnetization       =     9.89 Bohr mag/cell
     absolute magnetization    =    10.77 Bohr mag/cell

     iteration # 23     ecut=    60.00 Ry     beta= 0.20
     Davidson diagonalization with overlap
     ethr =  8.76E-10,  avg # of iterations =  1.0

     negative rho (up, down):  5.697E-05 3.160E-05

     total cpu time spent up to now is    31560.0 secs

     total energy              =   -7077.41531308 Ry
     estimated scf accuracy    <       0.00000169 Ry

     total magnetization       =     9.89 Bohr mag/cell
     absolute magnetization    =    10.77 Bohr mag/cell

     iteration # 24     ecut=    60.00 Ry     beta= 0.20
     Davidson diagonalization with overlap
     ethr =  7.01E-10,  avg # of iterations =  2.0

     negative rho (up, down):  6.838E-05 4.034E-05

     total cpu time spent up to now is    31744.6 secs

     total energy              =   -7077.41531293 Ry
     estimated scf accuracy    <       0.00000154 Ry

     total magnetization       =     9.89 Bohr mag/cell
     absolute magnetization    =    10.77 Bohr mag/cell

     iteration # 25     ecut=    60.00 Ry     beta= 0.20
     Davidson diagonalization with overlap
     ethr =  6.40E-10,  avg # of iterations =  1.1

     negative rho (up, down):  8.493E-05 5.384E-05

     total cpu time spent up to now is    31915.1 secs

     total energy              =   -7077.41531328 Ry
     estimated scf accuracy    <       0.00000105 Ry

     total magnetization       =     9.89 Bohr mag/cell
     absolute magnetization    =    10.77 Bohr mag/cell

     iteration # 26     ecut=    60.00 Ry     beta= 0.20
     Davidson diagonalization with overlap
     ethr =  4.34E-10,  avg # of iterations =  1.5

     negative rho (up, down):  1.188E-04 8.405E-05

     total cpu time spent up to now is    32093.7 secs

     total energy              =   -7077.41531355 Ry
     estimated scf accuracy    <       0.00000069 Ry

     total magnetization       =     9.89 Bohr mag/cell
     absolute magnetization    =    10.77 Bohr mag/cell

     iteration # 27     ecut=    60.00 Ry     beta= 0.20
     Davidson diagonalization with overlap
     ethr =  2.86E-10,  avg # of iterations =  2.1

     negative rho (up, down):  1.202E-04 8.528E-05

     total cpu time spent up to now is    32277.9 secs

     total energy              =   -7077.41531357 Ry
     estimated scf accuracy    <       0.00000036 Ry

     total magnetization       =     9.89 Bohr mag/cell
     absolute magnetization    =    10.77 Bohr mag/cell

     iteration # 28     ecut=    60.00 Ry     beta= 0.20
     Davidson diagonalization with overlap
     ethr =  1.51E-10,  avg # of iterations =  1.4

     negative rho (up, down):  1.429E-04 1.070E-04

     total cpu time spent up to now is    32451.5 secs

     total energy              =   -7077.41531358 Ry
     estimated scf accuracy    <       0.00000021 Ry

     total magnetization       =     9.89 Bohr mag/cell
     absolute magnetization    =    10.77 Bohr mag/cell

     iteration # 29     ecut=    60.00 Ry     beta= 0.20
     Davidson diagonalization with overlap
     ethr =  8.83E-11,  avg # of iterations =  2.8

     negative rho (up, down):  1.482E-04 1.122E-04

     total cpu time spent up to now is    32639.5 secs

     total energy              =   -7077.41531361 Ry
     estimated scf accuracy    <       0.00000009 Ry

     total magnetization       =     9.89 Bohr mag/cell
     absolute magnetization    =    10.77 Bohr mag/cell

     iteration # 30     ecut=    60.00 Ry     beta= 0.20
     Davidson diagonalization with overlap
     ethr =  3.55E-11,  avg # of iterations =  2.3

     negative rho (up, down):  1.526E-04 1.165E-04

     total cpu time spent up to now is    32823.7 secs

     total energy              =   -7077.41531362 Ry
     estimated scf accuracy    <       0.00000005 Ry

     total magnetization       =     9.89 Bohr mag/cell
     absolute magnetization    =    10.77 Bohr mag/cell

     iteration # 31     ecut=    60.00 Ry     beta= 0.20
     Davidson diagonalization with overlap
     ethr =  2.26E-11,  avg # of iterations =  1.4

     negative rho (up, down):  1.546E-04 1.185E-04

     total cpu time spent up to now is    32996.8 secs

     total energy              =   -7077.41531363 Ry
     estimated scf accuracy    <       0.00000002 Ry

     total magnetization       =     9.89 Bohr mag/cell
     absolute magnetization    =    10.77 Bohr mag/cell

     iteration # 32     ecut=    60.00 Ry     beta= 0.20
     Davidson diagonalization with overlap
     ethr =  9.45E-12,  avg # of iterations =  2.2

     negative rho (up, down):  1.548E-04 1.187E-04
 
     Magnetic moment per site  (integrated on atomic sphere of radius R)
     atom   1 (R=0.202)  charge=  8.7469  magn=  0.9608
     atom   2 (R=0.114)  charge=  4.0981  magn=  0.1530
     atom   3 (R=0.114)  charge=  4.0981  magn=  0.1530
     atom   4 (R=0.114)  charge=  4.0981  magn=  0.1508
     atom   5 (R=0.202)  charge=  8.8237  magn=  0.9256
     atom   6 (R=0.114)  charge=  4.0923  magn=  0.1893
     atom   7 (R=0.114)  charge=  4.0923  magn=  0.1893
     atom   8 (R=0.114)  charge=  4.0916  magn=  0.1905
     atom   9 (R=0.202)  charge=  8.8364  magn=  0.8693
     atom  10 (R=0.114)  charge=  4.0890  magn=  0.1844
     atom  11 (R=0.114)  charge=  4.0889  magn=  0.1804
     atom  12 (R=0.114)  charge=  4.0890  magn=  0.1844
     atom  13 (R=0.202)  charge=  8.8364  magn=  0.8530
     atom  14 (R=0.114)  charge=  4.0884  magn=  0.1758
     atom  15 (R=0.114)  charge=  4.0884  magn=  0.1758
     atom  16 (R=0.114)  charge=  4.0928  magn=  0.1748
     atom  17 (R=0.202)  charge=  8.8101  magn=  0.8646
     atom  18 (R=0.114)  charge=  4.0905  magn=  0.1691
     atom  19 (R=0.114)  charge=  4.0905  magn=  0.1691
     atom  20 (R=0.114)  charge=  4.0906  magn=  0.1850
     atom  21 (R=0.202)  charge=  8.7631  magn=  0.9221
     atom  22 (R=0.114)  charge=  4.0980  magn=  0.1308
     atom  23 (R=0.114)  charge=  4.0785  magn=  0.0591
     atom  24 (R=0.114)  charge=  4.0980  magn=  0.1308
     atom  25 (R=0.114)  charge=  0.7066  magn= -0.0057

     total cpu time spent up to now is    33176.2 secs

     End of self-consistent calculation

     Number of k-points >= 100: set verbosity='high' to print the bands.

     the Fermi energy is    -5.2071 ev

!    total energy              =   -7077.41531362 Ry
     total all-electron energy =   -199909.851884 Ry
     estimated scf accuracy    <          4.6E-09 Ry
     smearing contrib. (-TS)   =       0.00045777 Ry
     internal energy E=F+TS    =   -7077.41577140 Ry

     The total energy is F=E-TS. E is the sum of the following terms:
     one-electron contribution =  -60873.10946464 Ry
     hartree contribution      =   30623.58765338 Ry
     xc contribution           =    -835.42427210 Ry
     ewald contribution        =   29141.66636992 Ry
     DFT-D3 Dispersion         =      -2.52154266 Ry
     one-center paw contrib.   =   -5131.61451529 Ry

     total magnetization       =     9.89 Bohr mag/cell
     absolute magnetization    =    10.77 Bohr mag/cell

     convergence has been achieved in  32 iterations

     negative rho (up, down):  1.548E-04 1.187E-04

     Forces acting on atoms (cartesian axes, Ry/au):

     atom    1 type  1   force =    -0.00009029   -0.00005210    0.01602420
     atom    2 type  2   force =    -0.00030512   -0.01423625   -0.00892968
     atom    3 type  2   force =    -0.01248152    0.00685387   -0.00892980
     atom    4 type  2   force =     0.01240862    0.00716416   -0.00949008
     atom    5 type  1   force =     0.00015843    0.00009148   -0.00035981
     atom    6 type  2   force =    -0.00040816   -0.00018498    0.00430376
     atom    7 type  2   force =    -0.00036426   -0.00026099    0.00430376
     atom    8 type  2   force =     0.00098893    0.00057096    0.00565655
     atom    9 type  1   force =     0.00002784    0.00001617   -0.00014353
     atom   10 type  2   force =     0.00061038    0.00050351   -0.00018673
     atom   11 type  2   force =     0.00053258    0.00030745    0.00081298
     atom   12 type  2   force =     0.00074115    0.00027681   -0.00018677
     atom   13 type  1   force =    -0.00011683   -0.00006747    0.00124840
     atom   14 type  2   force =    -0.00023669    0.00007462    0.00110016
     atom   15 type  2   force =    -0.00005377   -0.00024224    0.00110017
     atom   16 type  2   force =    -0.00138127   -0.00079745    0.00464541
     atom   17 type  1   force =    -0.00014251   -0.00008223    0.00297391
     atom   18 type  2   force =    -0.00239685   -0.00156443    0.00612744
     atom   19 type  2   force =    -0.00255330   -0.00129355    0.00612745
     atom   20 type  2   force =    -0.00131196   -0.00075753    0.00077276
     atom   21 type  1   force =    -0.00018854   -0.00010879    0.00327596
     atom   22 type  2   force =     0.00294628    0.00158525    0.00129041
     atom   23 type  2   force =     0.00273835    0.00158084   -0.08432770
     atom   24 type  2   force =     0.00284591    0.00175877    0.00129015
     atom   25 type  3   force =    -0.00196739   -0.00113588    0.05150063

     Total force =     0.099719     Total SCF correction =     0.000337


     Computing stress (Cartesian axis) and pressure


     negative rho (up, down):  1.548E-04 1.187E-04
          total   stress  (Ry/bohr**3)                   (kbar)     P=       -9.86
  -0.00010120   0.00000064   0.00000297          -14.89        0.09        0.44
   0.00000064  -0.00010194   0.00000171            0.09      -15.00        0.25
   0.00000297   0.00000171   0.00000197            0.44        0.25        0.29

     Energy error            =      4.1E-04 Ry
     Gradient error          =      8.4E-02 Ry/Bohr

     number of scf cycles    =   5
     number of bfgs steps    =   4

     energy             old  =   -7077.4157283927 Ry
     energy             new  =   -7077.4153136231 Ry

     CASE: energy            _new > energy            _old

     new trust radius        =       0.1102626257 bohr
     new conv_thr            =       0.0000000067 Ry


ATOMIC_POSITIONS (angstrom)
Ni               5.3171990772        3.0698863186       11.0000000000    0   0   0
Pd               2.6585995386        3.0698851333       11.0000764482    0   0   0
Pd               3.9878982814        0.7674721723       11.0000764482    0   0   0
Pd               1.3293007958        0.7674721723       11.0000764482    0   0   0
Ni               2.6585995386        1.5349431593       13.1707374333    0   0   0
Pd               3.9878982814        3.8373584909       13.1708138815    0   0   0
Pd               5.3171990772        1.5349419740       13.1708138815    0   0   0
Pd               6.6464998731        3.8373584909       13.1708138815    0   0   0
Ni               0.0000535687        0.0000306905       15.3352255432
Pd               5.3192872320        4.6051333985       15.3358800064
Pd               3.9878854750        2.3024067392       15.3398839852
Pd               6.6478061783        2.3040711597       15.3358800749
Ni               5.3169514977        3.0697433943       17.5139869633
Pd               3.9866956556        0.7690959180       17.5148269702
Pd               2.6594045495        3.0680315130       17.5148270614
Pd               1.3273287022        0.7663335466       17.4940145558
Ni               2.6588065054        1.5350627010       19.6984608654
Pd               3.9913163842        3.8260491893       19.6902191639
Pd               5.3091139438        1.5435570126       19.6902193432
Pd               6.6398645065        3.8335277556       19.6734855047
Ni               0.0012882947        0.0007440304       21.7704115723
Pd               5.3165808847        4.6210165246       21.8833604895
Pd               3.9891898534        2.3031602806       22.0657773282
Pd               6.6602078780        2.2937865091       21.8833611463
H                3.9776774860        2.2965134952       23.6399331161    0   0   1



     Writing config-only to output data dir /tmpu/isholek_g/isholek/MIGUEL/QE/Hydrogen/111_2x2/SAVE/Ni1Pd3_111-T1.save/ :
     XML data file
     NEW-OLD atomic charge density approx. for the potential

     Check: negative core charge=   -0.000002

     negative rho (up, down):  1.618E-04 1.365E-04
     Generating pointlists ...

     total cpu time spent up to now is    33454.7 secs

     Self-consistent Calculation

     iteration #  1     ecut=    60.00 Ry     beta= 0.20
     Davidson diagonalization with overlap
     ethr =  1.00E-06,  avg # of iterations =  8.9

     negative rho (up, down):  4.995E-04 4.798E-04

     total cpu time spent up to now is    34031.9 secs

     total energy              =   -7077.40200665 Ry
     estimated scf accuracy    <       0.38430880 Ry

     total magnetization       =     9.64 Bohr mag/cell
     absolute magnetization    =    10.53 Bohr mag/cell

     iteration #  2     ecut=    60.00 Ry     beta= 0.20
     Davidson diagonalization with overlap
     ethr =  1.59E-04,  avg # of iterations =  1.0

     negative rho (up, down):  4.679E-04 4.466E-04

     total cpu time spent up to now is    34200.5 secs

     total energy              =   -7077.40689292 Ry
     estimated scf accuracy    <       0.03791580 Ry

     total magnetization       =     9.96 Bohr mag/cell
     absolute magnetization    =    10.83 Bohr mag/cell

     iteration #  3     ecut=    60.00 Ry     beta= 0.20
     Davidson diagonalization with overlap
     ethr =  1.57E-05,  avg # of iterations =  1.9

     negative rho (up, down):  4.340E-04 4.110E-04

     total cpu time spent up to now is    34380.9 secs

     total energy              =   -7077.41117194 Ry
     estimated scf accuracy    <       0.03457632 Ry

     total magnetization       =     9.89 Bohr mag/cell
     absolute magnetization    =    10.76 Bohr mag/cell

     iteration #  4     ecut=    60.00 Ry     beta= 0.20
     Davidson diagonalization with overlap
     ethr =  1.43E-05,  avg # of iterations =  1.0

     negative rho (up, down):  4.003E-04 3.758E-04

     total cpu time spent up to now is    34547.6 secs

     total energy              =   -7077.41392856 Ry
     estimated scf accuracy    <       0.01906538 Ry

     total magnetization       =     9.89 Bohr mag/cell
     absolute magnetization    =    10.75 Bohr mag/cell

     iteration #  5     ecut=    60.00 Ry     beta= 0.20
     Davidson diagonalization with overlap
     ethr =  7.91E-06,  avg # of iterations =  1.0

     negative rho (up, down):  3.745E-04 3.487E-04

     total cpu time spent up to now is    34713.8 secs

     total energy              =   -7077.41601724 Ry
     estimated scf accuracy    <       0.00908695 Ry

     total magnetization       =     9.93 Bohr mag/cell
     absolute magnetization    =    10.80 Bohr mag/cell

     iteration #  6     ecut=    60.00 Ry     beta= 0.20
     Davidson diagonalization with overlap
     ethr =  3.77E-06,  avg # of iterations =  1.1

     negative rho (up, down):  3.529E-04 3.257E-04

     total cpu time spent up to now is    34886.1 secs

     total energy              =   -7077.41688747 Ry
     estimated scf accuracy    <       0.00424472 Ry

     total magnetization       =     9.93 Bohr mag/cell
     absolute magnetization    =    10.80 Bohr mag/cell

     iteration #  7     ecut=    60.00 Ry     beta= 0.20
     Davidson diagonalization with overlap
     ethr =  1.76E-06,  avg # of iterations =  1.7

     negative rho (up, down):  3.274E-04 2.992E-04

     total cpu time spent up to now is    35064.6 secs

     total energy              =   -7077.41898226 Ry
     estimated scf accuracy    <       0.00335898 Ry

     total magnetization       =     9.92 Bohr mag/cell
     absolute magnetization    =    10.79 Bohr mag/cell

     iteration #  8     ecut=    60.00 Ry     beta= 0.20
     Davidson diagonalization with overlap
     ethr =  1.39E-06,  avg # of iterations =  1.5

     negative rho (up, down):  3.131E-04 2.840E-04

     total cpu time spent up to now is    35239.5 secs

     total energy              =   -7077.41964527 Ry
     estimated scf accuracy    <       0.00131420 Ry

     total magnetization       =     9.92 Bohr mag/cell
     absolute magnetization    =    10.79 Bohr mag/cell

     iteration #  9     ecut=    60.00 Ry     beta= 0.20
     Davidson diagonalization with overlap
     ethr =  5.45E-07,  avg # of iterations =  1.1

     negative rho (up, down):  3.034E-04 2.738E-04

     total cpu time spent up to now is    35411.0 secs

     total energy              =   -7077.42019233 Ry
     estimated scf accuracy    <       0.00087613 Ry

     total magnetization       =     9.92 Bohr mag/cell
     absolute magnetization    =    10.79 Bohr mag/cell

     iteration # 10     ecut=    60.00 Ry     beta= 0.20
     Davidson diagonalization with overlap
     ethr =  3.64E-07,  avg # of iterations =  2.0

     negative rho (up, down):  2.971E-04 2.672E-04

     total cpu time spent up to now is    35586.5 secs

     total energy              =   -7077.42028677 Ry
     estimated scf accuracy    <       0.00027781 Ry

     total magnetization       =     9.92 Bohr mag/cell
     absolute magnetization    =    10.79 Bohr mag/cell

     iteration # 11     ecut=    60.00 Ry     beta= 0.20
     Davidson diagonalization with overlap
     ethr =  1.15E-07,  avg # of iterations =  1.8

     negative rho (up, down):  2.913E-04 2.613E-04

     total cpu time spent up to now is    35768.0 secs

     total energy              =   -7077.42031634 Ry
     estimated scf accuracy    <       0.00017216 Ry

     total magnetization       =     9.92 Bohr mag/cell
     absolute magnetization    =    10.79 Bohr mag/cell

     iteration # 12     ecut=    60.00 Ry     beta= 0.20
     Davidson diagonalization with overlap
     ethr =  7.14E-08,  avg # of iterations =  1.7

     negative rho (up, down):  2.870E-04 2.567E-04

     total cpu time spent up to now is    35943.7 secs

     total energy              =   -7077.42032802 Ry
     estimated scf accuracy    <       0.00003015 Ry

     total magnetization       =     9.91 Bohr mag/cell
     absolute magnetization    =    10.78 Bohr mag/cell

     iteration # 13     ecut=    60.00 Ry     beta= 0.20
     Davidson diagonalization with overlap
     ethr =  1.25E-08,  avg # of iterations =  4.8

     negative rho (up, down):  2.833E-04 2.528E-04

     total cpu time spent up to now is    36144.6 secs

     total energy              =   -7077.42033023 Ry
     estimated scf accuracy    <       0.00003508 Ry

     total magnetization       =     9.91 Bohr mag/cell
     absolute magnetization    =    10.79 Bohr mag/cell

     iteration # 14     ecut=    60.00 Ry     beta= 0.20
     Davidson diagonalization with overlap
     ethr =  1.25E-08,  avg # of iterations =  1.0

     negative rho (up, down):  2.794E-04 2.486E-04

     total cpu time spent up to now is    36315.0 secs

     total energy              =   -7077.42033164 Ry
     estimated scf accuracy    <       0.00003841 Ry

     total magnetization       =     9.91 Bohr mag/cell
     absolute magnetization    =    10.79 Bohr mag/cell

     iteration # 15     ecut=    60.00 Ry     beta= 0.20
     Davidson diagonalization with overlap
     ethr =  1.25E-08,  avg # of iterations =  1.0

     negative rho (up, down):  2.691E-04 2.374E-04

     total cpu time spent up to now is    36482.0 secs

     total energy              =   -7077.42033161 Ry
     estimated scf accuracy    <       0.00003176 Ry

     total magnetization       =     9.91 Bohr mag/cell
     absolute magnetization    =    10.79 Bohr mag/cell

     iteration # 16     ecut=    60.00 Ry     beta= 0.20
     Davidson diagonalization with overlap
     ethr =  1.25E-08,  avg # of iterations =  1.6

     negative rho (up, down):  2.588E-04 2.264E-04

     total cpu time spent up to now is    36659.2 secs

     total energy              =   -7077.42033149 Ry
     estimated scf accuracy    <       0.00001108 Ry

     total magnetization       =     9.91 Bohr mag/cell
     absolute magnetization    =    10.79 Bohr mag/cell

     iteration # 17     ecut=    60.00 Ry     beta= 0.20
     Davidson diagonalization with overlap
     ethr =  4.60E-09,  avg # of iterations =  1.0

     negative rho (up, down):  2.484E-04 2.155E-04

     total cpu time spent up to now is    36826.5 secs

     total energy              =   -7077.42033314 Ry
     estimated scf accuracy    <       0.00000158 Ry

     total magnetization       =     9.91 Bohr mag/cell
     absolute magnetization    =    10.79 Bohr mag/cell

     iteration # 18     ecut=    60.00 Ry     beta= 0.20
     Davidson diagonalization with overlap
     ethr =  6.56E-10,  avg # of iterations =  3.1

     negative rho (up, down):  2.397E-04 2.063E-04

     total cpu time spent up to now is    37040.4 secs

     total energy              =   -7077.42033344 Ry
     estimated scf accuracy    <       0.00000106 Ry

     total magnetization       =     9.91 Bohr mag/cell
     absolute magnetization    =    10.79 Bohr mag/cell

     iteration # 19     ecut=    60.00 Ry     beta= 0.20
     Davidson diagonalization with overlap
     ethr =  4.40E-10,  avg # of iterations =  1.1

     negative rho (up, down):  2.293E-04 1.954E-04

     total cpu time spent up to now is    37211.0 secs

     total energy              =   -7077.42033329 Ry
     estimated scf accuracy    <       0.00000065 Ry

     total magnetization       =     9.91 Bohr mag/cell
     absolute magnetization    =    10.79 Bohr mag/cell

     iteration # 20     ecut=    60.00 Ry     beta= 0.20
     Davidson diagonalization with overlap
     ethr =  2.69E-10,  avg # of iterations =  1.5

     negative rho (up, down):  2.184E-04 1.841E-04

     total cpu time spent up to now is    37388.0 secs

     total energy              =   -7077.42033326 Ry
     estimated scf accuracy    <       0.00000043 Ry

     total magnetization       =     9.91 Bohr mag/cell
     absolute magnetization    =    10.79 Bohr mag/cell

     iteration # 21     ecut=    60.00 Ry     beta= 0.20
     Davidson diagonalization with overlap
     ethr =  1.78E-10,  avg # of iterations =  1.2

     negative rho (up, down):  2.133E-04 1.787E-04

     total cpu time spent up to now is    37558.4 secs

     total energy              =   -7077.42033329 Ry
     estimated scf accuracy    <       0.00000056 Ry

     total magnetization       =     9.91 Bohr mag/cell
     absolute magnetization    =    10.79 Bohr mag/cell

     iteration # 22     ecut=    60.00 Ry     beta= 0.20
     Davidson diagonalization with overlap
     ethr =  1.78E-10,  avg # of iterations =  1.1

     negative rho (up, down):  2.028E-04 1.678E-04

     total cpu time spent up to now is    37725.3 secs

     total energy              =   -7077.42033336 Ry
     estimated scf accuracy    <       0.00000052 Ry

     total magnetization       =     9.91 Bohr mag/cell
     absolute magnetization    =    10.79 Bohr mag/cell

     iteration # 23     ecut=    60.00 Ry     beta= 0.20
     Davidson diagonalization with overlap
     ethr =  1.78E-10,  avg # of iterations =  1.1

     negative rho (up, down):  2.098E-04 1.750E-04

     total cpu time spent up to now is    37896.1 secs

     total energy              =   -7077.42033341 Ry
     estimated scf accuracy    <       0.00000059 Ry

     total magnetization       =     9.91 Bohr mag/cell
     absolute magnetization    =    10.79 Bohr mag/cell

     iteration # 24     ecut=    60.00 Ry     beta= 0.20
     Davidson diagonalization with overlap
     ethr =  1.78E-10,  avg # of iterations =  1.0

     negative rho (up, down):  1.799E-04 1.442E-04

     total cpu time spent up to now is    38064.2 secs

     total energy              =   -7077.42033313 Ry
     estimated scf accuracy    <       0.00000083 Ry

     total magnetization       =     9.91 Bohr mag/cell
     absolute magnetization    =    10.79 Bohr mag/cell

     iteration # 25     ecut=    60.00 Ry     beta= 0.20
     Davidson diagonalization with overlap
     ethr =  1.78E-10,  avg # of iterations =  2.0

     negative rho (up, down):  1.587E-04 1.229E-04

     total cpu time spent up to now is    38248.5 secs

     total energy              =   -7077.42033320 Ry
     estimated scf accuracy    <       0.00000030 Ry

     total magnetization       =     9.91 Bohr mag/cell
     absolute magnetization    =    10.79 Bohr mag/cell

     iteration # 26     ecut=    60.00 Ry     beta= 0.20
     Davidson diagonalization with overlap
     ethr =  1.23E-10,  avg # of iterations =  1.2

     negative rho (up, down):  1.543E-04 1.184E-04

     total cpu time spent up to now is    38420.4 secs

     total energy              =   -7077.42033323 Ry
     estimated scf accuracy    <       0.00000012 Ry

     total magnetization       =     9.91 Bohr mag/cell
     absolute magnetization    =    10.79 Bohr mag/cell

     iteration # 27     ecut=    60.00 Ry     beta= 0.20
     Davidson diagonalization with overlap
     ethr =  5.05E-11,  avg # of iterations =  1.4

     negative rho (up, down):  1.517E-04 1.159E-04

     total cpu time spent up to now is    38595.2 secs

     total energy              =   -7077.42033324 Ry
     estimated scf accuracy    <       0.00000008 Ry

     total magnetization       =     9.91 Bohr mag/cell
     absolute magnetization    =    10.79 Bohr mag/cell

     iteration # 28     ecut=    60.00 Ry     beta= 0.20
     Davidson diagonalization with overlap
     ethr =  3.42E-11,  avg # of iterations =  1.1

     negative rho (up, down):  1.540E-04 1.180E-04

     total cpu time spent up to now is    38766.0 secs

     total energy              =   -7077.42033328 Ry
     estimated scf accuracy    <       0.00000005 Ry

     total magnetization       =     9.91 Bohr mag/cell
     absolute magnetization    =    10.79 Bohr mag/cell

     iteration # 29     ecut=    60.00 Ry     beta= 0.20
     Davidson diagonalization with overlap
     ethr =  2.22E-11,  avg # of iterations =  2.0

     negative rho (up, down):  1.504E-04 1.145E-04

     total cpu time spent up to now is    38951.3 secs

     total energy              =   -7077.42033328 Ry
     estimated scf accuracy    <       0.00000005 Ry

     total magnetization       =     9.91 Bohr mag/cell
     absolute magnetization    =    10.79 Bohr mag/cell

     iteration # 30     ecut=    60.00 Ry     beta= 0.20
     Davidson diagonalization with overlap
     ethr =  2.05E-11,  avg # of iterations =  1.0

     negative rho (up, down):  1.510E-04 1.150E-04

     total cpu time spent up to now is    39121.1 secs

     total energy              =   -7077.42033327 Ry
     estimated scf accuracy    <       0.00000006 Ry

     total magnetization       =     9.91 Bohr mag/cell
     absolute magnetization    =    10.79 Bohr mag/cell

     iteration # 31     ecut=    60.00 Ry     beta= 0.20
     Davidson diagonalization with overlap
     ethr =  2.05E-11,  avg # of iterations =  1.1

     negative rho (up, down):  1.544E-04 1.184E-04

     total cpu time spent up to now is    39292.1 secs

     total energy              =   -7077.42033327 Ry
     estimated scf accuracy    <          7.9E-09 Ry

     total magnetization       =     9.91 Bohr mag/cell
     absolute magnetization    =    10.79 Bohr mag/cell

     iteration # 32     ecut=    60.00 Ry     beta= 0.20
     Davidson diagonalization with overlap
     ethr =  3.30E-12,  avg # of iterations =  2.3

     negative rho (up, down):  1.527E-04 1.167E-04

     total cpu time spent up to now is    39472.5 secs

     total energy              =   -7077.42033327 Ry
     estimated scf accuracy    <          8.5E-09 Ry

     total magnetization       =     9.91 Bohr mag/cell
     absolute magnetization    =    10.79 Bohr mag/cell

     iteration # 33     ecut=    60.00 Ry     beta= 0.20
     Davidson diagonalization with overlap
     ethr =  3.30E-12,  avg # of iterations =  2.0

     negative rho (up, down):  1.543E-04 1.183E-04
 
     Magnetic moment per site  (integrated on atomic sphere of radius R)
     atom   1 (R=0.202)  charge=  8.7469  magn=  0.9608
     atom   2 (R=0.114)  charge=  4.0982  magn=  0.1528
     atom   3 (R=0.114)  charge=  4.0982  magn=  0.1528
     atom   4 (R=0.114)  charge=  4.0981  magn=  0.1506
     atom   5 (R=0.202)  charge=  8.8236  magn=  0.9256
     atom   6 (R=0.114)  charge=  4.0923  magn=  0.1892
     atom   7 (R=0.114)  charge=  4.0923  magn=  0.1892
     atom   8 (R=0.114)  charge=  4.0916  magn=  0.1900
     atom   9 (R=0.202)  charge=  8.8365  magn=  0.8685
     atom  10 (R=0.114)  charge=  4.0891  magn=  0.1841
     atom  11 (R=0.114)  charge=  4.0890  magn=  0.1800
     atom  12 (R=0.114)  charge=  4.0891  magn=  0.1841
     atom  13 (R=0.202)  charge=  8.8376  magn=  0.8522
     atom  14 (R=0.114)  charge=  4.0885  magn=  0.1755
     atom  15 (R=0.114)  charge=  4.0885  magn=  0.1755
     atom  16 (R=0.114)  charge=  4.0927  magn=  0.1754
     atom  17 (R=0.202)  charge=  8.8115  magn=  0.8642
     atom  18 (R=0.114)  charge=  4.0904  magn=  0.1694
     atom  19 (R=0.114)  charge=  4.0904  magn=  0.1694
     atom  20 (R=0.114)  charge=  4.0908  magn=  0.1857
     atom  21 (R=0.202)  charge=  8.7618  magn=  0.9297
     atom  22 (R=0.114)  charge=  4.0983  magn=  0.1324
     atom  23 (R=0.114)  charge=  4.0735  magn=  0.0644
     atom  24 (R=0.114)  charge=  4.0983  magn=  0.1324
     atom  25 (R=0.114)  charge=  0.6404  magn= -0.0060

     total cpu time spent up to now is    39654.1 secs

     End of self-consistent calculation

     Number of k-points >= 100: set verbosity='high' to print the bands.

     the Fermi energy is    -5.2238 ev

!    total energy              =   -7077.42033328 Ry
     total all-electron energy =   -199909.856904 Ry
     estimated scf accuracy    <          1.2E-09 Ry
     smearing contrib. (-TS)   =       0.00031210 Ry
     internal energy E=F+TS    =   -7077.42064538 Ry

     The total energy is F=E-TS. E is the sum of the following terms:
     one-electron contribution =  -60921.33867386 Ry
     hartree contribution      =   30647.55724832 Ry
     xc contribution           =    -835.39054575 Ry
     ewald contribution        =   29165.88293826 Ry
     DFT-D3 Dispersion         =      -2.52345060 Ry
     one-center paw contrib.   =   -5131.60816176 Ry

     total magnetization       =     9.91 Bohr mag/cell
     absolute magnetization    =    10.79 Bohr mag/cell

     convergence has been achieved in  33 iterations

     negative rho (up, down):  1.543E-04 1.183E-04

     Forces acting on atoms (cartesian axes, Ry/au):

     atom    1 type  1   force =    -0.00005182   -0.00002992    0.01600435
     atom    2 type  2   force =    -0.00032494   -0.01423261   -0.00893063
     atom    3 type  2   force =    -0.01248825    0.00683489   -0.00893062
     atom    4 type  2   force =     0.01241797    0.00716952   -0.00948790
     atom    5 type  1   force =     0.00010829    0.00006253   -0.00034358
     atom    6 type  2   force =    -0.00036567   -0.00014211    0.00427244
     atom    7 type  2   force =    -0.00030590   -0.00024563    0.00427245
     atom    8 type  2   force =     0.00091277    0.00052699    0.00600969
     atom    9 type  1   force =    -0.00002818   -0.00001620   -0.00015715
     atom   10 type  2   force =     0.00077367    0.00029484   -0.00051125
     atom   11 type  2   force =     0.00040559    0.00023412    0.00077749
     atom   12 type  2   force =     0.00064213    0.00052257   -0.00051127
     atom   13 type  1   force =    -0.00009050   -0.00005226    0.00111700
     atom   14 type  2   force =    -0.00015894    0.00013707    0.00112691
     atom   15 type  2   force =     0.00003921   -0.00020615    0.00112692
     atom   16 type  2   force =    -0.00145703   -0.00084121    0.00192056
     atom   17 type  1   force =     0.00035241    0.00020349    0.00359091
     atom   18 type  2   force =    -0.00194258   -0.00271424    0.00720711
     atom   19 type  2   force =    -0.00332187   -0.00032521    0.00720709
     atom   20 type  2   force =    -0.00095036   -0.00054875    0.00067281
     atom   21 type  1   force =    -0.00005429   -0.00003123    0.00232501
     atom   22 type  2   force =     0.00211569    0.00152221    0.00089672
     atom   23 type  2   force =     0.00290484    0.00167704   -0.01595168
     atom   24 type  2   force =     0.00237602    0.00107107    0.00089658
     atom   25 type  3   force =    -0.00150826   -0.00087080   -0.01459997

     Total force =     0.025564     Total SCF correction =     0.000110


     Computing stress (Cartesian axis) and pressure


     negative rho (up, down):  1.543E-04 1.183E-04
          total   stress  (Ry/bohr**3)                   (kbar)     P=      -11.14
  -0.00009878   0.00000084   0.00000287          -14.53        0.12        0.42
   0.00000084  -0.00009974   0.00000165            0.12      -14.67        0.24
   0.00000287   0.00000165  -0.00002866            0.42        0.24       -4.22

     Energy error            =      4.6E-03 Ry
     Gradient error          =      1.6E-02 Ry/Bohr

     number of scf cycles    =   6
     number of bfgs steps    =   4

     energy             old  =   -7077.4157283927 Ry
     energy             new  =   -7077.4203332789 Ry

     CASE: energy            _new < energy            _old

     new trust radius        =       0.0282233520 bohr
     new conv_thr            =       0.0000000020 Ry


ATOMIC_POSITIONS (angstrom)
Ni               5.3171990772        3.0698863186       11.0000000000    0   0   0
Pd               2.6585995386        3.0698851333       11.0000764482    0   0   0
Pd               3.9878982814        0.7674721723       11.0000764482    0   0   0
Pd               1.3293007958        0.7674721723       11.0000764482    0   0   0
Ni               2.6585995386        1.5349431593       13.1707374333    0   0   0
Pd               3.9878982814        3.8373584909       13.1708138815    0   0   0
Pd               5.3171990772        1.5349419740       13.1708138815    0   0   0
Pd               6.6464998731        3.8373584909       13.1708138815    0   0   0
Ni               0.0000475427        0.0000272268       15.3351249978
Pd               5.3197720605        4.6053059121       15.3355363643
Pd               3.9881300008        2.3025478986       15.3403753242
Pd               6.6481979940        2.3044047631       15.3355364178
Ni               5.3168891969        3.0697074210       17.5147425255
Pd               3.9865821019        0.7692184254       17.5156458665
Pd               2.6594538546        3.0678719363       17.5156459503
Pd               1.3264405758        0.7658207961       17.4946328630
Ni               2.6589494982        1.5351452912       19.7006719091
Pd               3.9901318075        3.8243863414       19.6946375954
Pd               5.3070815961        1.5433625478       19.6946377919
Pd               6.6392863083        3.8331939084       19.6738031973
Ni               0.0013048529        0.0007536446       21.7718035141
Pd               5.3177566906        4.6220359365       21.8840366033
Pd               3.9911618888        2.3042988110       22.0619181587
Pd               6.6616785849        2.2942950547       21.8840372292
H                3.9776774860        2.2965134952       23.6249979614    0   0   1



     Writing config-only to output data dir /tmpu/isholek_g/isholek/MIGUEL/QE/Hydrogen/111_2x2/SAVE/Ni1Pd3_111-T1.save/ :
     XML data file
     NEW-OLD atomic charge density approx. for the potential

     Check: negative core charge=   -0.000002

     negative rho (up, down):  1.471E-04 1.297E-04
     Generating pointlists ...

     total cpu time spent up to now is    39929.4 secs

     Self-consistent Calculation

     iteration #  1     ecut=    60.00 Ry     beta= 0.20
     Davidson diagonalization with overlap
     ethr =  1.00E-06,  avg # of iterations =  4.9

     negative rho (up, down):  1.557E-04 1.281E-04

     total cpu time spent up to now is    40311.8 secs

     total energy              =   -7077.42087037 Ry
     estimated scf accuracy    <       0.00045058 Ry

     total magnetization       =     9.90 Bohr mag/cell
     absolute magnetization    =    10.77 Bohr mag/cell

     iteration #  2     ecut=    60.00 Ry     beta= 0.20
     Davidson diagonalization with overlap
     ethr =  1.87E-07,  avg # of iterations =  2.0

     negative rho (up, down):  1.555E-04 1.262E-04

     total cpu time spent up to now is    40504.3 secs

     total energy              =   -7077.42093000 Ry
     estimated scf accuracy    <       0.00006393 Ry

     total magnetization       =     9.92 Bohr mag/cell
     absolute magnetization    =    10.79 Bohr mag/cell

     iteration #  3     ecut=    60.00 Ry     beta= 0.20
     Davidson diagonalization with overlap
     ethr =  2.65E-08,  avg # of iterations =  3.5

     negative rho (up, down):  1.556E-04 1.251E-04

     total cpu time spent up to now is    40723.6 secs

     total energy              =   -7077.42094868 Ry
     estimated scf accuracy    <       0.00007915 Ry

     total magnetization       =     9.91 Bohr mag/cell
     absolute magnetization    =    10.78 Bohr mag/cell

     iteration #  4     ecut=    60.00 Ry     beta= 0.20
     Davidson diagonalization with overlap
     ethr =  2.65E-08,  avg # of iterations =  1.0

     negative rho (up, down):  1.544E-04 1.228E-04

     total cpu time spent up to now is    40890.6 secs

     total energy              =   -7077.42096063 Ry
     estimated scf accuracy    <       0.00002831 Ry

     total magnetization       =     9.91 Bohr mag/cell
     absolute magnetization    =    10.79 Bohr mag/cell

     iteration #  5     ecut=    60.00 Ry     beta= 0.20
     Davidson diagonalization with overlap
     ethr =  1.17E-08,  avg # of iterations =  1.4

     negative rho (up, down):  1.520E-04 1.194E-04

     total cpu time spent up to now is    41060.1 secs

     total energy              =   -7077.42097357 Ry
     estimated scf accuracy    <       0.00003019 Ry

     total magnetization       =     9.91 Bohr mag/cell
     absolute magnetization    =    10.79 Bohr mag/cell

     iteration #  6     ecut=    60.00 Ry     beta= 0.20
     Davidson diagonalization with overlap
     ethr =  1.17E-08,  avg # of iterations =  1.1

     negative rho (up, down):  1.502E-04 1.170E-04

     total cpu time spent up to now is    41227.7 secs

     total energy              =   -7077.42097958 Ry
     estimated scf accuracy    <       0.00000897 Ry

     total magnetization       =     9.91 Bohr mag/cell
     absolute magnetization    =    10.79 Bohr mag/cell

     iteration #  7     ecut=    60.00 Ry     beta= 0.20
     Davidson diagonalization with overlap
     ethr =  3.72E-09,  avg # of iterations =  2.0

     negative rho (up, down):  1.439E-04 1.101E-04

     total cpu time spent up to now is    41409.0 secs

     total energy              =   -7077.42098439 Ry
     estimated scf accuracy    <       0.00001502 Ry

     total magnetization       =     9.91 Bohr mag/cell
     absolute magnetization    =    10.78 Bohr mag/cell

     iteration #  8     ecut=    60.00 Ry     beta= 0.20
     Davidson diagonalization with overlap
     ethr =  3.72E-09,  avg # of iterations =  2.0

     negative rho (up, down):  1.408E-04 1.067E-04

     total cpu time spent up to now is    41601.6 secs

     total energy              =   -7077.42098503 Ry
     estimated scf accuracy    <       0.00000404 Ry

     total magnetization       =     9.91 Bohr mag/cell
     absolute magnetization    =    10.78 Bohr mag/cell

     iteration #  9     ecut=    60.00 Ry     beta= 0.20
     Davidson diagonalization with overlap
     ethr =  1.68E-09,  avg # of iterations =  1.6

     negative rho (up, down):  1.377E-04 1.034E-04

     total cpu time spent up to now is    41774.1 secs

     total energy              =   -7077.42098520 Ry
     estimated scf accuracy    <       0.00000752 Ry

     total magnetization       =     9.91 Bohr mag/cell
     absolute magnetization    =    10.78 Bohr mag/cell

     iteration # 10     ecut=    60.00 Ry     beta= 0.20
     Davidson diagonalization with overlap
     ethr =  1.68E-09,  avg # of iterations =  1.0

     negative rho (up, down):  1.361E-04 1.016E-04

     total cpu time spent up to now is    41941.9 secs

     total energy              =   -7077.42098528 Ry
     estimated scf accuracy    <       0.00000254 Ry

     total magnetization       =     9.91 Bohr mag/cell
     absolute magnetization    =    10.78 Bohr mag/cell

     iteration # 11     ecut=    60.00 Ry     beta= 0.20
     Davidson diagonalization with overlap
     ethr =  1.05E-09,  avg # of iterations =  1.1

     negative rho (up, down):  1.338E-04 9.923E-05

     total cpu time spent up to now is    42111.4 secs

     total energy              =   -7077.42098527 Ry
     estimated scf accuracy    <       0.00000222 Ry

     total magnetization       =     9.91 Bohr mag/cell
     absolute magnetization    =    10.78 Bohr mag/cell

     iteration # 12     ecut=    60.00 Ry     beta= 0.20
     Davidson diagonalization with overlap
     ethr =  9.22E-10,  avg # of iterations =  1.0

     negative rho (up, down):  1.318E-04 9.709E-05

     total cpu time spent up to now is    42279.5 secs

     total energy              =   -7077.42098525 Ry
     estimated scf accuracy    <       0.00000205 Ry

     total magnetization       =     9.91 Bohr mag/cell
     absolute magnetization    =    10.78 Bohr mag/cell

     iteration # 13     ecut=    60.00 Ry     beta= 0.20
     Davidson diagonalization with overlap
     ethr =  8.49E-10,  avg # of iterations =  1.0

     negative rho (up, down):  1.306E-04 9.583E-05

     total cpu time spent up to now is    42447.0 secs

     total energy              =   -7077.42098521 Ry
     estimated scf accuracy    <       0.00000150 Ry

     total magnetization       =     9.91 Bohr mag/cell
     absolute magnetization    =    10.78 Bohr mag/cell

     iteration # 14     ecut=    60.00 Ry     beta= 0.20
     Davidson diagonalization with overlap
     ethr =  6.21E-10,  avg # of iterations =  1.0

     negative rho (up, down):  1.303E-04 9.536E-05

     total cpu time spent up to now is    42614.3 secs

     total energy              =   -7077.42098521 Ry
     estimated scf accuracy    <       0.00000088 Ry

     total magnetization       =     9.91 Bohr mag/cell
     absolute magnetization    =    10.78 Bohr mag/cell

     iteration # 15     ecut=    60.00 Ry     beta= 0.20
     Davidson diagonalization with overlap
     ethr =  3.64E-10,  avg # of iterations =  1.1

     negative rho (up, down):  1.312E-04 9.615E-05

     total cpu time spent up to now is    42783.8 secs

     total energy              =   -7077.42098528 Ry
     estimated scf accuracy    <       0.00000023 Ry

     total magnetization       =     9.91 Bohr mag/cell
     absolute magnetization    =    10.78 Bohr mag/cell

     iteration # 16     ecut=    60.00 Ry     beta= 0.20
     Davidson diagonalization with overlap
     ethr =  9.45E-11,  avg # of iterations =  2.2

     negative rho (up, down):  1.325E-04 9.732E-05

     total cpu time spent up to now is    42964.2 secs

     total energy              =   -7077.42098530 Ry
     estimated scf accuracy    <       0.00000008 Ry

     total magnetization       =     9.91 Bohr mag/cell
     absolute magnetization    =    10.78 Bohr mag/cell

     iteration # 17     ecut=    60.00 Ry     beta= 0.20
     Davidson diagonalization with overlap
     ethr =  3.46E-11,  avg # of iterations =  2.7

     negative rho (up, down):  1.354E-04 9.995E-05

     total cpu time spent up to now is    43146.5 secs

     total energy              =   -7077.42098533 Ry
     estimated scf accuracy    <       0.00000004 Ry

     total magnetization       =     9.91 Bohr mag/cell
     absolute magnetization    =    10.78 Bohr mag/cell

     iteration # 18     ecut=    60.00 Ry     beta= 0.20
     Davidson diagonalization with overlap
     ethr =  1.71E-11,  avg # of iterations =  2.5

     negative rho (up, down):  1.374E-04 1.018E-04

     total cpu time spent up to now is    43332.4 secs

     total energy              =   -7077.42098534 Ry
     estimated scf accuracy    <       0.00000002 Ry

     total magnetization       =     9.91 Bohr mag/cell
     absolute magnetization    =    10.78 Bohr mag/cell

     iteration # 19     ecut=    60.00 Ry     beta= 0.20
     Davidson diagonalization with overlap
     ethr =  1.02E-11,  avg # of iterations =  1.8

     negative rho (up, down):  1.377E-04 1.022E-04

     total cpu time spent up to now is    43507.0 secs

     total energy              =   -7077.42098534 Ry
     estimated scf accuracy    <       0.00000002 Ry

     total magnetization       =     9.91 Bohr mag/cell
     absolute magnetization    =    10.78 Bohr mag/cell

     iteration # 20     ecut=    60.00 Ry     beta= 0.20
     Davidson diagonalization with overlap
     ethr =  9.22E-12,  avg # of iterations =  1.3

     negative rho (up, down):  1.403E-04 1.046E-04

     total cpu time spent up to now is    43677.8 secs

     total energy              =   -7077.42098534 Ry
     estimated scf accuracy    <       0.00000002 Ry

     total magnetization       =     9.91 Bohr mag/cell
     absolute magnetization    =    10.78 Bohr mag/cell

     iteration # 21     ecut=    60.00 Ry     beta= 0.20
     Davidson diagonalization with overlap
     ethr =  7.88E-12,  avg # of iterations =  1.3

     negative rho (up, down):  1.413E-04 1.056E-04

     total cpu time spent up to now is    43851.8 secs

     total energy              =   -7077.42098534 Ry
     estimated scf accuracy    <       0.00000002 Ry

     total magnetization       =     9.91 Bohr mag/cell
     absolute magnetization    =    10.78 Bohr mag/cell

     iteration # 22     ecut=    60.00 Ry     beta= 0.20
     Davidson diagonalization with overlap
     ethr =  7.88E-12,  avg # of iterations =  1.0

     negative rho (up, down):  1.435E-04 1.077E-04

     total cpu time spent up to now is    44020.5 secs

     total energy              =   -7077.42098534 Ry
     estimated scf accuracy    <       0.00000001 Ry

     total magnetization       =     9.91 Bohr mag/cell
     absolute magnetization    =    10.78 Bohr mag/cell

     iteration # 23     ecut=    60.00 Ry     beta= 0.20
     Davidson diagonalization with overlap
     ethr =  4.34E-12,  avg # of iterations =  1.4

     negative rho (up, down):  1.466E-04 1.107E-04

     total cpu time spent up to now is    44195.0 secs

     total energy              =   -7077.42098535 Ry
     estimated scf accuracy    <       0.00000001 Ry

     total magnetization       =     9.91 Bohr mag/cell
     absolute magnetization    =    10.78 Bohr mag/cell

     iteration # 24     ecut=    60.00 Ry     beta= 0.20
     Davidson diagonalization with overlap
     ethr =  4.34E-12,  avg # of iterations =  1.4

     negative rho (up, down):  1.490E-04 1.131E-04

     total cpu time spent up to now is    44373.0 secs

     total energy              =   -7077.42098536 Ry
     estimated scf accuracy    <       0.00000002 Ry

     total magnetization       =     9.91 Bohr mag/cell
     absolute magnetization    =    10.78 Bohr mag/cell

     iteration # 25     ecut=    60.00 Ry     beta= 0.20
     Davidson diagonalization with overlap
     ethr =  4.34E-12,  avg # of iterations =  1.5

     negative rho (up, down):  1.497E-04 1.137E-04

     total cpu time spent up to now is    44547.6 secs

     total energy              =   -7077.42098536 Ry
     estimated scf accuracy    <       0.00000002 Ry

     total magnetization       =     9.91 Bohr mag/cell
     absolute magnetization    =    10.78 Bohr mag/cell

     iteration # 26     ecut=    60.00 Ry     beta= 0.20
     Davidson diagonalization with overlap
     ethr =  4.34E-12,  avg # of iterations =  1.2

     negative rho (up, down):  1.520E-04 1.160E-04

     total cpu time spent up to now is    44720.0 secs

     total energy              =   -7077.42098537 Ry
     estimated scf accuracy    <       0.00000001 Ry

     total magnetization       =     9.91 Bohr mag/cell
     absolute magnetization    =    10.78 Bohr mag/cell

     iteration # 27     ecut=    60.00 Ry     beta= 0.20
     Davidson diagonalization with overlap
     ethr =  4.34E-12,  avg # of iterations =  1.2

     negative rho (up, down):  1.521E-04 1.161E-04

     total cpu time spent up to now is    44894.1 secs

     total energy              =   -7077.42098537 Ry
     estimated scf accuracy    <          9.2E-09 Ry

     total magnetization       =     9.91 Bohr mag/cell
     absolute magnetization    =    10.78 Bohr mag/cell

     iteration # 28     ecut=    60.00 Ry     beta= 0.20
     Davidson diagonalization with overlap
     ethr =  3.82E-12,  avg # of iterations =  1.0

     negative rho (up, down):  1.538E-04 1.178E-04

     total cpu time spent up to now is    45062.7 secs

     total energy              =   -7077.42098537 Ry
     estimated scf accuracy    <          2.6E-09 Ry

     total magnetization       =     9.91 Bohr mag/cell
     absolute magnetization    =    10.78 Bohr mag/cell

     iteration # 29     ecut=    60.00 Ry     beta= 0.20
     Davidson diagonalization with overlap
     ethr =  1.07E-12,  avg # of iterations =  2.5

     negative rho (up, down):  1.544E-04 1.184E-04

     total cpu time spent up to now is    45253.2 secs

     total energy              =   -7077.42098537 Ry
     estimated scf accuracy    <          2.5E-09 Ry

     total magnetization       =     9.91 Bohr mag/cell
     absolute magnetization    =    10.78 Bohr mag/cell

     iteration # 30     ecut=    60.00 Ry     beta= 0.20
     Davidson diagonalization with overlap
     ethr =  1.05E-12,  avg # of iterations =  1.1

     negative rho (up, down):  1.544E-04 1.184E-04
 
     Magnetic moment per site  (integrated on atomic sphere of radius R)
     atom   1 (R=0.202)  charge=  8.7468  magn=  0.9609
     atom   2 (R=0.114)  charge=  4.0981  magn=  0.1530
     atom   3 (R=0.114)  charge=  4.0981  magn=  0.1530
     atom   4 (R=0.114)  charge=  4.0982  magn=  0.1507
     atom   5 (R=0.202)  charge=  8.8236  magn=  0.9257
     atom   6 (R=0.114)  charge=  4.0923  magn=  0.1893
     atom   7 (R=0.114)  charge=  4.0923  magn=  0.1893
     atom   8 (R=0.114)  charge=  4.0916  magn=  0.1902
     atom   9 (R=0.202)  charge=  8.8362  magn=  0.8686
     atom  10 (R=0.114)  charge=  4.0890  magn=  0.1841
     atom  11 (R=0.114)  charge=  4.0889  magn=  0.1801
     atom  12 (R=0.114)  charge=  4.0890  magn=  0.1841
     atom  13 (R=0.202)  charge=  8.8367  magn=  0.8525
     atom  14 (R=0.114)  charge=  4.0884  magn=  0.1755
     atom  15 (R=0.114)  charge=  4.0884  magn=  0.1755
     atom  16 (R=0.114)  charge=  4.0925  magn=  0.1752
     atom  17 (R=0.202)  charge=  8.8118  magn=  0.8645
     atom  18 (R=0.114)  charge=  4.0904  magn=  0.1693
     atom  19 (R=0.114)  charge=  4.0904  magn=  0.1693
     atom  20 (R=0.114)  charge=  4.0908  magn=  0.1854
     atom  21 (R=0.202)  charge=  8.7626  magn=  0.9285
     atom  22 (R=0.114)  charge=  4.0984  magn=  0.1323
     atom  23 (R=0.114)  charge=  4.0736  magn=  0.0638
     atom  24 (R=0.114)  charge=  4.0984  magn=  0.1323
     atom  25 (R=0.114)  charge=  0.6471  magn= -0.0060

     total cpu time spent up to now is    45418.2 secs

     End of self-consistent calculation

     Number of k-points >= 100: set verbosity='high' to print the bands.

     the Fermi energy is    -5.2204 ev

!    total energy              =   -7077.42098537 Ry
     total all-electron energy =   -199909.857556 Ry
     estimated scf accuracy    <          6.2E-10 Ry
     smearing contrib. (-TS)   =       0.00030339 Ry
     internal energy E=F+TS    =   -7077.42128877 Ry

     The total energy is F=E-TS. E is the sum of the following terms:
     one-electron contribution =  -60916.61029659 Ry
     hartree contribution      =   30645.21952688 Ry
     xc contribution           =    -835.39572379 Ry
     ewald contribution        =   29163.49765760 Ry
     DFT-D3 Dispersion         =      -2.52351160 Ry
     one-center paw contrib.   =   -5131.60894127 Ry

     total magnetization       =     9.91 Bohr mag/cell
     absolute magnetization    =    10.78 Bohr mag/cell

     convergence has been achieved in  30 iterations

     negative rho (up, down):  1.544E-04 1.184E-04

     Forces acting on atoms (cartesian axes, Ry/au):

     atom    1 type  1   force =    -0.00005669   -0.00003273    0.01603173
     atom    2 type  2   force =    -0.00032325   -0.01423654   -0.00890697
     atom    3 type  2   force =    -0.01249082    0.00683832   -0.00890696
     atom    4 type  2   force =     0.01241315    0.00716673   -0.00948723
     atom    5 type  1   force =     0.00014737    0.00008508   -0.00034789
     atom    6 type  2   force =    -0.00036638   -0.00017698    0.00432409
     atom    7 type  2   force =    -0.00033645   -0.00022882    0.00432411
     atom    8 type  2   force =     0.00094966    0.00054829    0.00585466
     atom    9 type  1   force =     0.00005340    0.00003089   -0.00004555
     atom   10 type  2   force =     0.00055540    0.00039495   -0.00012940
     atom   11 type  2   force =     0.00047536    0.00027442    0.00077797
     atom   12 type  2   force =     0.00061971    0.00028349   -0.00012942
     atom   13 type  1   force =    -0.00017535   -0.00010127    0.00132291
     atom   14 type  2   force =    -0.00028098    0.00014126    0.00126263
     atom   15 type  2   force =    -0.00001818   -0.00031393    0.00126262
     atom   16 type  2   force =    -0.00115705   -0.00066802    0.00260831
     atom   17 type  1   force =    -0.00023255   -0.00013423    0.00285670
     atom   18 type  2   force =    -0.00194779   -0.00138046    0.00528108
     atom   19 type  2   force =    -0.00216940   -0.00099658    0.00528103
     atom   20 type  2   force =    -0.00125232   -0.00072308    0.00054797
     atom   21 type  1   force =     0.00002435    0.00001407    0.00257962
     atom   22 type  2   force =     0.00225949    0.00152279    0.00118671
     atom   23 type  2   force =     0.00241811    0.00139606   -0.02025591
     atom   24 type  2   force =     0.00244850    0.00119538    0.00118660
     atom   25 type  3   force =    -0.00155728   -0.00089910   -0.00847941

     Total force =     0.024653     Total SCF correction =     0.000133


     Computing stress (Cartesian axis) and pressure


     negative rho (up, down):  1.544E-04 1.184E-04
          total   stress  (Ry/bohr**3)                   (kbar)     P=      -11.05
  -0.00009928   0.00000074   0.00000264          -14.60        0.11        0.39
   0.00000074  -0.00010013   0.00000153            0.11      -14.73        0.22
   0.00000264   0.00000153  -0.00002593            0.39        0.22       -3.81

     Energy error            =      6.5E-04 Ry
     Gradient error          =      2.0E-02 Ry/Bohr

     number of scf cycles    =   7
     number of bfgs steps    =   5

     energy             old  =   -7077.4203332789 Ry
     energy             new  =   -7077.4209853720 Ry

     CASE: energy            _new < energy            _old

     new trust radius        =       0.0310456872 bohr
     new conv_thr            =       0.0000000026 Ry


ATOMIC_POSITIONS (angstrom)
Ni               5.3171990772        3.0698863186       11.0000000000    0   0   0
Pd               2.6585995386        3.0698851333       11.0000764482    0   0   0
Pd               3.9878982814        0.7674721723       11.0000764482    0   0   0
Pd               1.3293007958        0.7674721723       11.0000764482    0   0   0
Ni               2.6585995386        1.5349431593       13.1707374333    0   0   0
Pd               3.9878982814        3.8373584909       13.1708138815    0   0   0
Pd               5.3171990772        1.5349419740       13.1708138815    0   0   0
Pd               6.6464998731        3.8373584909       13.1708138815    0   0   0
Ni               0.0000823268        0.0000473349       15.3350327743
Pd               5.3203934685        4.6056411729       15.3352358672
Pd               3.9885550051        2.3027932546       15.3411349077
Pd               6.6487990420        2.3047752686       15.3352358987
Ni               5.3167462430        3.0696248665       17.5160121061
Pd               3.9863406727        0.7693963441       17.5169508011
Pd               2.6594872012        3.0675739203       17.5169508673
Pd               1.3252270872        0.7651201994       17.4962779542
Ni               2.6588509701        1.5350884618       19.7036715133
Pd               3.9882639400        3.8225942057       19.7003895492
Pd               5.3045956330        1.5426409880       19.7003897536
Pd               6.6382079072        3.8325712545       19.6742565141
Ni               0.0013531671        0.0007815761       21.7741581412
Pd               5.3197353248        4.6235975718       21.8852205209
Pd               3.9938622470        2.3058578422       22.0500893174
Pd               6.6640203041        2.2952277784       21.8852210931
H                3.9776774860        2.2965134952       23.6085692913    0   0   1



     Writing config-only to output data dir /tmpu/isholek_g/isholek/MIGUEL/QE/Hydrogen/111_2x2/SAVE/Ni1Pd3_111-T1.save/ :
     XML data file
     NEW-OLD atomic charge density approx. for the potential

     Check: negative core charge=   -0.000002

     negative rho (up, down):  1.498E-04 1.304E-04
     Generating pointlists ...

     total cpu time spent up to now is    45696.0 secs

     Self-consistent Calculation

     iteration #  1     ecut=    60.00 Ry     beta= 0.20
     Davidson diagonalization with overlap
     ethr =  1.00E-06,  avg # of iterations =  6.8

     negative rho (up, down):  1.748E-04 1.471E-04

     total cpu time spent up to now is    46137.8 secs

     total energy              =   -7077.42138551 Ry
     estimated scf accuracy    <       0.00731143 Ry

     total magnetization       =     9.88 Bohr mag/cell
     absolute magnetization    =    10.75 Bohr mag/cell

     iteration #  2     ecut=    60.00 Ry     beta= 0.20
     Davidson diagonalization with overlap
     ethr =  3.03E-06,  avg # of iterations =  1.0

     negative rho (up, down):  1.738E-04 1.443E-04

     total cpu time spent up to now is    46306.7 secs

     total energy              =   -7077.42152093 Ry
     estimated scf accuracy    <       0.00061768 Ry

     total magnetization       =     9.92 Bohr mag/cell
     absolute magnetization    =    10.80 Bohr mag/cell

     iteration #  3     ecut=    60.00 Ry     beta= 0.20
     Davidson diagonalization with overlap
     ethr =  2.56E-07,  avg # of iterations =  1.9

     negative rho (up, down):  1.717E-04 1.407E-04

     total cpu time spent up to now is    46487.5 secs

     total energy              =   -7077.42162405 Ry
     estimated scf accuracy    <       0.00045263 Ry

     total magnetization       =     9.91 Bohr mag/cell
     absolute magnetization    =    10.78 Bohr mag/cell

     iteration #  4     ecut=    60.00 Ry     beta= 0.20
     Davidson diagonalization with overlap
     ethr =  1.88E-07,  avg # of iterations =  1.0

     negative rho (up, down):  1.695E-04 1.374E-04

     total cpu time spent up to now is    46655.7 secs

     total energy              =   -7077.42168476 Ry
     estimated scf accuracy    <       0.00047075 Ry

     total magnetization       =     9.91 Bohr mag/cell
     absolute magnetization    =    10.78 Bohr mag/cell

     iteration #  5     ecut=    60.00 Ry     beta= 0.20
     Davidson diagonalization with overlap
     ethr =  1.88E-07,  avg # of iterations =  1.0

     negative rho (up, down):  1.666E-04 1.337E-04

     total cpu time spent up to now is    46822.1 secs

     total energy              =   -7077.42173782 Ry
     estimated scf accuracy    <       0.00021543 Ry

     total magnetization       =     9.92 Bohr mag/cell
     absolute magnetization    =    10.79 Bohr mag/cell

     iteration #  6     ecut=    60.00 Ry     beta= 0.20
     Davidson diagonalization with overlap
     ethr =  8.94E-08,  avg # of iterations =  1.0

     negative rho (up, down):  1.635E-04 1.299E-04

     total cpu time spent up to now is    46989.1 secs

     total energy              =   -7077.42176613 Ry
     estimated scf accuracy    <       0.00010961 Ry

     total magnetization       =     9.92 Bohr mag/cell
     absolute magnetization    =    10.79 Bohr mag/cell

     iteration #  7     ecut=    60.00 Ry     beta= 0.20
     Davidson diagonalization with overlap
     ethr =  4.55E-08,  avg # of iterations =  1.0

     negative rho (up, down):  1.529E-04 1.190E-04

     total cpu time spent up to now is    47157.7 secs

     total energy              =   -7077.42183681 Ry
     estimated scf accuracy    <       0.00008105 Ry

     total magnetization       =     9.92 Bohr mag/cell
     absolute magnetization    =    10.79 Bohr mag/cell

     iteration #  8     ecut=    60.00 Ry     beta= 0.20
     Davidson diagonalization with overlap
     ethr =  3.36E-08,  avg # of iterations =  2.0

     negative rho (up, down):  1.477E-04 1.135E-04

     total cpu time spent up to now is    47345.3 secs

     total energy              =   -7077.42185185 Ry
     estimated scf accuracy    <       0.00004558 Ry

     total magnetization       =     9.91 Bohr mag/cell
     absolute magnetization    =    10.79 Bohr mag/cell

     iteration #  9     ecut=    60.00 Ry     beta= 0.20
     Davidson diagonalization with overlap
     ethr =  1.89E-08,  avg # of iterations =  1.4

     negative rho (up, down):  1.403E-04 1.061E-04

     total cpu time spent up to now is    47519.3 secs

     total energy              =   -7077.42185263 Ry
     estimated scf accuracy    <       0.00002450 Ry

     total magnetization       =     9.91 Bohr mag/cell
     absolute magnetization    =    10.79 Bohr mag/cell

     iteration # 10     ecut=    60.00 Ry     beta= 0.20
     Davidson diagonalization with overlap
     ethr =  1.02E-08,  avg # of iterations =  2.0

     negative rho (up, down):  1.381E-04 1.036E-04

     total cpu time spent up to now is    47701.3 secs

     total energy              =   -7077.42185355 Ry
     estimated scf accuracy    <       0.00000549 Ry

     total magnetization       =     9.91 Bohr mag/cell
     absolute magnetization    =    10.79 Bohr mag/cell

     iteration # 11     ecut=    60.00 Ry     beta= 0.20
     Davidson diagonalization with overlap
     ethr =  2.28E-09,  avg # of iterations =  2.2

     negative rho (up, down):  1.347E-04 1.001E-04

     total cpu time spent up to now is    47883.9 secs

     total energy              =   -7077.42185419 Ry
     estimated scf accuracy    <       0.00000333 Ry

     total magnetization       =     9.91 Bohr mag/cell
     absolute magnetization    =    10.79 Bohr mag/cell

     iteration # 12     ecut=    60.00 Ry     beta= 0.20
     Davidson diagonalization with overlap
     ethr =  1.38E-09,  avg # of iterations =  2.0

     negative rho (up, down):  1.326E-04 9.798E-05

     total cpu time spent up to now is    48069.0 secs

     total energy              =   -7077.42185438 Ry
     estimated scf accuracy    <       0.00000299 Ry

     total magnetization       =     9.91 Bohr mag/cell
     absolute magnetization    =    10.79 Bohr mag/cell

     iteration # 13     ecut=    60.00 Ry     beta= 0.20
     Davidson diagonalization with overlap
     ethr =  1.24E-09,  avg # of iterations =  1.1

     negative rho (up, down):  1.317E-04 9.695E-05

     total cpu time spent up to now is    48237.4 secs

     total energy              =   -7077.42185440 Ry
     estimated scf accuracy    <       0.00000271 Ry

     total magnetization       =     9.91 Bohr mag/cell
     absolute magnetization    =    10.79 Bohr mag/cell

     iteration # 14     ecut=    60.00 Ry     beta= 0.20
     Davidson diagonalization with overlap
     ethr =  1.13E-09,  avg # of iterations =  1.1

     negative rho (up, down):  1.286E-04 9.371E-05

     total cpu time spent up to now is    48398.5 secs

     total energy              =   -7077.42185436 Ry
     estimated scf accuracy    <       0.00000198 Ry

     total magnetization       =     9.91 Bohr mag/cell
     absolute magnetization    =    10.79 Bohr mag/cell

     iteration # 15     ecut=    60.00 Ry     beta= 0.20
     Davidson diagonalization with overlap
     ethr =  8.21E-10,  avg # of iterations =  1.4

     negative rho (up, down):  1.273E-04 9.234E-05

     total cpu time spent up to now is    48573.3 secs

     total energy              =   -7077.42185437 Ry
     estimated scf accuracy    <       0.00000062 Ry

     total magnetization       =     9.91 Bohr mag/cell
     absolute magnetization    =    10.79 Bohr mag/cell

     iteration # 16     ecut=    60.00 Ry     beta= 0.20
     Davidson diagonalization with overlap
     ethr =  2.58E-10,  avg # of iterations =  2.5

     negative rho (up, down):  1.276E-04 9.256E-05

     total cpu time spent up to now is    48752.9 secs

     total energy              =   -7077.42185440 Ry
     estimated scf accuracy    <       0.00000012 Ry

     total magnetization       =     9.91 Bohr mag/cell
     absolute magnetization    =    10.79 Bohr mag/cell

     iteration # 17     ecut=    60.00 Ry     beta= 0.20
     Davidson diagonalization with overlap
     ethr =  4.86E-11,  avg # of iterations =  4.5

     negative rho (up, down):  1.302E-04 9.492E-05

     total cpu time spent up to now is    48964.2 secs

     total energy              =   -7077.42185444 Ry
     estimated scf accuracy    <       0.00000006 Ry

     total magnetization       =     9.91 Bohr mag/cell
     absolute magnetization    =    10.79 Bohr mag/cell

     iteration # 18     ecut=    60.00 Ry     beta= 0.20
     Davidson diagonalization with overlap
     ethr =  2.49E-11,  avg # of iterations =  2.2

     negative rho (up, down):  1.316E-04 9.625E-05

     total cpu time spent up to now is    49150.2 secs

     total energy              =   -7077.42185446 Ry
     estimated scf accuracy    <       0.00000004 Ry

     total magnetization       =     9.91 Bohr mag/cell
     absolute magnetization    =    10.79 Bohr mag/cell

     iteration # 19     ecut=    60.00 Ry     beta= 0.20
     Davidson diagonalization with overlap
     ethr =  1.70E-11,  avg # of iterations =  1.1

     negative rho (up, down):  1.330E-04 9.758E-05

     total cpu time spent up to now is    49320.6 secs

     total energy              =   -7077.42185446 Ry
     estimated scf accuracy    <       0.00000004 Ry

     total magnetization       =     9.91 Bohr mag/cell
     absolute magnetization    =    10.79 Bohr mag/cell

     iteration # 20     ecut=    60.00 Ry     beta= 0.20
     Davidson diagonalization with overlap
     ethr =  1.61E-11,  avg # of iterations =  1.0

     negative rho (up, down):  1.354E-04 9.987E-05

     total cpu time spent up to now is    49488.0 secs

     total energy              =   -7077.42185446 Ry
     estimated scf accuracy    <       0.00000004 Ry

     total magnetization       =     9.91 Bohr mag/cell
     absolute magnetization    =    10.79 Bohr mag/cell

     iteration # 21     ecut=    60.00 Ry     beta= 0.20
     Davidson diagonalization with overlap
     ethr =  1.52E-11,  avg # of iterations =  1.1

     negative rho (up, down):  1.420E-04 1.061E-04

     total cpu time spent up to now is    49656.1 secs

     total energy              =   -7077.42185447 Ry
     estimated scf accuracy    <       0.00000004 Ry

     total magnetization       =     9.91 Bohr mag/cell
     absolute magnetization    =    10.79 Bohr mag/cell

     iteration # 22     ecut=    60.00 Ry     beta= 0.20
     Davidson diagonalization with overlap
     ethr =  1.52E-11,  avg # of iterations =  1.4

     negative rho (up, down):  1.467E-04 1.107E-04

     total cpu time spent up to now is    49833.4 secs

     total energy              =   -7077.42185448 Ry
     estimated scf accuracy    <       0.00000005 Ry

     total magnetization       =     9.91 Bohr mag/cell
     absolute magnetization    =    10.79 Bohr mag/cell

     iteration # 23     ecut=    60.00 Ry     beta= 0.20
     Davidson diagonalization with overlap
     ethr =  1.52E-11,  avg # of iterations =  1.2

     negative rho (up, down):  1.469E-04 1.110E-04

     total cpu time spent up to now is    50006.9 secs

     total energy              =   -7077.42185448 Ry
     estimated scf accuracy    <       0.00000005 Ry

     total magnetization       =     9.91 Bohr mag/cell
     absolute magnetization    =    10.79 Bohr mag/cell

     iteration # 24     ecut=    60.00 Ry     beta= 0.20
     Davidson diagonalization with overlap
     ethr =  1.52E-11,  avg # of iterations =  1.0

     negative rho (up, down):  1.485E-04 1.125E-04

     total cpu time spent up to now is    50174.2 secs

     total energy              =   -7077.42185448 Ry
     estimated scf accuracy    <       0.00000005 Ry

     total magnetization       =     9.91 Bohr mag/cell
     absolute magnetization    =    10.79 Bohr mag/cell

     iteration # 25     ecut=    60.00 Ry     beta= 0.20
     Davidson diagonalization with overlap
     ethr =  1.52E-11,  avg # of iterations =  1.0

     negative rho (up, down):  1.498E-04 1.137E-04

     total cpu time spent up to now is    50341.9 secs

     total energy              =   -7077.42185449 Ry
     estimated scf accuracy    <       0.00000005 Ry

     total magnetization       =     9.91 Bohr mag/cell
     absolute magnetization    =    10.79 Bohr mag/cell

     iteration # 26     ecut=    60.00 Ry     beta= 0.20
     Davidson diagonalization with overlap
     ethr =  1.52E-11,  avg # of iterations =  1.0

     negative rho (up, down):  1.506E-04 1.146E-04

     total cpu time spent up to now is    50510.5 secs

     total energy              =   -7077.42185449 Ry
     estimated scf accuracy    <       0.00000005 Ry

     total magnetization       =     9.91 Bohr mag/cell
     absolute magnetization    =    10.79 Bohr mag/cell

     iteration # 27     ecut=    60.00 Ry     beta= 0.20
     Davidson diagonalization with overlap
     ethr =  1.52E-11,  avg # of iterations =  1.0

     negative rho (up, down):  1.505E-04 1.144E-04

     total cpu time spent up to now is    50676.8 secs

     total energy              =   -7077.42185449 Ry
     estimated scf accuracy    <       0.00000005 Ry

     total magnetization       =     9.91 Bohr mag/cell
     absolute magnetization    =    10.79 Bohr mag/cell

     iteration # 28     ecut=    60.00 Ry     beta= 0.20
     Davidson diagonalization with overlap
     ethr =  1.52E-11,  avg # of iterations =  1.0

     negative rho (up, down):  1.523E-04 1.162E-04

     total cpu time spent up to now is    50845.2 secs

     total energy              =   -7077.42185450 Ry
     estimated scf accuracy    <       0.00000004 Ry

     total magnetization       =     9.91 Bohr mag/cell
     absolute magnetization    =    10.79 Bohr mag/cell

     iteration # 29     ecut=    60.00 Ry     beta= 0.20
     Davidson diagonalization with overlap
     ethr =  1.52E-11,  avg # of iterations =  1.0

     negative rho (up, down):  1.545E-04 1.184E-04

     total cpu time spent up to now is    51014.2 secs

     total energy              =   -7077.42185450 Ry
     estimated scf accuracy    <       0.00000001 Ry

     total magnetization       =     9.91 Bohr mag/cell
     absolute magnetization    =    10.79 Bohr mag/cell

     iteration # 30     ecut=    60.00 Ry     beta= 0.20
     Davidson diagonalization with overlap
     ethr =  4.81E-12,  avg # of iterations =  1.0

     negative rho (up, down):  1.546E-04 1.185E-04
 
     Magnetic moment per site  (integrated on atomic sphere of radius R)
     atom   1 (R=0.202)  charge=  8.7468  magn=  0.9611
     atom   2 (R=0.114)  charge=  4.0981  magn=  0.1532
     atom   3 (R=0.114)  charge=  4.0981  magn=  0.1532
     atom   4 (R=0.114)  charge=  4.0982  magn=  0.1507
     atom   5 (R=0.202)  charge=  8.8236  magn=  0.9259
     atom   6 (R=0.114)  charge=  4.0923  magn=  0.1895
     atom   7 (R=0.114)  charge=  4.0923  magn=  0.1895
     atom   8 (R=0.114)  charge=  4.0916  magn=  0.1904
     atom   9 (R=0.202)  charge=  8.8359  magn=  0.8687
     atom  10 (R=0.114)  charge=  4.0890  magn=  0.1840
     atom  11 (R=0.114)  charge=  4.0888  magn=  0.1803
     atom  12 (R=0.114)  charge=  4.0890  magn=  0.1840
     atom  13 (R=0.202)  charge=  8.8355  magn=  0.8529
     atom  14 (R=0.114)  charge=  4.0884  magn=  0.1755
     atom  15 (R=0.114)  charge=  4.0884  magn=  0.1755
     atom  16 (R=0.114)  charge=  4.0924  magn=  0.1750
     atom  17 (R=0.202)  charge=  8.8127  magn=  0.8650
     atom  18 (R=0.114)  charge=  4.0904  magn=  0.1692
     atom  19 (R=0.114)  charge=  4.0904  magn=  0.1692
     atom  20 (R=0.114)  charge=  4.0908  magn=  0.1851
     atom  21 (R=0.202)  charge=  8.7637  magn=  0.9277
     atom  22 (R=0.114)  charge=  4.0985  magn=  0.1324
     atom  23 (R=0.114)  charge=  4.0735  magn=  0.0637
     atom  24 (R=0.114)  charge=  4.0985  magn=  0.1324
     atom  25 (R=0.114)  charge=  0.6502  magn= -0.0060

     total cpu time spent up to now is    51181.7 secs

     End of self-consistent calculation

     Number of k-points >= 100: set verbosity='high' to print the bands.

     the Fermi energy is    -5.2171 ev

!    total energy              =   -7077.42185450 Ry
     total all-electron energy =   -199909.858425 Ry
     estimated scf accuracy    <          6.0E-10 Ry
     smearing contrib. (-TS)   =       0.00027089 Ry
     internal energy E=F+TS    =   -7077.42212540 Ry

     The total energy is F=E-TS. E is the sum of the following terms:
     one-electron contribution =  -60915.93490530 Ry
     hartree contribution      =   30644.91037756 Ry
     xc contribution           =    -835.40042321 Ry
     ewald contribution        =   29163.13631964 Ry
     DFT-D3 Dispersion         =      -2.52387126 Ry
     one-center paw contrib.   =   -5131.60962282 Ry

     total magnetization       =     9.91 Bohr mag/cell
     absolute magnetization    =    10.79 Bohr mag/cell

     convergence has been achieved in  30 iterations

     negative rho (up, down):  1.546E-04 1.185E-04

     Forces acting on atoms (cartesian axes, Ry/au):

     atom    1 type  1   force =    -0.00005840   -0.00003371    0.01603272
     atom    2 type  2   force =    -0.00032342   -0.01424337   -0.00890406
     atom    3 type  2   force =    -0.01249686    0.00684160   -0.00890405
     atom    4 type  2   force =     0.01240872    0.00716416   -0.00951909
     atom    5 type  1   force =     0.00020498    0.00011834   -0.00034236
     atom    6 type  2   force =    -0.00035051   -0.00022502    0.00441191
     atom    7 type  2   force =    -0.00037012   -0.00019106    0.00441191
     atom    8 type  2   force =     0.00098607    0.00056931    0.00569129
     atom    9 type  1   force =     0.00015918    0.00009195    0.00019512
     atom   10 type  2   force =     0.00026760    0.00047624    0.00042796
     atom   11 type  2   force =     0.00054943    0.00031719    0.00080464
     atom   12 type  2   force =     0.00054622   -0.00000638    0.00042796
     atom   13 type  1   force =    -0.00029662   -0.00017126    0.00159509
     atom   14 type  2   force =    -0.00043937    0.00011200    0.00140014
     atom   15 type  2   force =    -0.00012272   -0.00043648    0.00140012
     atom   16 type  2   force =    -0.00069225   -0.00039967    0.00304932
     atom   17 type  1   force =    -0.00097307   -0.00056178    0.00180304
     atom   18 type  2   force =    -0.00177688    0.00028622    0.00257006
     atom   19 type  2   force =    -0.00064054   -0.00168193    0.00256999
     atom   20 type  2   force =    -0.00162364   -0.00093745    0.00045045
     atom   21 type  1   force =     0.00018504    0.00010689    0.00275581
     atom   22 type  2   force =     0.00230903    0.00142615    0.00151153
     atom   23 type  2   force =     0.00177222    0.00102311   -0.01985369
     atom   24 type  2   force =     0.00238959    0.00128660    0.00151142
     atom   25 type  3   force =    -0.00161367   -0.00093165   -0.00549724

     Total force =     0.022415     Total SCF correction =     0.000091


     Computing stress (Cartesian axis) and pressure


     negative rho (up, down):  1.546E-04 1.185E-04
          total   stress  (Ry/bohr**3)                   (kbar)     P=      -10.85
  -0.00009857   0.00000059   0.00000220          -14.50        0.09        0.32
   0.00000059  -0.00009925   0.00000127            0.09      -14.60        0.19
   0.00000220   0.00000127  -0.00002348            0.32        0.19       -3.45

     Energy error            =      8.7E-04 Ry
     Gradient error          =      2.0E-02 Ry/Bohr

     number of scf cycles    =   8
     number of bfgs steps    =   6

     energy             old  =   -7077.4209853720 Ry
     energy             new  =   -7077.4218545012 Ry

     CASE: energy            _new < energy            _old

     new trust radius        =       0.0465685308 bohr
     new conv_thr            =       0.0000000025 Ry


ATOMIC_POSITIONS (angstrom)
Ni               5.3171990772        3.0698863186       11.0000000000    0   0   0
Pd               2.6585995386        3.0698851333       11.0000764482    0   0   0
Pd               3.9878982814        0.7674721723       11.0000764482    0   0   0
Pd               1.3293007958        0.7674721723       11.0000764482    0   0   0
Ni               2.6585995386        1.5349431593       13.1707374333    0   0   0
Pd               3.9878982814        3.8373584909       13.1708138815    0   0   0
Pd               5.3171990772        1.5349419740       13.1708138815    0   0   0
Pd               6.6464998731        3.8373584909       13.1708138815    0   0   0
Ni               0.0002295775        0.0001323911       15.3350817725
Pd               5.3212415995        4.6063013372       15.3351926544
Pd               3.9893678225        2.3032625015       15.3424941976
Pd               6.6497948294        2.3051796732       15.3351926646
Ni               5.3163930236        3.0694209215       17.5184581170
Pd               3.9857861114        0.7696697720       17.5193226590
Pd               2.6594466812        3.0669569831       17.5193226919
Pd               1.3234837526        0.7641136968       17.4997180305
Ni               2.6580751790        1.5346406488       19.7080578039
Pd               3.9851226724        3.8208415751       19.7082237616
Pd               5.3015072002        1.5407968522       19.7082239614
Pd               6.6359910267        3.8312912803       19.6750097497
Ni               0.0015613277        0.0009018835       21.7784643289
Pd               5.3233006716        4.6262347599       21.8875389184
Pd               3.9980111852        2.3082531358       22.0278412065
Pd               6.6680868273        2.2969968425       21.8875393792
H                3.9776774860        2.2965134952       23.5839262860    0   0   1



     Writing config-only to output data dir /tmpu/isholek_g/isholek/MIGUEL/QE/Hydrogen/111_2x2/SAVE/Ni1Pd3_111-T1.save/ :
     XML data file
     NEW-OLD atomic charge density approx. for the potential

     Check: negative core charge=   -0.000002

     negative rho (up, down):  1.512E-04 1.511E-04
     Generating pointlists ...

     total cpu time spent up to now is    51458.5 secs

     Self-consistent Calculation

     iteration #  1     ecut=    60.00 Ry     beta= 0.20
     Davidson diagonalization with overlap
     ethr =  1.00E-06,  avg # of iterations =  8.0

     negative rho (up, down):  4.566E-04 4.575E-04

     total cpu time spent up to now is    51967.3 secs

     total energy              =   -7077.42033718 Ry
     estimated scf accuracy    <       0.05051167 Ry

     total magnetization       =     9.82 Bohr mag/cell
     absolute magnetization    =    10.70 Bohr mag/cell

     iteration #  2     ecut=    60.00 Ry     beta= 0.20
     Davidson diagonalization with overlap
     ethr =  2.10E-05,  avg # of iterations =  1.0

     negative rho (up, down):  3.962E-04 3.910E-04

     total cpu time spent up to now is    52128.1 secs

     total energy              =   -7077.42097071 Ry
     estimated scf accuracy    <       0.00412570 Ry

     total magnetization       =     9.94 Bohr mag/cell
     absolute magnetization    =    10.82 Bohr mag/cell

     iteration #  3     ecut=    60.00 Ry     beta= 0.20
     Davidson diagonalization with overlap
     ethr =  1.71E-06,  avg # of iterations =  2.0

     negative rho (up, down):  3.462E-04 3.361E-04

     total cpu time spent up to now is    52312.0 secs

     total energy              =   -7077.42161442 Ry
     estimated scf accuracy    <       0.00281664 Ry

     total magnetization       =     9.90 Bohr mag/cell
     absolute magnetization    =    10.77 Bohr mag/cell

     iteration #  4     ecut=    60.00 Ry     beta= 0.20
     Davidson diagonalization with overlap
     ethr =  1.17E-06,  avg # of iterations =  1.0

     negative rho (up, down):  3.036E-04 2.899E-04

     total cpu time spent up to now is    52479.8 secs

     total energy              =   -7077.42197627 Ry
     estimated scf accuracy    <       0.00338550 Ry

     total magnetization       =     9.91 Bohr mag/cell
     absolute magnetization    =    10.79 Bohr mag/cell

     iteration #  5     ecut=    60.00 Ry     beta= 0.20
     Davidson diagonalization with overlap
     ethr =  1.17E-06,  avg # of iterations =  1.0

     negative rho (up, down):  2.700E-04 2.526E-04

     total cpu time spent up to now is    52647.2 secs

     total energy              =   -7077.42229741 Ry
     estimated scf accuracy    <       0.00141422 Ry

     total magnetization       =     9.93 Bohr mag/cell
     absolute magnetization    =    10.80 Bohr mag/cell

     iteration #  6     ecut=    60.00 Ry     beta= 0.20
     Davidson diagonalization with overlap
     ethr =  5.87E-07,  avg # of iterations =  1.0

     negative rho (up, down):  2.466E-04 2.267E-04

     total cpu time spent up to now is    52814.6 secs

     total energy              =   -7077.42243175 Ry
     estimated scf accuracy    <       0.00068913 Ry

     total magnetization       =     9.92 Bohr mag/cell
     absolute magnetization    =    10.80 Bohr mag/cell

     iteration #  7     ecut=    60.00 Ry     beta= 0.20
     Davidson diagonalization with overlap
     ethr =  2.86E-07,  avg # of iterations =  1.0

     negative rho (up, down):  2.149E-04 1.904E-04

     total cpu time spent up to now is    52984.1 secs

     total energy              =   -7077.42280527 Ry
     estimated scf accuracy    <       0.00054576 Ry

     total magnetization       =     9.92 Bohr mag/cell
     absolute magnetization    =    10.79 Bohr mag/cell

     iteration #  8     ecut=    60.00 Ry     beta= 0.20
     Davidson diagonalization with overlap
     ethr =  2.26E-07,  avg # of iterations =  1.6

     negative rho (up, down):  1.924E-04 1.647E-04

     total cpu time spent up to now is    53162.3 secs

     total energy              =   -7077.42295656 Ry
     estimated scf accuracy    <       0.00033077 Ry

     total magnetization       =     9.92 Bohr mag/cell
     absolute magnetization    =    10.79 Bohr mag/cell

     iteration #  9     ecut=    60.00 Ry     beta= 0.20
     Davidson diagonalization with overlap
     ethr =  1.37E-07,  avg # of iterations =  1.4

     negative rho (up, down):  1.715E-04 1.409E-04

     total cpu time spent up to now is    53336.8 secs

     total energy              =   -7077.42299734 Ry
     estimated scf accuracy    <       0.00015313 Ry

     total magnetization       =     9.92 Bohr mag/cell
     absolute magnetization    =    10.79 Bohr mag/cell

     iteration # 10     ecut=    60.00 Ry     beta= 0.20
     Davidson diagonalization with overlap
     ethr =  6.35E-08,  avg # of iterations =  2.0

     negative rho (up, down):  1.572E-04 1.256E-04

     total cpu time spent up to now is    53522.7 secs

     total energy              =   -7077.42300534 Ry
     estimated scf accuracy    <       0.00001803 Ry

     total magnetization       =     9.92 Bohr mag/cell
     absolute magnetization    =    10.79 Bohr mag/cell

     iteration # 11     ecut=    60.00 Ry     beta= 0.20
     Davidson diagonalization with overlap
     ethr =  7.48E-09,  avg # of iterations =  3.9

     negative rho (up, down):  1.426E-04 1.106E-04

     total cpu time spent up to now is    53711.6 secs

     total energy              =   -7077.42300582 Ry
     estimated scf accuracy    <       0.00001401 Ry

     total magnetization       =     9.92 Bohr mag/cell
     absolute magnetization    =    10.79 Bohr mag/cell

     iteration # 12     ecut=    60.00 Ry     beta= 0.20
     Davidson diagonalization with overlap
     ethr =  5.81E-09,  avg # of iterations =  2.0

     negative rho (up, down):  1.344E-04 1.019E-04

     total cpu time spent up to now is    53900.5 secs

     total energy              =   -7077.42300680 Ry
     estimated scf accuracy    <       0.00001206 Ry

     total magnetization       =     9.92 Bohr mag/cell
     absolute magnetization    =    10.79 Bohr mag/cell

     iteration # 13     ecut=    60.00 Ry     beta= 0.20
     Davidson diagonalization with overlap
     ethr =  5.01E-09,  avg # of iterations =  1.0

     negative rho (up, down):  1.298E-04 9.689E-05

     total cpu time spent up to now is    54067.9 secs

     total energy              =   -7077.42300696 Ry
     estimated scf accuracy    <       0.00000750 Ry

     total magnetization       =     9.92 Bohr mag/cell
     absolute magnetization    =    10.79 Bohr mag/cell

     iteration # 14     ecut=    60.00 Ry     beta= 0.20
     Davidson diagonalization with overlap
     ethr =  3.11E-09,  avg # of iterations =  1.2

     negative rho (up, down):  1.236E-04 9.046E-05

     total cpu time spent up to now is    54236.7 secs

     total energy              =   -7077.42300661 Ry
     estimated scf accuracy    <       0.00000547 Ry

     total magnetization       =     9.92 Bohr mag/cell
     absolute magnetization    =    10.79 Bohr mag/cell

     iteration # 15     ecut=    60.00 Ry     beta= 0.20
     Davidson diagonalization with overlap
     ethr =  2.27E-09,  avg # of iterations =  1.6

     negative rho (up, down):  1.161E-04 8.292E-05

     total cpu time spent up to now is    54417.1 secs

     total energy              =   -7077.42300662 Ry
     estimated scf accuracy    <       0.00000709 Ry

     total magnetization       =     9.92 Bohr mag/cell
     absolute magnetization    =    10.79 Bohr mag/cell

     iteration # 16     ecut=    60.00 Ry     beta= 0.20
     Davidson diagonalization with overlap
     ethr =  2.27E-09,  avg # of iterations =  1.0

     negative rho (up, down):  1.147E-04 8.123E-05

     total cpu time spent up to now is    54584.6 secs

     total energy              =   -7077.42300695 Ry
     estimated scf accuracy    <       0.00000060 Ry

     total magnetization       =     9.92 Bohr mag/cell
     absolute magnetization    =    10.79 Bohr mag/cell

     iteration # 17     ecut=    60.00 Ry     beta= 0.20
     Davidson diagonalization with overlap
     ethr =  2.51E-10,  avg # of iterations =  3.6

     negative rho (up, down):  1.169E-04 8.292E-05

     total cpu time spent up to now is    54790.1 secs

     total energy              =   -7077.42300709 Ry
     estimated scf accuracy    <       0.00000030 Ry

     total magnetization       =     9.92 Bohr mag/cell
     absolute magnetization    =    10.79 Bohr mag/cell

     iteration # 18     ecut=    60.00 Ry     beta= 0.20
     Davidson diagonalization with overlap
     ethr =  1.23E-10,  avg # of iterations =  1.8

     negative rho (up, down):  1.196E-04 8.524E-05

     total cpu time spent up to now is    54970.2 secs

     total energy              =   -7077.42300719 Ry
     estimated scf accuracy    <       0.00000012 Ry

     total magnetization       =     9.92 Bohr mag/cell
     absolute magnetization    =    10.79 Bohr mag/cell

     iteration # 19     ecut=    60.00 Ry     beta= 0.20
     Davidson diagonalization with overlap
     ethr =  4.82E-11,  avg # of iterations =  2.3

     negative rho (up, down):  1.218E-04 8.714E-05

     total cpu time spent up to now is    55165.9 secs

     total energy              =   -7077.42300721 Ry
     estimated scf accuracy    <       0.00000008 Ry

     total magnetization       =     9.92 Bohr mag/cell
     absolute magnetization    =    10.79 Bohr mag/cell

     iteration # 20     ecut=    60.00 Ry     beta= 0.20
     Davidson diagonalization with overlap
     ethr =  3.36E-11,  avg # of iterations =  1.1

     negative rho (up, down):  1.253E-04 9.030E-05

     total cpu time spent up to now is    55333.7 secs

     total energy              =   -7077.42300721 Ry
     estimated scf accuracy    <       0.00000009 Ry

     total magnetization       =     9.92 Bohr mag/cell
     absolute magnetization    =    10.79 Bohr mag/cell

     iteration # 21     ecut=    60.00 Ry     beta= 0.20
     Davidson diagonalization with overlap
     ethr =  3.36E-11,  avg # of iterations =  1.5

     negative rho (up, down):  1.331E-04 9.760E-05

     total cpu time spent up to now is    55506.3 secs

     total energy              =   -7077.42300723 Ry
     estimated scf accuracy    <       0.00000009 Ry

     total magnetization       =     9.92 Bohr mag/cell
     absolute magnetization    =    10.79 Bohr mag/cell

     iteration # 22     ecut=    60.00 Ry     beta= 0.20
     Davidson diagonalization with overlap
     ethr =  3.36E-11,  avg # of iterations =  1.3

     negative rho (up, down):  1.394E-04 1.037E-04

     total cpu time spent up to now is    55679.9 secs

     total energy              =   -7077.42300724 Ry
     estimated scf accuracy    <       0.00000007 Ry

     total magnetization       =     9.92 Bohr mag/cell
     absolute magnetization    =    10.79 Bohr mag/cell

     iteration # 23     ecut=    60.00 Ry     beta= 0.20
     Davidson diagonalization with overlap
     ethr =  2.93E-11,  avg # of iterations =  1.4

     negative rho (up, down):  1.432E-04 1.072E-04

     total cpu time spent up to now is    55853.8 secs

     total energy              =   -7077.42300725 Ry
     estimated scf accuracy    <       0.00000004 Ry

     total magnetization       =     9.92 Bohr mag/cell
     absolute magnetization    =    10.79 Bohr mag/cell

     iteration # 24     ecut=    60.00 Ry     beta= 0.20
     Davidson diagonalization with overlap
     ethr =  1.86E-11,  avg # of iterations =  1.2

     negative rho (up, down):  1.447E-04 1.087E-04

     total cpu time spent up to now is    56022.9 secs

     total energy              =   -7077.42300726 Ry
     estimated scf accuracy    <       0.00000004 Ry

     total magnetization       =     9.92 Bohr mag/cell
     absolute magnetization    =    10.79 Bohr mag/cell

     iteration # 25     ecut=    60.00 Ry     beta= 0.20
     Davidson diagonalization with overlap
     ethr =  1.70E-11,  avg # of iterations =  1.1

     negative rho (up, down):  1.439E-04 1.079E-04

     total cpu time spent up to now is    56193.5 secs

     total energy              =   -7077.42300726 Ry
     estimated scf accuracy    <       0.00000005 Ry

     total magnetization       =     9.92 Bohr mag/cell
     absolute magnetization    =    10.79 Bohr mag/cell

     iteration # 26     ecut=    60.00 Ry     beta= 0.20
     Davidson diagonalization with overlap
     ethr =  1.70E-11,  avg # of iterations =  1.0

     negative rho (up, down):  1.436E-04 1.076E-04

     total cpu time spent up to now is    56362.8 secs

     total energy              =   -7077.42300726 Ry
     estimated scf accuracy    <       0.00000003 Ry

     total magnetization       =     9.92 Bohr mag/cell
     absolute magnetization    =    10.79 Bohr mag/cell

     iteration # 27     ecut=    60.00 Ry     beta= 0.20
     Davidson diagonalization with overlap
     ethr =  1.39E-11,  avg # of iterations =  1.0

     negative rho (up, down):  1.443E-04 1.082E-04

     total cpu time spent up to now is    56530.3 secs

     total energy              =   -7077.42300726 Ry
     estimated scf accuracy    <       0.00000003 Ry

     total magnetization       =     9.92 Bohr mag/cell
     absolute magnetization    =    10.79 Bohr mag/cell

     iteration # 28     ecut=    60.00 Ry     beta= 0.20
     Davidson diagonalization with overlap
     ethr =  1.39E-11,  avg # of iterations =  1.0

     negative rho (up, down):  1.445E-04 1.085E-04

     total cpu time spent up to now is    56697.5 secs

     total energy              =   -7077.42300726 Ry
     estimated scf accuracy    <       0.00000007 Ry

     total magnetization       =     9.92 Bohr mag/cell
     absolute magnetization    =    10.79 Bohr mag/cell

     iteration # 29     ecut=    60.00 Ry     beta= 0.20
     Davidson diagonalization with overlap
     ethr =  1.39E-11,  avg # of iterations =  1.0

     negative rho (up, down):  1.436E-04 1.076E-04

     total cpu time spent up to now is    56864.0 secs

     total energy              =   -7077.42300726 Ry
     estimated scf accuracy    <       0.00000008 Ry

     total magnetization       =     9.92 Bohr mag/cell
     absolute magnetization    =    10.79 Bohr mag/cell

     iteration # 30     ecut=    60.00 Ry     beta= 0.20
     Davidson diagonalization with overlap
     ethr =  1.39E-11,  avg # of iterations =  1.0

     negative rho (up, down):  1.413E-04 1.054E-04

     total cpu time spent up to now is    57032.2 secs

     total energy              =   -7077.42300726 Ry
     estimated scf accuracy    <       0.00000007 Ry

     total magnetization       =     9.92 Bohr mag/cell
     absolute magnetization    =    10.79 Bohr mag/cell

     iteration # 31     ecut=    60.00 Ry     beta= 0.20
     Davidson diagonalization with overlap
     ethr =  1.39E-11,  avg # of iterations =  1.0

     negative rho (up, down):  1.413E-04 1.053E-04

     total cpu time spent up to now is    57199.1 secs

     total energy              =   -7077.42300726 Ry
     estimated scf accuracy    <       0.00000006 Ry

     total magnetization       =     9.92 Bohr mag/cell
     absolute magnetization    =    10.79 Bohr mag/cell

     iteration # 32     ecut=    60.00 Ry     beta= 0.20
     Davidson diagonalization with overlap
     ethr =  1.39E-11,  avg # of iterations =  1.0

     negative rho (up, down):  1.413E-04 1.054E-04

     total cpu time spent up to now is    57367.3 secs

     total energy              =   -7077.42300726 Ry
     estimated scf accuracy    <       0.00000005 Ry

     total magnetization       =     9.92 Bohr mag/cell
     absolute magnetization    =    10.79 Bohr mag/cell

     iteration # 33     ecut=    60.00 Ry     beta= 0.20
     Davidson diagonalization with overlap
     ethr =  1.39E-11,  avg # of iterations =  1.0

     negative rho (up, down):  1.481E-04 1.120E-04

     total cpu time spent up to now is    57534.3 secs

     total energy              =   -7077.42300727 Ry
     estimated scf accuracy    <       0.00000004 Ry

     total magnetization       =     9.92 Bohr mag/cell
     absolute magnetization    =    10.79 Bohr mag/cell

     iteration # 34     ecut=    60.00 Ry     beta= 0.20
     Davidson diagonalization with overlap
     ethr =  1.39E-11,  avg # of iterations =  1.0

     negative rho (up, down):  1.496E-04 1.135E-04

     total cpu time spent up to now is    57701.9 secs

     total energy              =   -7077.42300727 Ry
     estimated scf accuracy    <       0.00000002 Ry

     total magnetization       =     9.92 Bohr mag/cell
     absolute magnetization    =    10.79 Bohr mag/cell

     iteration # 35     ecut=    60.00 Ry     beta= 0.20
     Davidson diagonalization with overlap
     ethr =  1.01E-11,  avg # of iterations =  1.0

     negative rho (up, down):  1.506E-04 1.144E-04

     total cpu time spent up to now is    57868.9 secs

     total energy              =   -7077.42300727 Ry
     estimated scf accuracy    <       0.00000002 Ry

     total magnetization       =     9.92 Bohr mag/cell
     absolute magnetization    =    10.79 Bohr mag/cell

     iteration # 36     ecut=    60.00 Ry     beta= 0.20
     Davidson diagonalization with overlap
     ethr =  8.56E-12,  avg # of iterations =  1.0

     negative rho (up, down):  1.514E-04 1.153E-04

     total cpu time spent up to now is    58035.6 secs

     total energy              =   -7077.42300727 Ry
     estimated scf accuracy    <       0.00000002 Ry

     total magnetization       =     9.92 Bohr mag/cell
     absolute magnetization    =    10.79 Bohr mag/cell

     iteration # 37     ecut=    60.00 Ry     beta= 0.20
     Davidson diagonalization with overlap
     ethr =  6.64E-12,  avg # of iterations =  1.0

     negative rho (up, down):  1.510E-04 1.149E-04

     total cpu time spent up to now is    58203.6 secs

     total energy              =   -7077.42300727 Ry
     estimated scf accuracy    <       0.00000001 Ry

     total magnetization       =     9.92 Bohr mag/cell
     absolute magnetization    =    10.79 Bohr mag/cell

     iteration # 38     ecut=    60.00 Ry     beta= 0.20
     Davidson diagonalization with overlap
     ethr =  5.67E-12,  avg # of iterations =  1.0

     negative rho (up, down):  1.501E-04 1.140E-04

     total cpu time spent up to now is    58370.3 secs

     total energy              =   -7077.42300727 Ry
     estimated scf accuracy    <       0.00000001 Ry

     total magnetization       =     9.92 Bohr mag/cell
     absolute magnetization    =    10.79 Bohr mag/cell

     iteration # 39     ecut=    60.00 Ry     beta= 0.20
     Davidson diagonalization with overlap
     ethr =  5.12E-12,  avg # of iterations =  1.0

     negative rho (up, down):  1.508E-04 1.147E-04

     total cpu time spent up to now is    58538.0 secs

     total energy              =   -7077.42300727 Ry
     estimated scf accuracy    <          5.8E-09 Ry

     total magnetization       =     9.92 Bohr mag/cell
     absolute magnetization    =    10.79 Bohr mag/cell

     iteration # 40     ecut=    60.00 Ry     beta= 0.20
     Davidson diagonalization with overlap
     ethr =  2.42E-12,  avg # of iterations =  1.0

     negative rho (up, down):  1.513E-04 1.152E-04

     total cpu time spent up to now is    58705.4 secs

     total energy              =   -7077.42300728 Ry
     estimated scf accuracy    <          4.9E-09 Ry

     total magnetization       =     9.92 Bohr mag/cell
     absolute magnetization    =    10.79 Bohr mag/cell

     iteration # 41     ecut=    60.00 Ry     beta= 0.20
     Davidson diagonalization with overlap
     ethr =  2.03E-12,  avg # of iterations =  1.0

     negative rho (up, down):  1.516E-04 1.154E-04

     total cpu time spent up to now is    58871.8 secs

     total energy              =   -7077.42300728 Ry
     estimated scf accuracy    <          4.6E-09 Ry

     total magnetization       =     9.92 Bohr mag/cell
     absolute magnetization    =    10.79 Bohr mag/cell

     iteration # 42     ecut=    60.00 Ry     beta= 0.20
     Davidson diagonalization with overlap
     ethr =  1.92E-12,  avg # of iterations =  1.0

     negative rho (up, down):  1.548E-04 1.186E-04
 
     Magnetic moment per site  (integrated on atomic sphere of radius R)
     atom   1 (R=0.202)  charge=  8.7468  magn=  0.9613
     atom   2 (R=0.114)  charge=  4.0981  magn=  0.1534
     atom   3 (R=0.114)  charge=  4.0981  magn=  0.1534
     atom   4 (R=0.114)  charge=  4.0982  magn=  0.1508
     atom   5 (R=0.202)  charge=  8.8234  magn=  0.9261
     atom   6 (R=0.114)  charge=  4.0923  magn=  0.1897
     atom   7 (R=0.114)  charge=  4.0923  magn=  0.1897
     atom   8 (R=0.114)  charge=  4.0916  magn=  0.1906
     atom   9 (R=0.202)  charge=  8.8351  magn=  0.8688
     atom  10 (R=0.114)  charge=  4.0889  magn=  0.1839
     atom  11 (R=0.114)  charge=  4.0887  magn=  0.1804
     atom  12 (R=0.114)  charge=  4.0889  magn=  0.1839
     atom  13 (R=0.202)  charge=  8.8339  magn=  0.8534
     atom  14 (R=0.114)  charge=  4.0882  magn=  0.1755
     atom  15 (R=0.114)  charge=  4.0882  magn=  0.1755
     atom  16 (R=0.114)  charge=  4.0921  magn=  0.1749
     atom  17 (R=0.202)  charge=  8.8142  magn=  0.8658
     atom  18 (R=0.114)  charge=  4.0905  magn=  0.1691
     atom  19 (R=0.114)  charge=  4.0905  magn=  0.1691
     atom  20 (R=0.114)  charge=  4.0907  magn=  0.1847
     atom  21 (R=0.202)  charge=  8.7650  magn=  0.9267
     atom  22 (R=0.114)  charge=  4.0988  magn=  0.1326
     atom  23 (R=0.114)  charge=  4.0744  magn=  0.0639
     atom  24 (R=0.114)  charge=  4.0988  magn=  0.1326
     atom  25 (R=0.114)  charge=  0.6516  magn= -0.0061

     total cpu time spent up to now is    59036.4 secs

     End of self-consistent calculation

     Number of k-points >= 100: set verbosity='high' to print the bands.

     the Fermi energy is    -5.2121 ev

!    total energy              =   -7077.42300728 Ry
     total all-electron energy =   -199909.859578 Ry
     estimated scf accuracy    <          1.6E-09 Ry
     smearing contrib. (-TS)   =       0.00021176 Ry
     internal energy E=F+TS    =   -7077.42321905 Ry

     The total energy is F=E-TS. E is the sum of the following terms:
     one-electron contribution =  -60918.65115368 Ry
     hartree contribution      =   30646.31128415 Ry
     xc contribution           =    -835.40692224 Ry
     ewald contribution        =   29164.45868248 Ry
     DFT-D3 Dispersion         =      -2.52456638 Ry
     one-center paw contrib.   =   -5131.61054337 Ry

     total magnetization       =     9.92 Bohr mag/cell
     absolute magnetization    =    10.79 Bohr mag/cell

     convergence has been achieved in  42 iterations

     negative rho (up, down):  1.548E-04 1.186E-04

     Forces acting on atoms (cartesian axes, Ry/au):

     atom    1 type  1   force =    -0.00005707   -0.00003293    0.01604940
     atom    2 type  2   force =    -0.00032729   -0.01425498   -0.00888643
     atom    3 type  2   force =    -0.01250883    0.00684405   -0.00888644
     atom    4 type  2   force =     0.01239969    0.00715895   -0.00955711
     atom    5 type  1   force =     0.00029599    0.00017090   -0.00028563
     atom    6 type  2   force =    -0.00029702   -0.00029500    0.00462597
     atom    7 type  2   force =    -0.00040397   -0.00010973    0.00462597
     atom    8 type  2   force =     0.00100557    0.00058056    0.00558793
     atom    9 type  1   force =     0.00028916    0.00016698    0.00058033
     atom   10 type  2   force =    -0.00009752    0.00048416    0.00119695
     atom   11 type  2   force =     0.00061098    0.00035275    0.00084274
     atom   12 type  2   force =     0.00037053   -0.00032655    0.00119694
     atom   13 type  1   force =    -0.00046640   -0.00026929    0.00179527
     atom   14 type  2   force =    -0.00060626   -0.00002522    0.00140858
     atom   15 type  2   force =    -0.00032498   -0.00051240    0.00140855
     atom   16 type  2   force =    -0.00000799   -0.00000463    0.00298134
     atom   17 type  1   force =    -0.00186226   -0.00107521    0.00021027
     atom   18 type  2   force =    -0.00126298    0.00232788   -0.00131520
     atom   19 type  2   force =     0.00138447   -0.00225774   -0.00131526
     atom   20 type  2   force =    -0.00199996   -0.00115465    0.00046754
     atom   21 type  1   force =     0.00050276    0.00029019    0.00281903
     atom   22 type  2   force =     0.00215417    0.00110746    0.00185814
     atom   23 type  2   force =     0.00086717    0.00050068   -0.01589164
     atom   24 type  2   force =     0.00203617    0.00131185    0.00185808
     atom   25 type  3   force =    -0.00169411   -0.00097810   -0.00337532

     Total force =     0.018485     Total SCF correction =     0.000227


     Computing stress (Cartesian axis) and pressure


     negative rho (up, down):  1.548E-04 1.186E-04
          total   stress  (Ry/bohr**3)                   (kbar)     P=      -10.59
  -0.00009750   0.00000030   0.00000136          -14.34        0.04        0.20
   0.00000030  -0.00009784   0.00000079            0.04      -14.39        0.12
   0.00000136   0.00000079  -0.00002068            0.20        0.12       -3.04

     Energy error            =      1.2E-03 Ry
     Gradient error          =      1.6E-02 Ry/Bohr

     number of scf cycles    =   9
     number of bfgs steps    =   7

     energy             old  =   -7077.4218545012 Ry
     energy             new  =   -7077.4230072838 Ry

     CASE: energy            _new < energy            _old

     new trust radius        =       0.0698527962 bohr
     new conv_thr            =       0.0000000020 Ry


ATOMIC_POSITIONS (angstrom)
Ni               5.3171990772        3.0698863186       11.0000000000    0   0   0
Pd               2.6585995386        3.0698851333       11.0000764482    0   0   0
Pd               3.9878982814        0.7674721723       11.0000764482    0   0   0
Pd               1.3293007958        0.7674721723       11.0000764482    0   0   0
Ni               2.6585995386        1.5349431593       13.1707374333    0   0   0
Pd               3.9878982814        3.8373584909       13.1708138815    0   0   0
Pd               5.3171990772        1.5349419740       13.1708138815    0   0   0
Pd               6.6464998731        3.8373584909       13.1708138815    0   0   0
Ni               0.0006142948        0.0003545857       15.3355837961
Pd               5.3222763865        4.6074307123       15.3359673295
Pd               3.9908118386        2.3040961685       15.3448287862
Pd               6.6512902929        2.3055110977       15.3359673041
Ni               5.3156140620        3.0689711547       17.5227838597
Pd               3.9846729839        0.7699677712       17.5232886946
Pd               2.6591481568        3.0658440597       17.5232886683
Pd               1.3212741617        0.7628379964       17.5057103696
Ni               2.6558340903        1.5333468320       19.7137569197
Pd               3.9803643719        3.8200835938       19.7172747574
Pd               5.2984715990        1.5370549593       19.7172749307
Pd               6.6318264866        3.8288868451       19.6763470333
Ni               0.0022346862        0.0012907186       21.7858274840
Pd               5.3292195013        4.6303115397       21.8917759006
Pd               4.0039680187        2.3116922537       21.9920867989
Pd               6.6745767877        2.3000842809       21.8917762015
H                3.9776774860        2.2965134952       23.5469617781    0   0   1



     Writing config-only to output data dir /tmpu/isholek_g/isholek/MIGUEL/QE/Hydrogen/111_2x2/SAVE/Ni1Pd3_111-T1.save/ :
     XML data file
     NEW-OLD atomic charge density approx. for the potential

     Check: negative core charge=   -0.000002

     negative rho (up, down):  1.571E-04 1.419E-04
     Generating pointlists ...

     total cpu time spent up to now is    59308.9 secs

     Self-consistent Calculation

     iteration #  1     ecut=    60.00 Ry     beta= 0.20
     Davidson diagonalization with overlap
     c_bands:  1 eigenvalues not converged
     c_bands:  1 eigenvalues not converged
     c_bands:  1 eigenvalues not converged
     c_bands:  1 eigenvalues not converged
     ethr =  1.00E-06,  avg # of iterations = 10.1

     negative rho (up, down):  2.493E-04 2.264E-04

     total cpu time spent up to now is    59896.1 secs

     total energy              =   -7077.41093487 Ry
     estimated scf accuracy    <       0.29023224 Ry

     total magnetization       =     9.69 Bohr mag/cell
     absolute magnetization    =    10.58 Bohr mag/cell

     iteration #  2     ecut=    60.00 Ry     beta= 0.20
     Davidson diagonalization with overlap
     ethr =  1.20E-04,  avg # of iterations =  1.0

     negative rho (up, down):  2.591E-04 2.336E-04

     total cpu time spent up to now is    60063.7 secs

     total energy              =   -7077.41435579 Ry
     estimated scf accuracy    <       0.02370256 Ry

     total magnetization       =     9.98 Bohr mag/cell
     absolute magnetization    =    10.85 Bohr mag/cell

     iteration #  3     ecut=    60.00 Ry     beta= 0.20
     Davidson diagonalization with overlap
     ethr =  9.84E-06,  avg # of iterations =  1.9

     negative rho (up, down):  2.599E-04 2.327E-04

     total cpu time spent up to now is    60244.9 secs

     total energy              =   -7077.41743405 Ry
     estimated scf accuracy    <       0.02025730 Ry

     total magnetization       =     9.89 Bohr mag/cell
     absolute magnetization    =    10.76 Bohr mag/cell

     iteration #  4     ecut=    60.00 Ry     beta= 0.20
     Davidson diagonalization with overlap
     ethr =  8.41E-06,  avg # of iterations =  1.0

     negative rho (up, down):  2.492E-04 2.205E-04

     total cpu time spent up to now is    60412.9 secs

     total energy              =   -7077.41922678 Ry
     estimated scf accuracy    <       0.01551965 Ry

     total magnetization       =     9.91 Bohr mag/cell
     absolute magnetization    =    10.78 Bohr mag/cell

     iteration #  5     ecut=    60.00 Ry     beta= 0.20
     Davidson diagonalization with overlap
     ethr =  6.44E-06,  avg # of iterations =  1.0

     negative rho (up, down):  2.375E-04 2.074E-04

     total cpu time spent up to now is    60580.9 secs

     total energy              =   -7077.42069304 Ry
     estimated scf accuracy    <       0.00715789 Ry

     total magnetization       =     9.94 Bohr mag/cell
     absolute magnetization    =    10.81 Bohr mag/cell

     iteration #  6     ecut=    60.00 Ry     beta= 0.20
     Davidson diagonalization with overlap
     ethr =  2.97E-06,  avg # of iterations =  1.1

     negative rho (up, down):  2.302E-04 1.993E-04

     total cpu time spent up to now is    60752.4 secs

     total energy              =   -7077.42131383 Ry
     estimated scf accuracy    <       0.00377924 Ry

     total magnetization       =     9.94 Bohr mag/cell
     absolute magnetization    =    10.81 Bohr mag/cell

     iteration #  7     ecut=    60.00 Ry     beta= 0.20
     Davidson diagonalization with overlap
     ethr =  1.57E-06,  avg # of iterations =  1.0

     negative rho (up, down):  2.023E-04 1.696E-04

     total cpu time spent up to now is    60919.0 secs

     total energy              =   -7077.42293724 Ry
     estimated scf accuracy    <       0.00283484 Ry

     total magnetization       =     9.93 Bohr mag/cell
     absolute magnetization    =    10.80 Bohr mag/cell

     iteration #  8     ecut=    60.00 Ry     beta= 0.20
     Davidson diagonalization with overlap
     ethr =  1.18E-06,  avg # of iterations =  1.3

     negative rho (up, down):  1.846E-04 1.512E-04

     total cpu time spent up to now is    61093.2 secs

     total energy              =   -7077.42359921 Ry
     estimated scf accuracy    <       0.00152671 Ry

     total magnetization       =     9.93 Bohr mag/cell
     absolute magnetization    =    10.80 Bohr mag/cell

     iteration #  9     ecut=    60.00 Ry     beta= 0.20
     Davidson diagonalization with overlap
     ethr =  6.33E-07,  avg # of iterations =  1.1

     negative rho (up, down):  1.524E-04 1.189E-04

     total cpu time spent up to now is    61262.3 secs

     total energy              =   -7077.42405301 Ry
     estimated scf accuracy    <       0.00093997 Ry

     total magnetization       =     9.93 Bohr mag/cell
     absolute magnetization    =    10.80 Bohr mag/cell

     iteration # 10     ecut=    60.00 Ry     beta= 0.20
     Davidson diagonalization with overlap
     ethr =  3.90E-07,  avg # of iterations =  2.0

     negative rho (up, down):  1.355E-04 1.023E-04

     total cpu time spent up to now is    61446.0 secs

     total energy              =   -7077.42409154 Ry
     estimated scf accuracy    <       0.00020989 Ry

     total magnetization       =     9.93 Bohr mag/cell
     absolute magnetization    =    10.80 Bohr mag/cell

     iteration # 11     ecut=    60.00 Ry     beta= 0.20
     Davidson diagonalization with overlap
     ethr =  8.71E-08,  avg # of iterations =  1.2

     negative rho (up, down):  1.206E-04 8.805E-05

     total cpu time spent up to now is    61617.6 secs

     total energy              =   -7077.42408862 Ry
     estimated scf accuracy    <       0.00010817 Ry

     total magnetization       =     9.92 Bohr mag/cell
     absolute magnetization    =    10.80 Bohr mag/cell

     iteration # 12     ecut=    60.00 Ry     beta= 0.20
     Davidson diagonalization with overlap
     ethr =  4.49E-08,  avg # of iterations =  2.0

     negative rho (up, down):  1.110E-04 7.879E-05

     total cpu time spent up to now is    61798.6 secs

     total energy              =   -7077.42409538 Ry
     estimated scf accuracy    <       0.00006028 Ry

     total magnetization       =     9.92 Bohr mag/cell
     absolute magnetization    =    10.79 Bohr mag/cell

     iteration # 13     ecut=    60.00 Ry     beta= 0.20
     Davidson diagonalization with overlap
     ethr =  2.50E-08,  avg # of iterations =  1.7

     negative rho (up, down):  1.019E-04 6.982E-05

     total cpu time spent up to now is    61970.0 secs

     total energy              =   -7077.42409588 Ry
     estimated scf accuracy    <       0.00002862 Ry

     total magnetization       =     9.92 Bohr mag/cell
     absolute magnetization    =    10.79 Bohr mag/cell

     iteration # 14     ecut=    60.00 Ry     beta= 0.20
     Davidson diagonalization with overlap
     ethr =  1.19E-08,  avg # of iterations =  2.6

     negative rho (up, down):  9.890E-05 6.680E-05

     total cpu time spent up to now is    62151.2 secs

     total energy              =   -7077.42409373 Ry
     estimated scf accuracy    <       0.00003510 Ry

     total magnetization       =     9.92 Bohr mag/cell
     absolute magnetization    =    10.79 Bohr mag/cell

     iteration # 15     ecut=    60.00 Ry     beta= 0.20
     Davidson diagonalization with overlap
     ethr =  1.19E-08,  avg # of iterations =  1.2

     negative rho (up, down):  9.318E-05 6.138E-05

     total cpu time spent up to now is    62321.9 secs

     total energy              =   -7077.42409576 Ry
     estimated scf accuracy    <       0.00003828 Ry

     total magnetization       =     9.92 Bohr mag/cell
     absolute magnetization    =    10.79 Bohr mag/cell

     iteration # 16     ecut=    60.00 Ry     beta= 0.20
     Davidson diagonalization with overlap
     ethr =  1.19E-08,  avg # of iterations =  1.1

     negative rho (up, down):  9.101E-05 5.924E-05

     total cpu time spent up to now is    62490.7 secs

     total energy              =   -7077.42409764 Ry
     estimated scf accuracy    <       0.00000222 Ry

     total magnetization       =     9.92 Bohr mag/cell
     absolute magnetization    =    10.79 Bohr mag/cell

     iteration # 17     ecut=    60.00 Ry     beta= 0.20
     Davidson diagonalization with overlap
     ethr =  9.23E-10,  avg # of iterations =  4.6

     negative rho (up, down):  9.368E-05 6.140E-05

     total cpu time spent up to now is    62705.1 secs

     total energy              =   -7077.42409831 Ry
     estimated scf accuracy    <       0.00000095 Ry

     total magnetization       =     9.92 Bohr mag/cell
     absolute magnetization    =    10.79 Bohr mag/cell

     iteration # 18     ecut=    60.00 Ry     beta= 0.20
     Davidson diagonalization with overlap
     ethr =  3.96E-10,  avg # of iterations =  1.8

     negative rho (up, down):  9.661E-05 6.390E-05

     total cpu time spent up to now is    62885.0 secs

     total energy              =   -7077.42409868 Ry
     estimated scf accuracy    <       0.00000045 Ry

     total magnetization       =     9.92 Bohr mag/cell
     absolute magnetization    =    10.79 Bohr mag/cell

     iteration # 19     ecut=    60.00 Ry     beta= 0.20
     Davidson diagonalization with overlap
     ethr =  1.87E-10,  avg # of iterations =  2.1

     negative rho (up, down):  1.005E-04 6.725E-05

     total cpu time spent up to now is    63071.6 secs

     total energy              =   -7077.42409874 Ry
     estimated scf accuracy    <       0.00000035 Ry

     total magnetization       =     9.92 Bohr mag/cell
     absolute magnetization    =    10.79 Bohr mag/cell

     iteration # 20     ecut=    60.00 Ry     beta= 0.20
     Davidson diagonalization with overlap
     ethr =  1.45E-10,  avg # of iterations =  1.2

     negative rho (up, down):  1.104E-04 7.614E-05

     total cpu time spent up to now is    63244.2 secs

     total energy              =   -7077.42409873 Ry
     estimated scf accuracy    <       0.00000032 Ry

     total magnetization       =     9.92 Bohr mag/cell
     absolute magnetization    =    10.79 Bohr mag/cell

     iteration # 21     ecut=    60.00 Ry     beta= 0.20
     Davidson diagonalization with overlap
     ethr =  1.33E-10,  avg # of iterations =  1.2

     negative rho (up, down):  1.194E-04 8.437E-05

     total cpu time spent up to now is    63415.9 secs

     total energy              =   -7077.42409873 Ry
     estimated scf accuracy    <       0.00000027 Ry

     total magnetization       =     9.92 Bohr mag/cell
     absolute magnetization    =    10.79 Bohr mag/cell

     iteration # 22     ecut=    60.00 Ry     beta= 0.20
     Davidson diagonalization with overlap
     ethr =  1.10E-10,  avg # of iterations =  1.2

     negative rho (up, down):  1.251E-04 8.970E-05

     total cpu time spent up to now is    63590.3 secs

     total energy              =   -7077.42409875 Ry
     estimated scf accuracy    <       0.00000016 Ry

     total magnetization       =     9.92 Bohr mag/cell
     absolute magnetization    =    10.79 Bohr mag/cell

     iteration # 23     ecut=    60.00 Ry     beta= 0.20
     Davidson diagonalization with overlap
     ethr =  6.64E-11,  avg # of iterations =  1.4

     negative rho (up, down):  1.265E-04 9.101E-05

     total cpu time spent up to now is    63766.5 secs

     total energy              =   -7077.42409875 Ry
     estimated scf accuracy    <       0.00000024 Ry

     total magnetization       =     9.92 Bohr mag/cell
     absolute magnetization    =    10.79 Bohr mag/cell

     iteration # 24     ecut=    60.00 Ry     beta= 0.20
     Davidson diagonalization with overlap
     ethr =  6.64E-11,  avg # of iterations =  1.0

     negative rho (up, down):  1.266E-04 9.114E-05

     total cpu time spent up to now is    63932.2 secs

     total energy              =   -7077.42409876 Ry
     estimated scf accuracy    <       0.00000023 Ry

     total magnetization       =     9.92 Bohr mag/cell
     absolute magnetization    =    10.79 Bohr mag/cell

     iteration # 25     ecut=    60.00 Ry     beta= 0.20
     Davidson diagonalization with overlap
     ethr =  6.64E-11,  avg # of iterations =  1.0

     negative rho (up, down):  1.274E-04 9.189E-05

     total cpu time spent up to now is    64099.3 secs

     total energy              =   -7077.42409876 Ry
     estimated scf accuracy    <       0.00000026 Ry

     total magnetization       =     9.92 Bohr mag/cell
     absolute magnetization    =    10.79 Bohr mag/cell

     iteration # 26     ecut=    60.00 Ry     beta= 0.20
     Davidson diagonalization with overlap
     ethr =  6.64E-11,  avg # of iterations =  1.0

     negative rho (up, down):  1.319E-04 9.613E-05

     total cpu time spent up to now is    64267.2 secs

     total energy              =   -7077.42409877 Ry
     estimated scf accuracy    <       0.00000025 Ry

     total magnetization       =     9.92 Bohr mag/cell
     absolute magnetization    =    10.79 Bohr mag/cell

     iteration # 27     ecut=    60.00 Ry     beta= 0.20
     Davidson diagonalization with overlap
     ethr =  6.64E-11,  avg # of iterations =  1.0

     negative rho (up, down):  1.376E-04 1.016E-04

     total cpu time spent up to now is    64435.7 secs

     total energy              =   -7077.42409879 Ry
     estimated scf accuracy    <       0.00000017 Ry

     total magnetization       =     9.92 Bohr mag/cell
     absolute magnetization    =    10.79 Bohr mag/cell

     iteration # 28     ecut=    60.00 Ry     beta= 0.20
     Davidson diagonalization with overlap
     ethr =  6.64E-11,  avg # of iterations =  1.0

     negative rho (up, down):  1.450E-04 1.088E-04

     total cpu time spent up to now is    64596.3 secs

     total energy              =   -7077.42409877 Ry
     estimated scf accuracy    <       0.00000013 Ry

     total magnetization       =     9.92 Bohr mag/cell
     absolute magnetization    =    10.79 Bohr mag/cell

     iteration # 29     ecut=    60.00 Ry     beta= 0.20
     Davidson diagonalization with overlap
     ethr =  5.52E-11,  avg # of iterations =  2.0

     negative rho (up, down):  1.539E-04 1.176E-04

     total cpu time spent up to now is    64780.9 secs

     total energy              =   -7077.42409882 Ry
     estimated scf accuracy    <       0.00000004 Ry

     total magnetization       =     9.92 Bohr mag/cell
     absolute magnetization    =    10.79 Bohr mag/cell

     iteration # 30     ecut=    60.00 Ry     beta= 0.20
     Davidson diagonalization with overlap
     ethr =  1.80E-11,  avg # of iterations =  2.0

     negative rho (up, down):  1.558E-04 1.195E-04

     total cpu time spent up to now is    64964.3 secs

     total energy              =   -7077.42409883 Ry
     estimated scf accuracy    <          6.1E-09 Ry

     total magnetization       =     9.92 Bohr mag/cell
     absolute magnetization    =    10.79 Bohr mag/cell

     iteration # 31     ecut=    60.00 Ry     beta= 0.20
     Davidson diagonalization with overlap
     ethr =  2.52E-12,  avg # of iterations =  3.6

     negative rho (up, down):  1.536E-04 1.173E-04

     total cpu time spent up to now is    65158.7 secs

     total energy              =   -7077.42409882 Ry
     estimated scf accuracy    <          2.8E-09 Ry

     total magnetization       =     9.92 Bohr mag/cell
     absolute magnetization    =    10.79 Bohr mag/cell

     iteration # 32     ecut=    60.00 Ry     beta= 0.20
     Davidson diagonalization with overlap
     ethr =  1.16E-12,  avg # of iterations =  2.2

     negative rho (up, down):  1.541E-04 1.178E-04

     total cpu time spent up to now is    65342.5 secs

     total energy              =   -7077.42409882 Ry
     estimated scf accuracy    <          2.4E-09 Ry

     total magnetization       =     9.92 Bohr mag/cell
     absolute magnetization    =    10.79 Bohr mag/cell

     iteration # 33     ecut=    60.00 Ry     beta= 0.20
     Davidson diagonalization with overlap
     ethr =  9.90E-13,  avg # of iterations =  1.7

     negative rho (up, down):  1.552E-04 1.189E-04
 
     Magnetic moment per site  (integrated on atomic sphere of radius R)
     atom   1 (R=0.202)  charge=  8.7468  magn=  0.9617
     atom   2 (R=0.114)  charge=  4.0981  magn=  0.1537
     atom   3 (R=0.114)  charge=  4.0981  magn=  0.1537
     atom   4 (R=0.114)  charge=  4.0982  magn=  0.1509
     atom   5 (R=0.202)  charge=  8.8230  magn=  0.9265
     atom   6 (R=0.114)  charge=  4.0923  magn=  0.1899
     atom   7 (R=0.114)  charge=  4.0923  magn=  0.1899
     atom   8 (R=0.114)  charge=  4.0916  magn=  0.1907
     atom   9 (R=0.202)  charge=  8.8337  magn=  0.8689
     atom  10 (R=0.114)  charge=  4.0889  magn=  0.1836
     atom  11 (R=0.114)  charge=  4.0887  magn=  0.1806
     atom  12 (R=0.114)  charge=  4.0889  magn=  0.1836
     atom  13 (R=0.202)  charge=  8.8322  magn=  0.8539
     atom  14 (R=0.114)  charge=  4.0880  magn=  0.1754
     atom  15 (R=0.114)  charge=  4.0880  magn=  0.1754
     atom  16 (R=0.114)  charge=  4.0917  magn=  0.1749
     atom  17 (R=0.202)  charge=  8.8169  magn=  0.8670
     atom  18 (R=0.114)  charge=  4.0907  magn=  0.1690
     atom  19 (R=0.114)  charge=  4.0907  magn=  0.1690
     atom  20 (R=0.114)  charge=  4.0904  magn=  0.1841
     atom  21 (R=0.202)  charge=  8.7663  magn=  0.9255
     atom  22 (R=0.114)  charge=  4.0996  magn=  0.1329
     atom  23 (R=0.114)  charge=  4.0743  magn=  0.0647
     atom  24 (R=0.114)  charge=  4.0996  magn=  0.1329
     atom  25 (R=0.114)  charge=  0.6526  magn= -0.0060

     total cpu time spent up to now is    65519.3 secs

     End of self-consistent calculation

     Number of k-points >= 100: set verbosity='high' to print the bands.

     the Fermi energy is    -5.2037 ev

!    total energy              =   -7077.42409882 Ry
     total all-electron energy =   -199909.860669 Ry
     estimated scf accuracy    <          1.7E-09 Ry
     smearing contrib. (-TS)   =       0.00012622 Ry
     internal energy E=F+TS    =   -7077.42422504 Ry

     The total energy is F=E-TS. E is the sum of the following terms:
     one-electron contribution =  -60926.56943240 Ry
     hartree contribution      =   30650.33767024 Ry
     xc contribution           =    -835.41676647 Ry
     ewald contribution        =   29168.36204221 Ry
     DFT-D3 Dispersion         =      -2.52565958 Ry
     one-center paw contrib.   =   -5131.61207906 Ry

     total magnetization       =     9.92 Bohr mag/cell
     absolute magnetization    =    10.79 Bohr mag/cell

     convergence has been achieved in  33 iterations

     negative rho (up, down):  1.552E-04 1.189E-04

     Forces acting on atoms (cartesian axes, Ry/au):

     atom    1 type  1   force =    -0.00005217   -0.00003015    0.01606107
     atom    2 type  2   force =    -0.00033685   -0.01427350   -0.00888683
     atom    3 type  2   force =    -0.01252965    0.00684502   -0.00888683
     atom    4 type  2   force =     0.01237961    0.00714738   -0.00962524
     atom    5 type  1   force =     0.00042438    0.00024501   -0.00007676
     atom    6 type  2   force =    -0.00016907   -0.00038477    0.00508530
     atom    7 type  2   force =    -0.00041775    0.00004597    0.00508530
     atom    8 type  2   force =     0.00096826    0.00055902    0.00570879
     atom    9 type  1   force =     0.00040158    0.00023185    0.00119186
     atom   10 type  2   force =    -0.00045759    0.00031056    0.00204719
     atom   11 type  2   force =     0.00058478    0.00033765    0.00089644
     atom   12 type  2   force =     0.00004017   -0.00055156    0.00204718
     atom   13 type  1   force =    -0.00066676   -0.00038495    0.00176331
     atom   14 type  2   force =    -0.00071008   -0.00034891    0.00114740
     atom   15 type  2   force =    -0.00065720   -0.00044047    0.00114738
     atom   16 type  2   force =     0.00082054    0.00047372    0.00190481
     atom   17 type  1   force =    -0.00265224   -0.00153135   -0.00193972
     atom   18 type  2   force =    -0.00024680    0.00440167   -0.00621607
     atom   19 type  2   force =     0.00368853   -0.00241457   -0.00621615
     atom   20 type  2   force =    -0.00207006   -0.00119512    0.00078183
     atom   21 type  1   force =     0.00106202    0.00061311    0.00240856
     atom   22 type  2   force =     0.00156295    0.00043628    0.00203018
     atom   23 type  2   force =    -0.00031845   -0.00018375   -0.00795618
     atom   24 type  2   force =     0.00115939    0.00113544    0.00203014
     atom   25 type  3   force =    -0.00180753   -0.00104358   -0.00153296

     Total force =     0.015691     Total SCF correction =     0.000148


     Computing stress (Cartesian axis) and pressure


     negative rho (up, down):  1.552E-04 1.189E-04
          total   stress  (Ry/bohr**3)                   (kbar)     P=      -10.32
  -0.00009673  -0.00000024  -0.00000012          -14.23       -0.03       -0.02
  -0.00000024  -0.00009646  -0.00000007           -0.03      -14.19       -0.01
  -0.00000012  -0.00000007  -0.00001732           -0.02       -0.01       -2.55

     Energy error            =      1.1E-03 Ry
     Gradient error          =      8.0E-03 Ry/Bohr

     number of scf cycles    =  10
     number of bfgs steps    =   8

     energy             old  =   -7077.4230072838 Ry
     energy             new  =   -7077.4240988207 Ry

     CASE: energy            _new < energy            _old

     new trust radius        =       0.0540119036 bohr
     new conv_thr            =       0.0000000010 Ry


ATOMIC_POSITIONS (angstrom)
Ni               5.3171990772        3.0698863186       11.0000000000    0   0   0
Pd               2.6585995386        3.0698851333       11.0000764482    0   0   0
Pd               3.9878982814        0.7674721723       11.0000764482    0   0   0
Pd               1.3293007958        0.7674721723       11.0000764482    0   0   0
Ni               2.6585995386        1.5349431593       13.1707374333    0   0   0
Pd               3.9878982814        3.8373584909       13.1708138815    0   0   0
Pd               5.3171990772        1.5349419740       13.1708138815    0   0   0
Pd               6.6464998731        3.8373584909       13.1708138815    0   0   0
Ni               0.0011123847        0.0006422098       15.3367212000
Pd               5.3227699752        4.6083427900       15.3377361848
Pd               3.9921544727        2.3048713242       15.3470376838
Pd               6.6523269751        2.3054824958       15.3377361248
Ni               5.3146579489        3.0684191323       17.5268082532
Pd               3.9834922213        0.7698984474       17.5266757549
Pd               2.6584977146        3.0648562127       17.5266756833
Pd               1.3202081603        0.7622225311       17.5106820200
Ni               2.6527652331        1.5315750259       19.7165626554
Pd               3.9770172593        3.8219964750       19.7199034249
Pd               5.2984546299        1.5331997967       19.7199035311
Pd               6.6277494965        3.8265329725       19.6779051812
Ni               0.0034255423        0.0019783173       21.7923310050
Pd               5.3342114071        4.6333409616       21.8959054886
Pd               4.0079883236        2.3140134115       21.9638844482
Pd               6.6796963248        2.3028926701       21.8959056374
H                3.9776774860        2.2965134952       23.5186785348    0   0   1



     Writing config-only to output data dir /tmpu/isholek_g/isholek/MIGUEL/QE/Hydrogen/111_2x2/SAVE/Ni1Pd3_111-T1.save/ :
     XML data file
     NEW-OLD atomic charge density approx. for the potential

     Check: negative core charge=   -0.000002

     negative rho (up, down):  1.552E-04 1.446E-04
     Generating pointlists ...

     total cpu time spent up to now is    65790.9 secs

     Self-consistent Calculation

     iteration #  1     ecut=    60.00 Ry     beta= 0.20
     Davidson diagonalization with overlap
     ethr =  1.00E-06,  avg # of iterations =  8.4

     negative rho (up, down):  2.849E-04 2.711E-04

     total cpu time spent up to now is    66312.7 secs

     total energy              =   -7077.41913612 Ry
     estimated scf accuracy    <       0.09774277 Ry

     total magnetization       =     9.79 Bohr mag/cell
     absolute magnetization    =    10.67 Bohr mag/cell

     iteration #  2     ecut=    60.00 Ry     beta= 0.20
     Davidson diagonalization with overlap
     ethr =  4.06E-05,  avg # of iterations =  1.0

     negative rho (up, down):  2.705E-04 2.523E-04

     total cpu time spent up to now is    66478.8 secs

     total energy              =   -7077.42040870 Ry
     estimated scf accuracy    <       0.00782302 Ry

     total magnetization       =     9.96 Bohr mag/cell
     absolute magnetization    =    10.83 Bohr mag/cell

     iteration #  3     ecut=    60.00 Ry     beta= 0.20
     Davidson diagonalization with overlap
     ethr =  3.25E-06,  avg # of iterations =  2.0

     negative rho (up, down):  2.536E-04 2.321E-04

     total cpu time spent up to now is    66667.5 secs

     total energy              =   -7077.42177360 Ry
     estimated scf accuracy    <       0.00480548 Ry

     total magnetization       =     9.90 Bohr mag/cell
     absolute magnetization    =    10.77 Bohr mag/cell

     iteration #  4     ecut=    60.00 Ry     beta= 0.20
     Davidson diagonalization with overlap
     ethr =  1.99E-06,  avg # of iterations =  1.1

     negative rho (up, down):  2.370E-04 2.130E-04

     total cpu time spent up to now is    66835.6 secs

     total energy              =   -7077.42246282 Ry
     estimated scf accuracy    <       0.00621191 Ry

     total magnetization       =     9.92 Bohr mag/cell
     absolute magnetization    =    10.79 Bohr mag/cell

     iteration #  5     ecut=    60.00 Ry     beta= 0.20
     Davidson diagonalization with overlap
     ethr =  1.99E-06,  avg # of iterations =  1.0

     negative rho (up, down):  2.209E-04 1.946E-04

     total cpu time spent up to now is    67003.2 secs

     total energy              =   -7077.42312254 Ry
     estimated scf accuracy    <       0.00255053 Ry

     total magnetization       =     9.94 Bohr mag/cell
     absolute magnetization    =    10.81 Bohr mag/cell

     iteration #  6     ecut=    60.00 Ry     beta= 0.20
     Davidson diagonalization with overlap
     ethr =  1.06E-06,  avg # of iterations =  1.0

     negative rho (up, down):  2.104E-04 1.825E-04

     total cpu time spent up to now is    67173.7 secs

     total energy              =   -7077.42339059 Ry
     estimated scf accuracy    <       0.00123301 Ry

     total magnetization       =     9.93 Bohr mag/cell
     absolute magnetization    =    10.80 Bohr mag/cell

     iteration #  7     ecut=    60.00 Ry     beta= 0.20
     Davidson diagonalization with overlap
     ethr =  5.12E-07,  avg # of iterations =  1.0

     negative rho (up, down):  1.852E-04 1.549E-04

     total cpu time spent up to now is    67343.5 secs

     total energy              =   -7077.42411510 Ry
     estimated scf accuracy    <       0.00100668 Ry

     total magnetization       =     9.93 Bohr mag/cell
     absolute magnetization    =    10.80 Bohr mag/cell

     iteration #  8     ecut=    60.00 Ry     beta= 0.20
     Davidson diagonalization with overlap
     ethr =  4.18E-07,  avg # of iterations =  1.8

     negative rho (up, down):  1.659E-04 1.342E-04

     total cpu time spent up to now is    67521.7 secs

     total energy              =   -7077.42442616 Ry
     estimated scf accuracy    <       0.00062113 Ry

     total magnetization       =     9.93 Bohr mag/cell
     absolute magnetization    =    10.80 Bohr mag/cell

     iteration #  9     ecut=    60.00 Ry     beta= 0.20
     Davidson diagonalization with overlap
     ethr =  2.58E-07,  avg # of iterations =  1.6

     negative rho (up, down):  1.461E-04 1.136E-04

     total cpu time spent up to now is    67697.3 secs

     total energy              =   -7077.42452005 Ry
     estimated scf accuracy    <       0.00026065 Ry

     total magnetization       =     9.93 Bohr mag/cell
     absolute magnetization    =    10.80 Bohr mag/cell

     iteration # 10     ecut=    60.00 Ry     beta= 0.20
     Davidson diagonalization with overlap
     ethr =  1.08E-07,  avg # of iterations =  2.0

     negative rho (up, down):  1.340E-04 1.014E-04

     total cpu time spent up to now is    67884.1 secs

     total energy              =   -7077.42452959 Ry
     estimated scf accuracy    <       0.00004206 Ry

     total magnetization       =     9.93 Bohr mag/cell
     absolute magnetization    =    10.80 Bohr mag/cell

     iteration # 11     ecut=    60.00 Ry     beta= 0.20
     Davidson diagonalization with overlap
     ethr =  1.75E-08,  avg # of iterations =  2.5

     negative rho (up, down):  1.250E-04 9.228E-05

     total cpu time spent up to now is    68067.9 secs

     total energy              =   -7077.42452755 Ry
     estimated scf accuracy    <       0.00003273 Ry

     total magnetization       =     9.93 Bohr mag/cell
     absolute magnetization    =    10.80 Bohr mag/cell

     iteration # 12     ecut=    60.00 Ry     beta= 0.20
     Davidson diagonalization with overlap
     ethr =  1.36E-08,  avg # of iterations =  1.6

     negative rho (up, down):  1.167E-04 8.405E-05

     total cpu time spent up to now is    68246.3 secs

     total energy              =   -7077.42452981 Ry
     estimated scf accuracy    <       0.00002603 Ry

     total magnetization       =     9.92 Bohr mag/cell
     absolute magnetization    =    10.80 Bohr mag/cell

     iteration # 13     ecut=    60.00 Ry     beta= 0.20
     Davidson diagonalization with overlap
     ethr =  1.08E-08,  avg # of iterations =  1.6

     negative rho (up, down):  1.152E-04 8.232E-05

     total cpu time spent up to now is    68416.9 secs

     total energy              =   -7077.42453067 Ry
     estimated scf accuracy    <       0.00001291 Ry

     total magnetization       =     9.92 Bohr mag/cell
     absolute magnetization    =    10.80 Bohr mag/cell

     iteration # 14     ecut=    60.00 Ry     beta= 0.20
     Davidson diagonalization with overlap
     ethr =  5.36E-09,  avg # of iterations =  1.7

     negative rho (up, down):  1.136E-04 8.030E-05

     total cpu time spent up to now is    68591.3 secs

     total energy              =   -7077.42452804 Ry
     estimated scf accuracy    <       0.00001150 Ry

     total magnetization       =     9.92 Bohr mag/cell
     absolute magnetization    =    10.80 Bohr mag/cell

     iteration # 15     ecut=    60.00 Ry     beta= 0.20
     Davidson diagonalization with overlap
     ethr =  4.77E-09,  avg # of iterations =  2.0

     negative rho (up, down):  1.033E-04 7.044E-05

     total cpu time spent up to now is    68773.1 secs

     total energy              =   -7077.42452899 Ry
     estimated scf accuracy    <       0.00001625 Ry

     total magnetization       =     9.92 Bohr mag/cell
     absolute magnetization    =    10.80 Bohr mag/cell

     iteration # 16     ecut=    60.00 Ry     beta= 0.20
     Davidson diagonalization with overlap
     ethr =  4.77E-09,  avg # of iterations =  1.1

     negative rho (up, down):  1.017E-04 6.874E-05

     total cpu time spent up to now is    68942.3 secs

     total energy              =   -7077.42453085 Ry
     estimated scf accuracy    <       0.00000125 Ry

     total magnetization       =     9.92 Bohr mag/cell
     absolute magnetization    =    10.80 Bohr mag/cell

     iteration # 17     ecut=    60.00 Ry     beta= 0.20
     Davidson diagonalization with overlap
     ethr =  5.19E-10,  avg # of iterations =  4.6

     negative rho (up, down):  1.064E-04 7.279E-05

     total cpu time spent up to now is    69171.2 secs

     total energy              =   -7077.42453133 Ry
     estimated scf accuracy    <       0.00000036 Ry

     total magnetization       =     9.92 Bohr mag/cell
     absolute magnetization    =    10.80 Bohr mag/cell

     iteration # 18     ecut=    60.00 Ry     beta= 0.20
     Davidson diagonalization with overlap
     ethr =  1.47E-10,  avg # of iterations =  2.4

     negative rho (up, down):  1.079E-04 7.409E-05

     total cpu time spent up to now is    69373.3 secs

     total energy              =   -7077.42453139 Ry
     estimated scf accuracy    <       0.00000017 Ry

     total magnetization       =     9.92 Bohr mag/cell
     absolute magnetization    =    10.80 Bohr mag/cell

     iteration # 19     ecut=    60.00 Ry     beta= 0.20
     Davidson diagonalization with overlap
     ethr =  7.18E-11,  avg # of iterations =  2.0

     negative rho (up, down):  1.120E-04 7.773E-05

     total cpu time spent up to now is    69552.6 secs

     total energy              =   -7077.42453141 Ry
     estimated scf accuracy    <       0.00000015 Ry

     total magnetization       =     9.92 Bohr mag/cell
     absolute magnetization    =    10.80 Bohr mag/cell

     iteration # 20     ecut=    60.00 Ry     beta= 0.20
     Davidson diagonalization with overlap
     ethr =  6.36E-11,  avg # of iterations =  1.4

     negative rho (up, down):  1.138E-04 7.928E-05

     total cpu time spent up to now is    69726.4 secs

     total energy              =   -7077.42453141 Ry
     estimated scf accuracy    <       0.00000011 Ry

     total magnetization       =     9.92 Bohr mag/cell
     absolute magnetization    =    10.80 Bohr mag/cell

     iteration # 21     ecut=    60.00 Ry     beta= 0.20
     Davidson diagonalization with overlap
     ethr =  4.68E-11,  avg # of iterations =  1.0

     negative rho (up, down):  1.198E-04 8.482E-05

     total cpu time spent up to now is    69895.2 secs

     total energy              =   -7077.42453142 Ry
     estimated scf accuracy    <       0.00000016 Ry

     total magnetization       =     9.92 Bohr mag/cell
     absolute magnetization    =    10.80 Bohr mag/cell

     iteration # 22     ecut=    60.00 Ry     beta= 0.20
     Davidson diagonalization with overlap
     ethr =  4.68E-11,  avg # of iterations =  1.2

     negative rho (up, down):  1.272E-04 9.171E-05

     total cpu time spent up to now is    70069.2 secs

     total energy              =   -7077.42453141 Ry
     estimated scf accuracy    <       0.00000016 Ry

     total magnetization       =     9.92 Bohr mag/cell
     absolute magnetization    =    10.80 Bohr mag/cell

     iteration # 23     ecut=    60.00 Ry     beta= 0.20
     Davidson diagonalization with overlap
     ethr =  4.68E-11,  avg # of iterations =  1.8

     negative rho (up, down):  1.296E-04 9.395E-05

     total cpu time spent up to now is    70249.3 secs

     total energy              =   -7077.42453143 Ry
     estimated scf accuracy    <       0.00000016 Ry

     total magnetization       =     9.92 Bohr mag/cell
     absolute magnetization    =    10.80 Bohr mag/cell

     iteration # 24     ecut=    60.00 Ry     beta= 0.20
     Davidson diagonalization with overlap
     ethr =  4.68E-11,  avg # of iterations =  1.0

     negative rho (up, down):  1.320E-04 9.625E-05

     total cpu time spent up to now is    70419.1 secs

     total energy              =   -7077.42453143 Ry
     estimated scf accuracy    <       0.00000017 Ry

     total magnetization       =     9.92 Bohr mag/cell
     absolute magnetization    =    10.80 Bohr mag/cell

     iteration # 25     ecut=    60.00 Ry     beta= 0.20
     Davidson diagonalization with overlap
     ethr =  4.68E-11,  avg # of iterations =  1.0

     negative rho (up, down):  1.346E-04 9.880E-05

     total cpu time spent up to now is    70585.8 secs

     total energy              =   -7077.42453143 Ry
     estimated scf accuracy    <       0.00000016 Ry

     total magnetization       =     9.92 Bohr mag/cell
     absolute magnetization    =    10.80 Bohr mag/cell

     iteration # 26     ecut=    60.00 Ry     beta= 0.20
     Davidson diagonalization with overlap
     ethr =  4.68E-11,  avg # of iterations =  1.5

     negative rho (up, down):  1.296E-04 9.402E-05

     total cpu time spent up to now is    70763.1 secs

     total energy              =   -7077.42453142 Ry
     estimated scf accuracy    <       0.00000013 Ry

     total magnetization       =     9.92 Bohr mag/cell
     absolute magnetization    =    10.80 Bohr mag/cell

     iteration # 27     ecut=    60.00 Ry     beta= 0.20
     Davidson diagonalization with overlap
     ethr =  4.68E-11,  avg # of iterations =  1.0

     negative rho (up, down):  1.380E-04 1.020E-04

     total cpu time spent up to now is    70930.6 secs

     total energy              =   -7077.42453145 Ry
     estimated scf accuracy    <       0.00000004 Ry

     total magnetization       =     9.92 Bohr mag/cell
     absolute magnetization    =    10.80 Bohr mag/cell

     iteration # 28     ecut=    60.00 Ry     beta= 0.20
     Davidson diagonalization with overlap
     ethr =  1.71E-11,  avg # of iterations =  2.0

     negative rho (up, down):  1.516E-04 1.153E-04

     total cpu time spent up to now is    71113.4 secs

     total energy              =   -7077.42453147 Ry
     estimated scf accuracy    <       0.00000004 Ry

     total magnetization       =     9.92 Bohr mag/cell
     absolute magnetization    =    10.80 Bohr mag/cell

     iteration # 29     ecut=    60.00 Ry     beta= 0.20
     Davidson diagonalization with overlap
     ethr =  1.66E-11,  avg # of iterations =  2.3

     negative rho (up, down):  1.558E-04 1.194E-04

     total cpu time spent up to now is    71299.7 secs

     total energy              =   -7077.42453149 Ry
     estimated scf accuracy    <       0.00000002 Ry

     total magnetization       =     9.92 Bohr mag/cell
     absolute magnetization    =    10.80 Bohr mag/cell

     iteration # 30     ecut=    60.00 Ry     beta= 0.20
     Davidson diagonalization with overlap
     ethr =  7.69E-12,  avg # of iterations =  1.8

     negative rho (up, down):  1.543E-04 1.180E-04

     total cpu time spent up to now is    71477.6 secs

     total energy              =   -7077.42453148 Ry
     estimated scf accuracy    <          5.2E-09 Ry

     total magnetization       =     9.92 Bohr mag/cell
     absolute magnetization    =    10.80 Bohr mag/cell

     iteration # 31     ecut=    60.00 Ry     beta= 0.20
     Davidson diagonalization with overlap
     ethr =  2.14E-12,  avg # of iterations =  2.8

     negative rho (up, down):  1.548E-04 1.185E-04

     total cpu time spent up to now is    71665.7 secs

     total energy              =   -7077.42453148 Ry
     estimated scf accuracy    <          1.8E-09 Ry

     total magnetization       =     9.92 Bohr mag/cell
     absolute magnetization    =    10.80 Bohr mag/cell

     iteration # 32     ecut=    60.00 Ry     beta= 0.20
     Davidson diagonalization with overlap
     ethr =  7.45E-13,  avg # of iterations =  3.3

     negative rho (up, down):  1.553E-04 1.190E-04

     total cpu time spent up to now is    71854.3 secs

     total energy              =   -7077.42453149 Ry
     estimated scf accuracy    <          2.5E-09 Ry

     total magnetization       =     9.92 Bohr mag/cell
     absolute magnetization    =    10.80 Bohr mag/cell

     iteration # 33     ecut=    60.00 Ry     beta= 0.20
     Davidson diagonalization with overlap
     ethr =  7.45E-13,  avg # of iterations =  1.2

     negative rho (up, down):  1.554E-04 1.191E-04
 
     Magnetic moment per site  (integrated on atomic sphere of radius R)
     atom   1 (R=0.202)  charge=  8.7467  magn=  0.9620
     atom   2 (R=0.114)  charge=  4.0981  magn=  0.1538
     atom   3 (R=0.114)  charge=  4.0981  magn=  0.1538
     atom   4 (R=0.114)  charge=  4.0982  magn=  0.1510
     atom   5 (R=0.202)  charge=  8.8224  magn=  0.9269
     atom   6 (R=0.114)  charge=  4.0922  magn=  0.1899
     atom   7 (R=0.114)  charge=  4.0922  magn=  0.1899
     atom   8 (R=0.114)  charge=  4.0916  magn=  0.1904
     atom   9 (R=0.202)  charge=  8.8325  magn=  0.8690
     atom  10 (R=0.114)  charge=  4.0889  magn=  0.1833
     atom  11 (R=0.114)  charge=  4.0888  magn=  0.1806
     atom  12 (R=0.114)  charge=  4.0889  magn=  0.1833
     atom  13 (R=0.202)  charge=  8.8319  magn=  0.8540
     atom  14 (R=0.114)  charge=  4.0881  magn=  0.1754
     atom  15 (R=0.114)  charge=  4.0881  magn=  0.1754
     atom  16 (R=0.114)  charge=  4.0916  magn=  0.1753
     atom  17 (R=0.202)  charge=  8.8192  magn=  0.8677
     atom  18 (R=0.114)  charge=  4.0909  magn=  0.1689
     atom  19 (R=0.114)  charge=  4.0909  magn=  0.1689
     atom  20 (R=0.114)  charge=  4.0900  magn=  0.1838
     atom  21 (R=0.202)  charge=  8.7660  magn=  0.9249
     atom  22 (R=0.114)  charge=  4.1001  magn=  0.1330
     atom  23 (R=0.114)  charge=  4.0746  magn=  0.0657
     atom  24 (R=0.114)  charge=  4.1001  magn=  0.1330
     atom  25 (R=0.114)  charge=  0.6528  magn= -0.0060

     total cpu time spent up to now is    72024.3 secs

     End of self-consistent calculation

     Number of k-points >= 100: set verbosity='high' to print the bands.

     the Fermi energy is    -5.1966 ev

!    total energy              =   -7077.42453148 Ry
     total all-electron energy =   -199909.861102 Ry
     estimated scf accuracy    <          8.2E-10 Ry
     smearing contrib. (-TS)   =       0.00007178 Ry
     internal energy E=F+TS    =   -7077.42460326 Ry

     The total energy is F=E-TS. E is the sum of the following terms:
     one-electron contribution =  -60937.22537972 Ry
     hartree contribution      =   30655.72729263 Ry
     xc contribution           =    -835.42387059 Ry
     ewald contribution        =   29173.63708566 Ry
     DFT-D3 Dispersion         =      -2.52649975 Ry
     one-center paw contrib.   =   -5131.61323149 Ry

     total magnetization       =     9.92 Bohr mag/cell
     absolute magnetization    =    10.80 Bohr mag/cell

     convergence has been achieved in  33 iterations

     negative rho (up, down):  1.554E-04 1.191E-04

     Forces acting on atoms (cartesian axes, Ry/au):

     atom    1 type  1   force =    -0.00004591   -0.00002650    0.01608202
     atom    2 type  2   force =    -0.00034408   -0.01428983   -0.00888426
     atom    3 type  2   force =    -0.01254738    0.00684693   -0.00888426
     atom    4 type  2   force =     0.01235759    0.00713465   -0.00964931
     atom    5 type  1   force =     0.00050453    0.00029128    0.00018043
     atom    6 type  2   force =    -0.00001145   -0.00042856    0.00560428
     atom    7 type  2   force =    -0.00037687    0.00020436    0.00560425
     atom    8 type  2   force =     0.00086623    0.00050012    0.00616686
     atom    9 type  1   force =     0.00037202    0.00021476    0.00143822
     atom   10 type  2   force =    -0.00048795    0.00000729    0.00210348
     atom   11 type  2   force =     0.00037888    0.00021879    0.00081130
     atom   12 type  2   force =    -0.00023764   -0.00042621    0.00210350
     atom   13 type  1   force =    -0.00073358   -0.00042353    0.00127759
     atom   14 type  2   force =    -0.00062749   -0.00067518    0.00063090
     atom   15 type  2   force =    -0.00089846   -0.00020583    0.00063089
     atom   16 type  2   force =     0.00114196    0.00065931   -0.00001224
     atom   17 type  1   force =    -0.00244229   -0.00141012   -0.00303725
     atom   18 type  2   force =     0.00074013    0.00432590   -0.00802160
     atom   19 type  2   force =     0.00411639   -0.00152196   -0.00802164
     atom   20 type  2   force =    -0.00138851   -0.00080160    0.00133853
     atom   21 type  1   force =     0.00155344    0.00089680    0.00144450
     atom   22 type  2   force =     0.00066622   -0.00023030    0.00171668
     atom   23 type  2   force =    -0.00081182   -0.00046866   -0.00169029
     atom   24 type  2   force =     0.00013368    0.00069215    0.00171666
     atom   25 type  3   force =    -0.00187763   -0.00108406   -0.00064925

     Total force =     0.014971     Total SCF correction =     0.000107


     Computing stress (Cartesian axis) and pressure


     negative rho (up, down):  1.554E-04 1.191E-04
          total   stress  (Ry/bohr**3)                   (kbar)     P=       -9.99
  -0.00009539  -0.00000070  -0.00000137          -14.03       -0.10       -0.20
  -0.00000070  -0.00009458  -0.00000079           -0.10      -13.91       -0.12
  -0.00000137  -0.00000079  -0.00001385           -0.20       -0.12       -2.04

     Energy error            =      4.3E-04 Ry
     Gradient error          =      8.0E-03 Ry/Bohr

     number of scf cycles    =  11
     number of bfgs steps    =   9

     energy             old  =   -7077.4240988207 Ry
     energy             new  =   -7077.4245314842 Ry

     CASE: energy            _new < energy            _old

     new trust radius        =       0.0235633311 bohr
     new conv_thr            =       0.0000000010 Ry


ATOMIC_POSITIONS (angstrom)
Ni               5.3171990772        3.0698863186       11.0000000000    0   0   0
Pd               2.6585995386        3.0698851333       11.0000764482    0   0   0
Pd               3.9878982814        0.7674721723       11.0000764482    0   0   0
Pd               1.3293007958        0.7674721723       11.0000764482    0   0   0
Ni               2.6585995386        1.5349431593       13.1707374333    0   0   0
Pd               3.9878982814        3.8373584909       13.1708138815    0   0   0
Pd               5.3171990772        1.5349419740       13.1708138815    0   0   0
Pd               6.6464998731        3.8373584909       13.1708138815    0   0   0
Ni               0.0015198153        0.0008774561       15.3380655114
Pd               5.3227221978        4.6086687200       15.3396705012
Pd               3.9929016000        2.3053026907       15.3484298196
Pd               6.6525853593        2.3052781464       15.3396704339
Ni               5.3138292666        3.0679406908       17.5291276589
Pd               3.9826631976        0.7694128659       17.5283416671
Pd               2.6576626740        3.0643810804       17.5283415829
Pd               1.3204268329        0.7623487776       17.5124791933
Ni               2.6501857511        1.5300857158       19.7159202681
Pd               3.9761950157        3.8251072410       19.7163455681
Pd               5.3007374958        1.5309323371       19.7163456163
Pd               6.6253644389        3.8251559769       19.6794782231
Ni               0.0048903883        0.0028240213       21.7957362259
Pd               5.3365729782        4.6343585820       21.8985260591
Pd               4.0091718312        2.3146967436       21.9514903866
Pd               6.6817583927        2.3044290467       21.8985261148
H                3.9776774860        2.2965134952       23.5066943709    0   0   1



     Writing config-only to output data dir /tmpu/isholek_g/isholek/MIGUEL/QE/Hydrogen/111_2x2/SAVE/Ni1Pd3_111-T1.save/ :
     XML data file
     NEW-OLD atomic charge density approx. for the potential

     Check: negative core charge=   -0.000002

     negative rho (up, down):  1.502E-04 1.314E-04
     Generating pointlists ...

     total cpu time spent up to now is    72301.8 secs

     Self-consistent Calculation

     iteration #  1     ecut=    60.00 Ry     beta= 0.20
     Davidson diagonalization with overlap
     ethr =  1.00E-06,  avg # of iterations =  5.9

     negative rho (up, down):  1.677E-04 1.401E-04

     total cpu time spent up to now is    72729.9 secs

     total energy              =   -7077.42429265 Ry
     estimated scf accuracy    <       0.00607631 Ry

     total magnetization       =     9.89 Bohr mag/cell
     absolute magnetization    =    10.76 Bohr mag/cell

     iteration #  2     ecut=    60.00 Ry     beta= 0.20
     Davidson diagonalization with overlap
     ethr =  2.52E-06,  avg # of iterations =  1.0

     negative rho (up, down):  1.691E-04 1.396E-04

     total cpu time spent up to now is    72896.8 secs

     total energy              =   -7077.42443461 Ry
     estimated scf accuracy    <       0.00061551 Ry

     total magnetization       =     9.94 Bohr mag/cell
     absolute magnetization    =    10.81 Bohr mag/cell

     iteration #  3     ecut=    60.00 Ry     beta= 0.20
     Davidson diagonalization with overlap
     ethr =  2.55E-07,  avg # of iterations =  2.0

     negative rho (up, down):  1.682E-04 1.372E-04

     total cpu time spent up to now is    73081.2 secs

     total energy              =   -7077.42454239 Ry
     estimated scf accuracy    <       0.00030582 Ry

     total magnetization       =     9.91 Bohr mag/cell
     absolute magnetization    =    10.79 Bohr mag/cell

     iteration #  4     ecut=    60.00 Ry     beta= 0.20
     Davidson diagonalization with overlap
     ethr =  1.27E-07,  avg # of iterations =  1.1

     negative rho (up, down):  1.673E-04 1.352E-04

     total cpu time spent up to now is    73250.1 secs

     total energy              =   -7077.42460408 Ry
     estimated scf accuracy    <       0.00027258 Ry

     total magnetization       =     9.92 Bohr mag/cell
     absolute magnetization    =    10.80 Bohr mag/cell

     iteration #  5     ecut=    60.00 Ry     beta= 0.20
     Davidson diagonalization with overlap
     ethr =  1.13E-07,  avg # of iterations =  1.0

     negative rho (up, down):  1.648E-04 1.318E-04

     total cpu time spent up to now is    73416.7 secs

     total energy              =   -7077.42467272 Ry
     estimated scf accuracy    <       0.00018060 Ry

     total magnetization       =     9.93 Bohr mag/cell
     absolute magnetization    =    10.80 Bohr mag/cell

     iteration #  6     ecut=    60.00 Ry     beta= 0.20
     Davidson diagonalization with overlap
     ethr =  7.49E-08,  avg # of iterations =  1.0

     negative rho (up, down):  1.631E-04 1.294E-04

     total cpu time spent up to now is    73584.8 secs

     total energy              =   -7077.42469405 Ry
     estimated scf accuracy    <       0.00005715 Ry

     total magnetization       =     9.93 Bohr mag/cell
     absolute magnetization    =    10.80 Bohr mag/cell

     iteration #  7     ecut=    60.00 Ry     beta= 0.20
     Davidson diagonalization with overlap
     ethr =  2.37E-08,  avg # of iterations =  1.3

     negative rho (up, down):  1.527E-04 1.185E-04

     total cpu time spent up to now is    73752.0 secs

     total energy              =   -7077.42476636 Ry
     estimated scf accuracy    <       0.00011445 Ry

     total magnetization       =     9.92 Bohr mag/cell
     absolute magnetization    =    10.80 Bohr mag/cell

     iteration #  8     ecut=    60.00 Ry     beta= 0.20
     Davidson diagonalization with overlap
     ethr =  2.37E-08,  avg # of iterations =  2.0

     negative rho (up, down):  1.476E-04 1.131E-04

     total cpu time spent up to now is    73949.6 secs

     total energy              =   -7077.42477760 Ry
     estimated scf accuracy    <       0.00001975 Ry

     total magnetization       =     9.92 Bohr mag/cell
     absolute magnetization    =    10.80 Bohr mag/cell

     iteration #  9     ecut=    60.00 Ry     beta= 0.20
     Davidson diagonalization with overlap
     ethr =  8.19E-09,  avg # of iterations =  2.0

     negative rho (up, down):  1.422E-04 1.076E-04

     total cpu time spent up to now is    74134.1 secs

     total energy              =   -7077.42477648 Ry
     estimated scf accuracy    <       0.00001750 Ry

     total magnetization       =     9.92 Bohr mag/cell
     absolute magnetization    =    10.80 Bohr mag/cell

     iteration # 10     ecut=    60.00 Ry     beta= 0.20
     Davidson diagonalization with overlap
     ethr =  7.26E-09,  avg # of iterations =  1.5

     negative rho (up, down):  1.394E-04 1.045E-04

     total cpu time spent up to now is    74309.3 secs

     total energy              =   -7077.42477761 Ry
     estimated scf accuracy    <       0.00000360 Ry

     total magnetization       =     9.92 Bohr mag/cell
     absolute magnetization    =    10.80 Bohr mag/cell

     iteration # 11     ecut=    60.00 Ry     beta= 0.20
     Davidson diagonalization with overlap
     ethr =  1.49E-09,  avg # of iterations =  2.3

     negative rho (up, down):  1.368E-04 1.018E-04

     total cpu time spent up to now is    74503.1 secs

     total energy              =   -7077.42477835 Ry
     estimated scf accuracy    <       0.00000333 Ry

     total magnetization       =     9.92 Bohr mag/cell
     absolute magnetization    =    10.80 Bohr mag/cell

     iteration # 12     ecut=    60.00 Ry     beta= 0.20
     Davidson diagonalization with overlap
     ethr =  1.38E-09,  avg # of iterations =  2.0

     negative rho (up, down):  1.356E-04 1.005E-04

     total cpu time spent up to now is    74688.7 secs

     total energy              =   -7077.42477856 Ry
     estimated scf accuracy    <       0.00000246 Ry

     total magnetization       =     9.92 Bohr mag/cell
     absolute magnetization    =    10.80 Bohr mag/cell

     iteration # 13     ecut=    60.00 Ry     beta= 0.20
     Davidson diagonalization with overlap
     ethr =  1.02E-09,  avg # of iterations =  1.0

     negative rho (up, down):  1.347E-04 9.947E-05

     total cpu time spent up to now is    74855.5 secs

     total energy              =   -7077.42477860 Ry
     estimated scf accuracy    <       0.00000245 Ry

     total magnetization       =     9.92 Bohr mag/cell
     absolute magnetization    =    10.80 Bohr mag/cell

     iteration # 14     ecut=    60.00 Ry     beta= 0.20
     Davidson diagonalization with overlap
     ethr =  1.01E-09,  avg # of iterations =  1.0

     negative rho (up, down):  1.303E-04 9.502E-05

     total cpu time spent up to now is    75023.9 secs

     total energy              =   -7077.42477847 Ry
     estimated scf accuracy    <       0.00000211 Ry

     total magnetization       =     9.92 Bohr mag/cell
     absolute magnetization    =    10.80 Bohr mag/cell

     iteration # 15     ecut=    60.00 Ry     beta= 0.20
     Davidson diagonalization with overlap
     ethr =  8.76E-10,  avg # of iterations =  1.1

     negative rho (up, down):  1.291E-04 9.386E-05

     total cpu time spent up to now is    75193.5 secs

     total energy              =   -7077.42477856 Ry
     estimated scf accuracy    <       0.00000056 Ry

     total magnetization       =     9.92 Bohr mag/cell
     absolute magnetization    =    10.80 Bohr mag/cell

     iteration # 16     ecut=    60.00 Ry     beta= 0.20
     Davidson diagonalization with overlap
     ethr =  2.31E-10,  avg # of iterations =  2.1

     negative rho (up, down):  1.293E-04 9.395E-05

     total cpu time spent up to now is    75373.7 secs

     total energy              =   -7077.42477856 Ry
     estimated scf accuracy    <       0.00000028 Ry

     total magnetization       =     9.92 Bohr mag/cell
     absolute magnetization    =    10.80 Bohr mag/cell

     iteration # 17     ecut=    60.00 Ry     beta= 0.20
     Davidson diagonalization with overlap
     ethr =  1.16E-10,  avg # of iterations =  2.4

     negative rho (up, down):  1.319E-04 9.633E-05

     total cpu time spent up to now is    75550.6 secs

     total energy              =   -7077.42477863 Ry
     estimated scf accuracy    <       0.00000007 Ry

     total magnetization       =     9.92 Bohr mag/cell
     absolute magnetization    =    10.80 Bohr mag/cell

     iteration # 18     ecut=    60.00 Ry     beta= 0.20
     Davidson diagonalization with overlap
     ethr =  2.71E-11,  avg # of iterations =  4.4

     negative rho (up, down):  1.344E-04 9.867E-05

     total cpu time spent up to now is    75806.4 secs

     total energy              =   -7077.42477866 Ry
     estimated scf accuracy    <       0.00000003 Ry

     total magnetization       =     9.92 Bohr mag/cell
     absolute magnetization    =    10.80 Bohr mag/cell

     iteration # 19     ecut=    60.00 Ry     beta= 0.20
     Davidson diagonalization with overlap
     ethr =  1.41E-11,  avg # of iterations =  1.1

     negative rho (up, down):  1.359E-04 1.001E-04

     total cpu time spent up to now is    75976.9 secs

     total energy              =   -7077.42477867 Ry
     estimated scf accuracy    <       0.00000005 Ry

     total magnetization       =     9.92 Bohr mag/cell
     absolute magnetization    =    10.80 Bohr mag/cell

     iteration # 20     ecut=    60.00 Ry     beta= 0.20
     Davidson diagonalization with overlap
     ethr =  1.41E-11,  avg # of iterations =  1.0

     negative rho (up, down):  1.403E-04 1.043E-04

     total cpu time spent up to now is    76144.6 secs

     total energy              =   -7077.42477867 Ry
     estimated scf accuracy    <       0.00000004 Ry

     total magnetization       =     9.92 Bohr mag/cell
     absolute magnetization    =    10.80 Bohr mag/cell

     iteration # 21     ecut=    60.00 Ry     beta= 0.20
     Davidson diagonalization with overlap
     ethr =  1.41E-11,  avg # of iterations =  1.5

     negative rho (up, down):  1.442E-04 1.081E-04

     total cpu time spent up to now is    76319.5 secs

     total energy              =   -7077.42477868 Ry
     estimated scf accuracy    <       0.00000002 Ry

     total magnetization       =     9.92 Bohr mag/cell
     absolute magnetization    =    10.80 Bohr mag/cell

     iteration # 22     ecut=    60.00 Ry     beta= 0.20
     Davidson diagonalization with overlap
     ethr =  9.01E-12,  avg # of iterations =  1.1

     negative rho (up, down):  1.447E-04 1.085E-04

     total cpu time spent up to now is    76489.4 secs

     total energy              =   -7077.42477868 Ry
     estimated scf accuracy    <       0.00000002 Ry

     total magnetization       =     9.92 Bohr mag/cell
     absolute magnetization    =    10.80 Bohr mag/cell

     iteration # 23     ecut=    60.00 Ry     beta= 0.20
     Davidson diagonalization with overlap
     ethr =  8.87E-12,  avg # of iterations =  1.0

     negative rho (up, down):  1.440E-04 1.078E-04

     total cpu time spent up to now is    76656.0 secs

     total energy              =   -7077.42477868 Ry
     estimated scf accuracy    <       0.00000002 Ry

     total magnetization       =     9.92 Bohr mag/cell
     absolute magnetization    =    10.80 Bohr mag/cell

     iteration # 24     ecut=    60.00 Ry     beta= 0.20
     Davidson diagonalization with overlap
     ethr =  8.87E-12,  avg # of iterations =  1.0

     negative rho (up, down):  1.438E-04 1.077E-04

     total cpu time spent up to now is    76823.9 secs

     total energy              =   -7077.42477868 Ry
     estimated scf accuracy    <       0.00000002 Ry

     total magnetization       =     9.92 Bohr mag/cell
     absolute magnetization    =    10.80 Bohr mag/cell

     iteration # 25     ecut=    60.00 Ry     beta= 0.20
     Davidson diagonalization with overlap
     ethr =  8.59E-12,  avg # of iterations =  1.0

     negative rho (up, down):  1.438E-04 1.077E-04

     total cpu time spent up to now is    76989.2 secs

     total energy              =   -7077.42477868 Ry
     estimated scf accuracy    <       0.00000002 Ry

     total magnetization       =     9.92 Bohr mag/cell
     absolute magnetization    =    10.80 Bohr mag/cell

     iteration # 26     ecut=    60.00 Ry     beta= 0.20
     Davidson diagonalization with overlap
     ethr =  8.59E-12,  avg # of iterations =  1.0

     negative rho (up, down):  1.446E-04 1.084E-04

     total cpu time spent up to now is    77156.5 secs

     total energy              =   -7077.42477868 Ry
     estimated scf accuracy    <       0.00000002 Ry

     total magnetization       =     9.92 Bohr mag/cell
     absolute magnetization    =    10.80 Bohr mag/cell

     iteration # 27     ecut=    60.00 Ry     beta= 0.20
     Davidson diagonalization with overlap
     ethr =  8.40E-12,  avg # of iterations =  1.0

     negative rho (up, down):  1.462E-04 1.100E-04

     total cpu time spent up to now is    77325.2 secs

     total energy              =   -7077.42477868 Ry
     estimated scf accuracy    <       0.00000002 Ry

     total magnetization       =     9.92 Bohr mag/cell
     absolute magnetization    =    10.80 Bohr mag/cell

     iteration # 28     ecut=    60.00 Ry     beta= 0.20
     Davidson diagonalization with overlap
     ethr =  8.40E-12,  avg # of iterations =  1.0

     negative rho (up, down):  1.451E-04 1.089E-04

     total cpu time spent up to now is    77493.2 secs

     total energy              =   -7077.42477868 Ry
     estimated scf accuracy    <       0.00000003 Ry

     total magnetization       =     9.92 Bohr mag/cell
     absolute magnetization    =    10.80 Bohr mag/cell

     iteration # 29     ecut=    60.00 Ry     beta= 0.20
     Davidson diagonalization with overlap
     ethr =  8.40E-12,  avg # of iterations =  1.0

     negative rho (up, down):  1.456E-04 1.094E-04

     total cpu time spent up to now is    77661.0 secs

     total energy              =   -7077.42477868 Ry
     estimated scf accuracy    <       0.00000002 Ry

     total magnetization       =     9.92 Bohr mag/cell
     absolute magnetization    =    10.80 Bohr mag/cell

     iteration # 30     ecut=    60.00 Ry     beta= 0.20
     Davidson diagonalization with overlap
     ethr =  8.40E-12,  avg # of iterations =  1.0

     negative rho (up, down):  1.463E-04 1.100E-04

     total cpu time spent up to now is    77828.3 secs

     total energy              =   -7077.42477868 Ry
     estimated scf accuracy    <       0.00000001 Ry

     total magnetization       =     9.92 Bohr mag/cell
     absolute magnetization    =    10.80 Bohr mag/cell

     iteration # 31     ecut=    60.00 Ry     beta= 0.20
     Davidson diagonalization with overlap
     ethr =  5.60E-12,  avg # of iterations =  1.0

     negative rho (up, down):  1.467E-04 1.104E-04

     total cpu time spent up to now is    77996.0 secs

     total energy              =   -7077.42477869 Ry
     estimated scf accuracy    <       0.00000002 Ry

     total magnetization       =     9.92 Bohr mag/cell
     absolute magnetization    =    10.80 Bohr mag/cell

     iteration # 32     ecut=    60.00 Ry     beta= 0.20
     Davidson diagonalization with overlap
     ethr =  5.60E-12,  avg # of iterations =  1.0

     negative rho (up, down):  1.467E-04 1.104E-04

     total cpu time spent up to now is    78164.1 secs

     total energy              =   -7077.42477869 Ry
     estimated scf accuracy    <       0.00000002 Ry

     total magnetization       =     9.92 Bohr mag/cell
     absolute magnetization    =    10.80 Bohr mag/cell

     iteration # 33     ecut=    60.00 Ry     beta= 0.20
     Davidson diagonalization with overlap
     ethr =  5.60E-12,  avg # of iterations =  1.0

     negative rho (up, down):  1.458E-04 1.096E-04

     total cpu time spent up to now is    78331.5 secs

     total energy              =   -7077.42477868 Ry
     estimated scf accuracy    <       0.00000002 Ry

     total magnetization       =     9.92 Bohr mag/cell
     absolute magnetization    =    10.80 Bohr mag/cell

     iteration # 34     ecut=    60.00 Ry     beta= 0.20
     Davidson diagonalization with overlap
     ethr =  5.60E-12,  avg # of iterations =  1.0

     negative rho (up, down):  1.475E-04 1.112E-04

     total cpu time spent up to now is    78498.4 secs

     total energy              =   -7077.42477868 Ry
     estimated scf accuracy    <       0.00000002 Ry

     total magnetization       =     9.92 Bohr mag/cell
     absolute magnetization    =    10.80 Bohr mag/cell

     iteration # 35     ecut=    60.00 Ry     beta= 0.20
     Davidson diagonalization with overlap
     ethr =  5.60E-12,  avg # of iterations =  1.0

     negative rho (up, down):  1.478E-04 1.115E-04

     total cpu time spent up to now is    78666.1 secs

     total energy              =   -7077.42477868 Ry
     estimated scf accuracy    <       0.00000003 Ry

     total magnetization       =     9.92 Bohr mag/cell
     absolute magnetization    =    10.80 Bohr mag/cell

     iteration # 36     ecut=    60.00 Ry     beta= 0.20
     Davidson diagonalization with overlap
     ethr =  5.60E-12,  avg # of iterations =  1.0

     negative rho (up, down):  1.475E-04 1.112E-04

     total cpu time spent up to now is    78832.4 secs

     total energy              =   -7077.42477868 Ry
     estimated scf accuracy    <       0.00000003 Ry

     total magnetization       =     9.92 Bohr mag/cell
     absolute magnetization    =    10.80 Bohr mag/cell

     iteration # 37     ecut=    60.00 Ry     beta= 0.20
     Davidson diagonalization with overlap
     ethr =  5.60E-12,  avg # of iterations =  1.0

     negative rho (up, down):  1.488E-04 1.124E-04

     total cpu time spent up to now is    78999.7 secs

     total energy              =   -7077.42477869 Ry
     estimated scf accuracy    <       0.00000003 Ry

     total magnetization       =     9.92 Bohr mag/cell
     absolute magnetization    =    10.80 Bohr mag/cell

     iteration # 38     ecut=    60.00 Ry     beta= 0.20
     Davidson diagonalization with overlap
     ethr =  5.60E-12,  avg # of iterations =  1.0

     negative rho (up, down):  1.487E-04 1.124E-04

     total cpu time spent up to now is    79170.2 secs

     total energy              =   -7077.42477869 Ry
     estimated scf accuracy    <       0.00000004 Ry

     total magnetization       =     9.92 Bohr mag/cell
     absolute magnetization    =    10.80 Bohr mag/cell

     iteration # 39     ecut=    60.00 Ry     beta= 0.20
     Davidson diagonalization with overlap
     ethr =  5.60E-12,  avg # of iterations =  1.0

     negative rho (up, down):  1.488E-04 1.125E-04

     total cpu time spent up to now is    79337.2 secs

     total energy              =   -7077.42477869 Ry
     estimated scf accuracy    <       0.00000004 Ry

     total magnetization       =     9.92 Bohr mag/cell
     absolute magnetization    =    10.80 Bohr mag/cell

     iteration # 40     ecut=    60.00 Ry     beta= 0.20
     Davidson diagonalization with overlap
     ethr =  5.60E-12,  avg # of iterations =  1.0

     negative rho (up, down):  1.488E-04 1.125E-04

     total cpu time spent up to now is    79504.2 secs

     total energy              =   -7077.42477869 Ry
     estimated scf accuracy    <       0.00000003 Ry

     total magnetization       =     9.92 Bohr mag/cell
     absolute magnetization    =    10.80 Bohr mag/cell

     iteration # 41     ecut=    60.00 Ry     beta= 0.20
     Davidson diagonalization with overlap
     ethr =  5.60E-12,  avg # of iterations =  1.0

     negative rho (up, down):  1.477E-04 1.114E-04

     total cpu time spent up to now is    79672.2 secs

     total energy              =   -7077.42477868 Ry
     estimated scf accuracy    <       0.00000002 Ry

     total magnetization       =     9.92 Bohr mag/cell
     absolute magnetization    =    10.80 Bohr mag/cell

     iteration # 42     ecut=    60.00 Ry     beta= 0.20
     Davidson diagonalization with overlap
     ethr =  5.60E-12,  avg # of iterations =  1.0

     negative rho (up, down):  1.469E-04 1.107E-04

     total cpu time spent up to now is    79839.9 secs

     total energy              =   -7077.42477868 Ry
     estimated scf accuracy    <       0.00000002 Ry

     total magnetization       =     9.92 Bohr mag/cell
     absolute magnetization    =    10.80 Bohr mag/cell

     iteration # 43     ecut=    60.00 Ry     beta= 0.20
     Davidson diagonalization with overlap
     ethr =  5.60E-12,  avg # of iterations =  1.0

     negative rho (up, down):  1.478E-04 1.115E-04

     total cpu time spent up to now is    80006.2 secs

     total energy              =   -7077.42477868 Ry
     estimated scf accuracy    <       0.00000003 Ry

     total magnetization       =     9.92 Bohr mag/cell
     absolute magnetization    =    10.80 Bohr mag/cell

     iteration # 44     ecut=    60.00 Ry     beta= 0.20
     Davidson diagonalization with overlap
     ethr =  5.60E-12,  avg # of iterations =  1.0

     negative rho (up, down):  1.494E-04 1.131E-04

     total cpu time spent up to now is    80164.9 secs

     total energy              =   -7077.42477869 Ry
     estimated scf accuracy    <       0.00000002 Ry

     total magnetization       =     9.92 Bohr mag/cell
     absolute magnetization    =    10.80 Bohr mag/cell

     iteration # 45     ecut=    60.00 Ry     beta= 0.20
     Davidson diagonalization with overlap
     ethr =  5.60E-12,  avg # of iterations =  1.0

     negative rho (up, down):  1.498E-04 1.135E-04

     total cpu time spent up to now is    80332.6 secs

     total energy              =   -7077.42477869 Ry
     estimated scf accuracy    <       0.00000002 Ry

     total magnetization       =     9.92 Bohr mag/cell
     absolute magnetization    =    10.80 Bohr mag/cell

     iteration # 46     ecut=    60.00 Ry     beta= 0.20
     Davidson diagonalization with overlap
     ethr =  5.60E-12,  avg # of iterations =  1.0

     negative rho (up, down):  1.499E-04 1.136E-04

     total cpu time spent up to now is    80499.6 secs

     total energy              =   -7077.42477869 Ry
     estimated scf accuracy    <       0.00000003 Ry

     total magnetization       =     9.92 Bohr mag/cell
     absolute magnetization    =    10.80 Bohr mag/cell

     iteration # 47     ecut=    60.00 Ry     beta= 0.20
     Davidson diagonalization with overlap
     ethr =  5.60E-12,  avg # of iterations =  1.0

     negative rho (up, down):  1.501E-04 1.138E-04

     total cpu time spent up to now is    80667.6 secs

     total energy              =   -7077.42477869 Ry
     estimated scf accuracy    <       0.00000003 Ry

     total magnetization       =     9.92 Bohr mag/cell
     absolute magnetization    =    10.80 Bohr mag/cell

     iteration # 48     ecut=    60.00 Ry     beta= 0.20
     Davidson diagonalization with overlap
     ethr =  5.60E-12,  avg # of iterations =  1.0

     negative rho (up, down):  1.511E-04 1.147E-04

     total cpu time spent up to now is    80835.6 secs

     total energy              =   -7077.42477869 Ry
     estimated scf accuracy    <       0.00000003 Ry

     total magnetization       =     9.92 Bohr mag/cell
     absolute magnetization    =    10.80 Bohr mag/cell

     iteration # 49     ecut=    60.00 Ry     beta= 0.20
     Davidson diagonalization with overlap
     ethr =  5.60E-12,  avg # of iterations =  1.0

     negative rho (up, down):  1.522E-04 1.159E-04

     total cpu time spent up to now is    81004.1 secs

     total energy              =   -7077.42477869 Ry
     estimated scf accuracy    <       0.00000002 Ry

     total magnetization       =     9.92 Bohr mag/cell
     absolute magnetization    =    10.80 Bohr mag/cell

     iteration # 50     ecut=    60.00 Ry     beta= 0.20
     Davidson diagonalization with overlap
     ethr =  5.60E-12,  avg # of iterations =  1.0

     negative rho (up, down):  1.515E-04 1.151E-04

     total cpu time spent up to now is    81171.7 secs

     total energy              =   -7077.42477869 Ry
     estimated scf accuracy    <       0.00000003 Ry

     total magnetization       =     9.92 Bohr mag/cell
     absolute magnetization    =    10.80 Bohr mag/cell

     iteration # 51     ecut=    60.00 Ry     beta= 0.20
     Davidson diagonalization with overlap
     ethr =  5.60E-12,  avg # of iterations =  1.0

     negative rho (up, down):  1.516E-04 1.152E-04

     total cpu time spent up to now is    81340.6 secs

     total energy              =   -7077.42477869 Ry
     estimated scf accuracy    <       0.00000003 Ry

     total magnetization       =     9.92 Bohr mag/cell
     absolute magnetization    =    10.80 Bohr mag/cell

     iteration # 52     ecut=    60.00 Ry     beta= 0.20
     Davidson diagonalization with overlap
     ethr =  5.60E-12,  avg # of iterations =  1.0

     negative rho (up, down):  1.517E-04 1.154E-04

     total cpu time spent up to now is    81508.2 secs

     total energy              =   -7077.42477869 Ry
     estimated scf accuracy    <       0.00000003 Ry

     total magnetization       =     9.92 Bohr mag/cell
     absolute magnetization    =    10.80 Bohr mag/cell

     iteration # 53     ecut=    60.00 Ry     beta= 0.20
     Davidson diagonalization with overlap
     ethr =  5.60E-12,  avg # of iterations =  1.0

     negative rho (up, down):  1.517E-04 1.153E-04

     total cpu time spent up to now is    81675.5 secs

     total energy              =   -7077.42477869 Ry
     estimated scf accuracy    <       0.00000003 Ry

     total magnetization       =     9.92 Bohr mag/cell
     absolute magnetization    =    10.80 Bohr mag/cell

     iteration # 54     ecut=    60.00 Ry     beta= 0.20
     Davidson diagonalization with overlap
     ethr =  5.60E-12,  avg # of iterations =  1.0

     negative rho (up, down):  1.516E-04 1.152E-04

     total cpu time spent up to now is    81841.7 secs

     total energy              =   -7077.42477869 Ry
     estimated scf accuracy    <       0.00000002 Ry

     total magnetization       =     9.92 Bohr mag/cell
     absolute magnetization    =    10.80 Bohr mag/cell

     iteration # 55     ecut=    60.00 Ry     beta= 0.20
     Davidson diagonalization with overlap
     ethr =  5.60E-12,  avg # of iterations =  1.0

     negative rho (up, down):  1.517E-04 1.153E-04

     total cpu time spent up to now is    82010.5 secs

     total energy              =   -7077.42477869 Ry
     estimated scf accuracy    <       0.00000002 Ry

     total magnetization       =     9.92 Bohr mag/cell
     absolute magnetization    =    10.80 Bohr mag/cell

     iteration # 56     ecut=    60.00 Ry     beta= 0.20
     Davidson diagonalization with overlap
     ethr =  5.60E-12,  avg # of iterations =  1.0

     negative rho (up, down):  1.529E-04 1.165E-04

     total cpu time spent up to now is    82171.5 secs

     total energy              =   -7077.42477869 Ry
     estimated scf accuracy    <       0.00000002 Ry

     total magnetization       =     9.92 Bohr mag/cell
     absolute magnetization    =    10.80 Bohr mag/cell

     iteration # 57     ecut=    60.00 Ry     beta= 0.20
     Davidson diagonalization with overlap
     ethr =  5.60E-12,  avg # of iterations =  1.0

     negative rho (up, down):  1.533E-04 1.169E-04

     total cpu time spent up to now is    82339.3 secs

     total energy              =   -7077.42477869 Ry
     estimated scf accuracy    <       0.00000002 Ry

     total magnetization       =     9.92 Bohr mag/cell
     absolute magnetization    =    10.80 Bohr mag/cell

     iteration # 58     ecut=    60.00 Ry     beta= 0.20
     Davidson diagonalization with overlap
     ethr =  5.60E-12,  avg # of iterations =  1.0

     negative rho (up, down):  1.541E-04 1.177E-04

     total cpu time spent up to now is    82506.4 secs

     total energy              =   -7077.42477869 Ry
     estimated scf accuracy    <       0.00000002 Ry

     total magnetization       =     9.92 Bohr mag/cell
     absolute magnetization    =    10.80 Bohr mag/cell

     iteration # 59     ecut=    60.00 Ry     beta= 0.20
     Davidson diagonalization with overlap
     ethr =  5.60E-12,  avg # of iterations =  1.0

     negative rho (up, down):  1.538E-04 1.174E-04

     total cpu time spent up to now is    82674.3 secs

     total energy              =   -7077.42477870 Ry
     estimated scf accuracy    <       0.00000002 Ry

     total magnetization       =     9.92 Bohr mag/cell
     absolute magnetization    =    10.80 Bohr mag/cell

     iteration # 60     ecut=    60.00 Ry     beta= 0.20
     Davidson diagonalization with overlap
     ethr =  5.60E-12,  avg # of iterations =  1.0

     negative rho (up, down):  1.530E-04 1.166E-04

     total cpu time spent up to now is    82841.6 secs

     total energy              =   -7077.42477869 Ry
     estimated scf accuracy    <       0.00000001 Ry

     total magnetization       =     9.92 Bohr mag/cell
     absolute magnetization    =    10.80 Bohr mag/cell

     iteration # 61     ecut=    60.00 Ry     beta= 0.20
     Davidson diagonalization with overlap
     ethr =  4.49E-12,  avg # of iterations =  1.0

     negative rho (up, down):  1.553E-04 1.190E-04

     total cpu time spent up to now is    83008.0 secs

     total energy              =   -7077.42477870 Ry
     estimated scf accuracy    <          5.8E-09 Ry

     total magnetization       =     9.92 Bohr mag/cell
     absolute magnetization    =    10.80 Bohr mag/cell

     iteration # 62     ecut=    60.00 Ry     beta= 0.20
     Davidson diagonalization with overlap
     ethr =  2.39E-12,  avg # of iterations =  1.0

     negative rho (up, down):  1.554E-04 1.191E-04
 
     Magnetic moment per site  (integrated on atomic sphere of radius R)
     atom   1 (R=0.202)  charge=  8.7466  magn=  0.9621
     atom   2 (R=0.114)  charge=  4.0981  magn=  0.1538
     atom   3 (R=0.114)  charge=  4.0981  magn=  0.1538
     atom   4 (R=0.114)  charge=  4.0982  magn=  0.1510
     atom   5 (R=0.202)  charge=  8.8219  magn=  0.9270
     atom   6 (R=0.114)  charge=  4.0922  magn=  0.1897
     atom   7 (R=0.114)  charge=  4.0922  magn=  0.1897
     atom   8 (R=0.114)  charge=  4.0916  magn=  0.1901
     atom   9 (R=0.202)  charge=  8.8320  magn=  0.8690
     atom  10 (R=0.114)  charge=  4.0889  magn=  0.1832
     atom  11 (R=0.114)  charge=  4.0889  magn=  0.1805
     atom  12 (R=0.114)  charge=  4.0889  magn=  0.1832
     atom  13 (R=0.202)  charge=  8.8327  magn=  0.8538
     atom  14 (R=0.114)  charge=  4.0882  magn=  0.1754
     atom  15 (R=0.114)  charge=  4.0882  magn=  0.1754
     atom  16 (R=0.114)  charge=  4.0916  magn=  0.1758
     atom  17 (R=0.202)  charge=  8.8201  magn=  0.8679
     atom  18 (R=0.114)  charge=  4.0908  magn=  0.1689
     atom  19 (R=0.114)  charge=  4.0908  magn=  0.1689
     atom  20 (R=0.114)  charge=  4.0900  magn=  0.1837
     atom  21 (R=0.202)  charge=  8.7647  magn=  0.9249
     atom  22 (R=0.114)  charge=  4.1004  magn=  0.1328
     atom  23 (R=0.114)  charge=  4.0740  magn=  0.0662
     atom  24 (R=0.114)  charge=  4.1004  magn=  0.1328
     atom  25 (R=0.114)  charge=  0.6522  magn= -0.0059

     total cpu time spent up to now is    83171.0 secs

     End of self-consistent calculation

     Number of k-points >= 100: set verbosity='high' to print the bands.

     the Fermi energy is    -5.1934 ev

!    total energy              =   -7077.42477870 Ry
     total all-electron energy =   -199909.861349 Ry
     estimated scf accuracy    <          9.3E-10 Ry
     smearing contrib. (-TS)   =       0.00006117 Ry
     internal energy E=F+TS    =   -7077.42483987 Ry

     The total energy is F=E-TS. E is the sum of the following terms:
     one-electron contribution =  -60946.93072481 Ry
     hartree contribution      =   30660.61036342 Ry
     xc contribution           =    -835.42588389 Ry
     ewald contribution        =   29178.46175972 Ry
     DFT-D3 Dispersion         =      -2.52686942 Ry
     one-center paw contrib.   =   -5131.61348489 Ry

     total magnetization       =     9.92 Bohr mag/cell
     absolute magnetization    =    10.80 Bohr mag/cell

     convergence has been achieved in  62 iterations

     negative rho (up, down):  1.554E-04 1.191E-04

     Forces acting on atoms (cartesian axes, Ry/au):

     atom    1 type  1   force =    -0.00004208   -0.00002430    0.01607962
     atom    2 type  2   force =    -0.00034816   -0.01429892   -0.00889995
     atom    3 type  2   force =    -0.01255730    0.00684792   -0.00889989
     atom    4 type  2   force =     0.01235120    0.00713097   -0.00964887
     atom    5 type  1   force =     0.00051678    0.00029837    0.00043097
     atom    6 type  2   force =     0.00010707   -0.00042033    0.00602101
     atom    7 type  2   force =    -0.00031049    0.00030288    0.00602100
     atom    8 type  2   force =     0.00076005    0.00043883    0.00675273
     atom    9 type  1   force =     0.00024209    0.00013975    0.00130671
     atom   10 type  2   force =    -0.00026853   -0.00024350    0.00148626
     atom   11 type  2   force =     0.00010815    0.00006249    0.00064500
     atom   12 type  2   force =    -0.00034513   -0.00011079    0.00148627
     atom   13 type  1   force =    -0.00065629   -0.00037889    0.00064381
     atom   14 type  2   force =    -0.00046149   -0.00082582    0.00016221
     atom   15 type  2   force =    -0.00094592    0.00001325    0.00016222
     atom   16 type  2   force =     0.00091271    0.00052695   -0.00172644
     atom   17 type  1   force =    -0.00151077   -0.00087226   -0.00284561
     atom   18 type  2   force =     0.00124198    0.00251020   -0.00641715
     atom   19 type  2   force =     0.00279494   -0.00017939   -0.00641718
     atom   20 type  2   force =    -0.00030987   -0.00017889    0.00171945
     atom   21 type  1   force =     0.00175150    0.00101115    0.00035028
     atom   22 type  2   force =    -0.00008578   -0.00053483    0.00110382
     atom   23 type  2   force =    -0.00055232   -0.00031886   -0.00000613
     atom   24 type  2   force =    -0.00050600    0.00019308    0.00110381
     atom   25 type  3   force =    -0.00188632   -0.00108907   -0.00061396

     Total force =     0.011581     Total SCF correction =     0.000092


     Computing stress (Cartesian axis) and pressure


     negative rho (up, down):  1.554E-04 1.191E-04
          total   stress  (Ry/bohr**3)                   (kbar)     P=       -9.88
  -0.00009488  -0.00000085  -0.00000188          -13.96       -0.13       -0.28
  -0.00000085  -0.00009389  -0.00000108           -0.13      -13.81       -0.16
  -0.00000188  -0.00000108  -0.00001272           -0.28       -0.16       -1.87

     Energy error            =      2.5E-04 Ry
     Gradient error          =      6.4E-03 Ry/Bohr

     number of scf cycles    =  12
     number of bfgs steps    =  10

     energy             old  =   -7077.4245314842 Ry
     energy             new  =   -7077.4247787011 Ry

     CASE: energy            _new < energy            _old

     new trust radius        =       0.0221890910 bohr
     new conv_thr            =       0.0000000008 Ry


ATOMIC_POSITIONS (angstrom)
Ni               5.3171990772        3.0698863186       11.0000000000    0   0   0
Pd               2.6585995386        3.0698851333       11.0000764482    0   0   0
Pd               3.9878982814        0.7674721723       11.0000764482    0   0   0
Pd               1.3293007958        0.7674721723       11.0000764482    0   0   0
Ni               2.6585995386        1.5349431593       13.1707374333    0   0   0
Pd               3.9878982814        3.8373584909       13.1708138815    0   0   0
Pd               5.3171990772        1.5349419740       13.1708138815    0   0   0
Pd               6.6464998731        3.8373584909       13.1708138815    0   0   0
Ni               0.0021235564        0.0012260257       15.3406855205
Pd               5.3224270478        4.6086536824       15.3429437771
Pd               3.9936538729        2.3057370716       15.3503626894
Pd               6.6524247725        2.3050300644       15.3429437015
Ni               5.3123868813        3.0671079537       17.5317921098
Pd               3.9814513891        0.7680416370       17.5298978863
Pd               2.6558692557        3.0640172731       17.5298978156
Pd               1.3215724661        0.7630102026       17.5120772975
Ni               2.6464086970        1.5279049679       19.7123152409
Pd               3.9768918890        3.8303060709       19.7064773051
Pd               5.3055883083        1.5289365985       19.7064772483
Pd               6.6230322587        3.8238095076       19.6828570319
Ni               0.0081198601        0.0046884572       21.7990177376
Pd               5.3385252448        4.6346118891       21.9019334922
Pd               4.0096394465        2.3149667824       21.9397608483
Pd               6.6829539675        2.3059930406       21.9019334346
H                3.9776774860        2.2965134952       23.4960533116    0   0   1



     Writing config-only to output data dir /tmpu/isholek_g/isholek/MIGUEL/QE/Hydrogen/111_2x2/SAVE/Ni1Pd3_111-T1.save/ :
     XML data file
     NEW-OLD atomic charge density approx. for the potential

     Check: negative core charge=   -0.000002

     negative rho (up, down):  1.497E-04 1.330E-04
     Generating pointlists ...

     total cpu time spent up to now is    83447.7 secs

     Self-consistent Calculation

     iteration #  1     ecut=    60.00 Ry     beta= 0.20
     Davidson diagonalization with overlap
     ethr =  1.00E-06,  avg # of iterations =  6.5

     negative rho (up, down):  1.720E-04 1.463E-04

     total cpu time spent up to now is    83933.6 secs

     total energy              =   -7077.42414733 Ry
     estimated scf accuracy    <       0.01798236 Ry

     total magnetization       =     9.86 Bohr mag/cell
     absolute magnetization    =    10.73 Bohr mag/cell

     iteration #  2     ecut=    60.00 Ry     beta= 0.20
     Davidson diagonalization with overlap
     ethr =  7.46E-06,  avg # of iterations =  1.0

     negative rho (up, down):  1.733E-04 1.455E-04

     total cpu time spent up to now is    84100.8 secs

     total energy              =   -7077.42446951 Ry
     estimated scf accuracy    <       0.00183411 Ry

     total magnetization       =     9.96 Bohr mag/cell
     absolute magnetization    =    10.83 Bohr mag/cell

     iteration #  3     ecut=    60.00 Ry     beta= 0.20
     Davidson diagonalization with overlap
     ethr =  7.61E-07,  avg # of iterations =  1.0

     negative rho (up, down):  1.732E-04 1.437E-04

     total cpu time spent up to now is    84270.3 secs

     total energy              =   -7077.42463925 Ry
     estimated scf accuracy    <       0.00098515 Ry

     total magnetization       =     9.91 Bohr mag/cell
     absolute magnetization    =    10.79 Bohr mag/cell

     iteration #  4     ecut=    60.00 Ry     beta= 0.20
     Davidson diagonalization with overlap
     ethr =  4.09E-07,  avg # of iterations =  1.0

     negative rho (up, down):  1.718E-04 1.411E-04

     total cpu time spent up to now is    84439.0 secs

     total energy              =   -7077.42474148 Ry
     estimated scf accuracy    <       0.00106511 Ry

     total magnetization       =     9.92 Bohr mag/cell
     absolute magnetization    =    10.79 Bohr mag/cell

     iteration #  5     ecut=    60.00 Ry     beta= 0.20
     Davidson diagonalization with overlap
     ethr =  4.09E-07,  avg # of iterations =  1.0

     negative rho (up, down):  1.699E-04 1.381E-04

     total cpu time spent up to now is    84609.0 secs

     total energy              =   -7077.42484792 Ry
     estimated scf accuracy    <       0.00057248 Ry

     total magnetization       =     9.93 Bohr mag/cell
     absolute magnetization    =    10.80 Bohr mag/cell

     iteration #  6     ecut=    60.00 Ry     beta= 0.20
     Davidson diagonalization with overlap
     ethr =  2.38E-07,  avg # of iterations =  1.0

     negative rho (up, down):  1.679E-04 1.352E-04

     total cpu time spent up to now is    84775.9 secs

     total energy              =   -7077.42489250 Ry
     estimated scf accuracy    <       0.00020280 Ry

     total magnetization       =     9.93 Bohr mag/cell
     absolute magnetization    =    10.80 Bohr mag/cell

     iteration #  7     ecut=    60.00 Ry     beta= 0.20
     Davidson diagonalization with overlap
     ethr =  8.42E-08,  avg # of iterations =  1.0

     negative rho (up, down):  1.602E-04 1.264E-04

     total cpu time spent up to now is    84942.0 secs

     total energy              =   -7077.42499655 Ry
     estimated scf accuracy    <       0.00017092 Ry

     total magnetization       =     9.93 Bohr mag/cell
     absolute magnetization    =    10.80 Bohr mag/cell

     iteration #  8     ecut=    60.00 Ry     beta= 0.20
     Davidson diagonalization with overlap
     ethr =  7.09E-08,  avg # of iterations =  2.0

     negative rho (up, down):  1.555E-04 1.212E-04

     total cpu time spent up to now is    85125.1 secs

     total energy              =   -7077.42502429 Ry
     estimated scf accuracy    <       0.00010742 Ry

     total magnetization       =     9.92 Bohr mag/cell
     absolute magnetization    =    10.80 Bohr mag/cell

     iteration #  9     ecut=    60.00 Ry     beta= 0.20
     Davidson diagonalization with overlap
     ethr =  4.46E-08,  avg # of iterations =  1.0

     negative rho (up, down):  1.464E-04 1.118E-04

     total cpu time spent up to now is    85291.3 secs

     total energy              =   -7077.42503258 Ry
     estimated scf accuracy    <       0.00003882 Ry

     total magnetization       =     9.92 Bohr mag/cell
     absolute magnetization    =    10.79 Bohr mag/cell

     iteration # 10     ecut=    60.00 Ry     beta= 0.20
     Davidson diagonalization with overlap
     ethr =  1.61E-08,  avg # of iterations =  2.0

     negative rho (up, down):  1.437E-04 1.088E-04

     total cpu time spent up to now is    85472.9 secs

     total energy              =   -7077.42503397 Ry
     estimated scf accuracy    <       0.00000547 Ry

     total magnetization       =     9.92 Bohr mag/cell
     absolute magnetization    =    10.79 Bohr mag/cell

     iteration # 11     ecut=    60.00 Ry     beta= 0.20
     Davidson diagonalization with overlap
     ethr =  2.27E-09,  avg # of iterations =  2.8

     negative rho (up, down):  1.409E-04 1.059E-04

     total cpu time spent up to now is    85674.0 secs

     total energy              =   -7077.42503471 Ry
     estimated scf accuracy    <       0.00000275 Ry

     total magnetization       =     9.92 Bohr mag/cell
     absolute magnetization    =    10.79 Bohr mag/cell

     iteration # 12     ecut=    60.00 Ry     beta= 0.20
     Davidson diagonalization with overlap
     ethr =  1.14E-09,  avg # of iterations =  2.3

     negative rho (up, down):  1.380E-04 1.029E-04

     total cpu time spent up to now is    85857.8 secs

     total energy              =   -7077.42503491 Ry
     estimated scf accuracy    <       0.00000377 Ry

     total magnetization       =     9.92 Bohr mag/cell
     absolute magnetization    =    10.79 Bohr mag/cell

     iteration # 13     ecut=    60.00 Ry     beta= 0.20
     Davidson diagonalization with overlap
     ethr =  1.14E-09,  avg # of iterations =  1.1

     negative rho (up, down):  1.358E-04 1.006E-04

     total cpu time spent up to now is    86025.4 secs

     total energy              =   -7077.42503500 Ry
     estimated scf accuracy    <       0.00000242 Ry

     total magnetization       =     9.92 Bohr mag/cell
     absolute magnetization    =    10.79 Bohr mag/cell

     iteration # 14     ecut=    60.00 Ry     beta= 0.20
     Davidson diagonalization with overlap
     ethr =  1.00E-09,  avg # of iterations =  1.1

     negative rho (up, down):  1.335E-04 9.822E-05

     total cpu time spent up to now is    86192.6 secs

     total energy              =   -7077.42503504 Ry
     estimated scf accuracy    <       0.00000143 Ry

     total magnetization       =     9.92 Bohr mag/cell
     absolute magnetization    =    10.79 Bohr mag/cell

     iteration # 15     ecut=    60.00 Ry     beta= 0.20
     Davidson diagonalization with overlap
     ethr =  5.93E-10,  avg # of iterations =  1.2

     negative rho (up, down):  1.314E-04 9.609E-05

     total cpu time spent up to now is    86361.5 secs

     total energy              =   -7077.42503502 Ry
     estimated scf accuracy    <       0.00000138 Ry

     total magnetization       =     9.92 Bohr mag/cell
     absolute magnetization    =    10.79 Bohr mag/cell

     iteration # 16     ecut=    60.00 Ry     beta= 0.20
     Davidson diagonalization with overlap
     ethr =  5.72E-10,  avg # of iterations =  1.0

     negative rho (up, down):  1.303E-04 9.491E-05

     total cpu time spent up to now is    86527.8 secs

     total energy              =   -7077.42503505 Ry
     estimated scf accuracy    <       0.00000077 Ry

     total magnetization       =     9.92 Bohr mag/cell
     absolute magnetization    =    10.79 Bohr mag/cell

     iteration # 17     ecut=    60.00 Ry     beta= 0.20
     Davidson diagonalization with overlap
     ethr =  3.19E-10,  avg # of iterations =  1.1

     negative rho (up, down):  1.319E-04 9.639E-05

     total cpu time spent up to now is    86697.8 secs

     total energy              =   -7077.42503511 Ry
     estimated scf accuracy    <       0.00000031 Ry

     total magnetization       =     9.92 Bohr mag/cell
     absolute magnetization    =    10.79 Bohr mag/cell

     iteration # 18     ecut=    60.00 Ry     beta= 0.20
     Davidson diagonalization with overlap
     ethr =  1.29E-10,  avg # of iterations =  1.8

     negative rho (up, down):  1.328E-04 9.722E-05

     total cpu time spent up to now is    86875.4 secs

     total energy              =   -7077.42503514 Ry
     estimated scf accuracy    <       0.00000004 Ry

     total magnetization       =     9.92 Bohr mag/cell
     absolute magnetization    =    10.79 Bohr mag/cell

     iteration # 19     ecut=    60.00 Ry     beta= 0.20
     Davidson diagonalization with overlap
     ethr =  1.68E-11,  avg # of iterations =  4.9

     negative rho (up, down):  1.340E-04 9.835E-05

     total cpu time spent up to now is    87143.4 secs

     total energy              =   -7077.42503516 Ry
     estimated scf accuracy    <       0.00000004 Ry

     total magnetization       =     9.92 Bohr mag/cell
     absolute magnetization    =    10.79 Bohr mag/cell

     iteration # 20     ecut=    60.00 Ry     beta= 0.20
     Davidson diagonalization with overlap
     ethr =  1.48E-11,  avg # of iterations =  1.2

     negative rho (up, down):  1.361E-04 1.003E-04

     total cpu time spent up to now is    87312.4 secs

     total energy              =   -7077.42503516 Ry
     estimated scf accuracy    <       0.00000003 Ry

     total magnetization       =     9.92 Bohr mag/cell
     absolute magnetization    =    10.79 Bohr mag/cell

     iteration # 21     ecut=    60.00 Ry     beta= 0.20
     Davidson diagonalization with overlap
     ethr =  1.12E-11,  avg # of iterations =  1.0

     negative rho (up, down):  1.374E-04 1.015E-04

     total cpu time spent up to now is    87479.1 secs

     total energy              =   -7077.42503516 Ry
     estimated scf accuracy    <       0.00000004 Ry

     total magnetization       =     9.92 Bohr mag/cell
     absolute magnetization    =    10.79 Bohr mag/cell

     iteration # 22     ecut=    60.00 Ry     beta= 0.20
     Davidson diagonalization with overlap
     ethr =  1.12E-11,  avg # of iterations =  1.0

     negative rho (up, down):  1.398E-04 1.039E-04

     total cpu time spent up to now is    87645.3 secs

     total energy              =   -7077.42503517 Ry
     estimated scf accuracy    <       0.00000004 Ry

     total magnetization       =     9.92 Bohr mag/cell
     absolute magnetization    =    10.79 Bohr mag/cell

     iteration # 23     ecut=    60.00 Ry     beta= 0.20
     Davidson diagonalization with overlap
     ethr =  1.12E-11,  avg # of iterations =  1.0

     negative rho (up, down):  1.430E-04 1.069E-04

     total cpu time spent up to now is    87815.6 secs

     total energy              =   -7077.42503517 Ry
     estimated scf accuracy    <       0.00000003 Ry

     total magnetization       =     9.92 Bohr mag/cell
     absolute magnetization    =    10.79 Bohr mag/cell

     iteration # 24     ecut=    60.00 Ry     beta= 0.20
     Davidson diagonalization with overlap
     ethr =  1.12E-11,  avg # of iterations =  1.0

     negative rho (up, down):  1.460E-04 1.099E-04

     total cpu time spent up to now is    87983.2 secs

     total energy              =   -7077.42503518 Ry
     estimated scf accuracy    <       0.00000001 Ry

     total magnetization       =     9.92 Bohr mag/cell
     absolute magnetization    =    10.79 Bohr mag/cell

     iteration # 25     ecut=    60.00 Ry     beta= 0.20
     Davidson diagonalization with overlap
     ethr =  5.73E-12,  avg # of iterations =  1.2

     negative rho (up, down):  1.462E-04 1.100E-04

     total cpu time spent up to now is    88154.9 secs

     total energy              =   -7077.42503518 Ry
     estimated scf accuracy    <       0.00000003 Ry

     total magnetization       =     9.92 Bohr mag/cell
     absolute magnetization    =    10.79 Bohr mag/cell

     iteration # 26     ecut=    60.00 Ry     beta= 0.20
     Davidson diagonalization with overlap
     ethr =  5.73E-12,  avg # of iterations =  1.0

     negative rho (up, down):  1.466E-04 1.104E-04

     total cpu time spent up to now is    88322.4 secs

     total energy              =   -7077.42503518 Ry
     estimated scf accuracy    <       0.00000003 Ry

     total magnetization       =     9.92 Bohr mag/cell
     absolute magnetization    =    10.79 Bohr mag/cell

     iteration # 27     ecut=    60.00 Ry     beta= 0.20
     Davidson diagonalization with overlap
     ethr =  5.73E-12,  avg # of iterations =  1.0

     negative rho (up, down):  1.463E-04 1.101E-04

     total cpu time spent up to now is    88489.4 secs

     total energy              =   -7077.42503518 Ry
     estimated scf accuracy    <       0.00000002 Ry

     total magnetization       =     9.92 Bohr mag/cell
     absolute magnetization    =    10.79 Bohr mag/cell

     iteration # 28     ecut=    60.00 Ry     beta= 0.20
     Davidson diagonalization with overlap
     ethr =  5.73E-12,  avg # of iterations =  1.0

     negative rho (up, down):  1.470E-04 1.108E-04

     total cpu time spent up to now is    88656.9 secs

     total energy              =   -7077.42503518 Ry
     estimated scf accuracy    <       0.00000002 Ry

     total magnetization       =     9.92 Bohr mag/cell
     absolute magnetization    =    10.79 Bohr mag/cell

     iteration # 29     ecut=    60.00 Ry     beta= 0.20
     Davidson diagonalization with overlap
     ethr =  5.73E-12,  avg # of iterations =  1.0

     negative rho (up, down):  1.510E-04 1.148E-04

     total cpu time spent up to now is    88825.3 secs

     total energy              =   -7077.42503519 Ry
     estimated scf accuracy    <       0.00000002 Ry

     total magnetization       =     9.92 Bohr mag/cell
     absolute magnetization    =    10.79 Bohr mag/cell

     iteration # 30     ecut=    60.00 Ry     beta= 0.20
     Davidson diagonalization with overlap
     ethr =  5.73E-12,  avg # of iterations =  1.0

     negative rho (up, down):  1.523E-04 1.160E-04

     total cpu time spent up to now is    88991.9 secs

     total energy              =   -7077.42503519 Ry
     estimated scf accuracy    <          7.7E-09 Ry

     total magnetization       =     9.92 Bohr mag/cell
     absolute magnetization    =    10.79 Bohr mag/cell

     iteration # 31     ecut=    60.00 Ry     beta= 0.20
     Davidson diagonalization with overlap
     ethr =  3.22E-12,  avg # of iterations =  1.2

     negative rho (up, down):  1.541E-04 1.178E-04

     total cpu time spent up to now is    89163.0 secs

     total energy              =   -7077.42503520 Ry
     estimated scf accuracy    <          2.7E-09 Ry

     total magnetization       =     9.92 Bohr mag/cell
     absolute magnetization    =    10.79 Bohr mag/cell

     iteration # 32     ecut=    60.00 Ry     beta= 0.20
     Davidson diagonalization with overlap
     ethr =  1.14E-12,  avg # of iterations =  2.1

     negative rho (up, down):  1.550E-04 1.186E-04

     total cpu time spent up to now is    89348.1 secs

     total energy              =   -7077.42503520 Ry
     estimated scf accuracy    <          1.4E-09 Ry

     total magnetization       =     9.92 Bohr mag/cell
     absolute magnetization    =    10.79 Bohr mag/cell

     iteration # 33     ecut=    60.00 Ry     beta= 0.20
     Davidson diagonalization with overlap
     ethr =  5.68E-13,  avg # of iterations =  1.9

     negative rho (up, down):  1.552E-04 1.189E-04
 
     Magnetic moment per site  (integrated on atomic sphere of radius R)
     atom   1 (R=0.202)  charge=  8.7466  magn=  0.9622
     atom   2 (R=0.114)  charge=  4.0981  magn=  0.1535
     atom   3 (R=0.114)  charge=  4.0981  magn=  0.1535
     atom   4 (R=0.114)  charge=  4.0982  magn=  0.1510
     atom   5 (R=0.202)  charge=  8.8210  magn=  0.9271
     atom   6 (R=0.114)  charge=  4.0922  magn=  0.1894
     atom   7 (R=0.114)  charge=  4.0922  magn=  0.1894
     atom   8 (R=0.114)  charge=  4.0915  magn=  0.1894
     atom   9 (R=0.202)  charge=  8.8316  magn=  0.8689
     atom  10 (R=0.114)  charge=  4.0889  magn=  0.1830
     atom  11 (R=0.114)  charge=  4.0890  magn=  0.1802
     atom  12 (R=0.114)  charge=  4.0889  magn=  0.1830
     atom  13 (R=0.202)  charge=  8.8349  magn=  0.8531
     atom  14 (R=0.114)  charge=  4.0883  magn=  0.1754
     atom  15 (R=0.114)  charge=  4.0883  magn=  0.1754
     atom  16 (R=0.114)  charge=  4.0916  magn=  0.1769
     atom  17 (R=0.202)  charge=  8.8208  magn=  0.8680
     atom  18 (R=0.114)  charge=  4.0905  magn=  0.1690
     atom  19 (R=0.114)  charge=  4.0905  magn=  0.1690
     atom  20 (R=0.114)  charge=  4.0901  magn=  0.1839
     atom  21 (R=0.202)  charge=  8.7620  magn=  0.9252
     atom  22 (R=0.114)  charge=  4.1005  magn=  0.1324
     atom  23 (R=0.114)  charge=  4.0734  magn=  0.0666
     atom  24 (R=0.114)  charge=  4.1005  magn=  0.1324
     atom  25 (R=0.114)  charge=  0.6513  magn= -0.0058

     total cpu time spent up to now is    89526.4 secs

     End of self-consistent calculation

     Number of k-points >= 100: set verbosity='high' to print the bands.

     the Fermi energy is    -5.1902 ev

!    total energy              =   -7077.42503520 Ry
     total all-electron energy =   -199909.861605 Ry
     estimated scf accuracy    <          4.6E-10 Ry
     smearing contrib. (-TS)   =       0.00007424 Ry
     internal energy E=F+TS    =   -7077.42510944 Ry

     The total energy is F=E-TS. E is the sum of the following terms:
     one-electron contribution =  -60964.49566550 Ry
     hartree contribution      =   30669.41978281 Ry
     xc contribution           =    -835.42695213 Ry
     ewald contribution        =   29187.21854563 Ry
     DFT-D3 Dispersion         =      -2.52725118 Ry
     one-center paw contrib.   =   -5131.61356908 Ry

     total magnetization       =     9.92 Bohr mag/cell
     absolute magnetization    =    10.79 Bohr mag/cell

     convergence has been achieved in  33 iterations

     negative rho (up, down):  1.552E-04 1.189E-04

     Forces acting on atoms (cartesian axes, Ry/au):

     atom    1 type  1   force =    -0.00003877   -0.00002238    0.01608638
     atom    2 type  2   force =    -0.00035621   -0.01430488   -0.00892650
     atom    3 type  2   force =    -0.01256650    0.00684396   -0.00892650
     atom    4 type  2   force =     0.01235185    0.00713135   -0.00963103
     atom    5 type  1   force =     0.00049219    0.00028415    0.00087056
     atom    6 type  2   force =     0.00026932   -0.00038386    0.00668473
     atom    7 type  2   force =    -0.00019776    0.00042516    0.00668471
     atom    8 type  2   force =     0.00060881    0.00035150    0.00779352
     atom    9 type  1   force =    -0.00004563   -0.00002635    0.00069074
     atom   10 type  2   force =     0.00021762   -0.00053458   -0.00012298
     atom   11 type  2   force =    -0.00037987   -0.00021931    0.00022740
     atom   12 type  2   force =    -0.00035416    0.00045576   -0.00012297
     atom   13 type  1   force =    -0.00037637   -0.00021728   -0.00045267
     atom   14 type  2   force =    -0.00017381   -0.00084762   -0.00044866
     atom   15 type  2   force =    -0.00082097    0.00027328   -0.00044865
     atom   16 type  2   force =     0.00006016    0.00003474   -0.00378772
     atom   17 type  1   force =     0.00031596    0.00018236   -0.00168479
     atom   18 type  2   force =     0.00153145   -0.00090914   -0.00186679
     atom   19 type  2   force =    -0.00002172    0.00178079   -0.00186677
     atom   20 type  2   force =     0.00168502    0.00097292    0.00193735
     atom   21 type  1   force =     0.00173514    0.00100175   -0.00149823
     atom   22 type  2   force =    -0.00106795   -0.00058683   -0.00007512
     atom   23 type  2   force =     0.00004029    0.00002326    0.00010018
     atom   24 type  2   force =    -0.00104218   -0.00063146   -0.00007509
     atom   25 type  3   force =    -0.00186591   -0.00107728   -0.00114112

     Total force =     0.007242     Total SCF correction =     0.000113


     Computing stress (Cartesian axis) and pressure


     negative rho (up, down):  1.552E-04 1.189E-04
          total   stress  (Ry/bohr**3)                   (kbar)     P=       -9.93
  -0.00009530  -0.00000093  -0.00000225          -14.02       -0.14       -0.33
  -0.00000093  -0.00009423  -0.00000130           -0.14      -13.86       -0.19
  -0.00000225  -0.00000130  -0.00001299           -0.33       -0.19       -1.91

     Energy error            =      2.6E-04 Ry
     Gradient error          =      3.8E-03 Ry/Bohr

     number of scf cycles    =  13
     number of bfgs steps    =  11

     energy             old  =   -7077.4247787011 Ry
     energy             new  =   -7077.4250351986 Ry

     CASE: energy            _new < energy            _old

     new trust radius        =       0.0089726360 bohr
     new conv_thr            =       0.0000000005 Ry


ATOMIC_POSITIONS (angstrom)
Ni               5.3171990772        3.0698863186       11.0000000000    0   0   0
Pd               2.6585995386        3.0698851333       11.0000764482    0   0   0
Pd               3.9878982814        0.7674721723       11.0000764482    0   0   0
Pd               1.3293007958        0.7674721723       11.0000764482    0   0   0
Ni               2.6585995386        1.5349431593       13.1707374333    0   0   0
Pd               3.9878982814        3.8373584909       13.1708138815    0   0   0
Pd               5.3171990772        1.5349419740       13.1708138815    0   0   0
Pd               6.6464998731        3.8373584909       13.1708138815    0   0   0
Ni               0.0022420223        0.0012944175       15.3417934789
Pd               5.3224095606        4.6082702825       15.3437280631
Pd               3.9935492241        2.3056766704       15.3508949896
Pd               6.6520839929        2.3052066236       15.3437279960
Ni               5.3118044788        3.0667717233       17.5320139926
Pd               3.9810659184        0.7671371687       17.5298393189
Pd               2.6548932319        3.0641356780       17.5298392580
Pd               1.3220510394        0.7632865062       17.5093992261
Ni               2.6456625078        1.5274740857       19.7099511085
Pd               3.9782712438        3.8313024752       19.7020445690
Pd               5.3071408380        1.5296329517       19.7020444998
Pd               6.6236465699        3.8241642406       19.6848732798
Ni               0.0100227176        0.0057870199       21.7985976305
Pd               5.3380966635        4.6341076677       21.9025916212
Pd               4.0094181141        2.3148390167       21.9382721742
Pd               6.6823030243        2.3058739824       21.9025915616
H                3.9776774860        2.2965134952       23.4948805878    0   0   1



     Writing config-only to output data dir /tmpu/isholek_g/isholek/MIGUEL/QE/Hydrogen/111_2x2/SAVE/Ni1Pd3_111-T1.save/ :
     XML data file
     NEW-OLD atomic charge density approx. for the potential

     Check: negative core charge=   -0.000002

     negative rho (up, down):  1.459E-04 1.297E-04
     Generating pointlists ...

     total cpu time spent up to now is    89801.6 secs

     Self-consistent Calculation

     iteration #  1     ecut=    60.00 Ry     beta= 0.20
     Davidson diagonalization with overlap
     ethr =  1.00E-06,  avg # of iterations =  4.3

     negative rho (up, down):  1.532E-04 1.261E-04

     total cpu time spent up to now is    90176.5 secs

     total energy              =   -7077.42501015 Ry
     estimated scf accuracy    <       0.00031506 Ry

     total magnetization       =     9.91 Bohr mag/cell
     absolute magnetization    =    10.78 Bohr mag/cell

     iteration #  2     ecut=    60.00 Ry     beta= 0.20
     Davidson diagonalization with overlap
     ethr =  1.31E-07,  avg # of iterations =  2.5

     negative rho (up, down):  1.543E-04 1.253E-04

     total cpu time spent up to now is    90382.0 secs

     total energy              =   -7077.42506480 Ry
     estimated scf accuracy    <       0.00004096 Ry

     total magnetization       =     9.93 Bohr mag/cell
     absolute magnetization    =    10.80 Bohr mag/cell

     iteration #  3     ecut=    60.00 Ry     beta= 0.20
     Davidson diagonalization with overlap
     ethr =  1.70E-08,  avg # of iterations =  3.5

     negative rho (up, down):  1.548E-04 1.244E-04

     total cpu time spent up to now is    90604.7 secs

     total energy              =   -7077.42508150 Ry
     estimated scf accuracy    <       0.00001810 Ry

     total magnetization       =     9.92 Bohr mag/cell
     absolute magnetization    =    10.79 Bohr mag/cell

     iteration #  4     ecut=    60.00 Ry     beta= 0.20
     Davidson diagonalization with overlap
     ethr =  7.51E-09,  avg # of iterations =  1.1

     negative rho (up, down):  1.551E-04 1.237E-04

     total cpu time spent up to now is    90775.1 secs

     total energy              =   -7077.42508642 Ry
     estimated scf accuracy    <       0.00004266 Ry

     total magnetization       =     9.92 Bohr mag/cell
     absolute magnetization    =    10.79 Bohr mag/cell

     iteration #  5     ecut=    60.00 Ry     beta= 0.20
     Davidson diagonalization with overlap
     ethr =  7.51E-09,  avg # of iterations =  1.0

     negative rho (up, down):  1.553E-04 1.226E-04

     total cpu time spent up to now is    90941.8 secs

     total energy              =   -7077.42509787 Ry
     estimated scf accuracy    <       0.00002303 Ry

     total magnetization       =     9.92 Bohr mag/cell
     absolute magnetization    =    10.79 Bohr mag/cell

     iteration #  6     ecut=    60.00 Ry     beta= 0.20
     Davidson diagonalization with overlap
     ethr =  7.51E-09,  avg # of iterations =  2.0

     negative rho (up, down):  1.552E-04 1.218E-04

     total cpu time spent up to now is    91122.2 secs

     total energy              =   -7077.42510196 Ry
     estimated scf accuracy    <       0.00000377 Ry

     total magnetization       =     9.92 Bohr mag/cell
     absolute magnetization    =    10.79 Bohr mag/cell

     iteration #  7     ecut=    60.00 Ry     beta= 0.20
     Davidson diagonalization with overlap
     ethr =  1.57E-09,  avg # of iterations =  2.0

     negative rho (up, down):  1.545E-04 1.201E-04

     total cpu time spent up to now is    91306.0 secs

     total energy              =   -7077.42510591 Ry
     estimated scf accuracy    <       0.00000312 Ry

     total magnetization       =     9.92 Bohr mag/cell
     absolute magnetization    =    10.79 Bohr mag/cell

     iteration #  8     ecut=    60.00 Ry     beta= 0.20
     Davidson diagonalization with overlap
     ethr =  1.30E-09,  avg # of iterations =  2.0

     negative rho (up, down):  1.543E-04 1.194E-04

     total cpu time spent up to now is    91507.5 secs

     total energy              =   -7077.42510647 Ry
     estimated scf accuracy    <       0.00000063 Ry

     total magnetization       =     9.92 Bohr mag/cell
     absolute magnetization    =    10.79 Bohr mag/cell

     iteration #  9     ecut=    60.00 Ry     beta= 0.20
     Davidson diagonalization with overlap
     ethr =  2.59E-10,  avg # of iterations =  2.5

     negative rho (up, down):  1.534E-04 1.183E-04

     total cpu time spent up to now is    91702.3 secs

     total energy              =   -7077.42510647 Ry
     estimated scf accuracy    <       0.00000037 Ry

     total magnetization       =     9.92 Bohr mag/cell
     absolute magnetization    =    10.79 Bohr mag/cell

     iteration # 10     ecut=    60.00 Ry     beta= 0.20
     Davidson diagonalization with overlap
     ethr =  1.54E-10,  avg # of iterations =  2.0

     negative rho (up, down):  1.532E-04 1.179E-04

     total cpu time spent up to now is    91886.4 secs

     total energy              =   -7077.42510652 Ry
     estimated scf accuracy    <       0.00000023 Ry

     total magnetization       =     9.92 Bohr mag/cell
     absolute magnetization    =    10.79 Bohr mag/cell

     iteration # 11     ecut=    60.00 Ry     beta= 0.20
     Davidson diagonalization with overlap
     ethr =  9.41E-11,  avg # of iterations =  1.6

     negative rho (up, down):  1.529E-04 1.174E-04

     total cpu time spent up to now is    92058.4 secs

     total energy              =   -7077.42510653 Ry
     estimated scf accuracy    <       0.00000014 Ry

     total magnetization       =     9.92 Bohr mag/cell
     absolute magnetization    =    10.79 Bohr mag/cell

     iteration # 12     ecut=    60.00 Ry     beta= 0.20
     Davidson diagonalization with overlap
     ethr =  5.64E-11,  avg # of iterations =  2.1

     negative rho (up, down):  1.526E-04 1.170E-04

     total cpu time spent up to now is    92242.3 secs

     total energy              =   -7077.42510653 Ry
     estimated scf accuracy    <       0.00000004 Ry

     total magnetization       =     9.92 Bohr mag/cell
     absolute magnetization    =    10.79 Bohr mag/cell

     iteration # 13     ecut=    60.00 Ry     beta= 0.20
     Davidson diagonalization with overlap
     ethr =  1.84E-11,  avg # of iterations =  4.4

     negative rho (up, down):  1.524E-04 1.167E-04

     total cpu time spent up to now is    92440.8 secs

     total energy              =   -7077.42510653 Ry
     estimated scf accuracy    <       0.00000004 Ry

     total magnetization       =     9.92 Bohr mag/cell
     absolute magnetization    =    10.79 Bohr mag/cell

     iteration # 14     ecut=    60.00 Ry     beta= 0.20
     Davidson diagonalization with overlap
     ethr =  1.72E-11,  avg # of iterations =  1.7

     negative rho (up, down):  1.521E-04 1.163E-04

     total cpu time spent up to now is    92615.6 secs

     total energy              =   -7077.42510653 Ry
     estimated scf accuracy    <       0.00000005 Ry

     total magnetization       =     9.92 Bohr mag/cell
     absolute magnetization    =    10.79 Bohr mag/cell

     iteration # 15     ecut=    60.00 Ry     beta= 0.20
     Davidson diagonalization with overlap
     ethr =  1.72E-11,  avg # of iterations =  1.1

     negative rho (up, down):  1.520E-04 1.161E-04

     total cpu time spent up to now is    92782.2 secs

     total energy              =   -7077.42510654 Ry
     estimated scf accuracy    <       0.00000003 Ry

     total magnetization       =     9.92 Bohr mag/cell
     absolute magnetization    =    10.79 Bohr mag/cell

     iteration # 16     ecut=    60.00 Ry     beta= 0.20
     Davidson diagonalization with overlap
     ethr =  1.05E-11,  avg # of iterations =  2.0

     negative rho (up, down):  1.519E-04 1.159E-04

     total cpu time spent up to now is    92965.9 secs

     total energy              =   -7077.42510654 Ry
     estimated scf accuracy    <       0.00000001 Ry

     total magnetization       =     9.92 Bohr mag/cell
     absolute magnetization    =    10.79 Bohr mag/cell

     iteration # 17     ecut=    60.00 Ry     beta= 0.20
     Davidson diagonalization with overlap
     ethr =  4.69E-12,  avg # of iterations =  1.5

     negative rho (up, down):  1.520E-04 1.159E-04

     total cpu time spent up to now is    93139.8 secs

     total energy              =   -7077.42510654 Ry
     estimated scf accuracy    <          7.1E-09 Ry

     total magnetization       =     9.92 Bohr mag/cell
     absolute magnetization    =    10.79 Bohr mag/cell

     iteration # 18     ecut=    60.00 Ry     beta= 0.20
     Davidson diagonalization with overlap
     ethr =  2.96E-12,  avg # of iterations =  1.9

     negative rho (up, down):  1.521E-04 1.160E-04

     total cpu time spent up to now is    93321.0 secs

     total energy              =   -7077.42510654 Ry
     estimated scf accuracy    <          2.6E-09 Ry

     total magnetization       =     9.92 Bohr mag/cell
     absolute magnetization    =    10.79 Bohr mag/cell

     iteration # 19     ecut=    60.00 Ry     beta= 0.20
     Davidson diagonalization with overlap
     ethr =  1.08E-12,  avg # of iterations =  1.7

     negative rho (up, down):  1.523E-04 1.161E-04

     total cpu time spent up to now is    93497.1 secs

     total energy              =   -7077.42510654 Ry
     estimated scf accuracy    <          5.8E-10 Ry

     total magnetization       =     9.92 Bohr mag/cell
     absolute magnetization    =    10.79 Bohr mag/cell

     iteration # 20     ecut=    60.00 Ry     beta= 0.20
     Davidson diagonalization with overlap
     ethr =  2.42E-13,  avg # of iterations =  4.3

     negative rho (up, down):  1.524E-04 1.162E-04

     total cpu time spent up to now is    93707.0 secs

     total energy              =   -7077.42510654 Ry
     estimated scf accuracy    <          7.2E-10 Ry

     total magnetization       =     9.92 Bohr mag/cell
     absolute magnetization    =    10.79 Bohr mag/cell

     iteration # 21     ecut=    60.00 Ry     beta= 0.20
     Davidson diagonalization with overlap
     ethr =  2.42E-13,  avg # of iterations =  1.0

     negative rho (up, down):  1.526E-04 1.164E-04

     total cpu time spent up to now is    93875.5 secs

     total energy              =   -7077.42510654 Ry
     estimated scf accuracy    <          7.4E-10 Ry

     total magnetization       =     9.92 Bohr mag/cell
     absolute magnetization    =    10.79 Bohr mag/cell

     iteration # 22     ecut=    60.00 Ry     beta= 0.20
     Davidson diagonalization with overlap
     ethr =  2.42E-13,  avg # of iterations =  1.0

     negative rho (up, down):  1.528E-04 1.166E-04

     total cpu time spent up to now is    94042.5 secs

     total energy              =   -7077.42510654 Ry
     estimated scf accuracy    <          8.2E-10 Ry

     total magnetization       =     9.92 Bohr mag/cell
     absolute magnetization    =    10.79 Bohr mag/cell

     iteration # 23     ecut=    60.00 Ry     beta= 0.20
     Davidson diagonalization with overlap
     ethr =  2.42E-13,  avg # of iterations =  1.1

     negative rho (up, down):  1.551E-04 1.188E-04
 
     Magnetic moment per site  (integrated on atomic sphere of radius R)
     atom   1 (R=0.202)  charge=  8.7465  magn=  0.9623
     atom   2 (R=0.114)  charge=  4.0981  magn=  0.1534
     atom   3 (R=0.114)  charge=  4.0981  magn=  0.1534
     atom   4 (R=0.114)  charge=  4.0982  magn=  0.1510
     atom   5 (R=0.202)  charge=  8.8207  magn=  0.9271
     atom   6 (R=0.114)  charge=  4.0922  magn=  0.1892
     atom   7 (R=0.114)  charge=  4.0922  magn=  0.1892
     atom   8 (R=0.114)  charge=  4.0915  magn=  0.1892
     atom   9 (R=0.202)  charge=  8.8318  magn=  0.8688
     atom  10 (R=0.114)  charge=  4.0889  magn=  0.1831
     atom  11 (R=0.114)  charge=  4.0891  magn=  0.1801
     atom  12 (R=0.114)  charge=  4.0889  magn=  0.1831
     atom  13 (R=0.202)  charge=  8.8359  magn=  0.8528
     atom  14 (R=0.114)  charge=  4.0884  magn=  0.1755
     atom  15 (R=0.114)  charge=  4.0884  magn=  0.1755
     atom  16 (R=0.114)  charge=  4.0916  magn=  0.1773
     atom  17 (R=0.202)  charge=  8.8206  magn=  0.8679
     atom  18 (R=0.114)  charge=  4.0906  magn=  0.1691
     atom  19 (R=0.114)  charge=  4.0906  magn=  0.1691
     atom  20 (R=0.114)  charge=  4.0903  magn=  0.1841
     atom  21 (R=0.202)  charge=  8.7612  magn=  0.9255
     atom  22 (R=0.114)  charge=  4.1005  magn=  0.1322
     atom  23 (R=0.114)  charge=  4.0734  magn=  0.0666
     atom  24 (R=0.114)  charge=  4.1005  magn=  0.1322
     atom  25 (R=0.114)  charge=  0.6511  magn= -0.0058

     total cpu time spent up to now is    94209.9 secs

     End of self-consistent calculation

     Number of k-points >= 100: set verbosity='high' to print the bands.

     the Fermi energy is    -5.1899 ev

!    total energy              =   -7077.42510655 Ry
     total all-electron energy =   -199909.861677 Ry
     estimated scf accuracy    <          3.9E-10 Ry
     smearing contrib. (-TS)   =       0.00008934 Ry
     internal energy E=F+TS    =   -7077.42519589 Ry

     The total energy is F=E-TS. E is the sum of the following terms:
     one-electron contribution =  -60972.51188723 Ry
     hartree contribution      =   30673.43096932 Ry
     xc contribution           =    -835.42715119 Ry
     ewald contribution        =   29191.22379610 Ry
     DFT-D3 Dispersion         =      -2.52735390 Ry
     one-center paw contrib.   =   -5131.61356898 Ry

     total magnetization       =     9.92 Bohr mag/cell
     absolute magnetization    =    10.79 Bohr mag/cell

     convergence has been achieved in  23 iterations

     negative rho (up, down):  1.551E-04 1.188E-04

     Forces acting on atoms (cartesian axes, Ry/au):

     atom    1 type  1   force =    -0.00004193   -0.00002421    0.01607815
     atom    2 type  2   force =    -0.00036011   -0.01430269   -0.00893389
     atom    3 type  2   force =    -0.01256654    0.00683948   -0.00893389
     atom    4 type  2   force =     0.01235607    0.00713378   -0.00962244
     atom    5 type  1   force =     0.00046830    0.00027036    0.00098606
     atom    6 type  2   force =     0.00028345   -0.00037839    0.00687351
     atom    7 type  2   force =    -0.00018597    0.00043467    0.00687350
     atom    8 type  2   force =     0.00061132    0.00035295    0.00805921
     atom    9 type  1   force =    -0.00015710   -0.00009071    0.00019506
     atom   10 type  2   force =     0.00034881   -0.00048212   -0.00088386
     atom   11 type  2   force =    -0.00049873   -0.00028794   -0.00001650
     atom   12 type  2   force =    -0.00024313    0.00054315   -0.00088384
     atom   13 type  1   force =    -0.00020056   -0.00011579   -0.00074206
     atom   14 type  2   force =    -0.00015361   -0.00065128   -0.00047051
     atom   15 type  2   force =    -0.00064085    0.00019260   -0.00047050
     atom   16 type  2   force =    -0.00044425   -0.00025647   -0.00342799
     atom   17 type  1   force =     0.00075106    0.00043362   -0.00107237
     atom   18 type  2   force =     0.00129620   -0.00135018   -0.00024504
     atom   19 type  2   force =    -0.00052123    0.00179762   -0.00024500
     atom   20 type  2   force =     0.00217465    0.00125555    0.00160855
     atom   21 type  1   force =     0.00147350    0.00085072   -0.00191102
     atom   22 type  2   force =    -0.00107754   -0.00034661   -0.00044129
     atom   23 type  2   force =     0.00002361    0.00001360   -0.00055656
     atom   24 type  2   force =    -0.00083896   -0.00075987   -0.00044126
     atom   25 type  3   force =    -0.00185645   -0.00107182   -0.00137602

     Total force =     0.006801     Total SCF correction =     0.000058


     Computing stress (Cartesian axis) and pressure


     negative rho (up, down):  1.551E-04 1.188E-04
          total   stress  (Ry/bohr**3)                   (kbar)     P=       -9.90
  -0.00009508  -0.00000091  -0.00000223          -13.99       -0.13       -0.33
  -0.00000091  -0.00009403  -0.00000129           -0.13      -13.83       -0.19
  -0.00000223  -0.00000129  -0.00001275           -0.33       -0.19       -1.88

     Energy error            =      7.1E-05 Ry
     Gradient error          =      3.4E-03 Ry/Bohr

     number of scf cycles    =  14
     number of bfgs steps    =  12

     energy             old  =   -7077.4250351986 Ry
     energy             new  =   -7077.4251065460 Ry

     CASE: energy            _new < energy            _old

     new trust radius        =       0.0098698996 bohr
     new conv_thr            =       0.0000000004 Ry


ATOMIC_POSITIONS (angstrom)
Ni               5.3171990772        3.0698863186       11.0000000000    0   0   0
Pd               2.6585995386        3.0698851333       11.0000764482    0   0   0
Pd               3.9878982814        0.7674721723       11.0000764482    0   0   0
Pd               1.3293007958        0.7674721723       11.0000764482    0   0   0
Ni               2.6585995386        1.5349431593       13.1707374333    0   0   0
Pd               3.9878982814        3.8373584909       13.1708138815    0   0   0
Pd               5.3171990772        1.5349419740       13.1708138815    0   0   0
Pd               6.6464998731        3.8373584909       13.1708138815    0   0   0
Ni               0.0022541000        0.0013013778       15.3429818216
Pd               5.3226124786        4.6075929751       15.3438726996
Pd               3.9931123643        2.3054244702       15.3513941555
Pd               6.6515988840        2.3057210228       15.3438726554
Ni               5.3110942656        3.0663617029       17.5317586105
Pd               3.9805449363        0.7658269744       17.5295130118
Pd               2.6534980714        3.0643395817       17.5295129733
Pd               1.3221905922        0.7633670902       17.5046061561
Ni               2.6453504630        1.5272938638       19.7068381430
Pd               3.9804747667        3.8316231384       19.6973200989
Pd               5.3085202319        1.5313809272       19.6973200425
Pd               6.6257132069        3.8253574811       19.6879056066
Ni               0.0129022960        0.0074494850       21.7969110382
Pd               5.3370004149        4.6334290324       21.9029761797
Pd               4.0091330326        2.3146744220       21.9362373712
Pd               6.6811671863        2.3052639195       21.9029761384
H                3.9776774860        2.2965134952       23.4928267923    0   0   1



     Writing config-only to output data dir /tmpu/isholek_g/isholek/MIGUEL/QE/Hydrogen/111_2x2/SAVE/Ni1Pd3_111-T1.save/ :
     XML data file
     NEW-OLD atomic charge density approx. for the potential

     Check: negative core charge=   -0.000002

     negative rho (up, down):  1.470E-04 1.302E-04
     Generating pointlists ...

     total cpu time spent up to now is    94482.2 secs

     Self-consistent Calculation

     iteration #  1     ecut=    60.00 Ry     beta= 0.20
     Davidson diagonalization with overlap
     ethr =  1.00E-06,  avg # of iterations =  5.3

     negative rho (up, down):  1.570E-04 1.298E-04

     total cpu time spent up to now is    94875.7 secs

     total energy              =   -7077.42506905 Ry
     estimated scf accuracy    <       0.00097809 Ry

     total magnetization       =     9.91 Bohr mag/cell
     absolute magnetization    =    10.78 Bohr mag/cell

     iteration #  2     ecut=    60.00 Ry     beta= 0.20
     Davidson diagonalization with overlap
     ethr =  4.06E-07,  avg # of iterations =  1.0

     negative rho (up, down):  1.572E-04 1.283E-04

     total cpu time spent up to now is    95042.8 secs

     total energy              =   -7077.42511831 Ry
     estimated scf accuracy    <       0.00028271 Ry

     total magnetization       =     9.93 Bohr mag/cell
     absolute magnetization    =    10.80 Bohr mag/cell

     iteration #  3     ecut=    60.00 Ry     beta= 0.20
     Davidson diagonalization with overlap
     ethr =  1.17E-07,  avg # of iterations =  1.0

     negative rho (up, down):  1.576E-04 1.272E-04

     total cpu time spent up to now is    95211.2 secs

     total energy              =   -7077.42514160 Ry
     estimated scf accuracy    <       0.00007946 Ry

     total magnetization       =     9.92 Bohr mag/cell
     absolute magnetization    =    10.79 Bohr mag/cell

     iteration #  4     ecut=    60.00 Ry     beta= 0.20
     Davidson diagonalization with overlap
     ethr =  3.30E-08,  avg # of iterations =  1.1

     negative rho (up, down):  1.576E-04 1.261E-04

     total cpu time spent up to now is    95380.1 secs

     total energy              =   -7077.42515473 Ry
     estimated scf accuracy    <       0.00006530 Ry

     total magnetization       =     9.92 Bohr mag/cell
     absolute magnetization    =    10.79 Bohr mag/cell

     iteration #  5     ecut=    60.00 Ry     beta= 0.20
     Davidson diagonalization with overlap
     ethr =  2.71E-08,  avg # of iterations =  1.0

     negative rho (up, down):  1.575E-04 1.249E-04

     total cpu time spent up to now is    95547.7 secs

     total energy              =   -7077.42516918 Ry
     estimated scf accuracy    <       0.00004691 Ry

     total magnetization       =     9.92 Bohr mag/cell
     absolute magnetization    =    10.79 Bohr mag/cell

     iteration #  6     ecut=    60.00 Ry     beta= 0.20
     Davidson diagonalization with overlap
     ethr =  1.95E-08,  avg # of iterations =  1.0

     negative rho (up, down):  1.574E-04 1.240E-04

     total cpu time spent up to now is    95714.8 secs

     total energy              =   -7077.42517919 Ry
     estimated scf accuracy    <       0.00001210 Ry

     total magnetization       =     9.92 Bohr mag/cell
     absolute magnetization    =    10.79 Bohr mag/cell

     iteration #  7     ecut=    60.00 Ry     beta= 0.20
     Davidson diagonalization with overlap
     ethr =  5.02E-09,  avg # of iterations =  2.0

     negative rho (up, down):  1.566E-04 1.223E-04

     total cpu time spent up to now is    95899.8 secs

     total energy              =   -7077.42518687 Ry
     estimated scf accuracy    <       0.00000497 Ry

     total magnetization       =     9.92 Bohr mag/cell
     absolute magnetization    =    10.79 Bohr mag/cell

     iteration #  8     ecut=    60.00 Ry     beta= 0.20
     Davidson diagonalization with overlap
     ethr =  2.06E-09,  avg # of iterations =  2.1

     negative rho (up, down):  1.561E-04 1.212E-04

     total cpu time spent up to now is    96114.4 secs

     total energy              =   -7077.42518816 Ry
     estimated scf accuracy    <       0.00000176 Ry

     total magnetization       =     9.92 Bohr mag/cell
     absolute magnetization    =    10.79 Bohr mag/cell

     iteration #  9     ecut=    60.00 Ry     beta= 0.20
     Davidson diagonalization with overlap
     ethr =  7.31E-10,  avg # of iterations =  2.8

     negative rho (up, down):  1.549E-04 1.199E-04

     total cpu time spent up to now is    96309.9 secs

     total energy              =   -7077.42518829 Ry
     estimated scf accuracy    <       0.00000080 Ry

     total magnetization       =     9.92 Bohr mag/cell
     absolute magnetization    =    10.79 Bohr mag/cell

     iteration # 10     ecut=    60.00 Ry     beta= 0.20
     Davidson diagonalization with overlap
     ethr =  3.30E-10,  avg # of iterations =  3.2

     negative rho (up, down):  1.544E-04 1.191E-04

     total cpu time spent up to now is    96495.5 secs

     total energy              =   -7077.42518838 Ry
     estimated scf accuracy    <       0.00000024 Ry

     total magnetization       =     9.92 Bohr mag/cell
     absolute magnetization    =    10.79 Bohr mag/cell

     iteration # 11     ecut=    60.00 Ry     beta= 0.20
     Davidson diagonalization with overlap
     ethr =  1.00E-10,  avg # of iterations =  2.6

     negative rho (up, down):  1.539E-04 1.184E-04

     total cpu time spent up to now is    96703.2 secs

     total energy              =   -7077.42518843 Ry
     estimated scf accuracy    <       0.00000031 Ry

     total magnetization       =     9.92 Bohr mag/cell
     absolute magnetization    =    10.79 Bohr mag/cell

     iteration # 12     ecut=    60.00 Ry     beta= 0.20
     Davidson diagonalization with overlap
     ethr =  1.00E-10,  avg # of iterations =  2.0

     negative rho (up, down):  1.534E-04 1.178E-04

     total cpu time spent up to now is    96885.2 secs

     total energy              =   -7077.42518843 Ry
     estimated scf accuracy    <       0.00000012 Ry

     total magnetization       =     9.92 Bohr mag/cell
     absolute magnetization    =    10.79 Bohr mag/cell

     iteration # 13     ecut=    60.00 Ry     beta= 0.20
     Davidson diagonalization with overlap
     ethr =  4.90E-11,  avg # of iterations =  1.1

     negative rho (up, down):  1.531E-04 1.174E-04

     total cpu time spent up to now is    97055.5 secs

     total energy              =   -7077.42518844 Ry
     estimated scf accuracy    <       0.00000008 Ry

     total magnetization       =     9.92 Bohr mag/cell
     absolute magnetization    =    10.79 Bohr mag/cell

     iteration # 14     ecut=    60.00 Ry     beta= 0.20
     Davidson diagonalization with overlap
     ethr =  3.28E-11,  avg # of iterations =  1.1

     negative rho (up, down):  1.527E-04 1.169E-04

     total cpu time spent up to now is    97225.0 secs

     total energy              =   -7077.42518843 Ry
     estimated scf accuracy    <       0.00000005 Ry

     total magnetization       =     9.92 Bohr mag/cell
     absolute magnetization    =    10.79 Bohr mag/cell

     iteration # 15     ecut=    60.00 Ry     beta= 0.20
     Davidson diagonalization with overlap
     ethr =  1.96E-11,  avg # of iterations =  2.0

     negative rho (up, down):  1.522E-04 1.163E-04

     total cpu time spent up to now is    97408.8 secs

     total energy              =   -7077.42518843 Ry
     estimated scf accuracy    <       0.00000005 Ry

     total magnetization       =     9.92 Bohr mag/cell
     absolute magnetization    =    10.79 Bohr mag/cell

     iteration # 16     ecut=    60.00 Ry     beta= 0.20
     Davidson diagonalization with overlap
     ethr =  1.96E-11,  avg # of iterations =  1.0

     negative rho (up, down):  1.520E-04 1.161E-04

     total cpu time spent up to now is    97577.0 secs

     total energy              =   -7077.42518843 Ry
     estimated scf accuracy    <       0.00000003 Ry

     total magnetization       =     9.92 Bohr mag/cell
     absolute magnetization    =    10.79 Bohr mag/cell

     iteration # 17     ecut=    60.00 Ry     beta= 0.20
     Davidson diagonalization with overlap
     ethr =  1.34E-11,  avg # of iterations =  1.0

     negative rho (up, down):  1.519E-04 1.159E-04

     total cpu time spent up to now is    97738.4 secs

     total energy              =   -7077.42518844 Ry
     estimated scf accuracy    <       0.00000002 Ry

     total magnetization       =     9.92 Bohr mag/cell
     absolute magnetization    =    10.79 Bohr mag/cell

     iteration # 18     ecut=    60.00 Ry     beta= 0.20
     Davidson diagonalization with overlap
     ethr =  6.97E-12,  avg # of iterations =  1.1

     negative rho (up, down):  1.519E-04 1.158E-04

     total cpu time spent up to now is    97906.2 secs

     total energy              =   -7077.42518844 Ry
     estimated scf accuracy    <          6.4E-09 Ry

     total magnetization       =     9.92 Bohr mag/cell
     absolute magnetization    =    10.79 Bohr mag/cell

     iteration # 19     ecut=    60.00 Ry     beta= 0.20
     Davidson diagonalization with overlap
     ethr =  2.67E-12,  avg # of iterations =  1.3

     negative rho (up, down):  1.520E-04 1.159E-04

     total cpu time spent up to now is    98074.2 secs

     total energy              =   -7077.42518844 Ry
     estimated scf accuracy    <          8.0E-10 Ry

     total magnetization       =     9.92 Bohr mag/cell
     absolute magnetization    =    10.79 Bohr mag/cell

     iteration # 20     ecut=    60.00 Ry     beta= 0.20
     Davidson diagonalization with overlap
     ethr =  3.32E-13,  avg # of iterations =  3.7

     negative rho (up, down):  1.521E-04 1.160E-04

     total cpu time spent up to now is    98303.5 secs

     total energy              =   -7077.42518844 Ry
     estimated scf accuracy    <          4.6E-10 Ry

     total magnetization       =     9.92 Bohr mag/cell
     absolute magnetization    =    10.79 Bohr mag/cell

     iteration # 21     ecut=    60.00 Ry     beta= 0.20
     Davidson diagonalization with overlap
     ethr =  1.91E-13,  avg # of iterations =  1.5

     negative rho (up, down):  1.523E-04 1.162E-04

     total cpu time spent up to now is    98477.0 secs

     total energy              =   -7077.42518844 Ry
     estimated scf accuracy    <          5.9E-10 Ry

     total magnetization       =     9.92 Bohr mag/cell
     absolute magnetization    =    10.79 Bohr mag/cell

     iteration # 22     ecut=    60.00 Ry     beta= 0.20
     Davidson diagonalization with overlap
     ethr =  1.91E-13,  avg # of iterations =  2.0

     negative rho (up, down):  1.526E-04 1.165E-04

     total cpu time spent up to now is    98658.7 secs

     total energy              =   -7077.42518844 Ry
     estimated scf accuracy    <          4.5E-10 Ry

     total magnetization       =     9.92 Bohr mag/cell
     absolute magnetization    =    10.79 Bohr mag/cell

     iteration # 23     ecut=    60.00 Ry     beta= 0.20
     Davidson diagonalization with overlap
     ethr =  1.88E-13,  avg # of iterations =  1.9

     negative rho (up, down):  1.529E-04 1.167E-04

     total cpu time spent up to now is    98840.5 secs

     total energy              =   -7077.42518844 Ry
     estimated scf accuracy    <          6.9E-10 Ry

     total magnetization       =     9.92 Bohr mag/cell
     absolute magnetization    =    10.79 Bohr mag/cell

     iteration # 24     ecut=    60.00 Ry     beta= 0.20
     Davidson diagonalization with overlap
     ethr =  1.88E-13,  avg # of iterations =  2.0

     negative rho (up, down):  1.549E-04 1.187E-04
 
     Magnetic moment per site  (integrated on atomic sphere of radius R)
     atom   1 (R=0.202)  charge=  8.7465  magn=  0.9623
     atom   2 (R=0.114)  charge=  4.0981  magn=  0.1533
     atom   3 (R=0.114)  charge=  4.0981  magn=  0.1533
     atom   4 (R=0.114)  charge=  4.0982  magn=  0.1510
     atom   5 (R=0.202)  charge=  8.8206  magn=  0.9271
     atom   6 (R=0.114)  charge=  4.0922  magn=  0.1891
     atom   7 (R=0.114)  charge=  4.0922  magn=  0.1891
     atom   8 (R=0.114)  charge=  4.0915  magn=  0.1891
     atom   9 (R=0.202)  charge=  8.8324  magn=  0.8686
     atom  10 (R=0.114)  charge=  4.0889  magn=  0.1832
     atom  11 (R=0.114)  charge=  4.0892  magn=  0.1800
     atom  12 (R=0.114)  charge=  4.0889  magn=  0.1832
     atom  13 (R=0.202)  charge=  8.8367  magn=  0.8525
     atom  14 (R=0.114)  charge=  4.0884  magn=  0.1756
     atom  15 (R=0.114)  charge=  4.0884  magn=  0.1756
     atom  16 (R=0.114)  charge=  4.0918  magn=  0.1779
     atom  17 (R=0.202)  charge=  8.8202  magn=  0.8679
     atom  18 (R=0.114)  charge=  4.0906  magn=  0.1692
     atom  19 (R=0.114)  charge=  4.0906  magn=  0.1692
     atom  20 (R=0.114)  charge=  4.0903  magn=  0.1844
     atom  21 (R=0.202)  charge=  8.7609  magn=  0.9257
     atom  22 (R=0.114)  charge=  4.1005  magn=  0.1321
     atom  23 (R=0.114)  charge=  4.0734  magn=  0.0665
     atom  24 (R=0.114)  charge=  4.1005  magn=  0.1321
     atom  25 (R=0.114)  charge=  0.6511  magn= -0.0058

     total cpu time spent up to now is    99019.5 secs

     End of self-consistent calculation

     Number of k-points >= 100: set verbosity='high' to print the bands.

     the Fermi energy is    -5.1897 ev

!    total energy              =   -7077.42518844 Ry
     total all-electron energy =   -199909.861759 Ry
     estimated scf accuracy    <          3.2E-10 Ry
     smearing contrib. (-TS)   =       0.00010875 Ry
     internal energy E=F+TS    =   -7077.42529719 Ry

     The total energy is F=E-TS. E is the sum of the following terms:
     one-electron contribution =  -60983.75533572 Ry
     hartree contribution      =   30679.05411123 Ry
     xc contribution           =    -835.42837384 Ry
     ewald contribution        =   29196.84559453 Ry
     DFT-D3 Dispersion         =      -2.52753830 Ry
     one-center paw contrib.   =   -5131.61375510 Ry

     total magnetization       =     9.92 Bohr mag/cell
     absolute magnetization    =    10.79 Bohr mag/cell

     convergence has been achieved in  24 iterations

     negative rho (up, down):  1.549E-04 1.187E-04

     Forces acting on atoms (cartesian axes, Ry/au):

     atom    1 type  1   force =    -0.00004988   -0.00002880    0.01606164
     atom    2 type  2   force =    -0.00036496   -0.01429747   -0.00893748
     atom    3 type  2   force =    -0.01256445    0.00683267   -0.00893748
     atom    4 type  2   force =     0.01236285    0.00713770   -0.00961664
     atom    5 type  1   force =     0.00044701    0.00025808    0.00104170
     atom    6 type  2   force =     0.00024662   -0.00039946    0.00700460
     atom    7 type  2   force =    -0.00022263    0.00041331    0.00700459
     atom    8 type  2   force =     0.00068955    0.00039811    0.00813783
     atom    9 type  1   force =    -0.00025966   -0.00014991   -0.00048012
     atom   10 type  2   force =     0.00035778   -0.00026043   -0.00157772
     atom   11 type  2   force =    -0.00051817   -0.00029917   -0.00029795
     atom   12 type  2   force =    -0.00004667    0.00044007   -0.00157771
     atom   13 type  1   force =     0.00004524    0.00002612   -0.00091523
     atom   14 type  2   force =    -0.00026670   -0.00029222   -0.00036049
     atom   15 type  2   force =    -0.00038642   -0.00008486   -0.00036046
     atom   16 type  2   force =    -0.00096458   -0.00055688   -0.00215332
     atom   17 type  1   force =     0.00092737    0.00053544   -0.00045762
     atom   18 type  2   force =     0.00094950   -0.00092642    0.00085979
     atom   19 type  2   force =    -0.00032754    0.00128551    0.00085983
     atom   20 type  2   force =     0.00225577    0.00130234    0.00088813
     atom   21 type  1   force =     0.00095714    0.00055261   -0.00205558
     atom   22 type  2   force =    -0.00077078   -0.00001831   -0.00073728
     atom   23 type  2   force =    -0.00023664   -0.00013666   -0.00124027
     atom   24 type  2   force =    -0.00040126   -0.00065837   -0.00073728
     atom   25 type  3   force =    -0.00185849   -0.00107300   -0.00141549

     Total force =     0.006221     Total SCF correction =     0.000064


     Computing stress (Cartesian axis) and pressure


     negative rho (up, down):  1.549E-04 1.187E-04
          total   stress  (Ry/bohr**3)                   (kbar)     P=       -9.87
  -0.00009502  -0.00000091  -0.00000221          -13.98       -0.13       -0.32
  -0.00000091  -0.00009396  -0.00000128           -0.13      -13.82       -0.19
  -0.00000221  -0.00000128  -0.00001226           -0.32       -0.19       -1.80

     Energy error            =      8.2E-05 Ry
     Gradient error          =      2.3E-03 Ry/Bohr

     number of scf cycles    =  15
     number of bfgs steps    =  13

     energy             old  =   -7077.4251065460 Ry
     energy             new  =   -7077.4251884435 Ry

     CASE: energy            _new < energy            _old

     new trust radius        =       0.0141273150 bohr
     new conv_thr            =       0.0000000003 Ry


ATOMIC_POSITIONS (angstrom)
Ni               5.3171990772        3.0698863186       11.0000000000    0   0   0
Pd               2.6585995386        3.0698851333       11.0000764482    0   0   0
Pd               3.9878982814        0.7674721723       11.0000764482    0   0   0
Pd               1.3293007958        0.7674721723       11.0000764482    0   0   0
Ni               2.6585995386        1.5349431593       13.1707374333    0   0   0
Pd               3.9878982814        3.8373584909       13.1708138815    0   0   0
Pd               5.3171990772        1.5349419740       13.1708138815    0   0   0
Pd               6.6464998731        3.8373584909       13.1708138815    0   0   0
Ni               0.0020902142        0.0012067482       15.3441378096
Pd               5.3231612451        4.6066104257       15.3428816637
Pd               3.9922297305        2.3049149028       15.3519193154
Pd               6.6510223310        2.3066875638       15.3428816481
Ni               5.3101700331        3.0658281276       17.5309636435
Pd               3.9795258610        0.7639338429       17.5290571082
Pd               2.6513490316        3.0644035989       17.5290571183
Pd               1.3215031104        0.7629702036       17.4971725681
Ni               2.6454235870        1.5273360159       19.7025738192
Pd               3.9838790960        3.8316967772       19.6918572727
Pd               5.3102860877        1.5342923385       19.6918572586
Pd               6.6298867416        3.8277671388       19.6925439852
Ni               0.0174373503        0.0100677250       21.7935047041
Pd               5.3353419019        4.6327584473       21.9031599890
Pd               4.0087416827        2.3144484524       21.9310175709
Pd               6.6797571877        2.3041628890       21.9031599563
H                3.9776774860        2.2965134952       23.4870849085    0   0   1



     Writing config-only to output data dir /tmpu/isholek_g/isholek/MIGUEL/QE/Hydrogen/111_2x2/SAVE/Ni1Pd3_111-T1.save/ :
     XML data file
     NEW-OLD atomic charge density approx. for the potential

     Check: negative core charge=   -0.000002

     negative rho (up, down):  1.470E-04 1.343E-04
     Generating pointlists ...

     total cpu time spent up to now is    99296.0 secs

     Self-consistent Calculation

     iteration #  1     ecut=    60.00 Ry     beta= 0.20
     Davidson diagonalization with overlap
     ethr =  1.00E-06,  avg # of iterations =  5.8

     negative rho (up, down):  1.835E-04 1.604E-04

     total cpu time spent up to now is    99743.0 secs

     total energy              =   -7077.42498610 Ry
     estimated scf accuracy    <       0.00383467 Ry

     total magnetization       =     9.89 Bohr mag/cell
     absolute magnetization    =    10.76 Bohr mag/cell

     iteration #  2     ecut=    60.00 Ry     beta= 0.20
     Davidson diagonalization with overlap
     ethr =  1.59E-06,  avg # of iterations =  1.0

     negative rho (up, down):  1.780E-04 1.524E-04

     total cpu time spent up to now is    99911.0 secs

     total energy              =   -7077.42510566 Ry
     estimated scf accuracy    <       0.00059261 Ry

     total magnetization       =     9.94 Bohr mag/cell
     absolute magnetization    =    10.81 Bohr mag/cell

     iteration #  3     ecut=    60.00 Ry     beta= 0.20
     Davidson diagonalization with overlap
     ethr =  2.46E-07,  avg # of iterations =  1.1

     negative rho (up, down):  1.741E-04 1.464E-04

     total cpu time spent up to now is   100077.4 secs

     total energy              =   -7077.42515823 Ry
     estimated scf accuracy    <       0.00030195 Ry

     total magnetization       =     9.92 Bohr mag/cell
     absolute magnetization    =    10.79 Bohr mag/cell

     iteration #  4     ecut=    60.00 Ry     beta= 0.20
     Davidson diagonalization with overlap
     ethr =  1.25E-07,  avg # of iterations =  1.4

     negative rho (up, down):  1.704E-04 1.413E-04

     total cpu time spent up to now is   100245.6 secs

     total energy              =   -7077.42519080 Ry
     estimated scf accuracy    <       0.00020125 Ry

     total magnetization       =     9.92 Bohr mag/cell
     absolute magnetization    =    10.79 Bohr mag/cell

     iteration #  5     ecut=    60.00 Ry     beta= 0.20
     Davidson diagonalization with overlap
     ethr =  8.35E-08,  avg # of iterations =  1.0

     negative rho (up, down):  1.672E-04 1.365E-04

     total cpu time spent up to now is   100413.3 secs

     total energy              =   -7077.42522370 Ry
     estimated scf accuracy    <       0.00015081 Ry

     total magnetization       =     9.93 Bohr mag/cell
     absolute magnetization    =    10.80 Bohr mag/cell

     iteration #  6     ecut=    60.00 Ry     beta= 0.20
     Davidson diagonalization with overlap
     ethr =  6.26E-08,  avg # of iterations =  1.0

     negative rho (up, down):  1.652E-04 1.332E-04

     total cpu time spent up to now is   100581.0 secs

     total energy              =   -7077.42524455 Ry
     estimated scf accuracy    <       0.00005950 Ry

     total magnetization       =     9.93 Bohr mag/cell
     absolute magnetization    =    10.80 Bohr mag/cell

     iteration #  7     ecut=    60.00 Ry     beta= 0.20
     Davidson diagonalization with overlap
     ethr =  2.47E-08,  avg # of iterations =  1.1

     negative rho (up, down):  1.617E-04 1.283E-04

     total cpu time spent up to now is   100753.5 secs

     total energy              =   -7077.42526702 Ry
     estimated scf accuracy    <       0.00003120 Ry

     total magnetization       =     9.92 Bohr mag/cell
     absolute magnetization    =    10.79 Bohr mag/cell

     iteration #  8     ecut=    60.00 Ry     beta= 0.20
     Davidson diagonalization with overlap
     ethr =  1.29E-08,  avg # of iterations =  2.0

     negative rho (up, down):  1.592E-04 1.249E-04

     total cpu time spent up to now is   100935.8 secs

     total energy              =   -7077.42527456 Ry
     estimated scf accuracy    <       0.00002152 Ry

     total magnetization       =     9.92 Bohr mag/cell
     absolute magnetization    =    10.79 Bohr mag/cell

     iteration #  9     ecut=    60.00 Ry     beta= 0.20
     Davidson diagonalization with overlap
     ethr =  8.93E-09,  avg # of iterations =  2.0

     negative rho (up, down):  1.559E-04 1.210E-04

     total cpu time spent up to now is   101118.4 secs

     total energy              =   -7077.42527597 Ry
     estimated scf accuracy    <       0.00000410 Ry

     total magnetization       =     9.92 Bohr mag/cell
     absolute magnetization    =    10.79 Bohr mag/cell

     iteration # 10     ecut=    60.00 Ry     beta= 0.20
     Davidson diagonalization with overlap
     ethr =  1.70E-09,  avg # of iterations =  2.5

     negative rho (up, down):  1.537E-04 1.186E-04

     total cpu time spent up to now is   101308.1 secs

     total energy              =   -7077.42527632 Ry
     estimated scf accuracy    <       0.00000234 Ry

     total magnetization       =     9.92 Bohr mag/cell
     absolute magnetization    =    10.79 Bohr mag/cell

     iteration # 11     ecut=    60.00 Ry     beta= 0.20
     Davidson diagonalization with overlap
     ethr =  9.71E-10,  avg # of iterations =  1.6

     negative rho (up, down):  1.522E-04 1.169E-04

     total cpu time spent up to now is   101485.9 secs

     total energy              =   -7077.42527651 Ry
     estimated scf accuracy    <       0.00000042 Ry

     total magnetization       =     9.92 Bohr mag/cell
     absolute magnetization    =    10.79 Bohr mag/cell

     iteration # 12     ecut=    60.00 Ry     beta= 0.20
     Davidson diagonalization with overlap
     ethr =  1.73E-10,  avg # of iterations =  4.4

     negative rho (up, down):  1.510E-04 1.156E-04

     total cpu time spent up to now is   101715.2 secs

     total energy              =   -7077.42527662 Ry
     estimated scf accuracy    <       0.00000035 Ry

     total magnetization       =     9.92 Bohr mag/cell
     absolute magnetization    =    10.79 Bohr mag/cell

     iteration # 13     ecut=    60.00 Ry     beta= 0.20
     Davidson diagonalization with overlap
     ethr =  1.45E-10,  avg # of iterations =  1.5

     negative rho (up, down):  1.497E-04 1.142E-04

     total cpu time spent up to now is   101889.8 secs

     total energy              =   -7077.42527661 Ry
     estimated scf accuracy    <       0.00000031 Ry

     total magnetization       =     9.92 Bohr mag/cell
     absolute magnetization    =    10.79 Bohr mag/cell

     iteration # 14     ecut=    60.00 Ry     beta= 0.20
     Davidson diagonalization with overlap
     ethr =  1.27E-10,  avg # of iterations =  1.0

     negative rho (up, down):  1.484E-04 1.127E-04

     total cpu time spent up to now is   102057.7 secs

     total energy              =   -7077.42527663 Ry
     estimated scf accuracy    <       0.00000024 Ry

     total magnetization       =     9.92 Bohr mag/cell
     absolute magnetization    =    10.79 Bohr mag/cell

     iteration # 15     ecut=    60.00 Ry     beta= 0.20
     Davidson diagonalization with overlap
     ethr =  9.79E-11,  avg # of iterations =  2.0

     negative rho (up, down):  1.475E-04 1.118E-04

     total cpu time spent up to now is   102238.5 secs

     total energy              =   -7077.42527664 Ry
     estimated scf accuracy    <       0.00000014 Ry

     total magnetization       =     9.92 Bohr mag/cell
     absolute magnetization    =    10.79 Bohr mag/cell

     iteration # 16     ecut=    60.00 Ry     beta= 0.20
     Davidson diagonalization with overlap
     ethr =  5.84E-11,  avg # of iterations =  1.0

     negative rho (up, down):  1.466E-04 1.109E-04

     total cpu time spent up to now is   102406.4 secs

     total energy              =   -7077.42527662 Ry
     estimated scf accuracy    <       0.00000011 Ry

     total magnetization       =     9.92 Bohr mag/cell
     absolute magnetization    =    10.79 Bohr mag/cell

     iteration # 17     ecut=    60.00 Ry     beta= 0.20
     Davidson diagonalization with overlap
     ethr =  4.71E-11,  avg # of iterations =  2.0

     negative rho (up, down):  1.468E-04 1.110E-04

     total cpu time spent up to now is   102589.2 secs

     total energy              =   -7077.42527665 Ry
     estimated scf accuracy    <       0.00000005 Ry

     total magnetization       =     9.92 Bohr mag/cell
     absolute magnetization    =    10.79 Bohr mag/cell

     iteration # 18     ecut=    60.00 Ry     beta= 0.20
     Davidson diagonalization with overlap
     ethr =  1.96E-11,  avg # of iterations =  2.0

     negative rho (up, down):  1.469E-04 1.110E-04

     total cpu time spent up to now is   102772.1 secs

     total energy              =   -7077.42527665 Ry
     estimated scf accuracy    <       0.00000004 Ry

     total magnetization       =     9.92 Bohr mag/cell
     absolute magnetization    =    10.79 Bohr mag/cell

     iteration # 19     ecut=    60.00 Ry     beta= 0.20
     Davidson diagonalization with overlap
     ethr =  1.51E-11,  avg # of iterations =  1.0

     negative rho (up, down):  1.472E-04 1.113E-04

     total cpu time spent up to now is   102939.0 secs

     total energy              =   -7077.42527666 Ry
     estimated scf accuracy    <          3.4E-09 Ry

     total magnetization       =     9.92 Bohr mag/cell
     absolute magnetization    =    10.79 Bohr mag/cell

     iteration # 20     ecut=    60.00 Ry     beta= 0.20
     Davidson diagonalization with overlap
     ethr =  1.42E-12,  avg # of iterations =  2.4

     negative rho (up, down):  1.477E-04 1.117E-04

     total cpu time spent up to now is   103120.8 secs

     total energy              =   -7077.42527666 Ry
     estimated scf accuracy    <          2.1E-09 Ry

     total magnetization       =     9.92 Bohr mag/cell
     absolute magnetization    =    10.79 Bohr mag/cell

     iteration # 21     ecut=    60.00 Ry     beta= 0.20
     Davidson diagonalization with overlap
     ethr =  8.78E-13,  avg # of iterations =  1.2

     negative rho (up, down):  1.480E-04 1.120E-04

     total cpu time spent up to now is   103290.6 secs

     total energy              =   -7077.42527666 Ry
     estimated scf accuracy    <          3.4E-09 Ry

     total magnetization       =     9.92 Bohr mag/cell
     absolute magnetization    =    10.79 Bohr mag/cell

     iteration # 22     ecut=    60.00 Ry     beta= 0.20
     Davidson diagonalization with overlap
     ethr =  8.78E-13,  avg # of iterations =  1.0

     negative rho (up, down):  1.486E-04 1.126E-04

     total cpu time spent up to now is   103460.0 secs

     total energy              =   -7077.42527666 Ry
     estimated scf accuracy    <          2.1E-09 Ry

     total magnetization       =     9.92 Bohr mag/cell
     absolute magnetization    =    10.79 Bohr mag/cell

     iteration # 23     ecut=    60.00 Ry     beta= 0.20
     Davidson diagonalization with overlap
     ethr =  8.63E-13,  avg # of iterations =  1.1

     negative rho (up, down):  1.492E-04 1.132E-04

     total cpu time spent up to now is   103629.2 secs

     total energy              =   -7077.42527666 Ry
     estimated scf accuracy    <          2.8E-09 Ry

     total magnetization       =     9.92 Bohr mag/cell
     absolute magnetization    =    10.79 Bohr mag/cell

     iteration # 24     ecut=    60.00 Ry     beta= 0.20
     Davidson diagonalization with overlap
     ethr =  8.63E-13,  avg # of iterations =  1.0

     negative rho (up, down):  1.499E-04 1.138E-04

     total cpu time spent up to now is   103797.2 secs

     total energy              =   -7077.42527666 Ry
     estimated scf accuracy    <          2.1E-09 Ry

     total magnetization       =     9.92 Bohr mag/cell
     absolute magnetization    =    10.79 Bohr mag/cell

     iteration # 25     ecut=    60.00 Ry     beta= 0.20
     Davidson diagonalization with overlap
     ethr =  8.53E-13,  avg # of iterations =  1.0

     negative rho (up, down):  1.501E-04 1.141E-04

     total cpu time spent up to now is   103966.4 secs

     total energy              =   -7077.42527666 Ry
     estimated scf accuracy    <          2.4E-09 Ry

     total magnetization       =     9.92 Bohr mag/cell
     absolute magnetization    =    10.79 Bohr mag/cell

     iteration # 26     ecut=    60.00 Ry     beta= 0.20
     Davidson diagonalization with overlap
     ethr =  8.53E-13,  avg # of iterations =  1.0

     negative rho (up, down):  1.507E-04 1.146E-04

     total cpu time spent up to now is   104133.3 secs

     total energy              =   -7077.42527666 Ry
     estimated scf accuracy    <          2.1E-09 Ry

     total magnetization       =     9.92 Bohr mag/cell
     absolute magnetization    =    10.79 Bohr mag/cell

     iteration # 27     ecut=    60.00 Ry     beta= 0.20
     Davidson diagonalization with overlap
     ethr =  8.53E-13,  avg # of iterations =  1.0

     negative rho (up, down):  1.514E-04 1.153E-04

     total cpu time spent up to now is   104301.9 secs

     total energy              =   -7077.42527667 Ry
     estimated scf accuracy    <          2.4E-09 Ry

     total magnetization       =     9.92 Bohr mag/cell
     absolute magnetization    =    10.79 Bohr mag/cell

     iteration # 28     ecut=    60.00 Ry     beta= 0.20
     Davidson diagonalization with overlap
     ethr =  8.53E-13,  avg # of iterations =  1.0

     negative rho (up, down):  1.525E-04 1.164E-04

     total cpu time spent up to now is   104470.6 secs

     total energy              =   -7077.42527667 Ry
     estimated scf accuracy    <          2.2E-09 Ry

     total magnetization       =     9.92 Bohr mag/cell
     absolute magnetization    =    10.79 Bohr mag/cell

     iteration # 29     ecut=    60.00 Ry     beta= 0.20
     Davidson diagonalization with overlap
     ethr =  8.53E-13,  avg # of iterations =  1.0

     negative rho (up, down):  1.536E-04 1.175E-04

     total cpu time spent up to now is   104639.2 secs

     total energy              =   -7077.42527667 Ry
     estimated scf accuracy    <          1.5E-09 Ry

     total magnetization       =     9.92 Bohr mag/cell
     absolute magnetization    =    10.79 Bohr mag/cell

     iteration # 30     ecut=    60.00 Ry     beta= 0.20
     Davidson diagonalization with overlap
     ethr =  6.35E-13,  avg # of iterations =  1.1

     negative rho (up, down):  1.545E-04 1.183E-04

     total cpu time spent up to now is   104809.3 secs

     total energy              =   -7077.42527667 Ry
     estimated scf accuracy    <          7.0E-10 Ry

     total magnetization       =     9.92 Bohr mag/cell
     absolute magnetization    =    10.79 Bohr mag/cell

     iteration # 31     ecut=    60.00 Ry     beta= 0.20
     Davidson diagonalization with overlap
     ethr =  2.88E-13,  avg # of iterations =  1.3

     negative rho (up, down):  1.546E-04 1.184E-04
 
     Magnetic moment per site  (integrated on atomic sphere of radius R)
     atom   1 (R=0.202)  charge=  8.7465  magn=  0.9623
     atom   2 (R=0.114)  charge=  4.0981  magn=  0.1532
     atom   3 (R=0.114)  charge=  4.0981  magn=  0.1532
     atom   4 (R=0.114)  charge=  4.0982  magn=  0.1509
     atom   5 (R=0.202)  charge=  8.8207  magn=  0.9270
     atom   6 (R=0.114)  charge=  4.0922  magn=  0.1889
     atom   7 (R=0.114)  charge=  4.0922  magn=  0.1889
     atom   8 (R=0.114)  charge=  4.0915  magn=  0.1890
     atom   9 (R=0.202)  charge=  8.8334  magn=  0.8683
     atom  10 (R=0.114)  charge=  4.0889  magn=  0.1834
     atom  11 (R=0.114)  charge=  4.0893  magn=  0.1799
     atom  12 (R=0.114)  charge=  4.0889  magn=  0.1834
     atom  13 (R=0.202)  charge=  8.8373  magn=  0.8521
     atom  14 (R=0.114)  charge=  4.0884  magn=  0.1759
     atom  15 (R=0.114)  charge=  4.0884  magn=  0.1759
     atom  16 (R=0.114)  charge=  4.0921  magn=  0.1786
     atom  17 (R=0.202)  charge=  8.8198  magn=  0.8677
     atom  18 (R=0.114)  charge=  4.0908  magn=  0.1692
     atom  19 (R=0.114)  charge=  4.0908  magn=  0.1692
     atom  20 (R=0.114)  charge=  4.0905  magn=  0.1848
     atom  21 (R=0.202)  charge=  8.7612  magn=  0.9259
     atom  22 (R=0.114)  charge=  4.1006  magn=  0.1320
     atom  23 (R=0.114)  charge=  4.0737  magn=  0.0664
     atom  24 (R=0.114)  charge=  4.1006  magn=  0.1320
     atom  25 (R=0.114)  charge=  0.6515  magn= -0.0057

     total cpu time spent up to now is   104973.2 secs

     End of self-consistent calculation

     Number of k-points >= 100: set verbosity='high' to print the bands.

     the Fermi energy is    -5.1888 ev

!    total energy              =   -7077.42527667 Ry
     total all-electron energy =   -199909.861847 Ry
     estimated scf accuracy    <          1.2E-10 Ry
     smearing contrib. (-TS)   =       0.00013365 Ry
     internal energy E=F+TS    =   -7077.42541032 Ry

     The total energy is F=E-TS. E is the sum of the following terms:
     one-electron contribution =  -61002.06560192 Ry
     hartree contribution      =   30688.21459966 Ry
     xc contribution           =    -835.43203536 Ry
     ewald contribution        =   29205.99993696 Ry
     DFT-D3 Dispersion         =      -2.52794402 Ry
     one-center paw contrib.   =   -5131.61436564 Ry

     total magnetization       =     9.92 Bohr mag/cell
     absolute magnetization    =    10.79 Bohr mag/cell

     convergence has been achieved in  31 iterations

     negative rho (up, down):  1.546E-04 1.184E-04

     Forces acting on atoms (cartesian axes, Ry/au):

     atom    1 type  1   force =    -0.00006497   -0.00003752    0.01602507
     atom    2 type  2   force =    -0.00036971   -0.01428862   -0.00893784
     atom    3 type  2   force =    -0.01255916    0.00682413   -0.00893785
     atom    4 type  2   force =     0.01236968    0.00714164   -0.00962037
     atom    5 type  1   force =     0.00044396    0.00025632    0.00097213
     atom    6 type  2   force =     0.00013269   -0.00047597    0.00702611
     atom    7 type  2   force =    -0.00034586    0.00035290    0.00702611
     atom    8 type  2   force =     0.00088102    0.00050866    0.00787784
     atom    9 type  1   force =    -0.00035097   -0.00020263   -0.00133209
     atom   10 type  2   force =     0.00016114    0.00015857   -0.00199400
     atom   11 type  2   force =    -0.00036092   -0.00020838   -0.00060362
     atom   12 type  2   force =     0.00021788    0.00006028   -0.00199399
     atom   13 type  1   force =     0.00036913    0.00021312   -0.00101075
     atom   14 type  2   force =    -0.00053301    0.00022107   -0.00018964
     atom   15 type  2   force =    -0.00007507   -0.00057214   -0.00018962
     atom   16 type  2   force =    -0.00137020   -0.00079108   -0.00007164
     atom   17 type  1   force =     0.00087920    0.00050766    0.00013585
     atom   18 type  2   force =     0.00063240    0.00029505    0.00131845
     atom   19 type  2   force =     0.00057176    0.00040018    0.00131846
     atom   20 type  2   force =     0.00173467    0.00100145   -0.00033853
     atom   21 type  1   force =     0.00012723    0.00007348   -0.00183259
     atom   22 type  2   force =    -0.00012437    0.00027583   -0.00096345
     atom   23 type  2   force =    -0.00065965   -0.00038088   -0.00162694
     atom   24 type  2   force =     0.00017667   -0.00024564   -0.00096345
     atom   25 type  3   force =    -0.00188355   -0.00108747   -0.00109365

     Total force =     0.005869     Total SCF correction =     0.000026


     Computing stress (Cartesian axis) and pressure


     negative rho (up, down):  1.546E-04 1.184E-04
          total   stress  (Ry/bohr**3)                   (kbar)     P=       -9.73
  -0.00009451  -0.00000100  -0.00000227          -13.90       -0.15       -0.33
  -0.00000100  -0.00009336  -0.00000131           -0.15      -13.73       -0.19
  -0.00000227  -0.00000131  -0.00001048           -0.33       -0.19       -1.54

     Energy error            =      8.8E-05 Ry
     Gradient error          =      2.0E-03 Ry/Bohr

     number of scf cycles    =  16
     number of bfgs steps    =  14

     energy             old  =   -7077.4251884435 Ry
     energy             new  =   -7077.4252766714 Ry

     CASE: energy            _new < energy            _old

     new trust radius        =       0.0116213108 bohr
     new conv_thr            =       0.0000000003 Ry


ATOMIC_POSITIONS (angstrom)
Ni               5.3171990772        3.0698863186       11.0000000000    0   0   0
Pd               2.6585995386        3.0698851333       11.0000764482    0   0   0
Pd               3.9878982814        0.7674721723       11.0000764482    0   0   0
Pd               1.3293007958        0.7674721723       11.0000764482    0   0   0
Ni               2.6585995386        1.5349431593       13.1707374333    0   0   0
Pd               3.9878982814        3.8373584909       13.1708138815    0   0   0
Pd               5.3171990772        1.5349419740       13.1708138815    0   0   0
Pd               6.6464998731        3.8373584909       13.1708138815    0   0   0
Ni               0.0017768052        0.0010257984       15.3440613771
Pd               5.3236343927        4.6061310226       15.3410530407
Pd               3.9915026356        2.3044951220       15.3519794451
Pd               6.6508437080        2.3073370430       15.3410530457
Ni               5.3097730987        3.0655989793       17.5299754758
Pd               3.9784477893        0.7628507695       17.5287936397
Pd               2.6498720104        3.0640114982       17.5287936845
Pd               1.3201267477        0.7621755786       17.4924779380
Ni               2.6459223940        1.5276239951       19.7000597161
Pd               3.9863745313        3.8319658241       19.6893553910
Pd               5.3117667633        1.5363189344       19.6893554083
Pd               6.6334887543        3.8298467714       19.6953780707
Ni               0.0205024785        0.0118373439       21.7904275276
Pd               5.3344292341        4.6326288086       21.9028506413
Pd               4.0083098768        2.3141991122       21.9254622356
Pd               6.6791885754        2.3034373020       21.9028506147
H                3.9776774860        2.2965134952       23.4809351757    0   0   1



     Writing config-only to output data dir /tmpu/isholek_g/isholek/MIGUEL/QE/Hydrogen/111_2x2/SAVE/Ni1Pd3_111-T1.save/ :
     XML data file
     NEW-OLD atomic charge density approx. for the potential

     Check: negative core charge=   -0.000002

     negative rho (up, down):  1.464E-04 1.293E-04
     Generating pointlists ...

     total cpu time spent up to now is   105245.4 secs

     Self-consistent Calculation

     iteration #  1     ecut=    60.00 Ry     beta= 0.20
     Davidson diagonalization with overlap
     ethr =  1.00E-06,  avg # of iterations =  5.1

     negative rho (up, down):  1.558E-04 1.281E-04

     total cpu time spent up to now is   105646.0 secs

     total energy              =   -7077.42519489 Ry
     estimated scf accuracy    <       0.00117264 Ry

     total magnetization       =     9.91 Bohr mag/cell
     absolute magnetization    =    10.78 Bohr mag/cell

     iteration #  2     ecut=    60.00 Ry     beta= 0.20
     Davidson diagonalization with overlap
     ethr =  4.87E-07,  avg # of iterations =  1.0

     negative rho (up, down):  1.573E-04 1.279E-04

     total cpu time spent up to now is   105812.4 secs

     total energy              =   -7077.42524418 Ry
     estimated scf accuracy    <       0.00021662 Ry

     total magnetization       =     9.93 Bohr mag/cell
     absolute magnetization    =    10.80 Bohr mag/cell

     iteration #  3     ecut=    60.00 Ry     beta= 0.20
     Davidson diagonalization with overlap
     ethr =  8.99E-08,  avg # of iterations =  1.2

     negative rho (up, down):  1.583E-04 1.276E-04

     total cpu time spent up to now is   105972.2 secs

     total energy              =   -7077.42527319 Ry
     estimated scf accuracy    <       0.00013971 Ry

     total magnetization       =     9.92 Bohr mag/cell
     absolute magnetization    =    10.79 Bohr mag/cell

     iteration #  4     ecut=    60.00 Ry     beta= 0.20
     Davidson diagonalization with overlap
     ethr =  5.80E-08,  avg # of iterations =  1.0

     negative rho (up, down):  1.582E-04 1.264E-04

     total cpu time spent up to now is   106140.8 secs

     total energy              =   -7077.42528980 Ry
     estimated scf accuracy    <       0.00009477 Ry

     total magnetization       =     9.92 Bohr mag/cell
     absolute magnetization    =    10.79 Bohr mag/cell

     iteration #  5     ecut=    60.00 Ry     beta= 0.20
     Davidson diagonalization with overlap
     ethr =  3.93E-08,  avg # of iterations =  1.0

     negative rho (up, down):  1.578E-04 1.252E-04

     total cpu time spent up to now is   106307.5 secs

     total energy              =   -7077.42530527 Ry
     estimated scf accuracy    <       0.00005680 Ry

     total magnetization       =     9.93 Bohr mag/cell
     absolute magnetization    =    10.80 Bohr mag/cell

     iteration #  6     ecut=    60.00 Ry     beta= 0.20
     Davidson diagonalization with overlap
     ethr =  2.36E-08,  avg # of iterations =  1.0

     negative rho (up, down):  1.575E-04 1.242E-04

     total cpu time spent up to now is   106476.0 secs

     total energy              =   -7077.42531427 Ry
     estimated scf accuracy    <       0.00001908 Ry

     total magnetization       =     9.93 Bohr mag/cell
     absolute magnetization    =    10.80 Bohr mag/cell

     iteration #  7     ecut=    60.00 Ry     beta= 0.20
     Davidson diagonalization with overlap
     ethr =  7.92E-09,  avg # of iterations =  1.2

     negative rho (up, down):  1.547E-04 1.205E-04

     total cpu time spent up to now is   106648.7 secs

     total energy              =   -7077.42532962 Ry
     estimated scf accuracy    <       0.00001151 Ry

     total magnetization       =     9.92 Bohr mag/cell
     absolute magnetization    =    10.79 Bohr mag/cell

     iteration #  8     ecut=    60.00 Ry     beta= 0.20
     Davidson diagonalization with overlap
     ethr =  4.78E-09,  avg # of iterations =  2.0

     negative rho (up, down):  1.534E-04 1.187E-04

     total cpu time spent up to now is   106856.1 secs

     total energy              =   -7077.42533220 Ry
     estimated scf accuracy    <       0.00000483 Ry

     total magnetization       =     9.92 Bohr mag/cell
     absolute magnetization    =    10.79 Bohr mag/cell

     iteration #  9     ecut=    60.00 Ry     beta= 0.20
     Davidson diagonalization with overlap
     ethr =  2.00E-09,  avg # of iterations =  2.1

     negative rho (up, down):  1.515E-04 1.167E-04

     total cpu time spent up to now is   107041.4 secs

     total energy              =   -7077.42533250 Ry
     estimated scf accuracy    <       0.00000201 Ry

     total magnetization       =     9.92 Bohr mag/cell
     absolute magnetization    =    10.79 Bohr mag/cell

     iteration # 10     ecut=    60.00 Ry     beta= 0.20
     Davidson diagonalization with overlap
     ethr =  8.34E-10,  avg # of iterations =  2.1

     negative rho (up, down):  1.507E-04 1.156E-04

     total cpu time spent up to now is   107225.6 secs

     total energy              =   -7077.42533261 Ry
     estimated scf accuracy    <       0.00000066 Ry

     total magnetization       =     9.92 Bohr mag/cell
     absolute magnetization    =    10.79 Bohr mag/cell

     iteration # 11     ecut=    60.00 Ry     beta= 0.20
     Davidson diagonalization with overlap
     ethr =  2.73E-10,  avg # of iterations =  4.1

     negative rho (up, down):  1.498E-04 1.146E-04

     total cpu time spent up to now is   107430.0 secs

     total energy              =   -7077.42533272 Ry
     estimated scf accuracy    <       0.00000028 Ry

     total magnetization       =     9.92 Bohr mag/cell
     absolute magnetization    =    10.79 Bohr mag/cell

     iteration # 12     ecut=    60.00 Ry     beta= 0.20
     Davidson diagonalization with overlap
     ethr =  1.15E-10,  avg # of iterations =  2.1

     negative rho (up, down):  1.487E-04 1.133E-04

     total cpu time spent up to now is   107608.5 secs

     total energy              =   -7077.42533274 Ry
     estimated scf accuracy    <       0.00000023 Ry

     total magnetization       =     9.92 Bohr mag/cell
     absolute magnetization    =    10.79 Bohr mag/cell

     iteration # 13     ecut=    60.00 Ry     beta= 0.20
     Davidson diagonalization with overlap
     ethr =  9.63E-11,  avg # of iterations =  1.2

     negative rho (up, down):  1.484E-04 1.129E-04

     total cpu time spent up to now is   107780.2 secs

     total energy              =   -7077.42533275 Ry
     estimated scf accuracy    <       0.00000021 Ry

     total magnetization       =     9.92 Bohr mag/cell
     absolute magnetization    =    10.79 Bohr mag/cell

     iteration # 14     ecut=    60.00 Ry     beta= 0.20
     Davidson diagonalization with overlap
     ethr =  8.54E-11,  avg # of iterations =  1.0

     negative rho (up, down):  1.471E-04 1.116E-04

     total cpu time spent up to now is   107948.8 secs

     total energy              =   -7077.42533273 Ry
     estimated scf accuracy    <       0.00000018 Ry

     total magnetization       =     9.92 Bohr mag/cell
     absolute magnetization    =    10.79 Bohr mag/cell

     iteration # 15     ecut=    60.00 Ry     beta= 0.20
     Davidson diagonalization with overlap
     ethr =  7.26E-11,  avg # of iterations =  1.1

     negative rho (up, down):  1.465E-04 1.109E-04

     total cpu time spent up to now is   108116.2 secs

     total energy              =   -7077.42533274 Ry
     estimated scf accuracy    <       0.00000013 Ry

     total magnetization       =     9.92 Bohr mag/cell
     absolute magnetization    =    10.79 Bohr mag/cell

     iteration # 16     ecut=    60.00 Ry     beta= 0.20
     Davidson diagonalization with overlap
     ethr =  5.53E-11,  avg # of iterations =  1.0

     negative rho (up, down):  1.463E-04 1.106E-04

     total cpu time spent up to now is   108282.8 secs

     total energy              =   -7077.42533274 Ry
     estimated scf accuracy    <       0.00000008 Ry

     total magnetization       =     9.92 Bohr mag/cell
     absolute magnetization    =    10.79 Bohr mag/cell

     iteration # 17     ecut=    60.00 Ry     beta= 0.20
     Davidson diagonalization with overlap
     ethr =  3.29E-11,  avg # of iterations =  1.0

     negative rho (up, down):  1.468E-04 1.110E-04

     total cpu time spent up to now is   108450.9 secs

     total energy              =   -7077.42533275 Ry
     estimated scf accuracy    <          9.3E-09 Ry

     total magnetization       =     9.92 Bohr mag/cell
     absolute magnetization    =    10.79 Bohr mag/cell

     iteration # 18     ecut=    60.00 Ry     beta= 0.20
     Davidson diagonalization with overlap
     ethr =  3.86E-12,  avg # of iterations =  2.9

     negative rho (up, down):  1.473E-04 1.115E-04

     total cpu time spent up to now is   108665.2 secs

     total energy              =   -7077.42533275 Ry
     estimated scf accuracy    <          2.4E-09 Ry

     total magnetization       =     9.92 Bohr mag/cell
     absolute magnetization    =    10.79 Bohr mag/cell

     iteration # 19     ecut=    60.00 Ry     beta= 0.20
     Davidson diagonalization with overlap
     ethr =  9.84E-13,  avg # of iterations =  1.9

     negative rho (up, down):  1.476E-04 1.118E-04

     total cpu time spent up to now is   108845.0 secs

     total energy              =   -7077.42533275 Ry
     estimated scf accuracy    <          3.0E-09 Ry

     total magnetization       =     9.92 Bohr mag/cell
     absolute magnetization    =    10.79 Bohr mag/cell

     iteration # 20     ecut=    60.00 Ry     beta= 0.20
     Davidson diagonalization with overlap
     ethr =  9.84E-13,  avg # of iterations =  1.1

     negative rho (up, down):  1.481E-04 1.122E-04

     total cpu time spent up to now is   109015.0 secs

     total energy              =   -7077.42533275 Ry
     estimated scf accuracy    <          2.1E-09 Ry

     total magnetization       =     9.92 Bohr mag/cell
     absolute magnetization    =    10.79 Bohr mag/cell

     iteration # 21     ecut=    60.00 Ry     beta= 0.20
     Davidson diagonalization with overlap
     ethr =  8.89E-13,  avg # of iterations =  1.0

     negative rho (up, down):  1.483E-04 1.124E-04

     total cpu time spent up to now is   109183.8 secs

     total energy              =   -7077.42533275 Ry
     estimated scf accuracy    <          2.6E-09 Ry

     total magnetization       =     9.92 Bohr mag/cell
     absolute magnetization    =    10.79 Bohr mag/cell

     iteration # 22     ecut=    60.00 Ry     beta= 0.20
     Davidson diagonalization with overlap
     ethr =  8.89E-13,  avg # of iterations =  1.0

     negative rho (up, down):  1.488E-04 1.128E-04

     total cpu time spent up to now is   109352.3 secs

     total energy              =   -7077.42533275 Ry
     estimated scf accuracy    <          2.0E-09 Ry

     total magnetization       =     9.92 Bohr mag/cell
     absolute magnetization    =    10.79 Bohr mag/cell

     iteration # 23     ecut=    60.00 Ry     beta= 0.20
     Davidson diagonalization with overlap
     ethr =  8.11E-13,  avg # of iterations =  1.0

     negative rho (up, down):  1.501E-04 1.142E-04

     total cpu time spent up to now is   109518.7 secs

     total energy              =   -7077.42533275 Ry
     estimated scf accuracy    <          1.7E-09 Ry

     total magnetization       =     9.92 Bohr mag/cell
     absolute magnetization    =    10.79 Bohr mag/cell

     iteration # 24     ecut=    60.00 Ry     beta= 0.20
     Davidson diagonalization with overlap
     ethr =  6.99E-13,  avg # of iterations =  2.0

     negative rho (up, down):  1.493E-04 1.133E-04

     total cpu time spent up to now is   109701.7 secs

     total energy              =   -7077.42533275 Ry
     estimated scf accuracy    <          3.8E-09 Ry

     total magnetization       =     9.92 Bohr mag/cell
     absolute magnetization    =    10.79 Bohr mag/cell

     iteration # 25     ecut=    60.00 Ry     beta= 0.20
     Davidson diagonalization with overlap
     ethr =  6.99E-13,  avg # of iterations =  1.0

     negative rho (up, down):  1.492E-04 1.132E-04

     total cpu time spent up to now is   109869.3 secs

     total energy              =   -7077.42533275 Ry
     estimated scf accuracy    <          2.4E-09 Ry

     total magnetization       =     9.92 Bohr mag/cell
     absolute magnetization    =    10.79 Bohr mag/cell

     iteration # 26     ecut=    60.00 Ry     beta= 0.20
     Davidson diagonalization with overlap
     ethr =  6.99E-13,  avg # of iterations =  1.0

     negative rho (up, down):  1.498E-04 1.138E-04

     total cpu time spent up to now is   110037.0 secs

     total energy              =   -7077.42533275 Ry
     estimated scf accuracy    <          2.8E-09 Ry

     total magnetization       =     9.92 Bohr mag/cell
     absolute magnetization    =    10.79 Bohr mag/cell

     iteration # 27     ecut=    60.00 Ry     beta= 0.20
     Davidson diagonalization with overlap
     ethr =  6.99E-13,  avg # of iterations =  1.0

     negative rho (up, down):  1.502E-04 1.142E-04

     total cpu time spent up to now is   110205.6 secs

     total energy              =   -7077.42533275 Ry
     estimated scf accuracy    <          2.6E-09 Ry

     total magnetization       =     9.92 Bohr mag/cell
     absolute magnetization    =    10.79 Bohr mag/cell

     iteration # 28     ecut=    60.00 Ry     beta= 0.20
     Davidson diagonalization with overlap
     ethr =  6.99E-13,  avg # of iterations =  1.0

     negative rho (up, down):  1.513E-04 1.153E-04

     total cpu time spent up to now is   110373.4 secs

     total energy              =   -7077.42533276 Ry
     estimated scf accuracy    <          2.4E-09 Ry

     total magnetization       =     9.92 Bohr mag/cell
     absolute magnetization    =    10.79 Bohr mag/cell

     iteration # 29     ecut=    60.00 Ry     beta= 0.20
     Davidson diagonalization with overlap
     ethr =  6.99E-13,  avg # of iterations =  1.1

     negative rho (up, down):  1.518E-04 1.158E-04

     total cpu time spent up to now is   110543.6 secs

     total energy              =   -7077.42533276 Ry
     estimated scf accuracy    <          1.4E-09 Ry

     total magnetization       =     9.92 Bohr mag/cell
     absolute magnetization    =    10.79 Bohr mag/cell

     iteration # 30     ecut=    60.00 Ry     beta= 0.20
     Davidson diagonalization with overlap
     ethr =  5.73E-13,  avg # of iterations =  1.0

     negative rho (up, down):  1.524E-04 1.164E-04

     total cpu time spent up to now is   110701.7 secs

     total energy              =   -7077.42533276 Ry
     estimated scf accuracy    <          1.1E-09 Ry

     total magnetization       =     9.92 Bohr mag/cell
     absolute magnetization    =    10.79 Bohr mag/cell

     iteration # 31     ecut=    60.00 Ry     beta= 0.20
     Davidson diagonalization with overlap
     ethr =  4.63E-13,  avg # of iterations =  1.1

     negative rho (up, down):  1.532E-04 1.171E-04

     total cpu time spent up to now is   110870.2 secs

     total energy              =   -7077.42533276 Ry
     estimated scf accuracy    <          7.4E-10 Ry

     total magnetization       =     9.92 Bohr mag/cell
     absolute magnetization    =    10.79 Bohr mag/cell

     iteration # 32     ecut=    60.00 Ry     beta= 0.20
     Davidson diagonalization with overlap
     ethr =  3.08E-13,  avg # of iterations =  1.4

     negative rho (up, down):  1.536E-04 1.175E-04

     total cpu time spent up to now is   111043.9 secs

     total energy              =   -7077.42533276 Ry
     estimated scf accuracy    <          2.7E-10 Ry

     total magnetization       =     9.92 Bohr mag/cell
     absolute magnetization    =    10.79 Bohr mag/cell

     iteration # 33     ecut=    60.00 Ry     beta= 0.20
     Davidson diagonalization with overlap
     ethr =  1.11E-13,  avg # of iterations =  2.0

     negative rho (up, down):  1.539E-04 1.178E-04

     total cpu time spent up to now is   111225.6 secs

     total energy              =   -7077.42533276 Ry
     estimated scf accuracy    <          2.7E-10 Ry

     total magnetization       =     9.92 Bohr mag/cell
     absolute magnetization    =    10.79 Bohr mag/cell

     iteration # 34     ecut=    60.00 Ry     beta= 0.20
     Davidson diagonalization with overlap
     ethr =  1.11E-13,  avg # of iterations =  1.1

     negative rho (up, down):  1.544E-04 1.183E-04
 
     Magnetic moment per site  (integrated on atomic sphere of radius R)
     atom   1 (R=0.202)  charge=  8.7465  magn=  0.9622
     atom   2 (R=0.114)  charge=  4.0981  magn=  0.1532
     atom   3 (R=0.114)  charge=  4.0981  magn=  0.1532
     atom   4 (R=0.114)  charge=  4.0982  magn=  0.1509
     atom   5 (R=0.202)  charge=  8.8211  magn=  0.9268
     atom   6 (R=0.114)  charge=  4.0922  magn=  0.1889
     atom   7 (R=0.114)  charge=  4.0922  magn=  0.1889
     atom   8 (R=0.114)  charge=  4.0915  magn=  0.1890
     atom   9 (R=0.202)  charge=  8.8340  magn=  0.8682
     atom  10 (R=0.114)  charge=  4.0890  magn=  0.1836
     atom  11 (R=0.114)  charge=  4.0893  magn=  0.1799
     atom  12 (R=0.114)  charge=  4.0890  magn=  0.1836
     atom  13 (R=0.202)  charge=  8.8373  magn=  0.8520
     atom  14 (R=0.114)  charge=  4.0884  magn=  0.1760
     atom  15 (R=0.114)  charge=  4.0884  magn=  0.1760
     atom  16 (R=0.114)  charge=  4.0923  magn=  0.1789
     atom  17 (R=0.202)  charge=  8.8199  magn=  0.8675
     atom  18 (R=0.114)  charge=  4.0910  magn=  0.1693
     atom  19 (R=0.114)  charge=  4.0910  magn=  0.1693
     atom  20 (R=0.114)  charge=  4.0903  magn=  0.1851
     atom  21 (R=0.202)  charge=  8.7620  magn=  0.9259
     atom  22 (R=0.114)  charge=  4.1006  magn=  0.1320
     atom  23 (R=0.114)  charge=  4.0739  magn=  0.0664
     atom  24 (R=0.114)  charge=  4.1006  magn=  0.1320
     atom  25 (R=0.114)  charge=  0.6519  magn= -0.0057

     total cpu time spent up to now is   111393.0 secs

     End of self-consistent calculation

     Number of k-points >= 100: set verbosity='high' to print the bands.

     the Fermi energy is    -5.1878 ev

!    total energy              =   -7077.42533276 Ry
     total all-electron energy =   -199909.861903 Ry
     estimated scf accuracy    <          9.2E-11 Ry
     smearing contrib. (-TS)   =       0.00014614 Ry
     internal energy E=F+TS    =   -7077.42547890 Ry

     The total energy is F=E-TS. E is the sum of the following terms:
     one-electron contribution =  -61016.34122861 Ry
     hartree contribution      =   30695.35700708 Ry
     xc contribution           =    -835.43609498 Ry
     ewald contribution        =   29213.13824398 Ry
     DFT-D3 Dispersion         =      -2.52835278 Ry
     one-center paw contrib.   =   -5131.61505359 Ry

     total magnetization       =     9.92 Bohr mag/cell
     absolute magnetization    =    10.79 Bohr mag/cell

     convergence has been achieved in  34 iterations

     negative rho (up, down):  1.544E-04 1.183E-04

     Forces acting on atoms (cartesian axes, Ry/au):

     atom    1 type  1   force =    -0.00007570   -0.00004371    0.01601196
     atom    2 type  2   force =    -0.00036963   -0.01428371   -0.00892376
     atom    3 type  2   force =    -0.01255487    0.00682174   -0.00892375
     atom    4 type  2   force =     0.01237373    0.00714398   -0.00962351
     atom    5 type  1   force =     0.00047476    0.00027410    0.00079779
     atom    6 type  2   force =     0.00000643   -0.00056811    0.00686107
     atom    7 type  2   force =    -0.00048878    0.00028962    0.00686107
     atom    8 type  2   force =     0.00106395    0.00061427    0.00736793
     atom    9 type  1   force =    -0.00035965   -0.00020763   -0.00163243
     atom   10 type  2   force =    -0.00012164    0.00042723   -0.00161342
     atom   11 type  2   force =    -0.00009191   -0.00005307   -0.00064978
     atom   12 type  2   force =     0.00030917   -0.00031894   -0.00161342
     atom   13 type  1   force =     0.00051101    0.00029503   -0.00097658
     atom   14 type  2   force =    -0.00068756    0.00045322   -0.00014249
     atom   15 type  2   force =     0.00004871   -0.00082205   -0.00014246
     atom   16 type  2   force =    -0.00125913   -0.00072696    0.00098025
     atom   17 type  1   force =     0.00071263    0.00041151    0.00025841
     atom   18 type  2   force =     0.00061248    0.00115803    0.00075670
     atom   19 type  2   force =     0.00130919   -0.00004855    0.00075669
     atom   20 type  2   force =     0.00096756    0.00055854   -0.00120029
     atom   21 type  1   force =    -0.00043126   -0.00024897   -0.00134101
     atom   22 type  2   force =     0.00035716    0.00024745   -0.00093904
     atom   23 type  2   force =    -0.00078304   -0.00045211   -0.00134052
     atom   24 type  2   force =     0.00039288    0.00018557   -0.00093904
     atom   25 type  3   force =    -0.00191649   -0.00110649   -0.00065038

     Total force =     0.005466     Total SCF correction =     0.000022


     Computing stress (Cartesian axis) and pressure


     negative rho (up, down):  1.544E-04 1.183E-04
          total   stress  (Ry/bohr**3)                   (kbar)     P=       -9.59
  -0.00009409  -0.00000110  -0.00000240          -13.84       -0.16       -0.35
  -0.00000110  -0.00009283  -0.00000139           -0.16      -13.66       -0.20
  -0.00000240  -0.00000139  -0.00000869           -0.35       -0.20       -1.28

     Energy error            =      5.6E-05 Ry
     Gradient error          =      1.6E-03 Ry/Bohr

     number of scf cycles    =  17
     number of bfgs steps    =  15

     energy             old  =   -7077.4252766714 Ry
     energy             new  =   -7077.4253327623 Ry

     CASE: energy            _new < energy            _old

     new trust radius        =       0.0147953983 bohr
     new conv_thr            =       0.0000000002 Ry


ATOMIC_POSITIONS (angstrom)
Ni               5.3171990772        3.0698863186       11.0000000000    0   0   0
Pd               2.6585995386        3.0698851333       11.0000764482    0   0   0
Pd               3.9878982814        0.7674721723       11.0000764482    0   0   0
Pd               1.3293007958        0.7674721723       11.0000764482    0   0   0
Ni               2.6585995386        1.5349431593       13.1707374333    0   0   0
Pd               3.9878982814        3.8373584909       13.1708138815    0   0   0
Pd               5.3171990772        1.5349419740       13.1708138815    0   0   0
Pd               6.6464998731        3.8373584909       13.1708138815    0   0   0
Ni               0.0011838808        0.0006834830       15.3427451337
Pd               5.3240128797        4.6060009046       15.3380637239
Pd               3.9907582094        2.3040653267       15.3516131166
Pd               6.6509202382        2.3077299109       15.3380637405
Ni               5.3097475636        3.0655842609       17.5282803742
Pd               3.9767791841        0.7620820967       17.5284637738
Pd               2.6483719965        3.0629507847       17.5284638689
Pd               1.3177511195        0.7608040317       17.4884150688
Ni               2.6469737382        1.5282310330       19.6977976943
Pd               3.9893839143        3.8330361019       19.6875240555
Pd               5.3141983471        1.5383900223       19.6875240914
Pd               6.6377662775        3.8323163570       19.6973345490
Ni               0.0233005520        0.0134527971       21.7864330771
Pd               5.3339062888        4.6327141362       21.9019001549
Pd               4.0074700247        2.3137141667       21.9181975454
Pd               6.6790009933        2.3029417272       21.9019001408
H                3.9776774860        2.2965134952       23.4731057881    0   0   1



     Writing config-only to output data dir /tmpu/isholek_g/isholek/MIGUEL/QE/Hydrogen/111_2x2/SAVE/Ni1Pd3_111-T1.save/ :
     XML data file
     NEW-OLD atomic charge density approx. for the potential

     Check: negative core charge=   -0.000002

     negative rho (up, down):  1.461E-04 1.313E-04
     Generating pointlists ...

     total cpu time spent up to now is   111664.7 secs

     Self-consistent Calculation

     iteration #  1     ecut=    60.00 Ry     beta= 0.20
     Davidson diagonalization with overlap
     ethr =  1.00E-06,  avg # of iterations =  5.0

     negative rho (up, down):  1.628E-04 1.372E-04

     total cpu time spent up to now is   112083.0 secs

     total energy              =   -7077.42518367 Ry
     estimated scf accuracy    <       0.00186297 Ry

     total magnetization       =     9.90 Bohr mag/cell
     absolute magnetization    =    10.77 Bohr mag/cell

     iteration #  2     ecut=    60.00 Ry     beta= 0.20
     Davidson diagonalization with overlap
     ethr =  7.73E-07,  avg # of iterations =  1.0

     negative rho (up, down):  1.631E-04 1.355E-04

     total cpu time spent up to now is   112249.5 secs

     total energy              =   -7077.42525671 Ry
     estimated scf accuracy    <       0.00029378 Ry

     total magnetization       =     9.93 Bohr mag/cell
     absolute magnetization    =    10.80 Bohr mag/cell

     iteration #  3     ecut=    60.00 Ry     beta= 0.20
     Davidson diagonalization with overlap
     ethr =  1.22E-07,  avg # of iterations =  1.8

     negative rho (up, down):  1.637E-04 1.343E-04

     total cpu time spent up to now is   112427.5 secs

     total energy              =   -7077.42529940 Ry
     estimated scf accuracy    <       0.00023462 Ry

     total magnetization       =     9.92 Bohr mag/cell
     absolute magnetization    =    10.79 Bohr mag/cell

     iteration #  4     ecut=    60.00 Ry     beta= 0.20
     Davidson diagonalization with overlap
     ethr =  9.74E-08,  avg # of iterations =  1.0

     negative rho (up, down):  1.631E-04 1.326E-04

     total cpu time spent up to now is   112594.6 secs

     total energy              =   -7077.42532506 Ry
     estimated scf accuracy    <       0.00014678 Ry

     total magnetization       =     9.92 Bohr mag/cell
     absolute magnetization    =    10.79 Bohr mag/cell

     iteration #  5     ecut=    60.00 Ry     beta= 0.20
     Davidson diagonalization with overlap
     ethr =  6.09E-08,  avg # of iterations =  1.1

     negative rho (up, down):  1.619E-04 1.302E-04

     total cpu time spent up to now is   112762.8 secs

     total energy              =   -7077.42534573 Ry
     estimated scf accuracy    <       0.00008932 Ry

     total magnetization       =     9.93 Bohr mag/cell
     absolute magnetization    =    10.80 Bohr mag/cell

     iteration #  6     ecut=    60.00 Ry     beta= 0.20
     Davidson diagonalization with overlap
     ethr =  3.71E-08,  avg # of iterations =  1.1

     negative rho (up, down):  1.614E-04 1.289E-04

     total cpu time spent up to now is   112930.0 secs

     total energy              =   -7077.42535920 Ry
     estimated scf accuracy    <       0.00003497 Ry

     total magnetization       =     9.93 Bohr mag/cell
     absolute magnetization    =    10.80 Bohr mag/cell

     iteration #  7     ecut=    60.00 Ry     beta= 0.20
     Davidson diagonalization with overlap
     ethr =  1.45E-08,  avg # of iterations =  1.8

     negative rho (up, down):  1.575E-04 1.236E-04

     total cpu time spent up to now is   113106.2 secs

     total energy              =   -7077.42538338 Ry
     estimated scf accuracy    <       0.00002111 Ry

     total magnetization       =     9.93 Bohr mag/cell
     absolute magnetization    =    10.80 Bohr mag/cell

     iteration #  8     ecut=    60.00 Ry     beta= 0.20
     Davidson diagonalization with overlap
     ethr =  8.76E-09,  avg # of iterations =  2.0

     negative rho (up, down):  1.552E-04 1.207E-04

     total cpu time spent up to now is   113297.5 secs

     total energy              =   -7077.42538828 Ry
     estimated scf accuracy    <       0.00000709 Ry

     total magnetization       =     9.93 Bohr mag/cell
     absolute magnetization    =    10.80 Bohr mag/cell

     iteration #  9     ecut=    60.00 Ry     beta= 0.20
     Davidson diagonalization with overlap
     ethr =  2.94E-09,  avg # of iterations =  2.6

     negative rho (up, down):  1.525E-04 1.175E-04

     total cpu time spent up to now is   113493.3 secs

     total energy              =   -7077.42538870 Ry
     estimated scf accuracy    <       0.00000290 Ry

     total magnetization       =     9.93 Bohr mag/cell
     absolute magnetization    =    10.80 Bohr mag/cell

     iteration # 10     ecut=    60.00 Ry     beta= 0.20
     Davidson diagonalization with overlap
     ethr =  1.20E-09,  avg # of iterations =  3.0

     negative rho (up, down):  1.507E-04 1.156E-04

     total cpu time spent up to now is   113682.9 secs

     total energy              =   -7077.42538897 Ry
     estimated scf accuracy    <       0.00000162 Ry

     total magnetization       =     9.93 Bohr mag/cell
     absolute magnetization    =    10.80 Bohr mag/cell

     iteration # 11     ecut=    60.00 Ry     beta= 0.20
     Davidson diagonalization with overlap
     ethr =  6.72E-10,  avg # of iterations =  1.8

     negative rho (up, down):  1.483E-04 1.131E-04

     total cpu time spent up to now is   113862.2 secs

     total energy              =   -7077.42538928 Ry
     estimated scf accuracy    <       0.00000052 Ry

     total magnetization       =     9.93 Bohr mag/cell
     absolute magnetization    =    10.80 Bohr mag/cell

     iteration # 12     ecut=    60.00 Ry     beta= 0.20
     Davidson diagonalization with overlap
     ethr =  2.16E-10,  avg # of iterations =  3.3

     negative rho (up, down):  1.475E-04 1.121E-04

     total cpu time spent up to now is   114092.6 secs

     total energy              =   -7077.42538943 Ry
     estimated scf accuracy    <       0.00000024 Ry

     total magnetization       =     9.93 Bohr mag/cell
     absolute magnetization    =    10.80 Bohr mag/cell

     iteration # 13     ecut=    60.00 Ry     beta= 0.20
     Davidson diagonalization with overlap
     ethr =  9.92E-11,  avg # of iterations =  1.2

     negative rho (up, down):  1.470E-04 1.115E-04

     total cpu time spent up to now is   114262.2 secs

     total energy              =   -7077.42538944 Ry
     estimated scf accuracy    <       0.00000029 Ry

     total magnetization       =     9.93 Bohr mag/cell
     absolute magnetization    =    10.80 Bohr mag/cell

     iteration # 14     ecut=    60.00 Ry     beta= 0.20
     Davidson diagonalization with overlap
     ethr =  9.92E-11,  avg # of iterations =  1.0

     negative rho (up, down):  1.446E-04 1.091E-04

     total cpu time spent up to now is   114426.9 secs

     total energy              =   -7077.42538942 Ry
     estimated scf accuracy    <       0.00000021 Ry

     total magnetization       =     9.93 Bohr mag/cell
     absolute magnetization    =    10.80 Bohr mag/cell

     iteration # 15     ecut=    60.00 Ry     beta= 0.20
     Davidson diagonalization with overlap
     ethr =  8.73E-11,  avg # of iterations =  1.9

     negative rho (up, down):  1.442E-04 1.086E-04

     total cpu time spent up to now is   114608.2 secs

     total energy              =   -7077.42538943 Ry
     estimated scf accuracy    <       0.00000011 Ry

     total magnetization       =     9.93 Bohr mag/cell
     absolute magnetization    =    10.80 Bohr mag/cell

     iteration # 16     ecut=    60.00 Ry     beta= 0.20
     Davidson diagonalization with overlap
     ethr =  4.43E-11,  avg # of iterations =  1.0

     negative rho (up, down):  1.439E-04 1.083E-04

     total cpu time spent up to now is   114775.3 secs

     total energy              =   -7077.42538943 Ry
     estimated scf accuracy    <       0.00000006 Ry

     total magnetization       =     9.93 Bohr mag/cell
     absolute magnetization    =    10.80 Bohr mag/cell

     iteration # 17     ecut=    60.00 Ry     beta= 0.20
     Davidson diagonalization with overlap
     ethr =  2.51E-11,  avg # of iterations =  1.1

     negative rho (up, down):  1.448E-04 1.091E-04

     total cpu time spent up to now is   114942.0 secs

     total energy              =   -7077.42538944 Ry
     estimated scf accuracy    <       0.00000004 Ry

     total magnetization       =     9.93 Bohr mag/cell
     absolute magnetization    =    10.80 Bohr mag/cell

     iteration # 18     ecut=    60.00 Ry     beta= 0.20
     Davidson diagonalization with overlap
     ethr =  1.62E-11,  avg # of iterations =  1.2

     negative rho (up, down):  1.452E-04 1.095E-04

     total cpu time spent up to now is   115111.2 secs

     total energy              =   -7077.42538944 Ry
     estimated scf accuracy    <          5.6E-09 Ry

     total magnetization       =     9.93 Bohr mag/cell
     absolute magnetization    =    10.80 Bohr mag/cell

     iteration # 19     ecut=    60.00 Ry     beta= 0.20
     Davidson diagonalization with overlap
     ethr =  2.31E-12,  avg # of iterations =  2.8

     negative rho (up, down):  1.459E-04 1.101E-04

     total cpu time spent up to now is   115298.7 secs

     total energy              =   -7077.42538945 Ry
     estimated scf accuracy    <          4.8E-09 Ry

     total magnetization       =     9.93 Bohr mag/cell
     absolute magnetization    =    10.80 Bohr mag/cell

     iteration # 20     ecut=    60.00 Ry     beta= 0.20
     Davidson diagonalization with overlap
     ethr =  2.00E-12,  avg # of iterations =  1.1

     negative rho (up, down):  1.466E-04 1.108E-04

     total cpu time spent up to now is   115467.6 secs

     total energy              =   -7077.42538945 Ry
     estimated scf accuracy    <          5.6E-09 Ry

     total magnetization       =     9.93 Bohr mag/cell
     absolute magnetization    =    10.80 Bohr mag/cell

     iteration # 21     ecut=    60.00 Ry     beta= 0.20
     Davidson diagonalization with overlap
     ethr =  2.00E-12,  avg # of iterations =  1.0

     negative rho (up, down):  1.479E-04 1.120E-04

     total cpu time spent up to now is   115637.5 secs

     total energy              =   -7077.42538945 Ry
     estimated scf accuracy    <          5.5E-09 Ry

     total magnetization       =     9.93 Bohr mag/cell
     absolute magnetization    =    10.80 Bohr mag/cell

     iteration # 22     ecut=    60.00 Ry     beta= 0.20
     Davidson diagonalization with overlap
     ethr =  2.00E-12,  avg # of iterations =  1.2

     negative rho (up, down):  1.494E-04 1.135E-04

     total cpu time spent up to now is   115809.8 secs

     total energy              =   -7077.42538945 Ry
     estimated scf accuracy    <          4.2E-09 Ry

     total magnetization       =     9.93 Bohr mag/cell
     absolute magnetization    =    10.80 Bohr mag/cell

     iteration # 23     ecut=    60.00 Ry     beta= 0.20
     Davidson diagonalization with overlap
     ethr =  1.75E-12,  avg # of iterations =  1.0

     negative rho (up, down):  1.488E-04 1.129E-04

     total cpu time spent up to now is   115979.6 secs

     total energy              =   -7077.42538945 Ry
     estimated scf accuracy    <          4.3E-09 Ry

     total magnetization       =     9.93 Bohr mag/cell
     absolute magnetization    =    10.80 Bohr mag/cell

     iteration # 24     ecut=    60.00 Ry     beta= 0.20
     Davidson diagonalization with overlap
     ethr =  1.75E-12,  avg # of iterations =  1.0

     negative rho (up, down):  1.488E-04 1.129E-04

     total cpu time spent up to now is   116146.8 secs

     total energy              =   -7077.42538945 Ry
     estimated scf accuracy    <          3.9E-09 Ry

     total magnetization       =     9.93 Bohr mag/cell
     absolute magnetization    =    10.80 Bohr mag/cell

     iteration # 25     ecut=    60.00 Ry     beta= 0.20
     Davidson diagonalization with overlap
     ethr =  1.63E-12,  avg # of iterations =  1.0

     negative rho (up, down):  1.506E-04 1.146E-04

     total cpu time spent up to now is   116314.0 secs

     total energy              =   -7077.42538945 Ry
     estimated scf accuracy    <          4.1E-09 Ry

     total magnetization       =     9.93 Bohr mag/cell
     absolute magnetization    =    10.80 Bohr mag/cell

     iteration # 26     ecut=    60.00 Ry     beta= 0.20
     Davidson diagonalization with overlap
     ethr =  1.63E-12,  avg # of iterations =  2.0

     negative rho (up, down):  1.511E-04 1.151E-04

     total cpu time spent up to now is   116494.5 secs

     total energy              =   -7077.42538946 Ry
     estimated scf accuracy    <          2.8E-09 Ry

     total magnetization       =     9.93 Bohr mag/cell
     absolute magnetization    =    10.80 Bohr mag/cell

     iteration # 27     ecut=    60.00 Ry     beta= 0.20
     Davidson diagonalization with overlap
     ethr =  1.16E-12,  avg # of iterations =  1.8

     negative rho (up, down):  1.518E-04 1.158E-04

     total cpu time spent up to now is   116674.2 secs

     total energy              =   -7077.42538946 Ry
     estimated scf accuracy    <          3.3E-09 Ry

     total magnetization       =     9.93 Bohr mag/cell
     absolute magnetization    =    10.80 Bohr mag/cell

     iteration # 28     ecut=    60.00 Ry     beta= 0.20
     Davidson diagonalization with overlap
     ethr =  1.16E-12,  avg # of iterations =  1.0

     negative rho (up, down):  1.536E-04 1.176E-04

     total cpu time spent up to now is   116841.8 secs

     total energy              =   -7077.42538946 Ry
     estimated scf accuracy    <          1.6E-09 Ry

     total magnetization       =     9.93 Bohr mag/cell
     absolute magnetization    =    10.80 Bohr mag/cell

     iteration # 29     ecut=    60.00 Ry     beta= 0.20
     Davidson diagonalization with overlap
     ethr =  6.50E-13,  avg # of iterations =  1.4

     negative rho (up, down):  1.542E-04 1.182E-04

     total cpu time spent up to now is   117014.3 secs

     total energy              =   -7077.42538947 Ry
     estimated scf accuracy    <          1.7E-09 Ry

     total magnetization       =     9.93 Bohr mag/cell
     absolute magnetization    =    10.80 Bohr mag/cell

     iteration # 30     ecut=    60.00 Ry     beta= 0.20
     Davidson diagonalization with overlap
     ethr =  6.50E-13,  avg # of iterations =  1.1

     negative rho (up, down):  1.542E-04 1.181E-04

     total cpu time spent up to now is   117182.8 secs

     total energy              =   -7077.42538947 Ry
     estimated scf accuracy    <          6.2E-10 Ry

     total magnetization       =     9.93 Bohr mag/cell
     absolute magnetization    =    10.80 Bohr mag/cell

     iteration # 31     ecut=    60.00 Ry     beta= 0.20
     Davidson diagonalization with overlap
     ethr =  2.56E-13,  avg # of iterations =  1.4

     negative rho (up, down):  1.542E-04 1.182E-04
 
     Magnetic moment per site  (integrated on atomic sphere of radius R)
     atom   1 (R=0.202)  charge=  8.7466  magn=  0.9621
     atom   2 (R=0.114)  charge=  4.0981  magn=  0.1532
     atom   3 (R=0.114)  charge=  4.0981  magn=  0.1532
     atom   4 (R=0.114)  charge=  4.0982  magn=  0.1508
     atom   5 (R=0.202)  charge=  8.8217  magn=  0.9266
     atom   6 (R=0.114)  charge=  4.0923  magn=  0.1889
     atom   7 (R=0.114)  charge=  4.0923  magn=  0.1889
     atom   8 (R=0.114)  charge=  4.0915  magn=  0.1891
     atom   9 (R=0.202)  charge=  8.8346  magn=  0.8680
     atom  10 (R=0.114)  charge=  4.0890  magn=  0.1838
     atom  11 (R=0.114)  charge=  4.0893  magn=  0.1800
     atom  12 (R=0.114)  charge=  4.0890  magn=  0.1838
     atom  13 (R=0.202)  charge=  8.8368  magn=  0.8520
     atom  14 (R=0.114)  charge=  4.0884  magn=  0.1762
     atom  15 (R=0.114)  charge=  4.0884  magn=  0.1762
     atom  16 (R=0.114)  charge=  4.0923  magn=  0.1791
     atom  17 (R=0.202)  charge=  8.8204  magn=  0.8671
     atom  18 (R=0.114)  charge=  4.0912  magn=  0.1692
     atom  19 (R=0.114)  charge=  4.0912  magn=  0.1692
     atom  20 (R=0.114)  charge=  4.0901  magn=  0.1853
     atom  21 (R=0.202)  charge=  8.7634  magn=  0.9259
     atom  22 (R=0.114)  charge=  4.1007  magn=  0.1320
     atom  23 (R=0.114)  charge=  4.0742  magn=  0.0665
     atom  24 (R=0.114)  charge=  4.1007  magn=  0.1320
     atom  25 (R=0.114)  charge=  0.6525  magn= -0.0057

     total cpu time spent up to now is   117356.4 secs

     End of self-consistent calculation

     Number of k-points >= 100: set verbosity='high' to print the bands.

     the Fermi energy is    -5.1866 ev

!    total energy              =   -7077.42538947 Ry
     total all-electron energy =   -199909.861960 Ry
     estimated scf accuracy    <          1.8E-10 Ry
     smearing contrib. (-TS)   =       0.00015420 Ry
     internal energy E=F+TS    =   -7077.42554367 Ry

     The total energy is F=E-TS. E is the sum of the following terms:
     one-electron contribution =  -61033.74478465 Ry
     hartree contribution      =   30704.06508271 Ry
     xc contribution           =    -835.44168015 Ry
     ewald contribution        =   29221.84077131 Ry
     DFT-D3 Dispersion         =      -2.52891765 Ry
     one-center paw contrib.   =   -5131.61601524 Ry

     total magnetization       =     9.93 Bohr mag/cell
     absolute magnetization    =    10.80 Bohr mag/cell

     convergence has been achieved in  31 iterations

     negative rho (up, down):  1.542E-04 1.182E-04

     Forces acting on atoms (cartesian axes, Ry/au):

     atom    1 type  1   force =    -0.00008649   -0.00004994    0.01599159
     atom    2 type  2   force =    -0.00036704   -0.01428099   -0.00890617
     atom    3 type  2   force =    -0.01255122    0.00682263   -0.00890617
     atom    4 type  2   force =     0.01237752    0.00714617   -0.00963817
     atom    5 type  1   force =     0.00054350    0.00031380    0.00045429
     atom    6 type  2   force =    -0.00016106   -0.00070070    0.00645411
     atom    7 type  2   force =    -0.00068735    0.00021088    0.00645411
     atom    8 type  2   force =     0.00127061    0.00073358    0.00652488
     atom    9 type  1   force =    -0.00032591   -0.00018816   -0.00151010
     atom   10 type  2   force =    -0.00045806    0.00055659   -0.00056129
     atom   11 type  2   force =     0.00029822    0.00017218   -0.00049862
     atom   12 type  2   force =     0.00025300   -0.00067497   -0.00056130
     atom   13 type  1   force =     0.00051842    0.00029931   -0.00085633
     atom   14 type  2   force =    -0.00066370    0.00049708   -0.00020874
     atom   15 type  2   force =     0.00009864   -0.00082331   -0.00020874
     atom   16 type  2   force =    -0.00076999   -0.00044457    0.00131508
     atom   17 type  1   force =     0.00055483    0.00032040    0.00017650
     atom   18 type  2   force =     0.00069909    0.00159702   -0.00035692
     atom   19 type  2   force =     0.00173267   -0.00019306   -0.00035696
     atom   20 type  2   force =    -0.00000070   -0.00000045   -0.00193205
     atom   21 type  1   force =    -0.00088518   -0.00051105   -0.00058378
     atom   22 type  2   force =     0.00074898    0.00001991   -0.00075180
     atom   23 type  2   force =    -0.00056997   -0.00032907   -0.00062650
     atom   24 type  2   force =     0.00039176    0.00063867   -0.00075180
     atom   25 type  3   force =    -0.00196058   -0.00113194   -0.00015512

     Total force =     0.004953     Total SCF correction =     0.000055


     Computing stress (Cartesian axis) and pressure


     negative rho (up, down):  1.542E-04 1.182E-04
          total   stress  (Ry/bohr**3)                   (kbar)     P=       -9.37
  -0.00009324  -0.00000121  -0.00000259          -13.72       -0.18       -0.38
  -0.00000121  -0.00009184  -0.00000150           -0.18      -13.51       -0.22
  -0.00000259  -0.00000150  -0.00000604           -0.38       -0.22       -0.89

     Energy error            =      5.7E-05 Ry
     Gradient error          =      1.9E-03 Ry/Bohr

     number of scf cycles    =  18
     number of bfgs steps    =  16

     energy             old  =   -7077.4253327623 Ry
     energy             new  =   -7077.4253894655 Ry

     CASE: energy            _new < energy            _old

     new trust radius        =       0.0097561974 bohr
     new conv_thr            =       0.0000000002 Ry


ATOMIC_POSITIONS (angstrom)
Ni               5.3171990772        3.0698863186       11.0000000000    0   0   0
Pd               2.6585995386        3.0698851333       11.0000764482    0   0   0
Pd               3.9878982814        0.7674721723       11.0000764482    0   0   0
Pd               1.3293007958        0.7674721723       11.0000764482    0   0   0
Ni               2.6585995386        1.5349431593       13.1707374333    0   0   0
Pd               3.9878982814        3.8373584909       13.1708138815    0   0   0
Pd               5.3171990772        1.5349419740       13.1708138815    0   0   0
Pd               6.6464998731        3.8373584909       13.1708138815    0   0   0
Ni               0.0005397457        0.0003115974       15.3407473138
Pd               5.3239408355        4.6063049606       15.3356552174
Pd               3.9904793320        2.3039043217       15.3509847226
Pd               6.6511475238        2.3075155246       15.3356552379
Ni               5.3101319000        3.0658061708       17.5264742529
Pd               3.9752425696        0.7619493378       17.5280419496
Pd               2.6474887030        3.0616864263       17.5280420692
Pd               1.3156108600        0.7595683548       17.4866161425
Ni               2.6481908783        1.5289338297       19.6965373532
Pd               3.9918703294        3.8346814147       19.6863308078
Pd               5.3168664841        1.5397206900       19.6863308347
Pd               6.6406370556        3.8339737386       19.6971566849
Ni               0.0244350626        0.0141078039       21.7833182932
Pd               5.3340602377        4.6327646832       21.9006508397
Pd               4.0065537648        2.3131851228       21.9131443639
Pd               6.6791217527        2.3030497517       21.9006508301
H                3.9776774860        2.2965134952       23.4679557697    0   0   1



     Writing config-only to output data dir /tmpu/isholek_g/isholek/MIGUEL/QE/Hydrogen/111_2x2/SAVE/Ni1Pd3_111-T1.save/ :
     XML data file
     NEW-OLD atomic charge density approx. for the potential

     Check: negative core charge=   -0.000002

     negative rho (up, down):  1.470E-04 1.310E-04
     Generating pointlists ...

     total cpu time spent up to now is   117630.1 secs

     Self-consistent Calculation

     iteration #  1     ecut=    60.00 Ry     beta= 0.20
     Davidson diagonalization with overlap
     ethr =  1.00E-06,  avg # of iterations =  4.9

     negative rho (up, down):  1.670E-04 1.410E-04

     total cpu time spent up to now is   118011.9 secs

     total energy              =   -7077.42530487 Ry
     estimated scf accuracy    <       0.00070683 Ry

     total magnetization       =     9.91 Bohr mag/cell
     absolute magnetization    =    10.78 Bohr mag/cell

     iteration #  2     ecut=    60.00 Ry     beta= 0.20
     Davidson diagonalization with overlap
     ethr =  2.93E-07,  avg # of iterations =  1.6

     negative rho (up, down):  1.651E-04 1.371E-04

     total cpu time spent up to now is   118187.8 secs

     total energy              =   -7077.42535607 Ry
     estimated scf accuracy    <       0.00020437 Ry

     total magnetization       =     9.93 Bohr mag/cell
     absolute magnetization    =    10.80 Bohr mag/cell

     iteration #  3     ecut=    60.00 Ry     beta= 0.20
     Davidson diagonalization with overlap
     ethr =  8.48E-08,  avg # of iterations =  1.9

     negative rho (up, down):  1.640E-04 1.343E-04

     total cpu time spent up to now is   118367.3 secs

     total energy              =   -7077.42538414 Ry
     estimated scf accuracy    <       0.00011709 Ry

     total magnetization       =     9.93 Bohr mag/cell
     absolute magnetization    =    10.80 Bohr mag/cell

     iteration #  4     ecut=    60.00 Ry     beta= 0.20
     Davidson diagonalization with overlap
     ethr =  4.86E-08,  avg # of iterations =  1.3

     negative rho (up, down):  1.627E-04 1.318E-04

     total cpu time spent up to now is   118536.0 secs

     total energy              =   -7077.42539799 Ry
     estimated scf accuracy    <       0.00004730 Ry

     total magnetization       =     9.92 Bohr mag/cell
     absolute magnetization    =    10.79 Bohr mag/cell

     iteration #  5     ecut=    60.00 Ry     beta= 0.20
     Davidson diagonalization with overlap
     ethr =  1.96E-08,  avg # of iterations =  1.1

     negative rho (up, down):  1.614E-04 1.295E-04

     total cpu time spent up to now is   118699.0 secs

     total energy              =   -7077.42540904 Ry
     estimated scf accuracy    <       0.00002891 Ry

     total magnetization       =     9.93 Bohr mag/cell
     absolute magnetization    =    10.80 Bohr mag/cell

     iteration #  6     ecut=    60.00 Ry     beta= 0.20
     Davidson diagonalization with overlap
     ethr =  1.20E-08,  avg # of iterations =  1.2

     negative rho (up, down):  1.605E-04 1.277E-04

     total cpu time spent up to now is   118867.8 secs

     total energy              =   -7077.42541559 Ry
     estimated scf accuracy    <       0.00001077 Ry

     total magnetization       =     9.93 Bohr mag/cell
     absolute magnetization    =    10.80 Bohr mag/cell

     iteration #  7     ecut=    60.00 Ry     beta= 0.20
     Davidson diagonalization with overlap
     ethr =  4.47E-09,  avg # of iterations =  1.8

     negative rho (up, down):  1.581E-04 1.241E-04

     total cpu time spent up to now is   119041.7 secs

     total energy              =   -7077.42542645 Ry
     estimated scf accuracy    <       0.00000717 Ry

     total magnetization       =     9.93 Bohr mag/cell
     absolute magnetization    =    10.80 Bohr mag/cell

     iteration #  8     ecut=    60.00 Ry     beta= 0.20
     Davidson diagonalization with overlap
     ethr =  2.98E-09,  avg # of iterations =  2.2

     negative rho (up, down):  1.567E-04 1.221E-04

     total cpu time spent up to now is   119253.4 secs

     total energy              =   -7077.42542781 Ry
     estimated scf accuracy    <       0.00000260 Ry

     total magnetization       =     9.93 Bohr mag/cell
     absolute magnetization    =    10.80 Bohr mag/cell

     iteration #  9     ecut=    60.00 Ry     beta= 0.20
     Davidson diagonalization with overlap
     ethr =  1.08E-09,  avg # of iterations =  2.4

     negative rho (up, down):  1.543E-04 1.194E-04

     total cpu time spent up to now is   119445.3 secs

     total energy              =   -7077.42542813 Ry
     estimated scf accuracy    <       0.00000070 Ry

     total magnetization       =     9.93 Bohr mag/cell
     absolute magnetization    =    10.80 Bohr mag/cell

     iteration # 10     ecut=    60.00 Ry     beta= 0.20
     Davidson diagonalization with overlap
     ethr =  2.90E-10,  avg # of iterations =  4.1

     negative rho (up, down):  1.532E-04 1.181E-04

     total cpu time spent up to now is   119647.1 secs

     total energy              =   -7077.42542824 Ry
     estimated scf accuracy    <       0.00000030 Ry

     total magnetization       =     9.93 Bohr mag/cell
     absolute magnetization    =    10.80 Bohr mag/cell

     iteration # 11     ecut=    60.00 Ry     beta= 0.20
     Davidson diagonalization with overlap
     ethr =  1.27E-10,  avg # of iterations =  2.1

     negative rho (up, down):  1.511E-04 1.159E-04

     total cpu time spent up to now is   119822.9 secs

     total energy              =   -7077.42542824 Ry
     estimated scf accuracy    <       0.00000014 Ry

     total magnetization       =     9.93 Bohr mag/cell
     absolute magnetization    =    10.80 Bohr mag/cell

     iteration # 12     ecut=    60.00 Ry     beta= 0.20
     Davidson diagonalization with overlap
     ethr =  5.80E-11,  avg # of iterations =  2.5

     negative rho (up, down):  1.502E-04 1.148E-04

     total cpu time spent up to now is   120013.8 secs

     total energy              =   -7077.42542826 Ry
     estimated scf accuracy    <       0.00000013 Ry

     total magnetization       =     9.93 Bohr mag/cell
     absolute magnetization    =    10.80 Bohr mag/cell

     iteration # 13     ecut=    60.00 Ry     beta= 0.20
     Davidson diagonalization with overlap
     ethr =  5.31E-11,  avg # of iterations =  1.1

     negative rho (up, down):  1.496E-04 1.141E-04

     total cpu time spent up to now is   120182.2 secs

     total energy              =   -7077.42542827 Ry
     estimated scf accuracy    <       0.00000012 Ry

     total magnetization       =     9.93 Bohr mag/cell
     absolute magnetization    =    10.80 Bohr mag/cell

     iteration # 14     ecut=    60.00 Ry     beta= 0.20
     Davidson diagonalization with overlap
     ethr =  4.88E-11,  avg # of iterations =  1.0

     negative rho (up, down):  1.482E-04 1.126E-04

     total cpu time spent up to now is   120348.5 secs

     total energy              =   -7077.42542824 Ry
     estimated scf accuracy    <       0.00000012 Ry

     total magnetization       =     9.93 Bohr mag/cell
     absolute magnetization    =    10.80 Bohr mag/cell

     iteration # 15     ecut=    60.00 Ry     beta= 0.20
     Davidson diagonalization with overlap
     ethr =  4.78E-11,  avg # of iterations =  1.4

     negative rho (up, down):  1.473E-04 1.117E-04

     total cpu time spent up to now is   120521.5 secs

     total energy              =   -7077.42542826 Ry
     estimated scf accuracy    <       0.00000006 Ry

     total magnetization       =     9.93 Bohr mag/cell
     absolute magnetization    =    10.80 Bohr mag/cell

     iteration # 16     ecut=    60.00 Ry     beta= 0.20
     Davidson diagonalization with overlap
     ethr =  2.46E-11,  avg # of iterations =  1.0

     negative rho (up, down):  1.470E-04 1.113E-04

     total cpu time spent up to now is   120688.5 secs

     total energy              =   -7077.42542826 Ry
     estimated scf accuracy    <       0.00000004 Ry

     total magnetization       =     9.93 Bohr mag/cell
     absolute magnetization    =    10.80 Bohr mag/cell

     iteration # 17     ecut=    60.00 Ry     beta= 0.20
     Davidson diagonalization with overlap
     ethr =  1.76E-11,  avg # of iterations =  1.0

     negative rho (up, down):  1.476E-04 1.118E-04

     total cpu time spent up to now is   120856.4 secs

     total energy              =   -7077.42542827 Ry
     estimated scf accuracy    <       0.00000002 Ry

     total magnetization       =     9.93 Bohr mag/cell
     absolute magnetization    =    10.80 Bohr mag/cell

     iteration # 18     ecut=    60.00 Ry     beta= 0.20
     Davidson diagonalization with overlap
     ethr =  7.84E-12,  avg # of iterations =  1.1

     negative rho (up, down):  1.479E-04 1.121E-04

     total cpu time spent up to now is   121025.4 secs

     total energy              =   -7077.42542827 Ry
     estimated scf accuracy    <          2.9E-09 Ry

     total magnetization       =     9.93 Bohr mag/cell
     absolute magnetization    =    10.80 Bohr mag/cell

     iteration # 19     ecut=    60.00 Ry     beta= 0.20
     Davidson diagonalization with overlap
     ethr =  1.20E-12,  avg # of iterations =  2.1

     negative rho (up, down):  1.486E-04 1.128E-04

     total cpu time spent up to now is   121208.3 secs

     total energy              =   -7077.42542827 Ry
     estimated scf accuracy    <          1.8E-09 Ry

     total magnetization       =     9.93 Bohr mag/cell
     absolute magnetization    =    10.80 Bohr mag/cell

     iteration # 20     ecut=    60.00 Ry     beta= 0.20
     Davidson diagonalization with overlap
     ethr =  7.42E-13,  avg # of iterations =  2.0

     negative rho (up, down):  1.491E-04 1.132E-04

     total cpu time spent up to now is   121391.5 secs

     total energy              =   -7077.42542827 Ry
     estimated scf accuracy    <          2.7E-09 Ry

     total magnetization       =     9.93 Bohr mag/cell
     absolute magnetization    =    10.80 Bohr mag/cell

     iteration # 21     ecut=    60.00 Ry     beta= 0.20
     Davidson diagonalization with overlap
     ethr =  7.42E-13,  avg # of iterations =  1.1

     negative rho (up, down):  1.494E-04 1.135E-04

     total cpu time spent up to now is   121559.5 secs

     total energy              =   -7077.42542827 Ry
     estimated scf accuracy    <          2.1E-09 Ry

     total magnetization       =     9.93 Bohr mag/cell
     absolute magnetization    =    10.80 Bohr mag/cell

     iteration # 22     ecut=    60.00 Ry     beta= 0.20
     Davidson diagonalization with overlap
     ethr =  7.42E-13,  avg # of iterations =  1.0

     negative rho (up, down):  1.506E-04 1.147E-04

     total cpu time spent up to now is   121727.5 secs

     total energy              =   -7077.42542827 Ry
     estimated scf accuracy    <          1.7E-09 Ry

     total magnetization       =     9.93 Bohr mag/cell
     absolute magnetization    =    10.80 Bohr mag/cell

     iteration # 23     ecut=    60.00 Ry     beta= 0.20
     Davidson diagonalization with overlap
     ethr =  7.15E-13,  avg # of iterations =  1.2

     negative rho (up, down):  1.516E-04 1.156E-04

     total cpu time spent up to now is   121901.6 secs

     total energy              =   -7077.42542827 Ry
     estimated scf accuracy    <          2.6E-09 Ry

     total magnetization       =     9.93 Bohr mag/cell
     absolute magnetization    =    10.80 Bohr mag/cell

     iteration # 24     ecut=    60.00 Ry     beta= 0.20
     Davidson diagonalization with overlap
     ethr =  7.15E-13,  avg # of iterations =  1.1

     negative rho (up, down):  1.523E-04 1.164E-04

     total cpu time spent up to now is   122070.3 secs

     total energy              =   -7077.42542828 Ry
     estimated scf accuracy    <          2.9E-09 Ry

     total magnetization       =     9.93 Bohr mag/cell
     absolute magnetization    =    10.80 Bohr mag/cell

     iteration # 25     ecut=    60.00 Ry     beta= 0.20
     Davidson diagonalization with overlap
     ethr =  7.15E-13,  avg # of iterations =  1.2

     negative rho (up, down):  1.530E-04 1.170E-04

     total cpu time spent up to now is   122244.3 secs

     total energy              =   -7077.42542828 Ry
     estimated scf accuracy    <          3.2E-09 Ry

     total magnetization       =     9.93 Bohr mag/cell
     absolute magnetization    =    10.80 Bohr mag/cell

     iteration # 26     ecut=    60.00 Ry     beta= 0.20
     Davidson diagonalization with overlap
     ethr =  7.15E-13,  avg # of iterations =  1.0

     negative rho (up, down):  1.531E-04 1.171E-04

     total cpu time spent up to now is   122413.5 secs

     total energy              =   -7077.42542828 Ry
     estimated scf accuracy    <          3.4E-09 Ry

     total magnetization       =     9.93 Bohr mag/cell
     absolute magnetization    =    10.80 Bohr mag/cell

     iteration # 27     ecut=    60.00 Ry     beta= 0.20
     Davidson diagonalization with overlap
     ethr =  7.15E-13,  avg # of iterations =  1.0

     negative rho (up, down):  1.532E-04 1.172E-04

     total cpu time spent up to now is   122581.2 secs

     total energy              =   -7077.42542828 Ry
     estimated scf accuracy    <          2.6E-09 Ry

     total magnetization       =     9.93 Bohr mag/cell
     absolute magnetization    =    10.80 Bohr mag/cell

     iteration # 28     ecut=    60.00 Ry     beta= 0.20
     Davidson diagonalization with overlap
     ethr =  7.15E-13,  avg # of iterations =  1.0

     negative rho (up, down):  1.538E-04 1.178E-04

     total cpu time spent up to now is   122748.3 secs

     total energy              =   -7077.42542828 Ry
     estimated scf accuracy    <          1.3E-09 Ry

     total magnetization       =     9.93 Bohr mag/cell
     absolute magnetization    =    10.80 Bohr mag/cell

     iteration # 29     ecut=    60.00 Ry     beta= 0.20
     Davidson diagonalization with overlap
     ethr =  5.51E-13,  avg # of iterations =  1.1

     negative rho (up, down):  1.542E-04 1.182E-04

     total cpu time spent up to now is   122918.3 secs

     total energy              =   -7077.42542828 Ry
     estimated scf accuracy    <          5.6E-10 Ry

     total magnetization       =     9.93 Bohr mag/cell
     absolute magnetization    =    10.80 Bohr mag/cell

     iteration # 30     ecut=    60.00 Ry     beta= 0.20
     Davidson diagonalization with overlap
     ethr =  2.33E-13,  avg # of iterations =  1.1

     negative rho (up, down):  1.541E-04 1.182E-04

     total cpu time spent up to now is   123088.0 secs

     total energy              =   -7077.42542828 Ry
     estimated scf accuracy    <          2.9E-10 Ry

     total magnetization       =     9.93 Bohr mag/cell
     absolute magnetization    =    10.80 Bohr mag/cell

     iteration # 31     ecut=    60.00 Ry     beta= 0.20
     Davidson diagonalization with overlap
     ethr =  1.21E-13,  avg # of iterations =  1.1

     negative rho (up, down):  1.542E-04 1.182E-04
 
     Magnetic moment per site  (integrated on atomic sphere of radius R)
     atom   1 (R=0.202)  charge=  8.7466  magn=  0.9620
     atom   2 (R=0.114)  charge=  4.0981  magn=  0.1532
     atom   3 (R=0.114)  charge=  4.0981  magn=  0.1532
     atom   4 (R=0.114)  charge=  4.0982  magn=  0.1508
     atom   5 (R=0.202)  charge=  8.8224  magn=  0.9264
     atom   6 (R=0.114)  charge=  4.0923  magn=  0.1890
     atom   7 (R=0.114)  charge=  4.0923  magn=  0.1890
     atom   8 (R=0.114)  charge=  4.0916  magn=  0.1893
     atom   9 (R=0.202)  charge=  8.8350  magn=  0.8680
     atom  10 (R=0.114)  charge=  4.0888  magn=  0.1839
     atom  11 (R=0.114)  charge=  4.0892  magn=  0.1801
     atom  12 (R=0.114)  charge=  4.0888  magn=  0.1839
     atom  13 (R=0.202)  charge=  8.8365  magn=  0.8520
     atom  14 (R=0.114)  charge=  4.0885  magn=  0.1762
     atom  15 (R=0.114)  charge=  4.0885  magn=  0.1762
     atom  16 (R=0.114)  charge=  4.0921  magn=  0.1790
     atom  17 (R=0.202)  charge=  8.8210  magn=  0.8667
     atom  18 (R=0.114)  charge=  4.0913  magn=  0.1692
     atom  19 (R=0.114)  charge=  4.0913  magn=  0.1692
     atom  20 (R=0.114)  charge=  4.0901  magn=  0.1854
     atom  21 (R=0.202)  charge=  8.7642  magn=  0.9259
     atom  22 (R=0.114)  charge=  4.1007  magn=  0.1321
     atom  23 (R=0.114)  charge=  4.0743  magn=  0.0666
     atom  24 (R=0.114)  charge=  4.1007  magn=  0.1321
     atom  25 (R=0.114)  charge=  0.6526  magn= -0.0058

     total cpu time spent up to now is   123256.7 secs

     End of self-consistent calculation

     Number of k-points >= 100: set verbosity='high' to print the bands.

     the Fermi energy is    -5.1858 ev

!    total energy              =   -7077.42542828 Ry
     total all-electron energy =   -199909.861999 Ry
     estimated scf accuracy    <          1.0E-10 Ry
     smearing contrib. (-TS)   =       0.00015618 Ry
     internal energy E=F+TS    =   -7077.42558446 Ry

     The total energy is F=E-TS. E is the sum of the following terms:
     one-electron contribution =  -61047.66215566 Ry
     hartree contribution      =   30711.02817052 Ry
     xc contribution           =    -835.44594973 Ry
     ewald contribution        =   29228.80048330 Ry
     DFT-D3 Dispersion         =      -2.52938218 Ry
     one-center paw contrib.   =   -5131.61675071 Ry

     total magnetization       =     9.93 Bohr mag/cell
     absolute magnetization    =    10.80 Bohr mag/cell

     convergence has been achieved in  31 iterations

     negative rho (up, down):  1.542E-04 1.182E-04

     Forces acting on atoms (cartesian axes, Ry/au):

     atom    1 type  1   force =    -0.00009102   -0.00005255    0.01597824
     atom    2 type  2   force =    -0.00036230   -0.01428305   -0.00889427
     atom    3 type  2   force =    -0.01255063    0.00682777   -0.00889428
     atom    4 type  2   force =     0.01237979    0.00714747   -0.00965307
     atom    5 type  1   force =     0.00061200    0.00035334    0.00012770
     atom    6 type  2   force =    -0.00027028   -0.00079664    0.00601274
     atom    7 type  2   force =    -0.00082504    0.00016425    0.00601274
     atom    8 type  2   force =     0.00136622    0.00078878    0.00585356
     atom    9 type  1   force =    -0.00028745   -0.00016596   -0.00105182
     atom   10 type  2   force =    -0.00055799    0.00042104    0.00039449
     atom   11 type  2   force =     0.00051487    0.00029727   -0.00026609
     atom   12 type  2   force =     0.00008564   -0.00069375    0.00039449
     atom   13 type  1   force =     0.00038561    0.00022263   -0.00073653
     atom   14 type  2   force =    -0.00039176    0.00035143   -0.00035639
     atom   15 type  2   force =     0.00010848   -0.00051498   -0.00035644
     atom   16 type  2   force =    -0.00025129   -0.00014509    0.00078517
     atom   17 type  1   force =     0.00055353    0.00031960    0.00005313
     atom   18 type  2   force =     0.00068751    0.00122388   -0.00107214
     atom   19 type  2   force =     0.00140368   -0.00001655   -0.00107217
     atom   20 type  2   force =    -0.00047255   -0.00027281   -0.00206469
     atom   21 type  1   force =    -0.00099223   -0.00057285   -0.00005276
     atom   22 type  2   force =     0.00078821   -0.00017137   -0.00055733
     atom   23 type  2   force =    -0.00009131   -0.00005270   -0.00005840
     atom   24 type  2   force =     0.00024572    0.00076827   -0.00055732
     atom   25 type  3   force =    -0.00198739   -0.00114742    0.00003143

     Total force =     0.004432     Total SCF correction =     0.000071


     Computing stress (Cartesian axis) and pressure


     negative rho (up, down):  1.542E-04 1.182E-04
          total   stress  (Ry/bohr**3)                   (kbar)     P=       -9.14
  -0.00009213  -0.00000125  -0.00000273          -13.55       -0.18       -0.40
  -0.00000125  -0.00009068  -0.00000157           -0.18      -13.34       -0.23
  -0.00000273  -0.00000157  -0.00000363           -0.40       -0.23       -0.53

     Energy error            =      3.9E-05 Ry
     Gradient error          =      2.1E-03 Ry/Bohr

     number of scf cycles    =  19
     number of bfgs steps    =  17

     energy             old  =   -7077.4253894655 Ry
     energy             new  =   -7077.4254282803 Ry

     CASE: energy            _new < energy            _old

     new trust radius        =       0.0073499037 bohr
     new conv_thr            =       0.0000000002 Ry


ATOMIC_POSITIONS (angstrom)
Ni               5.3171990772        3.0698863186       11.0000000000    0   0   0
Pd               2.6585995386        3.0698851333       11.0000764482    0   0   0
Pd               3.9878982814        0.7674721723       11.0000764482    0   0   0
Pd               1.3293007958        0.7674721723       11.0000764482    0   0   0
Ni               2.6585995386        1.5349431593       13.1707374333    0   0   0
Pd               3.9878982814        3.8373584909       13.1708138815    0   0   0
Pd               5.3171990772        1.5349419740       13.1708138815    0   0   0
Pd               6.6464998731        3.8373584909       13.1708138815    0   0   0
Ni              -0.0002758966       -0.0001593056       15.3381160510
Pd               5.3234543299        4.6068605081       15.3337606688
Pd               3.9905907931        2.3039686836       15.3501406116
Pd               6.6513853780        2.3068164589       15.3337606915
Ni               5.3108150588        3.0662006032       17.5241743965
Pd               3.9736848775        0.7621386032       17.5272758846
Pd               2.6468737616        3.0602428036       17.5272759824
Pd               1.3135436334        0.7583748440       17.4855833415
Ni               2.6498530839        1.5298935823       19.6955230274
Pd               3.9945901162        3.8368839049       19.6846442007
Pd               5.3201338446        1.5409748645       19.6846441976
Pd               6.6429258516        3.8352951315       19.6952750829
Ni               0.0245374154        0.0141669071       21.7803604599
Pd               5.3346632696        4.6326203874       21.8989514761
Pd               4.0056042172        2.3126368750       21.9094127117
Pd               6.6792983296        2.3036441000       21.8989514837
H                3.9776774860        2.2965134952       23.4644657041    0   0   1



     Writing config-only to output data dir /tmpu/isholek_g/isholek/MIGUEL/QE/Hydrogen/111_2x2/SAVE/Ni1Pd3_111-T1.save/ :
     XML data file
     NEW-OLD atomic charge density approx. for the potential

     Check: negative core charge=   -0.000002

     negative rho (up, down):  1.457E-04 1.296E-04
     Generating pointlists ...

     total cpu time spent up to now is   123536.8 secs

     Self-consistent Calculation

     iteration #  1     ecut=    60.00 Ry     beta= 0.20
     Davidson diagonalization with overlap
     ethr =  1.00E-06,  avg # of iterations =  4.8

     negative rho (up, down):  1.558E-04 1.290E-04

     total cpu time spent up to now is   123926.8 secs

     total energy              =   -7077.42534586 Ry
     estimated scf accuracy    <       0.00094146 Ry

     total magnetization       =     9.91 Bohr mag/cell
     absolute magnetization    =    10.78 Bohr mag/cell

     iteration #  2     ecut=    60.00 Ry     beta= 0.20
     Davidson diagonalization with overlap
     ethr =  3.91E-07,  avg # of iterations =  1.1

     negative rho (up, down):  1.571E-04 1.286E-04

     total cpu time spent up to now is   124094.3 secs

     total energy              =   -7077.42539549 Ry
     estimated scf accuracy    <       0.00030411 Ry

     total magnetization       =     9.93 Bohr mag/cell
     absolute magnetization    =    10.80 Bohr mag/cell

     iteration #  3     ecut=    60.00 Ry     beta= 0.20
     Davidson diagonalization with overlap
     ethr =  1.26E-07,  avg # of iterations =  1.3

     negative rho (up, down):  1.584E-04 1.283E-04

     total cpu time spent up to now is   124263.6 secs

     total energy              =   -7077.42542379 Ry
     estimated scf accuracy    <       0.00016723 Ry

     total magnetization       =     9.93 Bohr mag/cell
     absolute magnetization    =    10.80 Bohr mag/cell

     iteration #  4     ecut=    60.00 Ry     beta= 0.20
     Davidson diagonalization with overlap
     ethr =  6.94E-08,  avg # of iterations =  1.0

     negative rho (up, down):  1.588E-04 1.275E-04

     total cpu time spent up to now is   124429.8 secs

     total energy              =   -7077.42543705 Ry
     estimated scf accuracy    <       0.00002383 Ry

     total magnetization       =     9.92 Bohr mag/cell
     absolute magnetization    =    10.79 Bohr mag/cell

     iteration #  5     ecut=    60.00 Ry     beta= 0.20
     Davidson diagonalization with overlap
     ethr =  9.89E-09,  avg # of iterations =  2.2

     negative rho (up, down):  1.590E-04 1.267E-04

     total cpu time spent up to now is   124615.1 secs

     total energy              =   -7077.42544651 Ry
     estimated scf accuracy    <       0.00002450 Ry

     total magnetization       =     9.93 Bohr mag/cell
     absolute magnetization    =    10.80 Bohr mag/cell

     iteration #  6     ecut=    60.00 Ry     beta= 0.20
     Davidson diagonalization with overlap
     ethr =  9.89E-09,  avg # of iterations =  1.0

     negative rho (up, down):  1.593E-04 1.262E-04

     total cpu time spent up to now is   124781.8 secs

     total energy              =   -7077.42545361 Ry
     estimated scf accuracy    <       0.00000873 Ry

     total magnetization       =     9.93 Bohr mag/cell
     absolute magnetization    =    10.80 Bohr mag/cell

     iteration #  7     ecut=    60.00 Ry     beta= 0.20
     Davidson diagonalization with overlap
     ethr =  3.62E-09,  avg # of iterations =  2.0

     negative rho (up, down):  1.585E-04 1.244E-04

     total cpu time spent up to now is   124964.8 secs

     total energy              =   -7077.42546177 Ry
     estimated scf accuracy    <       0.00000511 Ry

     total magnetization       =     9.93 Bohr mag/cell
     absolute magnetization    =    10.80 Bohr mag/cell

     iteration #  8     ecut=    60.00 Ry     beta= 0.20
     Davidson diagonalization with overlap
     ethr =  2.12E-09,  avg # of iterations =  2.2

     negative rho (up, down):  1.578E-04 1.231E-04

     total cpu time spent up to now is   125173.4 secs

     total energy              =   -7077.42546299 Ry
     estimated scf accuracy    <       0.00000216 Ry

     total magnetization       =     9.93 Bohr mag/cell
     absolute magnetization    =    10.80 Bohr mag/cell

     iteration #  9     ecut=    60.00 Ry     beta= 0.20
     Davidson diagonalization with overlap
     ethr =  8.98E-10,  avg # of iterations =  3.2

     negative rho (up, down):  1.561E-04 1.213E-04

     total cpu time spent up to now is   125369.5 secs

     total energy              =   -7077.42546325 Ry
     estimated scf accuracy    <       0.00000095 Ry

     total magnetization       =     9.93 Bohr mag/cell
     absolute magnetization    =    10.80 Bohr mag/cell

     iteration # 10     ecut=    60.00 Ry     beta= 0.20
     Davidson diagonalization with overlap
     ethr =  3.93E-10,  avg # of iterations =  2.1

     negative rho (up, down):  1.554E-04 1.203E-04

     total cpu time spent up to now is   125548.3 secs

     total energy              =   -7077.42546332 Ry
     estimated scf accuracy    <       0.00000018 Ry

     total magnetization       =     9.93 Bohr mag/cell
     absolute magnetization    =    10.80 Bohr mag/cell

     iteration # 11     ecut=    60.00 Ry     beta= 0.20
     Davidson diagonalization with overlap
     ethr =  7.62E-11,  avg # of iterations =  3.4

     negative rho (up, down):  1.546E-04 1.193E-04

     total cpu time spent up to now is   125777.5 secs

     total energy              =   -7077.42546334 Ry
     estimated scf accuracy    <       0.00000015 Ry

     total magnetization       =     9.93 Bohr mag/cell
     absolute magnetization    =    10.80 Bohr mag/cell

     iteration # 12     ecut=    60.00 Ry     beta= 0.20
     Davidson diagonalization with overlap
     ethr =  6.11E-11,  avg # of iterations =  1.1

     negative rho (up, down):  1.534E-04 1.180E-04

     total cpu time spent up to now is   125946.7 secs

     total energy              =   -7077.42546334 Ry
     estimated scf accuracy    <       0.00000006 Ry

     total magnetization       =     9.93 Bohr mag/cell
     absolute magnetization    =    10.80 Bohr mag/cell

     iteration # 13     ecut=    60.00 Ry     beta= 0.20
     Davidson diagonalization with overlap
     ethr =  2.54E-11,  avg # of iterations =  2.3

     negative rho (up, down):  1.530E-04 1.175E-04

     total cpu time spent up to now is   126135.0 secs

     total energy              =   -7077.42546335 Ry
     estimated scf accuracy    <       0.00000013 Ry

     total magnetization       =     9.93 Bohr mag/cell
     absolute magnetization    =    10.80 Bohr mag/cell

     iteration # 14     ecut=    60.00 Ry     beta= 0.20
     Davidson diagonalization with overlap
     ethr =  2.54E-11,  avg # of iterations =  1.0

     negative rho (up, down):  1.526E-04 1.170E-04

     total cpu time spent up to now is   126303.7 secs

     total energy              =   -7077.42546334 Ry
     estimated scf accuracy    <       0.00000008 Ry

     total magnetization       =     9.93 Bohr mag/cell
     absolute magnetization    =    10.80 Bohr mag/cell

     iteration # 15     ecut=    60.00 Ry     beta= 0.20
     Davidson diagonalization with overlap
     ethr =  2.54E-11,  avg # of iterations =  1.0

     negative rho (up, down):  1.514E-04 1.158E-04

     total cpu time spent up to now is   126471.9 secs

     total energy              =   -7077.42546333 Ry
     estimated scf accuracy    <       0.00000008 Ry

     total magnetization       =     9.93 Bohr mag/cell
     absolute magnetization    =    10.80 Bohr mag/cell

     iteration # 16     ecut=    60.00 Ry     beta= 0.20
     Davidson diagonalization with overlap
     ethr =  2.54E-11,  avg # of iterations =  1.0

     negative rho (up, down):  1.508E-04 1.151E-04

     total cpu time spent up to now is   126640.5 secs

     total energy              =   -7077.42546333 Ry
     estimated scf accuracy    <       0.00000006 Ry

     total magnetization       =     9.93 Bohr mag/cell
     absolute magnetization    =    10.80 Bohr mag/cell

     iteration # 17     ecut=    60.00 Ry     beta= 0.20
     Davidson diagonalization with overlap
     ethr =  2.54E-11,  avg # of iterations =  1.0

     negative rho (up, down):  1.507E-04 1.149E-04

     total cpu time spent up to now is   126808.0 secs

     total energy              =   -7077.42546334 Ry
     estimated scf accuracy    <       0.00000002 Ry

     total magnetization       =     9.93 Bohr mag/cell
     absolute magnetization    =    10.80 Bohr mag/cell

     iteration # 18     ecut=    60.00 Ry     beta= 0.20
     Davidson diagonalization with overlap
     ethr =  6.77E-12,  avg # of iterations =  1.2

     negative rho (up, down):  1.508E-04 1.150E-04

     total cpu time spent up to now is   126977.4 secs

     total energy              =   -7077.42546334 Ry
     estimated scf accuracy    <          4.1E-09 Ry

     total magnetization       =     9.93 Bohr mag/cell
     absolute magnetization    =    10.80 Bohr mag/cell

     iteration # 19     ecut=    60.00 Ry     beta= 0.20
     Davidson diagonalization with overlap
     ethr =  1.68E-12,  avg # of iterations =  2.2

     negative rho (up, down):  1.510E-04 1.151E-04

     total cpu time spent up to now is   127154.1 secs

     total energy              =   -7077.42546334 Ry
     estimated scf accuracy    <          7.6E-10 Ry

     total magnetization       =     9.93 Bohr mag/cell
     absolute magnetization    =    10.80 Bohr mag/cell

     iteration # 20     ecut=    60.00 Ry     beta= 0.20
     Davidson diagonalization with overlap
     ethr =  3.14E-13,  avg # of iterations =  3.7

     negative rho (up, down):  1.512E-04 1.153E-04

     total cpu time spent up to now is   127367.5 secs

     total energy              =   -7077.42546334 Ry
     estimated scf accuracy    <          5.8E-10 Ry

     total magnetization       =     9.93 Bohr mag/cell
     absolute magnetization    =    10.80 Bohr mag/cell

     iteration # 21     ecut=    60.00 Ry     beta= 0.20
     Davidson diagonalization with overlap
     ethr =  2.39E-13,  avg # of iterations =  1.1

     negative rho (up, down):  1.512E-04 1.154E-04

     total cpu time spent up to now is   127538.8 secs

     total energy              =   -7077.42546334 Ry
     estimated scf accuracy    <          7.8E-10 Ry

     total magnetization       =     9.93 Bohr mag/cell
     absolute magnetization    =    10.80 Bohr mag/cell

     iteration # 22     ecut=    60.00 Ry     beta= 0.20
     Davidson diagonalization with overlap
     ethr =  2.39E-13,  avg # of iterations =  1.0

     negative rho (up, down):  1.516E-04 1.157E-04

     total cpu time spent up to now is   127705.8 secs

     total energy              =   -7077.42546334 Ry
     estimated scf accuracy    <          5.0E-10 Ry

     total magnetization       =     9.93 Bohr mag/cell
     absolute magnetization    =    10.80 Bohr mag/cell

     iteration # 23     ecut=    60.00 Ry     beta= 0.20
     Davidson diagonalization with overlap
     ethr =  2.07E-13,  avg # of iterations =  1.1

     negative rho (up, down):  1.520E-04 1.160E-04

     total cpu time spent up to now is   127875.0 secs

     total energy              =   -7077.42546334 Ry
     estimated scf accuracy    <          7.1E-10 Ry

     total magnetization       =     9.93 Bohr mag/cell
     absolute magnetization    =    10.80 Bohr mag/cell

     iteration # 24     ecut=    60.00 Ry     beta= 0.20
     Davidson diagonalization with overlap
     ethr =  2.07E-13,  avg # of iterations =  1.0

     negative rho (up, down):  1.524E-04 1.165E-04

     total cpu time spent up to now is   128043.6 secs

     total energy              =   -7077.42546334 Ry
     estimated scf accuracy    <          3.6E-10 Ry

     total magnetization       =     9.93 Bohr mag/cell
     absolute magnetization    =    10.80 Bohr mag/cell

     iteration # 25     ecut=    60.00 Ry     beta= 0.20
     Davidson diagonalization with overlap
     ethr =  1.48E-13,  avg # of iterations =  1.3

     negative rho (up, down):  1.527E-04 1.168E-04

     total cpu time spent up to now is   128216.1 secs

     total energy              =   -7077.42546334 Ry
     estimated scf accuracy    <          3.4E-10 Ry

     total magnetization       =     9.93 Bohr mag/cell
     absolute magnetization    =    10.80 Bohr mag/cell

     iteration # 26     ecut=    60.00 Ry     beta= 0.20
     Davidson diagonalization with overlap
     ethr =  1.43E-13,  avg # of iterations =  1.0

     negative rho (up, down):  1.531E-04 1.172E-04

     total cpu time spent up to now is   128386.3 secs

     total energy              =   -7077.42546334 Ry
     estimated scf accuracy    <          4.8E-10 Ry

     total magnetization       =     9.93 Bohr mag/cell
     absolute magnetization    =    10.80 Bohr mag/cell

     iteration # 27     ecut=    60.00 Ry     beta= 0.20
     Davidson diagonalization with overlap
     ethr =  1.43E-13,  avg # of iterations =  1.1

     negative rho (up, down):  1.534E-04 1.175E-04

     total cpu time spent up to now is   128555.5 secs

     total energy              =   -7077.42546334 Ry
     estimated scf accuracy    <          7.6E-10 Ry

     total magnetization       =     9.93 Bohr mag/cell
     absolute magnetization    =    10.80 Bohr mag/cell

     iteration # 28     ecut=    60.00 Ry     beta= 0.20
     Davidson diagonalization with overlap
     ethr =  1.43E-13,  avg # of iterations =  1.0

     negative rho (up, down):  1.534E-04 1.174E-04

     total cpu time spent up to now is   128722.5 secs

     total energy              =   -7077.42546334 Ry
     estimated scf accuracy    <          9.7E-10 Ry

     total magnetization       =     9.93 Bohr mag/cell
     absolute magnetization    =    10.80 Bohr mag/cell

     iteration # 29     ecut=    60.00 Ry     beta= 0.20
     Davidson diagonalization with overlap
     ethr =  1.43E-13,  avg # of iterations =  1.0

     negative rho (up, down):  1.534E-04 1.174E-04

     total cpu time spent up to now is   128889.0 secs

     total energy              =   -7077.42546334 Ry
     estimated scf accuracy    <          1.0E-09 Ry

     total magnetization       =     9.93 Bohr mag/cell
     absolute magnetization    =    10.80 Bohr mag/cell

     iteration # 30     ecut=    60.00 Ry     beta= 0.20
     Davidson diagonalization with overlap
     ethr =  1.43E-13,  avg # of iterations =  1.0

     negative rho (up, down):  1.534E-04 1.174E-04

     total cpu time spent up to now is   129058.7 secs

     total energy              =   -7077.42546334 Ry
     estimated scf accuracy    <          1.1E-09 Ry

     total magnetization       =     9.93 Bohr mag/cell
     absolute magnetization    =    10.80 Bohr mag/cell

     iteration # 31     ecut=    60.00 Ry     beta= 0.20
     Davidson diagonalization with overlap
     ethr =  1.43E-13,  avg # of iterations =  1.0

     negative rho (up, down):  1.535E-04 1.175E-04

     total cpu time spent up to now is   129227.5 secs

     total energy              =   -7077.42546334 Ry
     estimated scf accuracy    <          8.0E-10 Ry

     total magnetization       =     9.93 Bohr mag/cell
     absolute magnetization    =    10.80 Bohr mag/cell

     iteration # 32     ecut=    60.00 Ry     beta= 0.20
     Davidson diagonalization with overlap
     ethr =  1.43E-13,  avg # of iterations =  1.0

     negative rho (up, down):  1.536E-04 1.176E-04

     total cpu time spent up to now is   129394.4 secs

     total energy              =   -7077.42546334 Ry
     estimated scf accuracy    <          6.3E-10 Ry

     total magnetization       =     9.93 Bohr mag/cell
     absolute magnetization    =    10.80 Bohr mag/cell

     iteration # 33     ecut=    60.00 Ry     beta= 0.20
     Davidson diagonalization with overlap
     ethr =  1.43E-13,  avg # of iterations =  1.0

     negative rho (up, down):  1.539E-04 1.179E-04

     total cpu time spent up to now is   129563.5 secs

     total energy              =   -7077.42546335 Ry
     estimated scf accuracy    <          5.2E-10 Ry

     total magnetization       =     9.93 Bohr mag/cell
     absolute magnetization    =    10.80 Bohr mag/cell

     iteration # 34     ecut=    60.00 Ry     beta= 0.20
     Davidson diagonalization with overlap
     ethr =  1.43E-13,  avg # of iterations =  1.0

     negative rho (up, down):  1.542E-04 1.183E-04
 
     Magnetic moment per site  (integrated on atomic sphere of radius R)
     atom   1 (R=0.202)  charge=  8.7467  magn=  0.9618
     atom   2 (R=0.114)  charge=  4.0981  magn=  0.1532
     atom   3 (R=0.114)  charge=  4.0981  magn=  0.1532
     atom   4 (R=0.114)  charge=  4.0982  magn=  0.1507
     atom   5 (R=0.202)  charge=  8.8229  magn=  0.9262
     atom   6 (R=0.114)  charge=  4.0923  magn=  0.1891
     atom   7 (R=0.114)  charge=  4.0923  magn=  0.1891
     atom   8 (R=0.114)  charge=  4.0916  magn=  0.1894
     atom   9 (R=0.202)  charge=  8.8353  magn=  0.8680
     atom  10 (R=0.114)  charge=  4.0888  magn=  0.1840
     atom  11 (R=0.114)  charge=  4.0892  magn=  0.1801
     atom  12 (R=0.114)  charge=  4.0888  magn=  0.1840
     atom  13 (R=0.202)  charge=  8.8366  magn=  0.8519
     atom  14 (R=0.114)  charge=  4.0886  magn=  0.1762
     atom  15 (R=0.114)  charge=  4.0886  magn=  0.1762
     atom  16 (R=0.114)  charge=  4.0918  magn=  0.1788
     atom  17 (R=0.202)  charge=  8.8215  magn=  0.8662
     atom  18 (R=0.114)  charge=  4.0913  magn=  0.1692
     atom  19 (R=0.114)  charge=  4.0913  magn=  0.1692
     atom  20 (R=0.114)  charge=  4.0902  magn=  0.1855
     atom  21 (R=0.202)  charge=  8.7646  magn=  0.9259
     atom  22 (R=0.114)  charge=  4.1006  magn=  0.1321
     atom  23 (R=0.114)  charge=  4.0742  magn=  0.0666
     atom  24 (R=0.114)  charge=  4.1006  magn=  0.1321
     atom  25 (R=0.114)  charge=  0.6525  magn= -0.0058

     total cpu time spent up to now is   129727.4 secs

     End of self-consistent calculation

     Number of k-points >= 100: set verbosity='high' to print the bands.

     the Fermi energy is    -5.1854 ev

!    total energy              =   -7077.42546335 Ry
     total all-electron energy =   -199909.862034 Ry
     estimated scf accuracy    <          1.9E-10 Ry
     smearing contrib. (-TS)   =       0.00015670 Ry
     internal energy E=F+TS    =   -7077.42562005 Ry

     The total energy is F=E-TS. E is the sum of the following terms:
     one-electron contribution =  -61062.44467841 Ry
     hartree contribution      =   30718.41852888 Ry
     xc contribution           =    -835.44976471 Ry
     ewald contribution        =   29236.19754059 Ry
     DFT-D3 Dispersion         =      -2.52984379 Ry
     one-center paw contrib.   =   -5131.61740261 Ry

     total magnetization       =     9.93 Bohr mag/cell
     absolute magnetization    =    10.80 Bohr mag/cell

     convergence has been achieved in  34 iterations

     negative rho (up, down):  1.542E-04 1.183E-04

     Forces acting on atoms (cartesian axes, Ry/au):

     atom    1 type  1   force =    -0.00009139   -0.00005277    0.01598551
     atom    2 type  2   force =    -0.00035705   -0.01428742   -0.00888506
     atom    3 type  2   force =    -0.01255179    0.00683449   -0.00888506
     atom    4 type  2   force =     0.01238054    0.00714791   -0.00966271
     atom    5 type  1   force =     0.00067613    0.00039037   -0.00014375
     atom    6 type  2   force =    -0.00033373   -0.00086176    0.00554587
     atom    7 type  2   force =    -0.00091317    0.00014186    0.00554587
     atom    8 type  2   force =     0.00136541    0.00078832    0.00534901
     atom    9 type  1   force =    -0.00024991   -0.00014428   -0.00035802
     atom   10 type  2   force =    -0.00041730    0.00009602    0.00108195
     atom   11 type  2   force =     0.00051812    0.00029914   -0.00001324
     atom   12 type  2   force =    -0.00012550   -0.00040940    0.00108194
     atom   13 type  1   force =     0.00015909    0.00009184   -0.00059272
     atom   14 type  2   force =     0.00007567    0.00013520   -0.00053228
     atom   15 type  2   force =     0.00015493   -0.00000206   -0.00053233
     atom   16 type  2   force =     0.00024419    0.00014098   -0.00014323
     atom   17 type  1   force =     0.00064399    0.00037179   -0.00007002
     atom   18 type  2   force =     0.00046222    0.00033955   -0.00130295
     atom   19 type  2   force =     0.00052515    0.00023048   -0.00130297
     atom   20 type  2   force =    -0.00051762   -0.00029880   -0.00174106
     atom   21 type  1   force =    -0.00084811   -0.00048965    0.00023175
     atom   22 type  2   force =     0.00056715   -0.00021530   -0.00042263
     atom   23 type  2   force =     0.00053632    0.00030965    0.00022158
     atom   24 type  2   force =     0.00009714    0.00059881   -0.00042262
     atom   25 type  3   force =    -0.00200048   -0.00115498   -0.00003282

     Total force =     0.003862     Total SCF correction =     0.000096


     Computing stress (Cartesian axis) and pressure


     negative rho (up, down):  1.542E-04 1.183E-04
          total   stress  (Ry/bohr**3)                   (kbar)     P=       -9.01
  -0.00009158  -0.00000125  -0.00000282          -13.47       -0.18       -0.41
  -0.00000125  -0.00009014  -0.00000163           -0.18      -13.26       -0.24
  -0.00000282  -0.00000163  -0.00000200           -0.41       -0.24       -0.29

     Energy error            =      3.5E-05 Ry
     Gradient error          =      1.7E-03 Ry/Bohr

     number of scf cycles    =  20
     number of bfgs steps    =  18

     energy             old  =   -7077.4254282803 Ry
     energy             new  =   -7077.4254633466 Ry

     CASE: energy            _new < energy            _old

     new trust radius        =       0.0073586657 bohr
     new conv_thr            =       0.0000000002 Ry


ATOMIC_POSITIONS (angstrom)
Ni               5.3171990772        3.0698863186       11.0000000000    0   0   0
Pd               2.6585995386        3.0698851333       11.0000764482    0   0   0
Pd               3.9878982814        0.7674721723       11.0000764482    0   0   0
Pd               1.3293007958        0.7674721723       11.0000764482    0   0   0
Ni               2.6585995386        1.5349431593       13.1707374333    0   0   0
Pd               3.9878982814        3.8373584909       13.1708138815    0   0   0
Pd               5.3171990772        1.5349419740       13.1708138815    0   0   0
Pd               6.6464998731        3.8373584909       13.1708138815    0   0   0
Ni              -0.0010902924       -0.0006294846       15.3358653914
Pd               5.3228024280        4.6073055000       15.3330273654
Pd               3.9909895323        2.3041989067       15.3494410579
Pd               6.6514447893        2.3060294268       15.3330273891
Ni               5.3114522754        3.0665685011       17.5219135633
Pd               3.9726024880        0.7623717920       17.5262318155
Pd               2.6465345155        3.0591888473       17.5262318720
Pd               1.3121645880        0.7575786508       17.4845867518
Ni               2.6516352697        1.5309225753       19.6945913847
Pd               3.9970345101        3.8388002496       19.6822956340
Pd               5.3230156772        1.5421335890       19.6822955954
Pd               6.6444463610        3.8361729906       19.6926113651
Ni               0.0240210300        0.0138687791       21.7780994688
Pd               5.3354045035        4.6323204634       21.8972558534
Pd               4.0051600294        2.3123804082       21.9071544654
Pd               6.6794092333        2.3044359522       21.8972558825
H                3.9776774860        2.2965134952       23.4625445013    0   0   1



     Writing config-only to output data dir /tmpu/isholek_g/isholek/MIGUEL/QE/Hydrogen/111_2x2/SAVE/Ni1Pd3_111-T1.save/ :
     XML data file
     NEW-OLD atomic charge density approx. for the potential

     Check: negative core charge=   -0.000002

     negative rho (up, down):  1.458E-04 1.297E-04
     Generating pointlists ...

     total cpu time spent up to now is   130002.7 secs

     Self-consistent Calculation

     iteration #  1     ecut=    60.00 Ry     beta= 0.20
     Davidson diagonalization with overlap
     ethr =  1.00E-06,  avg # of iterations =  4.1

     negative rho (up, down):  1.556E-04 1.288E-04

     total cpu time spent up to now is   130381.2 secs

     total energy              =   -7077.42539806 Ry
     estimated scf accuracy    <       0.00069748 Ry

     total magnetization       =     9.92 Bohr mag/cell
     absolute magnetization    =    10.79 Bohr mag/cell

     iteration #  2     ecut=    60.00 Ry     beta= 0.20
     Davidson diagonalization with overlap
     ethr =  2.89E-07,  avg # of iterations =  1.2

     negative rho (up, down):  1.564E-04 1.279E-04

     total cpu time spent up to now is   130549.2 secs

     total energy              =   -7077.42543700 Ry
     estimated scf accuracy    <       0.00028134 Ry

     total magnetization       =     9.93 Bohr mag/cell
     absolute magnetization    =    10.80 Bohr mag/cell

     iteration #  3     ecut=    60.00 Ry     beta= 0.20
     Davidson diagonalization with overlap
     ethr =  1.17E-07,  avg # of iterations =  1.1

     negative rho (up, down):  1.573E-04 1.272E-04

     total cpu time spent up to now is   130717.3 secs

     total energy              =   -7077.42545947 Ry
     estimated scf accuracy    <       0.00012103 Ry

     total magnetization       =     9.93 Bohr mag/cell
     absolute magnetization    =    10.80 Bohr mag/cell

     iteration #  4     ecut=    60.00 Ry     beta= 0.20
     Davidson diagonalization with overlap
     ethr =  5.02E-08,  avg # of iterations =  1.1

     negative rho (up, down):  1.578E-04 1.266E-04

     total cpu time spent up to now is   130885.7 secs

     total energy              =   -7077.42546973 Ry
     estimated scf accuracy    <       0.00001508 Ry

     total magnetization       =     9.92 Bohr mag/cell
     absolute magnetization    =    10.79 Bohr mag/cell

     iteration #  5     ecut=    60.00 Ry     beta= 0.20
     Davidson diagonalization with overlap
     ethr =  6.26E-09,  avg # of iterations =  2.6

     negative rho (up, down):  1.578E-04 1.255E-04

     total cpu time spent up to now is   131083.1 secs

     total energy              =   -7077.42547752 Ry
     estimated scf accuracy    <       0.00001567 Ry

     total magnetization       =     9.93 Bohr mag/cell
     absolute magnetization    =    10.79 Bohr mag/cell

     iteration #  6     ecut=    60.00 Ry     beta= 0.20
     Davidson diagonalization with overlap
     ethr =  6.26E-09,  avg # of iterations =  1.1

     negative rho (up, down):  1.583E-04 1.251E-04

     total cpu time spent up to now is   131250.4 secs

     total energy              =   -7077.42548376 Ry
     estimated scf accuracy    <       0.00000544 Ry

     total magnetization       =     9.93 Bohr mag/cell
     absolute magnetization    =    10.80 Bohr mag/cell

     iteration #  7     ecut=    60.00 Ry     beta= 0.20
     Davidson diagonalization with overlap
     ethr =  2.26E-09,  avg # of iterations =  2.0

     negative rho (up, down):  1.581E-04 1.239E-04

     total cpu time spent up to now is   131436.1 secs

     total energy              =   -7077.42548809 Ry
     estimated scf accuracy    <       0.00000274 Ry

     total magnetization       =     9.92 Bohr mag/cell
     absolute magnetization    =    10.79 Bohr mag/cell

     iteration #  8     ecut=    60.00 Ry     beta= 0.20
     Davidson diagonalization with overlap
     ethr =  1.14E-09,  avg # of iterations =  2.3

     negative rho (up, down):  1.576E-04 1.229E-04

     total cpu time spent up to now is   131649.5 secs

     total energy              =   -7077.42548873 Ry
     estimated scf accuracy    <       0.00000109 Ry

     total magnetization       =     9.92 Bohr mag/cell
     absolute magnetization    =    10.79 Bohr mag/cell

     iteration #  9     ecut=    60.00 Ry     beta= 0.20
     Davidson diagonalization with overlap
     ethr =  4.51E-10,  avg # of iterations =  2.6

     negative rho (up, down):  1.566E-04 1.217E-04

     total cpu time spent up to now is   131843.3 secs

     total energy              =   -7077.42548880 Ry
     estimated scf accuracy    <       0.00000053 Ry

     total magnetization       =     9.92 Bohr mag/cell
     absolute magnetization    =    10.79 Bohr mag/cell

     iteration # 10     ecut=    60.00 Ry     beta= 0.20
     Davidson diagonalization with overlap
     ethr =  2.21E-10,  avg # of iterations =  2.2

     negative rho (up, down):  1.563E-04 1.212E-04

     total cpu time spent up to now is   132024.0 secs

     total energy              =   -7077.42548885 Ry
     estimated scf accuracy    <       0.00000014 Ry

     total magnetization       =     9.92 Bohr mag/cell
     absolute magnetization    =    10.79 Bohr mag/cell

     iteration # 11     ecut=    60.00 Ry     beta= 0.20
     Davidson diagonalization with overlap
     ethr =  5.74E-11,  avg # of iterations =  2.8

     negative rho (up, down):  1.556E-04 1.203E-04

     total cpu time spent up to now is   132232.1 secs

     total energy              =   -7077.42548887 Ry
     estimated scf accuracy    <       0.00000012 Ry

     total magnetization       =     9.92 Bohr mag/cell
     absolute magnetization    =    10.79 Bohr mag/cell

     iteration # 12     ecut=    60.00 Ry     beta= 0.20
     Davidson diagonalization with overlap
     ethr =  4.96E-11,  avg # of iterations =  1.2

     negative rho (up, down):  1.549E-04 1.195E-04

     total cpu time spent up to now is   132401.1 secs

     total energy              =   -7077.42548886 Ry
     estimated scf accuracy    <       0.00000004 Ry

     total magnetization       =     9.92 Bohr mag/cell
     absolute magnetization    =    10.79 Bohr mag/cell

     iteration # 13     ecut=    60.00 Ry     beta= 0.20
     Davidson diagonalization with overlap
     ethr =  1.79E-11,  avg # of iterations =  1.8

     negative rho (up, down):  1.546E-04 1.191E-04

     total cpu time spent up to now is   132583.5 secs

     total energy              =   -7077.42548886 Ry
     estimated scf accuracy    <       0.00000002 Ry

     total magnetization       =     9.92 Bohr mag/cell
     absolute magnetization    =    10.79 Bohr mag/cell

     iteration # 14     ecut=    60.00 Ry     beta= 0.20
     Davidson diagonalization with overlap
     ethr =  9.05E-12,  avg # of iterations =  1.8

     negative rho (up, down):  1.544E-04 1.188E-04

     total cpu time spent up to now is   132757.6 secs

     total energy              =   -7077.42548886 Ry
     estimated scf accuracy    <       0.00000004 Ry

     total magnetization       =     9.92 Bohr mag/cell
     absolute magnetization    =    10.79 Bohr mag/cell

     iteration # 15     ecut=    60.00 Ry     beta= 0.20
     Davidson diagonalization with overlap
     ethr =  9.05E-12,  avg # of iterations =  1.0

     negative rho (up, down):  1.539E-04 1.182E-04

     total cpu time spent up to now is   132924.7 secs

     total energy              =   -7077.42548886 Ry
     estimated scf accuracy    <       0.00000005 Ry

     total magnetization       =     9.92 Bohr mag/cell
     absolute magnetization    =    10.79 Bohr mag/cell

     iteration # 16     ecut=    60.00 Ry     beta= 0.20
     Davidson diagonalization with overlap
     ethr =  9.05E-12,  avg # of iterations =  1.0

     negative rho (up, down):  1.532E-04 1.174E-04

     total cpu time spent up to now is   133091.1 secs

     total energy              =   -7077.42548886 Ry
     estimated scf accuracy    <       0.00000007 Ry

     total magnetization       =     9.92 Bohr mag/cell
     absolute magnetization    =    10.79 Bohr mag/cell

     iteration # 17     ecut=    60.00 Ry     beta= 0.20
     Davidson diagonalization with overlap
     ethr =  9.05E-12,  avg # of iterations =  1.0

     negative rho (up, down):  1.529E-04 1.171E-04

     total cpu time spent up to now is   133259.6 secs

     total energy              =   -7077.42548886 Ry
     estimated scf accuracy    <       0.00000003 Ry

     total magnetization       =     9.92 Bohr mag/cell
     absolute magnetization    =    10.79 Bohr mag/cell

     iteration # 18     ecut=    60.00 Ry     beta= 0.20
     Davidson diagonalization with overlap
     ethr =  9.05E-12,  avg # of iterations =  1.0

     negative rho (up, down):  1.525E-04 1.167E-04

     total cpu time spent up to now is   133428.1 secs

     total energy              =   -7077.42548886 Ry
     estimated scf accuracy    <       0.00000001 Ry

     total magnetization       =     9.92 Bohr mag/cell
     absolute magnetization    =    10.79 Bohr mag/cell

     iteration # 19     ecut=    60.00 Ry     beta= 0.20
     Davidson diagonalization with overlap
     ethr =  4.72E-12,  avg # of iterations =  1.0

     negative rho (up, down):  1.524E-04 1.165E-04

     total cpu time spent up to now is   133596.1 secs

     total energy              =   -7077.42548886 Ry
     estimated scf accuracy    <          2.3E-09 Ry

     total magnetization       =     9.92 Bohr mag/cell
     absolute magnetization    =    10.79 Bohr mag/cell

     iteration # 20     ecut=    60.00 Ry     beta= 0.20
     Davidson diagonalization with overlap
     ethr =  9.46E-13,  avg # of iterations =  2.2

     negative rho (up, down):  1.524E-04 1.165E-04

     total cpu time spent up to now is   133781.5 secs

     total energy              =   -7077.42548886 Ry
     estimated scf accuracy    <          4.5E-10 Ry

     total magnetization       =     9.92 Bohr mag/cell
     absolute magnetization    =    10.79 Bohr mag/cell

     iteration # 21     ecut=    60.00 Ry     beta= 0.20
     Davidson diagonalization with overlap
     ethr =  1.87E-13,  avg # of iterations =  2.9

     negative rho (up, down):  1.526E-04 1.167E-04

     total cpu time spent up to now is   133961.8 secs

     total energy              =   -7077.42548886 Ry
     estimated scf accuracy    <          2.6E-10 Ry

     total magnetization       =     9.92 Bohr mag/cell
     absolute magnetization    =    10.79 Bohr mag/cell

     iteration # 22     ecut=    60.00 Ry     beta= 0.20
     Davidson diagonalization with overlap
     ethr =  1.06E-13,  avg # of iterations =  2.1

     negative rho (up, down):  1.543E-04 1.183E-04
 
     Magnetic moment per site  (integrated on atomic sphere of radius R)
     atom   1 (R=0.202)  charge=  8.7467  magn=  0.9617
     atom   2 (R=0.114)  charge=  4.0981  magn=  0.1531
     atom   3 (R=0.114)  charge=  4.0981  magn=  0.1531
     atom   4 (R=0.114)  charge=  4.0982  magn=  0.1507
     atom   5 (R=0.202)  charge=  8.8232  magn=  0.9260
     atom   6 (R=0.114)  charge=  4.0923  magn=  0.1891
     atom   7 (R=0.114)  charge=  4.0923  magn=  0.1891
     atom   8 (R=0.114)  charge=  4.0916  magn=  0.1894
     atom   9 (R=0.202)  charge=  8.8356  magn=  0.8679
     atom  10 (R=0.114)  charge=  4.0888  magn=  0.1840
     atom  11 (R=0.114)  charge=  4.0891  magn=  0.1801
     atom  12 (R=0.114)  charge=  4.0888  magn=  0.1840
     atom  13 (R=0.202)  charge=  8.8371  magn=  0.8517
     atom  14 (R=0.114)  charge=  4.0886  magn=  0.1762
     atom  15 (R=0.114)  charge=  4.0886  magn=  0.1762
     atom  16 (R=0.114)  charge=  4.0917  magn=  0.1786
     atom  17 (R=0.202)  charge=  8.8218  magn=  0.8658
     atom  18 (R=0.114)  charge=  4.0914  magn=  0.1691
     atom  19 (R=0.114)  charge=  4.0914  magn=  0.1691
     atom  20 (R=0.114)  charge=  4.0904  magn=  0.1855
     atom  21 (R=0.202)  charge=  8.7644  magn=  0.9261
     atom  22 (R=0.114)  charge=  4.1005  magn=  0.1320
     atom  23 (R=0.114)  charge=  4.0741  magn=  0.0667
     atom  24 (R=0.114)  charge=  4.1005  magn=  0.1320
     atom  25 (R=0.114)  charge=  0.6523  magn= -0.0058

     total cpu time spent up to now is   134151.3 secs

     End of self-consistent calculation

     Number of k-points >= 100: set verbosity='high' to print the bands.

     the Fermi energy is    -5.1854 ev

!    total energy              =   -7077.42548886 Ry
     total all-electron energy =   -199909.862059 Ry
     estimated scf accuracy    <          1.8E-10 Ry
     smearing contrib. (-TS)   =       0.00015855 Ry
     internal energy E=F+TS    =   -7077.42564742 Ry

     The total energy is F=E-TS. E is the sum of the following terms:
     one-electron contribution =  -61076.72307692 Ry
     hartree contribution      =   30725.55662315 Ry
     xc contribution           =    -835.45266379 Ry
     ewald contribution        =   29243.34160093 Ry
     DFT-D3 Dispersion         =      -2.53023843 Ry
     one-center paw contrib.   =   -5131.61789235 Ry

     total magnetization       =     9.92 Bohr mag/cell
     absolute magnetization    =    10.79 Bohr mag/cell

     convergence has been achieved in  22 iterations

     negative rho (up, down):  1.543E-04 1.183E-04

     Forces acting on atoms (cartesian axes, Ry/au):

     atom    1 type  1   force =    -0.00008850   -0.00005110    0.01598358
     atom    2 type  2   force =    -0.00035394   -0.01429106   -0.00889529
     atom    3 type  2   force =    -0.01255339    0.00683901   -0.00889529
     atom    4 type  2   force =     0.01238231    0.00714894   -0.00967767
     atom    5 type  1   force =     0.00070876    0.00040921   -0.00028016
     atom    6 type  2   force =    -0.00033502   -0.00087425    0.00521745
     atom    7 type  2   force =    -0.00092463    0.00014699    0.00521745
     atom    8 type  2   force =     0.00128258    0.00074050    0.00515854
     atom    9 type  1   force =    -0.00020736   -0.00011971    0.00018557
     atom   10 type  2   force =    -0.00012092   -0.00021247    0.00110495
     atom   11 type  2   force =     0.00028423    0.00016410    0.00008228
     atom   12 type  2   force =    -0.00024446    0.00000150    0.00110494
     atom   13 type  1   force =    -0.00003555   -0.00002053   -0.00043502
     atom   14 type  2   force =     0.00050450    0.00001126   -0.00061917
     atom   15 type  2   force =     0.00026201    0.00043129   -0.00061920
     atom   16 type  2   force =     0.00053655    0.00030977   -0.00077224
     atom   17 type  1   force =     0.00068955    0.00039807   -0.00010404
     atom   18 type  2   force =     0.00007789   -0.00044818   -0.00096108
     atom   19 type  2   force =    -0.00034922    0.00029151   -0.00096108
     atom   20 type  2   force =    -0.00024967   -0.00014410   -0.00113855
     atom   21 type  1   force =    -0.00056285   -0.00032496    0.00019776
     atom   22 type  2   force =     0.00025037   -0.00003715   -0.00042287
     atom   23 type  2   force =     0.00095209    0.00054970    0.00017147
     atom   24 type  2   force =     0.00009303    0.00023539   -0.00042287
     atom   25 type  3   force =    -0.00199834   -0.00115374   -0.00021946

     Total force =     0.003425     Total SCF correction =     0.000032


     Computing stress (Cartesian axis) and pressure


     negative rho (up, down):  1.543E-04 1.183E-04
          total   stress  (Ry/bohr**3)                   (kbar)     P=       -8.83
  -0.00009062  -0.00000124  -0.00000288          -13.33       -0.18       -0.42
  -0.00000124  -0.00008919  -0.00000166           -0.18      -13.12       -0.24
  -0.00000288  -0.00000166  -0.00000019           -0.42       -0.24       -0.03

     Energy error            =      2.6E-05 Ry
     Gradient error          =      1.1E-03 Ry/Bohr

     number of scf cycles    =  21
     number of bfgs steps    =  19

     energy             old  =   -7077.4254633466 Ry
     energy             new  =   -7077.4254888617 Ry

     CASE: energy            _new < energy            _old

     new trust radius        =       0.0061600899 bohr
     new conv_thr            =       0.0000000001 Ry


ATOMIC_POSITIONS (angstrom)
Ni               5.3171990772        3.0698863186       11.0000000000    0   0   0
Pd               2.6585995386        3.0698851333       11.0000764482    0   0   0
Pd               3.9878982814        0.7674721723       11.0000764482    0   0   0
Pd               1.3293007958        0.7674721723       11.0000764482    0   0   0
Ni               2.6585995386        1.5349431593       13.1707374333    0   0   0
Pd               3.9878982814        3.8373584909       13.1708138815    0   0   0
Pd               5.3171990772        1.5349419740       13.1708138815    0   0   0
Pd               6.6464998731        3.8373584909       13.1708138815    0   0   0
Ni              -0.0018214009       -0.0010515755       15.3343860830
Pd               5.3222540638        4.6074629545       15.3332505331
Pd               3.9914438001        2.3044611901       15.3489635025
Pd               6.6513069625        2.3054758147       15.3332505501
Ni               5.3118869556        3.0668194654       17.5199685506
Pd               3.9722138756        0.7625659733       17.5250183664
Pd               2.6465083805        3.0587552291       17.5250183798
Pd               1.3115915981        0.7572478266       17.4833789760
Ni               2.6533891973        1.5319352090       19.6937943203
Pd               3.9988240561        3.8399397896       19.6798207572
Pd               5.3248973266        1.5431135836       19.6798206880
Pd               6.6453814043        3.8367128611       19.6898781909
Ni               0.0232359380        0.0134155106       21.7765658236
Pd               5.3360762392        4.6320871104       21.8956943430
Pd               4.0054458307        2.3125454168       21.9058968016
Pd               6.6795430411        2.3051343328       21.8956943891
H                3.9776774860        2.2965134952       23.4614492912    0   0   1



     Writing config-only to output data dir /tmpu/isholek_g/isholek/MIGUEL/QE/Hydrogen/111_2x2/SAVE/Ni1Pd3_111-T1.save/ :
     XML data file
     NEW-OLD atomic charge density approx. for the potential

     Check: negative core charge=   -0.000002

     negative rho (up, down):  1.455E-04 1.299E-04
     Generating pointlists ...

     total cpu time spent up to now is   134431.5 secs

     Self-consistent Calculation

     iteration #  1     ecut=    60.00 Ry     beta= 0.20
     Davidson diagonalization with overlap
     ethr =  1.00E-06,  avg # of iterations =  4.0

     Threshold (ethr) on eigenvalues was too large:
     Diagonalizing with lowered threshold

     Davidson diagonalization with overlap
     ethr =  8.81E-08,  avg # of iterations =  2.1

     negative rho (up, down):  1.549E-04 1.282E-04

     total cpu time spent up to now is   134983.3 secs

     total energy              =   -7077.42547216 Ry
     estimated scf accuracy    <       0.00022352 Ry

     total magnetization       =     9.92 Bohr mag/cell
     absolute magnetization    =    10.79 Bohr mag/cell

     iteration #  2     ecut=    60.00 Ry     beta= 0.20
     Davidson diagonalization with overlap
     ethr =  9.27E-08,  avg # of iterations =  1.0

     negative rho (up, down):  1.554E-04 1.270E-04

     total cpu time spent up to now is   135151.3 secs

     total energy              =   -7077.42548250 Ry
     estimated scf accuracy    <       0.00009754 Ry

     total magnetization       =     9.93 Bohr mag/cell
     absolute magnetization    =    10.80 Bohr mag/cell

     iteration #  3     ecut=    60.00 Ry     beta= 0.20
     Davidson diagonalization with overlap
     ethr =  4.05E-08,  avg # of iterations =  1.0

     negative rho (up, down):  1.559E-04 1.260E-04

     total cpu time spent up to now is   135320.1 secs

     total energy              =   -7077.42549116 Ry
     estimated scf accuracy    <       0.00003612 Ry

     total magnetization       =     9.92 Bohr mag/cell
     absolute magnetization    =    10.79 Bohr mag/cell

     iteration #  4     ecut=    60.00 Ry     beta= 0.20
     Davidson diagonalization with overlap
     ethr =  1.50E-08,  avg # of iterations =  1.0

     negative rho (up, down):  1.564E-04 1.253E-04

     total cpu time spent up to now is   135488.9 secs

     total energy              =   -7077.42549633 Ry
     estimated scf accuracy    <       0.00001060 Ry

     total magnetization       =     9.92 Bohr mag/cell
     absolute magnetization    =    10.79 Bohr mag/cell

     iteration #  5     ecut=    60.00 Ry     beta= 0.20
     Davidson diagonalization with overlap
     ethr =  4.40E-09,  avg # of iterations =  1.5

     negative rho (up, down):  1.571E-04 1.247E-04

     total cpu time spent up to now is   135662.4 secs

     total energy              =   -7077.42550267 Ry
     estimated scf accuracy    <       0.00000915 Ry

     total magnetization       =     9.92 Bohr mag/cell
     absolute magnetization    =    10.79 Bohr mag/cell

     iteration #  6     ecut=    60.00 Ry     beta= 0.20
     Davidson diagonalization with overlap
     ethr =  3.80E-09,  avg # of iterations =  2.0

     negative rho (up, down):  1.579E-04 1.245E-04

     total cpu time spent up to now is   135846.1 secs

     total energy              =   -7077.42550619 Ry
     estimated scf accuracy    <       0.00000360 Ry

     total magnetization       =     9.92 Bohr mag/cell
     absolute magnetization    =    10.79 Bohr mag/cell

     iteration #  7     ecut=    60.00 Ry     beta= 0.20
     Davidson diagonalization with overlap
     ethr =  1.49E-09,  avg # of iterations =  2.0

     negative rho (up, down):  1.584E-04 1.240E-04

     total cpu time spent up to now is   136036.0 secs

     total energy              =   -7077.42550753 Ry
     estimated scf accuracy    <       0.00000113 Ry

     total magnetization       =     9.92 Bohr mag/cell
     absolute magnetization    =    10.79 Bohr mag/cell

     iteration #  8     ecut=    60.00 Ry     beta= 0.20
     Davidson diagonalization with overlap
     ethr =  4.70E-10,  avg # of iterations =  3.7

     negative rho (up, down):  1.583E-04 1.235E-04

     total cpu time spent up to now is   136264.7 secs

     total energy              =   -7077.42550776 Ry
     estimated scf accuracy    <       0.00000095 Ry

     total magnetization       =     9.92 Bohr mag/cell
     absolute magnetization    =    10.79 Bohr mag/cell

     iteration #  9     ecut=    60.00 Ry     beta= 0.20
     Davidson diagonalization with overlap
     ethr =  3.94E-10,  avg # of iterations =  1.0

     negative rho (up, down):  1.577E-04 1.228E-04

     total cpu time spent up to now is   136431.7 secs

     total energy              =   -7077.42550778 Ry
     estimated scf accuracy    <       0.00000018 Ry

     total magnetization       =     9.92 Bohr mag/cell
     absolute magnetization    =    10.79 Bohr mag/cell

     iteration # 10     ecut=    60.00 Ry     beta= 0.20
     Davidson diagonalization with overlap
     ethr =  7.40E-11,  avg # of iterations =  3.3

     negative rho (up, down):  1.576E-04 1.224E-04

     total cpu time spent up to now is   136642.6 secs

     total energy              =   -7077.42550781 Ry
     estimated scf accuracy    <       0.00000013 Ry

     total magnetization       =     9.92 Bohr mag/cell
     absolute magnetization    =    10.79 Bohr mag/cell

     iteration # 11     ecut=    60.00 Ry     beta= 0.20
     Davidson diagonalization with overlap
     ethr =  5.24E-11,  avg # of iterations =  1.1

     negative rho (up, down):  1.573E-04 1.219E-04

     total cpu time spent up to now is   136813.9 secs

     total energy              =   -7077.42550781 Ry
     estimated scf accuracy    <       0.00000012 Ry

     total magnetization       =     9.92 Bohr mag/cell
     absolute magnetization    =    10.79 Bohr mag/cell

     iteration # 12     ecut=    60.00 Ry     beta= 0.20
     Davidson diagonalization with overlap
     ethr =  5.14E-11,  avg # of iterations =  1.0

     negative rho (up, down):  1.570E-04 1.215E-04

     total cpu time spent up to now is   136978.7 secs

     total energy              =   -7077.42550781 Ry
     estimated scf accuracy    <       0.00000002 Ry

     total magnetization       =     9.92 Bohr mag/cell
     absolute magnetization    =    10.79 Bohr mag/cell

     iteration # 13     ecut=    60.00 Ry     beta= 0.20
     Davidson diagonalization with overlap
     ethr =  7.12E-12,  avg # of iterations =  2.9

     negative rho (up, down):  1.568E-04 1.212E-04

     total cpu time spent up to now is   137201.3 secs

     total energy              =   -7077.42550781 Ry
     estimated scf accuracy    <       0.00000001 Ry

     total magnetization       =     9.92 Bohr mag/cell
     absolute magnetization    =    10.79 Bohr mag/cell

     iteration # 14     ecut=    60.00 Ry     beta= 0.20
     Davidson diagonalization with overlap
     ethr =  4.34E-12,  avg # of iterations =  1.1

     negative rho (up, down):  1.567E-04 1.210E-04

     total cpu time spent up to now is   137370.4 secs

     total energy              =   -7077.42550781 Ry
     estimated scf accuracy    <          8.2E-09 Ry

     total magnetization       =     9.92 Bohr mag/cell
     absolute magnetization    =    10.79 Bohr mag/cell

     iteration # 15     ecut=    60.00 Ry     beta= 0.20
     Davidson diagonalization with overlap
     ethr =  3.42E-12,  avg # of iterations =  1.0

     negative rho (up, down):  1.562E-04 1.204E-04

     total cpu time spent up to now is   137539.8 secs

     total energy              =   -7077.42550781 Ry
     estimated scf accuracy    <          9.0E-09 Ry

     total magnetization       =     9.92 Bohr mag/cell
     absolute magnetization    =    10.79 Bohr mag/cell

     iteration # 16     ecut=    60.00 Ry     beta= 0.20
     Davidson diagonalization with overlap
     ethr =  3.42E-12,  avg # of iterations =  2.0

     negative rho (up, down):  1.559E-04 1.201E-04

     total cpu time spent up to now is   137721.0 secs

     total energy              =   -7077.42550781 Ry
     estimated scf accuracy    <       0.00000001 Ry

     total magnetization       =     9.92 Bohr mag/cell
     absolute magnetization    =    10.79 Bohr mag/cell

     iteration # 17     ecut=    60.00 Ry     beta= 0.20
     Davidson diagonalization with overlap
     ethr =  3.42E-12,  avg # of iterations =  1.0

     negative rho (up, down):  1.554E-04 1.195E-04

     total cpu time spent up to now is   137889.1 secs

     total energy              =   -7077.42550781 Ry
     estimated scf accuracy    <          6.2E-09 Ry

     total magnetization       =     9.92 Bohr mag/cell
     absolute magnetization    =    10.79 Bohr mag/cell

     iteration # 18     ecut=    60.00 Ry     beta= 0.20
     Davidson diagonalization with overlap
     ethr =  2.58E-12,  avg # of iterations =  1.0

     negative rho (up, down):  1.550E-04 1.191E-04

     total cpu time spent up to now is   138055.8 secs

     total energy              =   -7077.42550781 Ry
     estimated scf accuracy    <          5.3E-09 Ry

     total magnetization       =     9.92 Bohr mag/cell
     absolute magnetization    =    10.79 Bohr mag/cell

     iteration # 19     ecut=    60.00 Ry     beta= 0.20
     Davidson diagonalization with overlap
     ethr =  2.18E-12,  avg # of iterations =  1.0

     negative rho (up, down):  1.543E-04 1.185E-04

     total cpu time spent up to now is   138223.2 secs

     total energy              =   -7077.42550780 Ry
     estimated scf accuracy    <          2.8E-09 Ry

     total magnetization       =     9.92 Bohr mag/cell
     absolute magnetization    =    10.79 Bohr mag/cell

     iteration # 20     ecut=    60.00 Ry     beta= 0.20
     Davidson diagonalization with overlap
     ethr =  1.16E-12,  avg # of iterations =  1.0

     negative rho (up, down):  1.543E-04 1.183E-04

     total cpu time spent up to now is   138390.5 secs

     total energy              =   -7077.42550780 Ry
     estimated scf accuracy    <          7.9E-10 Ry

     total magnetization       =     9.92 Bohr mag/cell
     absolute magnetization    =    10.79 Bohr mag/cell

     iteration # 21     ecut=    60.00 Ry     beta= 0.20
     Davidson diagonalization with overlap
     ethr =  3.27E-13,  avg # of iterations =  1.1

     negative rho (up, down):  1.540E-04 1.181E-04

     total cpu time spent up to now is   138560.5 secs

     total energy              =   -7077.42550780 Ry
     estimated scf accuracy    <          7.5E-10 Ry

     total magnetization       =     9.92 Bohr mag/cell
     absolute magnetization    =    10.79 Bohr mag/cell

     iteration # 22     ecut=    60.00 Ry     beta= 0.20
     Davidson diagonalization with overlap
     ethr =  3.11E-13,  avg # of iterations =  1.0

     negative rho (up, down):  1.538E-04 1.179E-04

     total cpu time spent up to now is   138728.8 secs

     total energy              =   -7077.42550780 Ry
     estimated scf accuracy    <          5.5E-10 Ry

     total magnetization       =     9.92 Bohr mag/cell
     absolute magnetization    =    10.79 Bohr mag/cell

     iteration # 23     ecut=    60.00 Ry     beta= 0.20
     Davidson diagonalization with overlap
     ethr =  2.27E-13,  avg # of iterations =  1.0

     negative rho (up, down):  1.538E-04 1.178E-04

     total cpu time spent up to now is   138897.6 secs

     total energy              =   -7077.42550780 Ry
     estimated scf accuracy    <          4.5E-10 Ry

     total magnetization       =     9.92 Bohr mag/cell
     absolute magnetization    =    10.79 Bohr mag/cell

     iteration # 24     ecut=    60.00 Ry     beta= 0.20
     Davidson diagonalization with overlap
     ethr =  1.85E-13,  avg # of iterations =  1.1

     negative rho (up, down):  1.538E-04 1.178E-04

     total cpu time spent up to now is   139066.2 secs

     total energy              =   -7077.42550780 Ry
     estimated scf accuracy    <          4.9E-10 Ry

     total magnetization       =     9.92 Bohr mag/cell
     absolute magnetization    =    10.79 Bohr mag/cell

     iteration # 25     ecut=    60.00 Ry     beta= 0.20
     Davidson diagonalization with overlap
     ethr =  1.85E-13,  avg # of iterations =  1.0

     negative rho (up, down):  1.538E-04 1.178E-04

     total cpu time spent up to now is   139234.8 secs

     total energy              =   -7077.42550780 Ry
     estimated scf accuracy    <          5.2E-10 Ry

     total magnetization       =     9.92 Bohr mag/cell
     absolute magnetization    =    10.79 Bohr mag/cell

     iteration # 26     ecut=    60.00 Ry     beta= 0.20
     Davidson diagonalization with overlap
     ethr =  1.85E-13,  avg # of iterations =  1.0

     negative rho (up, down):  1.538E-04 1.178E-04

     total cpu time spent up to now is   139402.8 secs

     total energy              =   -7077.42550780 Ry
     estimated scf accuracy    <          5.1E-10 Ry

     total magnetization       =     9.92 Bohr mag/cell
     absolute magnetization    =    10.79 Bohr mag/cell

     iteration # 27     ecut=    60.00 Ry     beta= 0.20
     Davidson diagonalization with overlap
     ethr =  1.85E-13,  avg # of iterations =  1.0

     negative rho (up, down):  1.538E-04 1.178E-04

     total cpu time spent up to now is   139571.6 secs

     total energy              =   -7077.42550780 Ry
     estimated scf accuracy    <          2.8E-10 Ry

     total magnetization       =     9.92 Bohr mag/cell
     absolute magnetization    =    10.79 Bohr mag/cell

     iteration # 28     ecut=    60.00 Ry     beta= 0.20
     Davidson diagonalization with overlap
     ethr =  1.17E-13,  avg # of iterations =  1.0

     negative rho (up, down):  1.538E-04 1.178E-04

     total cpu time spent up to now is   139739.8 secs

     total energy              =   -7077.42550780 Ry
     estimated scf accuracy    <          1.6E-10 Ry

     total magnetization       =     9.92 Bohr mag/cell
     absolute magnetization    =    10.79 Bohr mag/cell

     iteration # 29     ecut=    60.00 Ry     beta= 0.20
     Davidson diagonalization with overlap
     ethr =  1.00E-13,  avg # of iterations =  1.0

     negative rho (up, down):  1.544E-04 1.184E-04
 
     Magnetic moment per site  (integrated on atomic sphere of radius R)
     atom   1 (R=0.202)  charge=  8.7467  magn=  0.9617
     atom   2 (R=0.114)  charge=  4.0981  magn=  0.1530
     atom   3 (R=0.114)  charge=  4.0981  magn=  0.1530
     atom   4 (R=0.114)  charge=  4.0982  magn=  0.1506
     atom   5 (R=0.202)  charge=  8.8233  magn=  0.9259
     atom   6 (R=0.114)  charge=  4.0923  magn=  0.1891
     atom   7 (R=0.114)  charge=  4.0923  magn=  0.1891
     atom   8 (R=0.114)  charge=  4.0916  magn=  0.1894
     atom   9 (R=0.202)  charge=  8.8360  magn=  0.8678
     atom  10 (R=0.114)  charge=  4.0888  magn=  0.1840
     atom  11 (R=0.114)  charge=  4.0891  magn=  0.1801
     atom  12 (R=0.114)  charge=  4.0888  magn=  0.1840
     atom  13 (R=0.202)  charge=  8.8380  magn=  0.8514
     atom  14 (R=0.114)  charge=  4.0887  magn=  0.1761
     atom  15 (R=0.114)  charge=  4.0887  magn=  0.1761
     atom  16 (R=0.114)  charge=  4.0916  magn=  0.1785
     atom  17 (R=0.202)  charge=  8.8219  magn=  0.8655
     atom  18 (R=0.114)  charge=  4.0914  magn=  0.1691
     atom  19 (R=0.114)  charge=  4.0914  magn=  0.1691
     atom  20 (R=0.114)  charge=  4.0906  magn=  0.1855
     atom  21 (R=0.202)  charge=  8.7640  magn=  0.9262
     atom  22 (R=0.114)  charge=  4.1005  magn=  0.1320
     atom  23 (R=0.114)  charge=  4.0741  magn=  0.0667
     atom  24 (R=0.114)  charge=  4.1005  magn=  0.1320
     atom  25 (R=0.114)  charge=  0.6522  magn= -0.0058

     total cpu time spent up to now is   139906.3 secs

     End of self-consistent calculation

     Number of k-points >= 100: set verbosity='high' to print the bands.

     the Fermi energy is    -5.1855 ev

!    total energy              =   -7077.42550780 Ry
     total all-electron energy =   -199909.862078 Ry
     estimated scf accuracy    <          3.0E-11 Ry
     smearing contrib. (-TS)   =       0.00016112 Ry
     internal energy E=F+TS    =   -7077.42566893 Ry

     The total energy is F=E-TS. E is the sum of the following terms:
     one-electron contribution =  -61089.55821995 Ry
     hartree contribution      =   30731.97049595 Ry
     xc contribution           =    -835.45489779 Ry
     ewald contribution        =   29249.76579647 Ry
     DFT-D3 Dispersion         =      -2.53055964 Ry
     one-center paw contrib.   =   -5131.61828397 Ry

     total magnetization       =     9.92 Bohr mag/cell
     absolute magnetization    =    10.79 Bohr mag/cell

     convergence has been achieved in  29 iterations

     negative rho (up, down):  1.544E-04 1.184E-04

     Forces acting on atoms (cartesian axes, Ry/au):

     atom    1 type  1   force =    -0.00008462   -0.00004886    0.01598963
     atom    2 type  2   force =    -0.00035373   -0.01429386   -0.00890389
     atom    3 type  2   force =    -0.01255571    0.00684059   -0.00890389
     atom    4 type  2   force =     0.01238430    0.00715008   -0.00967862
     atom    5 type  1   force =     0.00070576    0.00040747   -0.00028198
     atom    6 type  2   force =    -0.00029517   -0.00084339    0.00506943
     atom    7 type  2   force =    -0.00087799    0.00016607    0.00506943
     atom    8 type  2   force =     0.00116722    0.00067390    0.00521392
     atom    9 type  1   force =    -0.00013221   -0.00007632    0.00044785
     atom   10 type  2   force =     0.00015795   -0.00036508    0.00059731
     atom   11 type  2   force =    -0.00006135   -0.00003543    0.00000317
     atom   12 type  2   force =    -0.00023720    0.00031932    0.00059731
     atom   13 type  1   force =    -0.00013566   -0.00007833   -0.00027260
     atom   14 type  2   force =     0.00073570    0.00001399   -0.00058041
     atom   15 type  2   force =     0.00037997    0.00063015   -0.00058042
     atom   16 type  2   force =     0.00064829    0.00037429   -0.00084191
     atom   17 type  1   force =     0.00058620    0.00033840   -0.00015788
     atom   18 type  2   force =    -0.00028424   -0.00076015   -0.00040733
     atom   19 type  2   force =    -0.00080045    0.00013390   -0.00040731
     atom   20 type  2   force =     0.00004347    0.00002513   -0.00050289
     atom   21 type  1   force =    -0.00023518   -0.00013578   -0.00004305
     atom   22 type  2   force =     0.00000082    0.00025356   -0.00051767
     atom   23 type  2   force =     0.00101212    0.00058435   -0.00005910
     atom   24 type  2   force =     0.00022000   -0.00012606   -0.00051767
     atom   25 type  3   force =    -0.00198829   -0.00114794   -0.00033144

     Total force =     0.002998     Total SCF correction =     0.000018


     Computing stress (Cartesian axis) and pressure


     negative rho (up, down):  1.544E-04 1.184E-04
          total   stress  (Ry/bohr**3)                   (kbar)     P=       -8.77
  -0.00009044  -0.00000123  -0.00000292          -13.30       -0.18       -0.43
  -0.00000123  -0.00008902  -0.00000169           -0.18      -13.10       -0.25
  -0.00000292  -0.00000169   0.00000069           -0.43       -0.25        0.10

     Energy error            =      1.9E-05 Ry
     Gradient error          =      1.0E-03 Ry/Bohr

     number of scf cycles    =  22
     number of bfgs steps    =  20

     energy             old  =   -7077.4254888617 Ry
     energy             new  =   -7077.4255078038 Ry

     CASE: energy            _new < energy            _old

     new trust radius        =       0.0051424425 bohr
     new conv_thr            =       0.0000000001 Ry


ATOMIC_POSITIONS (angstrom)
Ni               5.3171990772        3.0698863186       11.0000000000    0   0   0
Pd               2.6585995386        3.0698851333       11.0000764482    0   0   0
Pd               3.9878982814        0.7674721723       11.0000764482    0   0   0
Pd               1.3293007958        0.7674721723       11.0000764482    0   0   0
Ni               2.6585995386        1.5349431593       13.1707374333    0   0   0
Pd               3.9878982814        3.8373584909       13.1708138815    0   0   0
Pd               5.3171990772        1.5349419740       13.1708138815    0   0   0
Pd               6.6464998731        3.8373584909       13.1708138815    0   0   0
Ni              -0.0024906052       -0.0014379213       15.3335428191
Pd               5.3219405210        4.6073257767       15.3338042627
Pd               3.9917287238        2.3046256953       15.3485724988
Pd               6.6510313834        2.3052728762       15.3338042739
Ni               5.3121232485        3.0669558879       17.5182375983
Pd               3.9724196160        0.7627280880       17.5236437481
Pd               2.6467516515        3.0588523691       17.5236437249
Pd               1.3116156469        0.7572617055       17.4818090015
Ni               2.6551634404        1.5329595461       19.6929607686
Pd               4.0000587601        3.8403992103       19.6774396412
Pd               5.3259125386        1.5439531260       19.6774395656
Pd               6.6461792632        3.8371735465       19.6874036696
Ni               0.0225088754        0.0129957394       21.7752716114
Pd               5.3366130676        4.6321157303       21.8940717681
Pd               4.0063766178        2.3130828053       21.9047474076
Pd               6.6798362643        2.3055849054       21.8940718322
H                3.9776774860        2.2965134952       23.4602432540    0   0   1



     Writing config-only to output data dir /tmpu/isholek_g/isholek/MIGUEL/QE/Hydrogen/111_2x2/SAVE/Ni1Pd3_111-T1.save/ :
     XML data file
     NEW-OLD atomic charge density approx. for the potential

     Check: negative core charge=   -0.000002

     negative rho (up, down):  1.488E-04 1.306E-04
     Generating pointlists ...

     total cpu time spent up to now is   140180.3 secs

     Self-consistent Calculation

     iteration #  1     ecut=    60.00 Ry     beta= 0.20
     Davidson diagonalization with overlap
     ethr =  1.00E-06,  avg # of iterations =  4.0

     Threshold (ethr) on eigenvalues was too large:
     Diagonalizing with lowered threshold

     Davidson diagonalization with overlap
     ethr =  6.38E-08,  avg # of iterations =  2.1

     negative rho (up, down):  1.712E-04 1.423E-04

     total cpu time spent up to now is   140734.2 secs

     total energy              =   -7077.42549283 Ry
     estimated scf accuracy    <       0.00016403 Ry

     total magnetization       =     9.92 Bohr mag/cell
     absolute magnetization    =    10.79 Bohr mag/cell

     iteration #  2     ecut=    60.00 Ry     beta= 0.20
     Davidson diagonalization with overlap
     ethr =  6.81E-08,  avg # of iterations =  1.0

     negative rho (up, down):  1.669E-04 1.365E-04

     total cpu time spent up to now is   140901.1 secs

     total energy              =   -7077.42550091 Ry
     estimated scf accuracy    <       0.00009832 Ry

     total magnetization       =     9.92 Bohr mag/cell
     absolute magnetization    =    10.79 Bohr mag/cell

     iteration #  3     ecut=    60.00 Ry     beta= 0.20
     Davidson diagonalization with overlap
     ethr =  4.08E-08,  avg # of iterations =  1.0

     negative rho (up, down):  1.640E-04 1.324E-04

     total cpu time spent up to now is   141069.3 secs

     total energy              =   -7077.42550839 Ry
     estimated scf accuracy    <       0.00002899 Ry

     total magnetization       =     9.92 Bohr mag/cell
     absolute magnetization    =    10.79 Bohr mag/cell

     iteration #  4     ecut=    60.00 Ry     beta= 0.20
     Davidson diagonalization with overlap
     ethr =  1.20E-08,  avg # of iterations =  1.0

     negative rho (up, down):  1.620E-04 1.294E-04

     total cpu time spent up to now is   141236.3 secs

     total energy              =   -7077.42551307 Ry
     estimated scf accuracy    <       0.00000798 Ry

     total magnetization       =     9.92 Bohr mag/cell
     absolute magnetization    =    10.79 Bohr mag/cell

     iteration #  5     ecut=    60.00 Ry     beta= 0.20
     Davidson diagonalization with overlap
     ethr =  3.31E-09,  avg # of iterations =  1.4

     negative rho (up, down):  1.608E-04 1.274E-04

     total cpu time spent up to now is   141408.1 secs

     total energy              =   -7077.42551858 Ry
     estimated scf accuracy    <       0.00000687 Ry

     total magnetization       =     9.92 Bohr mag/cell
     absolute magnetization    =    10.79 Bohr mag/cell

     iteration #  6     ecut=    60.00 Ry     beta= 0.20
     Davidson diagonalization with overlap
     ethr =  2.85E-09,  avg # of iterations =  2.0

     negative rho (up, down):  1.601E-04 1.259E-04

     total cpu time spent up to now is   141590.2 secs

     total energy              =   -7077.42552113 Ry
     estimated scf accuracy    <       0.00000248 Ry

     total magnetization       =     9.92 Bohr mag/cell
     absolute magnetization    =    10.79 Bohr mag/cell

     iteration #  7     ecut=    60.00 Ry     beta= 0.20
     Davidson diagonalization with overlap
     ethr =  1.03E-09,  avg # of iterations =  2.0

     negative rho (up, down):  1.598E-04 1.252E-04

     total cpu time spent up to now is   141776.7 secs

     total energy              =   -7077.42552243 Ry
     estimated scf accuracy    <       0.00000071 Ry

     total magnetization       =     9.92 Bohr mag/cell
     absolute magnetization    =    10.79 Bohr mag/cell

     iteration #  8     ecut=    60.00 Ry     beta= 0.20
     Davidson diagonalization with overlap
     ethr =  2.95E-10,  avg # of iterations =  3.9

     negative rho (up, down):  1.589E-04 1.240E-04

     total cpu time spent up to now is   142015.2 secs

     total energy              =   -7077.42552269 Ry
     estimated scf accuracy    <       0.00000062 Ry

     total magnetization       =     9.92 Bohr mag/cell
     absolute magnetization    =    10.79 Bohr mag/cell

     iteration #  9     ecut=    60.00 Ry     beta= 0.20
     Davidson diagonalization with overlap
     ethr =  2.57E-10,  avg # of iterations =  1.0

     negative rho (up, down):  1.580E-04 1.229E-04

     total cpu time spent up to now is   142182.3 secs

     total energy              =   -7077.42552268 Ry
     estimated scf accuracy    <       0.00000009 Ry

     total magnetization       =     9.92 Bohr mag/cell
     absolute magnetization    =    10.79 Bohr mag/cell

     iteration # 10     ecut=    60.00 Ry     beta= 0.20
     Davidson diagonalization with overlap
     ethr =  3.81E-11,  avg # of iterations =  3.0

     negative rho (up, down):  1.576E-04 1.222E-04

     total cpu time spent up to now is   142400.3 secs

     total energy              =   -7077.42552271 Ry
     estimated scf accuracy    <       0.00000008 Ry

     total magnetization       =     9.92 Bohr mag/cell
     absolute magnetization    =    10.79 Bohr mag/cell

     iteration # 11     ecut=    60.00 Ry     beta= 0.20
     Davidson diagonalization with overlap
     ethr =  3.36E-11,  avg # of iterations =  1.0

     negative rho (up, down):  1.571E-04 1.216E-04

     total cpu time spent up to now is   142569.6 secs

     total energy              =   -7077.42552273 Ry
     estimated scf accuracy    <       0.00000009 Ry

     total magnetization       =     9.92 Bohr mag/cell
     absolute magnetization    =    10.79 Bohr mag/cell

     iteration # 12     ecut=    60.00 Ry     beta= 0.20
     Davidson diagonalization with overlap
     ethr =  3.36E-11,  avg # of iterations =  2.0

     negative rho (up, down):  1.567E-04 1.211E-04

     total cpu time spent up to now is   142750.6 secs

     total energy              =   -7077.42552274 Ry
     estimated scf accuracy    <          7.9E-09 Ry

     total magnetization       =     9.92 Bohr mag/cell
     absolute magnetization    =    10.79 Bohr mag/cell

     iteration # 13     ecut=    60.00 Ry     beta= 0.20
     Davidson diagonalization with overlap
     ethr =  3.27E-12,  avg # of iterations =  2.8

     negative rho (up, down):  1.566E-04 1.209E-04

     total cpu time spent up to now is   142956.3 secs

     total energy              =   -7077.42552274 Ry
     estimated scf accuracy    <          5.4E-09 Ry

     total magnetization       =     9.92 Bohr mag/cell
     absolute magnetization    =    10.79 Bohr mag/cell

     iteration # 14     ecut=    60.00 Ry     beta= 0.20
     Davidson diagonalization with overlap
     ethr =  2.25E-12,  avg # of iterations =  1.1

     negative rho (up, down):  1.564E-04 1.207E-04

     total cpu time spent up to now is   143124.1 secs

     total energy              =   -7077.42552274 Ry
     estimated scf accuracy    <          3.9E-09 Ry

     total magnetization       =     9.92 Bohr mag/cell
     absolute magnetization    =    10.79 Bohr mag/cell

     iteration # 15     ecut=    60.00 Ry     beta= 0.20
     Davidson diagonalization with overlap
     ethr =  1.64E-12,  avg # of iterations =  1.0

     negative rho (up, down):  1.561E-04 1.203E-04

     total cpu time spent up to now is   143292.0 secs

     total energy              =   -7077.42552274 Ry
     estimated scf accuracy    <          5.0E-09 Ry

     total magnetization       =     9.92 Bohr mag/cell
     absolute magnetization    =    10.79 Bohr mag/cell

     iteration # 16     ecut=    60.00 Ry     beta= 0.20
     Davidson diagonalization with overlap
     ethr =  1.64E-12,  avg # of iterations =  1.0

     negative rho (up, down):  1.558E-04 1.200E-04

     total cpu time spent up to now is   143460.7 secs

     total energy              =   -7077.42552275 Ry
     estimated scf accuracy    <          7.4E-09 Ry

     total magnetization       =     9.92 Bohr mag/cell
     absolute magnetization    =    10.79 Bohr mag/cell

     iteration # 17     ecut=    60.00 Ry     beta= 0.20
     Davidson diagonalization with overlap
     ethr =  1.64E-12,  avg # of iterations =  1.0

     negative rho (up, down):  1.553E-04 1.195E-04

     total cpu time spent up to now is   143628.4 secs

     total energy              =   -7077.42552275 Ry
     estimated scf accuracy    <          3.6E-09 Ry

     total magnetization       =     9.92 Bohr mag/cell
     absolute magnetization    =    10.79 Bohr mag/cell

     iteration # 18     ecut=    60.00 Ry     beta= 0.20
     Davidson diagonalization with overlap
     ethr =  1.50E-12,  avg # of iterations =  1.0

     negative rho (up, down):  1.550E-04 1.192E-04

     total cpu time spent up to now is   143797.7 secs

     total energy              =   -7077.42552275 Ry
     estimated scf accuracy    <          2.9E-09 Ry

     total magnetization       =     9.92 Bohr mag/cell
     absolute magnetization    =    10.79 Bohr mag/cell

     iteration # 19     ecut=    60.00 Ry     beta= 0.20
     Davidson diagonalization with overlap
     ethr =  1.22E-12,  avg # of iterations =  1.0

     negative rho (up, down):  1.547E-04 1.188E-04

     total cpu time spent up to now is   143965.4 secs

     total energy              =   -7077.42552275 Ry
     estimated scf accuracy    <          2.0E-09 Ry

     total magnetization       =     9.92 Bohr mag/cell
     absolute magnetization    =    10.79 Bohr mag/cell

     iteration # 20     ecut=    60.00 Ry     beta= 0.20
     Davidson diagonalization with overlap
     ethr =  8.20E-13,  avg # of iterations =  1.0

     negative rho (up, down):  1.545E-04 1.186E-04

     total cpu time spent up to now is   144131.7 secs

     total energy              =   -7077.42552275 Ry
     estimated scf accuracy    <          1.3E-09 Ry

     total magnetization       =     9.92 Bohr mag/cell
     absolute magnetization    =    10.79 Bohr mag/cell

     iteration # 21     ecut=    60.00 Ry     beta= 0.20
     Davidson diagonalization with overlap
     ethr =  5.58E-13,  avg # of iterations =  1.0

     negative rho (up, down):  1.543E-04 1.183E-04

     total cpu time spent up to now is   144299.0 secs

     total energy              =   -7077.42552275 Ry
     estimated scf accuracy    <          1.2E-09 Ry

     total magnetization       =     9.92 Bohr mag/cell
     absolute magnetization    =    10.79 Bohr mag/cell

     iteration # 22     ecut=    60.00 Ry     beta= 0.20
     Davidson diagonalization with overlap
     ethr =  5.11E-13,  avg # of iterations =  1.0

     negative rho (up, down):  1.541E-04 1.182E-04

     total cpu time spent up to now is   144466.8 secs

     total energy              =   -7077.42552275 Ry
     estimated scf accuracy    <          7.0E-10 Ry

     total magnetization       =     9.92 Bohr mag/cell
     absolute magnetization    =    10.79 Bohr mag/cell

     iteration # 23     ecut=    60.00 Ry     beta= 0.20
     Davidson diagonalization with overlap
     ethr =  2.92E-13,  avg # of iterations =  1.0

     negative rho (up, down):  1.540E-04 1.181E-04

     total cpu time spent up to now is   144634.5 secs

     total energy              =   -7077.42552275 Ry
     estimated scf accuracy    <          5.3E-10 Ry

     total magnetization       =     9.92 Bohr mag/cell
     absolute magnetization    =    10.79 Bohr mag/cell

     iteration # 24     ecut=    60.00 Ry     beta= 0.20
     Davidson diagonalization with overlap
     ethr =  2.20E-13,  avg # of iterations =  2.0

     negative rho (up, down):  1.539E-04 1.180E-04

     total cpu time spent up to now is   144816.9 secs

     total energy              =   -7077.42552275 Ry
     estimated scf accuracy    <          3.3E-10 Ry

     total magnetization       =     9.92 Bohr mag/cell
     absolute magnetization    =    10.79 Bohr mag/cell

     iteration # 25     ecut=    60.00 Ry     beta= 0.20
     Davidson diagonalization with overlap
     ethr =  1.38E-13,  avg # of iterations =  1.0

     negative rho (up, down):  1.541E-04 1.181E-04

     total cpu time spent up to now is   144985.4 secs

     total energy              =   -7077.42552275 Ry
     estimated scf accuracy    <          2.5E-10 Ry

     total magnetization       =     9.92 Bohr mag/cell
     absolute magnetization    =    10.79 Bohr mag/cell

     iteration # 26     ecut=    60.00 Ry     beta= 0.20
     Davidson diagonalization with overlap
     ethr =  1.05E-13,  avg # of iterations =  1.0

     negative rho (up, down):  1.542E-04 1.182E-04

     total cpu time spent up to now is   145153.0 secs

     total energy              =   -7077.42552275 Ry
     estimated scf accuracy    <          1.7E-10 Ry

     total magnetization       =     9.92 Bohr mag/cell
     absolute magnetization    =    10.79 Bohr mag/cell

     iteration # 27     ecut=    60.00 Ry     beta= 0.20
     Davidson diagonalization with overlap
     ethr =  1.00E-13,  avg # of iterations =  1.0

     negative rho (up, down):  1.545E-04 1.185E-04
 
     Magnetic moment per site  (integrated on atomic sphere of radius R)
     atom   1 (R=0.202)  charge=  8.7467  magn=  0.9616
     atom   2 (R=0.114)  charge=  4.0981  magn=  0.1529
     atom   3 (R=0.114)  charge=  4.0981  magn=  0.1529
     atom   4 (R=0.114)  charge=  4.0982  magn=  0.1506
     atom   5 (R=0.202)  charge=  8.8232  magn=  0.9258
     atom   6 (R=0.114)  charge=  4.0923  magn=  0.1891
     atom   7 (R=0.114)  charge=  4.0923  magn=  0.1891
     atom   8 (R=0.114)  charge=  4.0916  magn=  0.1893
     atom   9 (R=0.202)  charge=  8.8365  magn=  0.8677
     atom  10 (R=0.114)  charge=  4.0889  magn=  0.1840
     atom  11 (R=0.114)  charge=  4.0891  magn=  0.1800
     atom  12 (R=0.114)  charge=  4.0889  magn=  0.1840
     atom  13 (R=0.202)  charge=  8.8388  magn=  0.8511
     atom  14 (R=0.114)  charge=  4.0887  magn=  0.1761
     atom  15 (R=0.114)  charge=  4.0887  magn=  0.1761
     atom  16 (R=0.114)  charge=  4.0917  magn=  0.1784
     atom  17 (R=0.202)  charge=  8.8218  magn=  0.8654
     atom  18 (R=0.114)  charge=  4.0914  magn=  0.1690
     atom  19 (R=0.114)  charge=  4.0914  magn=  0.1690
     atom  20 (R=0.114)  charge=  4.0908  magn=  0.1855
     atom  21 (R=0.202)  charge=  8.7635  magn=  0.9263
     atom  22 (R=0.114)  charge=  4.1004  magn=  0.1319
     atom  23 (R=0.114)  charge=  4.0741  magn=  0.0667
     atom  24 (R=0.114)  charge=  4.1004  magn=  0.1319
     atom  25 (R=0.114)  charge=  0.6522  magn= -0.0057

     total cpu time spent up to now is   145315.9 secs

     End of self-consistent calculation

     Number of k-points >= 100: set verbosity='high' to print the bands.

     the Fermi energy is    -5.1857 ev

!    total energy              =   -7077.42552275 Ry
     total all-electron energy =   -199909.862093 Ry
     estimated scf accuracy    <          1.6E-11 Ry
     smearing contrib. (-TS)   =       0.00016342 Ry
     internal energy E=F+TS    =   -7077.42568617 Ry

     The total energy is F=E-TS. E is the sum of the following terms:
     one-electron contribution =  -61102.31008701 Ry
     hartree contribution      =   30738.34297650 Ry
     xc contribution           =    -835.45714130 Ry
     ewald contribution        =   29256.14810647 Ry
     DFT-D3 Dispersion         =      -2.53087264 Ry
     one-center paw contrib.   =   -5131.61866819 Ry

     total magnetization       =     9.92 Bohr mag/cell
     absolute magnetization    =    10.79 Bohr mag/cell

     convergence has been achieved in  27 iterations

     negative rho (up, down):  1.545E-04 1.185E-04

     Forces acting on atoms (cartesian axes, Ry/au):

     atom    1 type  1   force =    -0.00008099   -0.00004676    0.01599025
     atom    2 type  2   force =    -0.00035539   -0.01429396   -0.00891602
     atom    3 type  2   force =    -0.01255663    0.00683920   -0.00891601
     atom    4 type  2   force =     0.01238587    0.00715099   -0.00967772
     atom    5 type  1   force =     0.00067784    0.00039136   -0.00023184
     atom    6 type  2   force =    -0.00025318   -0.00079158    0.00501834
     atom    7 type  2   force =    -0.00081212    0.00017654    0.00501834
     atom    8 type  2   force =     0.00107045    0.00061803    0.00532659
     atom    9 type  1   force =    -0.00000125   -0.00000071    0.00046447
     atom   10 type  2   force =     0.00029773   -0.00033632   -0.00011219
     atom   11 type  2   force =    -0.00036451   -0.00021045   -0.00019571
     atom   12 type  2   force =    -0.00014240    0.00042600   -0.00011219
     atom   13 type  1   force =    -0.00012785   -0.00007382   -0.00008138
     atom   14 type  2   force =     0.00075016    0.00009336   -0.00043517
     atom   15 type  2   force =     0.00045593    0.00060299   -0.00043515
     atom   16 type  2   force =     0.00067783    0.00039136   -0.00044132
     atom   17 type  1   force =     0.00031442    0.00018151   -0.00025599
     atom   18 type  2   force =    -0.00049986   -0.00058890    0.00006762
     atom   19 type  2   force =    -0.00075994   -0.00013843    0.00006765
     atom   20 type  2   force =     0.00015090    0.00008712   -0.00000201
     atom   21 type  1   force =     0.00006684    0.00003858   -0.00030103
     atom   22 type  2   force =    -0.00009466    0.00050672   -0.00062214
     atom   23 type  2   force =     0.00078633    0.00045398   -0.00027027
     atom   24 type  2   force =     0.00039150   -0.00033534   -0.00062216
     atom   25 type  3   force =    -0.00197705   -0.00114145   -0.00032495

     Total force =     0.002656     Total SCF correction =     0.000030


     Computing stress (Cartesian axis) and pressure


     negative rho (up, down):  1.545E-04 1.185E-04
          total   stress  (Ry/bohr**3)                   (kbar)     P=       -8.67
  -0.00009008  -0.00000125  -0.00000298          -13.25       -0.18       -0.44
  -0.00000125  -0.00008864  -0.00000172           -0.18      -13.04       -0.25
  -0.00000298  -0.00000172   0.00000184           -0.44       -0.25        0.27

     Energy error            =      1.5E-05 Ry
     Gradient error          =      7.9E-04 Ry/Bohr

     number of scf cycles    =  23
     number of bfgs steps    =  21

     energy             old  =   -7077.4255078038 Ry
     energy             new  =   -7077.4255227461 Ry

     CASE: energy            _new < energy            _old

     new trust radius        =       0.0039631185 bohr
     new conv_thr            =            1.0E-10 Ry


ATOMIC_POSITIONS (angstrom)
Ni               5.3171990772        3.0698863186       11.0000000000    0   0   0
Pd               2.6585995386        3.0698851333       11.0000764482    0   0   0
Pd               3.9878982814        0.7674721723       11.0000764482    0   0   0
Pd               1.3293007958        0.7674721723       11.0000764482    0   0   0
Ni               2.6585995386        1.5349431593       13.1707374333    0   0   0
Pd               3.9878982814        3.8373584909       13.1708138815    0   0   0
Pd               5.3171990772        1.5349419740       13.1708138815    0   0   0
Pd               6.6464998731        3.8373584909       13.1708138815    0   0   0
Ni              -0.0030034763       -0.0017340084       15.3332175372
Pd               5.3218969059        4.6069990501       15.3341674644
Pd               3.9917049804        2.3046119906       15.3481346125
Pd               6.6507266137        2.3053984684       15.3341674674
Ni               5.3122108757        3.0670064760       17.5168618971
Pd               3.9730899597        0.7629209606       17.5222851202
Pd               2.6472538558        3.0593364874       17.5222850823
Pd               1.3121303926        0.7575588985       17.4802915506
Ni               2.6567356499        1.5338672258       19.6921024241
Pd               4.0006748037        3.8404066572       19.6755749572
Pd               5.3262269927        1.5444828877       19.6755749007
Pd               6.6468518941        3.8375619236       19.6854718289
Ni               0.0220262000        0.0127170509       21.7740907358
Pd               5.3370407040        4.6325365400       21.8923815606
Pd               4.0077228964        2.3138600775       21.9033397159
Pd               6.6804145305        2.3057448275       21.8923816172
H                3.9776774860        2.2965134952       23.4585982442    0   0   1



     Writing config-only to output data dir /tmpu/isholek_g/isholek/MIGUEL/QE/Hydrogen/111_2x2/SAVE/Ni1Pd3_111-T1.save/ :
     XML data file
     NEW-OLD atomic charge density approx. for the potential

     Check: negative core charge=   -0.000002

     negative rho (up, down):  1.456E-04 1.296E-04
     Generating pointlists ...

     total cpu time spent up to now is   145589.4 secs

     Self-consistent Calculation

     iteration #  1     ecut=    60.00 Ry     beta= 0.20
     Davidson diagonalization with overlap
     ethr =  1.00E-06,  avg # of iterations =  4.0

     Threshold (ethr) on eigenvalues was too large:
     Diagonalizing with lowered threshold

     Davidson diagonalization with overlap
     ethr =  4.01E-08,  avg # of iterations =  2.8

     negative rho (up, down):  1.536E-04 1.269E-04

     total cpu time spent up to now is   146152.2 secs

     total energy              =   -7077.42551093 Ry
     estimated scf accuracy    <       0.00010502 Ry

     total magnetization       =     9.91 Bohr mag/cell
     absolute magnetization    =    10.78 Bohr mag/cell

     iteration #  2     ecut=    60.00 Ry     beta= 0.20
     Davidson diagonalization with overlap
     ethr =  4.36E-08,  avg # of iterations =  1.0

     negative rho (up, down):  1.543E-04 1.258E-04

     total cpu time spent up to now is   146320.7 secs

     total energy              =   -7077.42551762 Ry
     estimated scf accuracy    <       0.00004423 Ry

     total magnetization       =     9.92 Bohr mag/cell
     absolute magnetization    =    10.79 Bohr mag/cell

     iteration #  3     ecut=    60.00 Ry     beta= 0.20
     Davidson diagonalization with overlap
     ethr =  1.84E-08,  avg # of iterations =  1.1

     negative rho (up, down):  1.550E-04 1.250E-04

     total cpu time spent up to now is   146488.2 secs

     total energy              =   -7077.42552362 Ry
     estimated scf accuracy    <       0.00002281 Ry

     total magnetization       =     9.92 Bohr mag/cell
     absolute magnetization    =    10.79 Bohr mag/cell

     iteration #  4     ecut=    60.00 Ry     beta= 0.20
     Davidson diagonalization with overlap
     ethr =  9.46E-09,  avg # of iterations =  1.0

     negative rho (up, down):  1.557E-04 1.245E-04

     total cpu time spent up to now is   146653.6 secs

     total energy              =   -7077.42552734 Ry
     estimated scf accuracy    <       0.00000607 Ry

     total magnetization       =     9.92 Bohr mag/cell
     absolute magnetization    =    10.79 Bohr mag/cell

     iteration #  5     ecut=    60.00 Ry     beta= 0.20
     Davidson diagonalization with overlap
     ethr =  2.52E-09,  avg # of iterations =  1.4

     negative rho (up, down):  1.566E-04 1.242E-04

     total cpu time spent up to now is   146825.7 secs

     total energy              =   -7077.42553151 Ry
     estimated scf accuracy    <       0.00000522 Ry

     total magnetization       =     9.92 Bohr mag/cell
     absolute magnetization    =    10.79 Bohr mag/cell

     iteration #  6     ecut=    60.00 Ry     beta= 0.20
     Davidson diagonalization with overlap
     ethr =  2.16E-09,  avg # of iterations =  2.0

     negative rho (up, down):  1.570E-04 1.237E-04

     total cpu time spent up to now is   147010.2 secs

     total energy              =   -7077.42553354 Ry
     estimated scf accuracy    <       0.00000212 Ry

     total magnetization       =     9.92 Bohr mag/cell
     absolute magnetization    =    10.79 Bohr mag/cell

     iteration #  7     ecut=    60.00 Ry     beta= 0.20
     Davidson diagonalization with overlap
     ethr =  8.78E-10,  avg # of iterations =  2.0

     negative rho (up, down):  1.573E-04 1.230E-04

     total cpu time spent up to now is   147197.0 secs

     total energy              =   -7077.42553473 Ry
     estimated scf accuracy    <       0.00000090 Ry

     total magnetization       =     9.92 Bohr mag/cell
     absolute magnetization    =    10.79 Bohr mag/cell

     iteration #  8     ecut=    60.00 Ry     beta= 0.20
     Davidson diagonalization with overlap
     ethr =  3.74E-10,  avg # of iterations =  3.3

     negative rho (up, down):  1.572E-04 1.225E-04

     total cpu time spent up to now is   147424.6 secs

     total energy              =   -7077.42553494 Ry
     estimated scf accuracy    <       0.00000054 Ry

     total magnetization       =     9.92 Bohr mag/cell
     absolute magnetization    =    10.79 Bohr mag/cell

     iteration #  9     ecut=    60.00 Ry     beta= 0.20
     Davidson diagonalization with overlap
     ethr =  2.24E-10,  avg # of iterations =  1.2

     negative rho (up, down):  1.567E-04 1.219E-04

     total cpu time spent up to now is   147594.3 secs

     total energy              =   -7077.42553497 Ry
     estimated scf accuracy    <       0.00000007 Ry

     total magnetization       =     9.92 Bohr mag/cell
     absolute magnetization    =    10.79 Bohr mag/cell

     iteration # 10     ecut=    60.00 Ry     beta= 0.20
     Davidson diagonalization with overlap
     ethr =  2.77E-11,  avg # of iterations =  4.2

     negative rho (up, down):  1.565E-04 1.215E-04

     total cpu time spent up to now is   147848.9 secs

     total energy              =   -7077.42553498 Ry
     estimated scf accuracy    <       0.00000004 Ry

     total magnetization       =     9.92 Bohr mag/cell
     absolute magnetization    =    10.79 Bohr mag/cell

     iteration # 11     ecut=    60.00 Ry     beta= 0.20
     Davidson diagonalization with overlap
     ethr =  1.81E-11,  avg # of iterations =  1.6

     negative rho (up, down):  1.562E-04 1.209E-04

     total cpu time spent up to now is   148021.3 secs

     total energy              =   -7077.42553498 Ry
     estimated scf accuracy    <       0.00000005 Ry

     total magnetization       =     9.92 Bohr mag/cell
     absolute magnetization    =    10.79 Bohr mag/cell

     iteration # 12     ecut=    60.00 Ry     beta= 0.20
     Davidson diagonalization with overlap
     ethr =  1.81E-11,  avg # of iterations =  1.0

     negative rho (up, down):  1.560E-04 1.205E-04

     total cpu time spent up to now is   148191.6 secs

     total energy              =   -7077.42553498 Ry
     estimated scf accuracy    <          6.7E-09 Ry

     total magnetization       =     9.92 Bohr mag/cell
     absolute magnetization    =    10.79 Bohr mag/cell

     iteration # 13     ecut=    60.00 Ry     beta= 0.20
     Davidson diagonalization with overlap
     ethr =  2.79E-12,  avg # of iterations =  2.1

     negative rho (up, down):  1.559E-04 1.203E-04

     total cpu time spent up to now is   148376.9 secs

     total energy              =   -7077.42553498 Ry
     estimated scf accuracy    <          3.1E-09 Ry

     total magnetization       =     9.92 Bohr mag/cell
     absolute magnetization    =    10.79 Bohr mag/cell

     iteration # 14     ecut=    60.00 Ry     beta= 0.20
     Davidson diagonalization with overlap
     ethr =  1.28E-12,  avg # of iterations =  1.7

     negative rho (up, down):  1.558E-04 1.202E-04

     total cpu time spent up to now is   148554.9 secs

     total energy              =   -7077.42553498 Ry
     estimated scf accuracy    <          4.7E-09 Ry

     total magnetization       =     9.92 Bohr mag/cell
     absolute magnetization    =    10.79 Bohr mag/cell

     iteration # 15     ecut=    60.00 Ry     beta= 0.20
     Davidson diagonalization with overlap
     ethr =  1.28E-12,  avg # of iterations =  1.1

     negative rho (up, down):  1.556E-04 1.199E-04

     total cpu time spent up to now is   148726.2 secs

     total energy              =   -7077.42553498 Ry
     estimated scf accuracy    <          3.6E-09 Ry

     total magnetization       =     9.92 Bohr mag/cell
     absolute magnetization    =    10.79 Bohr mag/cell

     iteration # 16     ecut=    60.00 Ry     beta= 0.20
     Davidson diagonalization with overlap
     ethr =  1.28E-12,  avg # of iterations =  1.0

     negative rho (up, down):  1.554E-04 1.196E-04

     total cpu time spent up to now is   148892.5 secs

     total energy              =   -7077.42553498 Ry
     estimated scf accuracy    <          7.1E-09 Ry

     total magnetization       =     9.92 Bohr mag/cell
     absolute magnetization    =    10.79 Bohr mag/cell

     iteration # 17     ecut=    60.00 Ry     beta= 0.20
     Davidson diagonalization with overlap
     ethr =  1.28E-12,  avg # of iterations =  2.0

     negative rho (up, down):  1.550E-04 1.192E-04

     total cpu time spent up to now is   149077.0 secs

     total energy              =   -7077.42553498 Ry
     estimated scf accuracy    <          2.5E-09 Ry

     total magnetization       =     9.92 Bohr mag/cell
     absolute magnetization    =    10.79 Bohr mag/cell

     iteration # 18     ecut=    60.00 Ry     beta= 0.20
     Davidson diagonalization with overlap
     ethr =  1.05E-12,  avg # of iterations =  1.0

     negative rho (up, down):  1.547E-04 1.188E-04

     total cpu time spent up to now is   149243.8 secs

     total energy              =   -7077.42553498 Ry
     estimated scf accuracy    <          1.7E-09 Ry

     total magnetization       =     9.92 Bohr mag/cell
     absolute magnetization    =    10.79 Bohr mag/cell

     iteration # 19     ecut=    60.00 Ry     beta= 0.20
     Davidson diagonalization with overlap
     ethr =  7.14E-13,  avg # of iterations =  1.0

     negative rho (up, down):  1.544E-04 1.185E-04

     total cpu time spent up to now is   149411.8 secs

     total energy              =   -7077.42553498 Ry
     estimated scf accuracy    <          9.5E-10 Ry

     total magnetization       =     9.92 Bohr mag/cell
     absolute magnetization    =    10.79 Bohr mag/cell

     iteration # 20     ecut=    60.00 Ry     beta= 0.20
     Davidson diagonalization with overlap
     ethr =  3.96E-13,  avg # of iterations =  2.0

     negative rho (up, down):  1.541E-04 1.182E-04

     total cpu time spent up to now is   149588.6 secs

     total energy              =   -7077.42553498 Ry
     estimated scf accuracy    <          7.1E-10 Ry

     total magnetization       =     9.92 Bohr mag/cell
     absolute magnetization    =    10.79 Bohr mag/cell

     iteration # 21     ecut=    60.00 Ry     beta= 0.20
     Davidson diagonalization with overlap
     ethr =  2.93E-13,  avg # of iterations =  1.0

     negative rho (up, down):  1.541E-04 1.182E-04

     total cpu time spent up to now is   149757.1 secs

     total energy              =   -7077.42553498 Ry
     estimated scf accuracy    <          4.2E-10 Ry

     total magnetization       =     9.92 Bohr mag/cell
     absolute magnetization    =    10.79 Bohr mag/cell

     iteration # 22     ecut=    60.00 Ry     beta= 0.20
     Davidson diagonalization with overlap
     ethr =  1.76E-13,  avg # of iterations =  1.1

     negative rho (up, down):  1.539E-04 1.180E-04

     total cpu time spent up to now is   149926.4 secs

     total energy              =   -7077.42553498 Ry
     estimated scf accuracy    <          3.1E-10 Ry

     total magnetization       =     9.92 Bohr mag/cell
     absolute magnetization    =    10.79 Bohr mag/cell

     iteration # 23     ecut=    60.00 Ry     beta= 0.20
     Davidson diagonalization with overlap
     ethr =  1.28E-13,  avg # of iterations =  1.1

     negative rho (up, down):  1.539E-04 1.180E-04

     total cpu time spent up to now is   150096.5 secs

     total energy              =   -7077.42553498 Ry
     estimated scf accuracy    <          2.9E-10 Ry

     total magnetization       =     9.92 Bohr mag/cell
     absolute magnetization    =    10.79 Bohr mag/cell

     iteration # 24     ecut=    60.00 Ry     beta= 0.20
     Davidson diagonalization with overlap
     ethr =  1.20E-13,  avg # of iterations =  1.0

     negative rho (up, down):  1.541E-04 1.181E-04

     total cpu time spent up to now is   150266.5 secs

     total energy              =   -7077.42553498 Ry
     estimated scf accuracy    <          2.7E-10 Ry

     total magnetization       =     9.92 Bohr mag/cell
     absolute magnetization    =    10.79 Bohr mag/cell

     iteration # 25     ecut=    60.00 Ry     beta= 0.20
     Davidson diagonalization with overlap
     ethr =  1.11E-13,  avg # of iterations =  1.0

     negative rho (up, down):  1.545E-04 1.185E-04
 
     Magnetic moment per site  (integrated on atomic sphere of radius R)
     atom   1 (R=0.202)  charge=  8.7468  magn=  0.9616
     atom   2 (R=0.114)  charge=  4.0981  magn=  0.1528
     atom   3 (R=0.114)  charge=  4.0981  magn=  0.1528
     atom   4 (R=0.114)  charge=  4.0982  magn=  0.1506
     atom   5 (R=0.202)  charge=  8.8231  magn=  0.9257
     atom   6 (R=0.114)  charge=  4.0923  magn=  0.1890
     atom   7 (R=0.114)  charge=  4.0923  magn=  0.1890
     atom   8 (R=0.114)  charge=  4.0916  magn=  0.1892
     atom   9 (R=0.202)  charge=  8.8369  magn=  0.8675
     atom  10 (R=0.114)  charge=  4.0889  magn=  0.1840
     atom  11 (R=0.114)  charge=  4.0891  magn=  0.1800
     atom  12 (R=0.114)  charge=  4.0889  magn=  0.1840
     atom  13 (R=0.202)  charge=  8.8395  magn=  0.8509
     atom  14 (R=0.114)  charge=  4.0887  magn=  0.1761
     atom  15 (R=0.114)  charge=  4.0887  magn=  0.1761
     atom  16 (R=0.114)  charge=  4.0918  magn=  0.1784
     atom  17 (R=0.202)  charge=  8.8217  magn=  0.8654
     atom  18 (R=0.114)  charge=  4.0914  magn=  0.1689
     atom  19 (R=0.114)  charge=  4.0914  magn=  0.1689
     atom  20 (R=0.114)  charge=  4.0910  magn=  0.1854
     atom  21 (R=0.202)  charge=  8.7632  magn=  0.9263
     atom  22 (R=0.114)  charge=  4.1004  magn=  0.1319
     atom  23 (R=0.114)  charge=  4.0743  magn=  0.0667
     atom  24 (R=0.114)  charge=  4.1004  magn=  0.1319
     atom  25 (R=0.114)  charge=  0.6523  magn= -0.0057

     total cpu time spent up to now is   150432.7 secs

     End of self-consistent calculation

     Number of k-points >= 100: set verbosity='high' to print the bands.

     the Fermi energy is    -5.1858 ev

!    total energy              =   -7077.42553498 Ry
     total all-electron energy =   -199909.862105 Ry
     estimated scf accuracy    <          6.5E-11 Ry
     smearing contrib. (-TS)   =       0.00016351 Ry
     internal energy E=F+TS    =   -7077.42569849 Ry

     The total energy is F=E-TS. E is the sum of the following terms:
     one-electron contribution =  -61114.35105353 Ry
     hartree contribution      =   30744.36037249 Ry
     xc contribution           =    -835.45959690 Ry
     ewald contribution        =   29262.17486171 Ry
     DFT-D3 Dispersion         =      -2.53118615 Ry
     one-center paw contrib.   =   -5131.61909611 Ry

     total magnetization       =     9.92 Bohr mag/cell
     absolute magnetization    =    10.79 Bohr mag/cell

     convergence has been achieved in  25 iterations

     negative rho (up, down):  1.545E-04 1.185E-04

     Forces acting on atoms (cartesian axes, Ry/au):

     atom    1 type  1   force =    -0.00007774   -0.00004488    0.01598568
     atom    2 type  2   force =    -0.00035811   -0.01429224   -0.00892582
     atom    3 type  2   force =    -0.01255650    0.00683599   -0.00892583
     atom    4 type  2   force =     0.01238793    0.00715217   -0.00967391
     atom    5 type  1   force =     0.00063900    0.00036893   -0.00019791
     atom    6 type  2   force =    -0.00023723   -0.00073877    0.00499408
     atom    7 type  2   force =    -0.00075840    0.00016394    0.00499408
     atom    8 type  2   force =     0.00102747    0.00059322    0.00536743
     atom    9 type  1   force =     0.00016637    0.00009606    0.00032817
     atom   10 type  2   force =     0.00025446   -0.00017827   -0.00066106
     atom   11 type  2   force =    -0.00049518   -0.00028589   -0.00039781
     atom   12 type  2   force =    -0.00002715    0.00030950   -0.00066106
     atom   13 type  1   force =    -0.00003080   -0.00001779    0.00008883
     atom   14 type  2   force =     0.00059886    0.00017072   -0.00024971
     atom   15 type  2   force =     0.00044727    0.00043327   -0.00024967
     atom   16 type  2   force =     0.00067376    0.00038901    0.00011359
     atom   17 type  1   force =    -0.00002863   -0.00001653   -0.00041229
     atom   18 type  2   force =    -0.00049705   -0.00015698    0.00028077
     atom   19 type  2   force =    -0.00038445   -0.00035194    0.00028080
     atom   20 type  2   force =     0.00004221    0.00002433    0.00023751
     atom   21 type  1   force =     0.00029122    0.00016813   -0.00045824
     atom   22 type  2   force =    -0.00002899    0.00059058   -0.00066104
     atom   23 type  2   force =     0.00042439    0.00024502   -0.00033253
     atom   24 type  2   force =     0.00049695   -0.00032039   -0.00066106
     atom   25 type  3   force =    -0.00196965   -0.00113718   -0.00020298

     Total force =     0.002538     Total SCF correction =     0.000061


     Computing stress (Cartesian axis) and pressure


     negative rho (up, down):  1.545E-04 1.185E-04
          total   stress  (Ry/bohr**3)                   (kbar)     P=       -8.57
  -0.00008969  -0.00000130  -0.00000307          -13.19       -0.19       -0.45
  -0.00000130  -0.00008820  -0.00000177           -0.19      -12.97       -0.26
  -0.00000307  -0.00000177   0.00000313           -0.45       -0.26        0.46

     Energy error            =      1.2E-05 Ry
     Gradient error          =      6.7E-04 Ry/Bohr

     bfgs converged in  24 scf cycles and  22 bfgs steps
     (criteria: energy <  1.8E-05 Ry, force <  7.8E-04 Ry/Bohr)

     End of BFGS Geometry Optimization

     Final energy             =   -7077.4255349784 Ry

     File /tmpu/isholek_g/isholek/MIGUEL/QE/Hydrogen/111_2x2/SAVE/Ni1Pd3_111-T1.bfgs deleted, as requested
Begin final coordinates

ATOMIC_POSITIONS (angstrom)
Ni               5.3171990772        3.0698863186       11.0000000000    0   0   0
Pd               2.6585995386        3.0698851333       11.0000764482    0   0   0
Pd               3.9878982814        0.7674721723       11.0000764482    0   0   0
Pd               1.3293007958        0.7674721723       11.0000764482    0   0   0
Ni               2.6585995386        1.5349431593       13.1707374333    0   0   0
Pd               3.9878982814        3.8373584909       13.1708138815    0   0   0
Pd               5.3171990772        1.5349419740       13.1708138815    0   0   0
Pd               6.6464998731        3.8373584909       13.1708138815    0   0   0
Ni              -0.0030034763       -0.0017340084       15.3332175372
Pd               5.3218969059        4.6069990501       15.3341674644
Pd               3.9917049804        2.3046119906       15.3481346125
Pd               6.6507266137        2.3053984684       15.3341674674
Ni               5.3122108757        3.0670064760       17.5168618971
Pd               3.9730899597        0.7629209606       17.5222851202
Pd               2.6472538558        3.0593364874       17.5222850823
Pd               1.3121303926        0.7575588985       17.4802915506
Ni               2.6567356499        1.5338672258       19.6921024241
Pd               4.0006748037        3.8404066572       19.6755749572
Pd               5.3262269927        1.5444828877       19.6755749007
Pd               6.6468518941        3.8375619236       19.6854718289
Ni               0.0220262000        0.0127170509       21.7740907358
Pd               5.3370407040        4.6325365400       21.8923815606
Pd               4.0077228964        2.3138600775       21.9033397159
Pd               6.6804145305        2.3057448275       21.8923816172
H                3.9776774860        2.2965134952       23.4585982442    0   0   1
End final coordinates



     Writing all to output data dir /tmpu/isholek_g/isholek/MIGUEL/QE/Hydrogen/111_2x2/SAVE/Ni1Pd3_111-T1.save/ :
     XML data file, charge density, pseudopotentials, collected wavefunctions
 
     init_run     :     91.98s CPU     94.43s WALL (       1 calls)
     electrons    : 133326.95s CPU 144011.10s WALL (      24 calls)
     update_pot   :     29.36s CPU     33.16s WALL (      23 calls)
     forces       :    577.90s CPU    618.45s WALL (      24 calls)
     force_dftd3  :      3.69s CPU      3.84s WALL (      24 calls)
     stress       :   5474.06s CPU   5766.15s WALL (      24 calls)
     stres_dftd3  :      4.00s CPU      4.20s WALL (      24 calls)

     Called by init_run:
     wfcinit      :     52.41s CPU     53.90s WALL (       1 calls)
     potinit      :      1.44s CPU      1.78s WALL (       1 calls)
     hinit0       :      0.58s CPU      1.01s WALL (       1 calls)

     Called by electrons:
     c_bands      : 106308.81s CPU 114977.84s WALL (     782 calls)
     sum_band     :  24592.79s CPU  26376.02s WALL (     782 calls)
     v_of_rho     :    607.22s CPU    671.78s WALL (     803 calls)
     newd         :    177.10s CPU    205.65s WALL (     803 calls)
     PAW_pot      :    282.50s CPU    296.85s WALL (     826 calls)
     mix_rho      :   1294.28s CPU   1404.84s WALL (     782 calls)
     energy_dftd3 :      1.80s CPU      1.85s WALL (      24 calls)

     Called by c_bands:
     init_us_2    :    721.87s CPU    823.32s WALL (   40900 calls)
     init_us_2:cp :    721.23s CPU    822.84s WALL (   40900 calls)
     cegterg      :  97080.30s CPU 105150.22s WALL (   19550 calls)

     Called by *egterg:
     cdiaghg      :   1950.19s CPU   2100.13s WALL (   53458 calls)
     h_psi        :  67367.36s CPU  73344.81s WALL (   54133 calls)
     s_psi        :   5568.14s CPU   5935.85s WALL (   54133 calls)
     g_psi        :    194.60s CPU    214.83s WALL (   34558 calls)

     Called by h_psi:
     h_psi:calbec :   8021.89s CPU   8569.66s WALL (   54133 calls)
     vloc_psi     :  53497.17s CPU  58289.93s WALL (   54133 calls)
     add_vuspsi   :   5636.88s CPU   6088.10s WALL (   54133 calls)

     General routines
     calbec       :  13436.60s CPU  14325.76s WALL (   77258 calls)
     fft          :    497.74s CPU    552.56s WALL (   21016 calls)
     ffts         :    398.43s CPU    440.35s WALL (   96035 calls)
     fftw         :  52726.98s CPU  56141.00s WALL (15027984 calls)
     interpolate  :     38.77s CPU     43.71s WALL (    1606 calls)
 
     Parallel routines
 
     PWSCF        :   1d14h47m CPU   1d17h51m WALL

 
   This run was terminated on:   8:15:36   1May2026            

=------------------------------------------------------------------------------=
   JOB DONE.
=------------------------------------------------------------------------------=
