
     Program PWSCF v.7.3 starts on  3Apr2026 at 13:46:19 

     This program is part of the open-source Quantum ESPRESSO suite
     for quantum simulation of materials; please cite
         "P. Giannozzi et al., J. Phys.:Condens. Matter 21 395502 (2009);
         "P. Giannozzi et al., J. Phys.:Condens. Matter 29 465901 (2017);
         "P. Giannozzi et al., J. Chem. Phys. 152 154105 (2020);
          URL http://www.quantum-espresso.org", 
     in publications or presentations arising from this work. More details at
     http://www.quantum-espresso.org/quote

     Parallel version (MPI), running on    64 processors

     MPI processes distributed on     4 nodes
     57525 MiB available memory on the printing compute node when the environment starts
 
     Reading input from /tmpu/isholek_g/isholek/MIGUEL/QE/Hydrogen/111_2x2/RELAX/Ni1Pd3_111-H_hcp_2-relax.in

     Current dimensions of program PWSCF are:
     Max number of different atomic species (ntypx) = 10
     Max number of k-points (npk) =  40000
     Max angular momentum in pseudopotentials (lmaxx) =  4
     file Ni.upf: wavefunction(s)  4S 3D renormalized
     file Pd.upf: wavefunction(s)  5S 4D renormalized
     file H.upf: wavefunction(s)  1S renormalized

     IMPORTANT: XC functional enforced from input :
     Exchange-correlation= PBE
                           (   1   4   3   4   0   0   0)
     Any further DFT definition will be discarded
     Please, verify this is what you really want

 
     K-points division:     npool     =       8
     R & G space division:  proc/nbgrp/npool/nimage =       8
     Subspace diagonalization in iterative solution of the eigenvalue problem:
     one sub-group per band group will be used
     scalapack distributed-memory algorithm (size of sub-group:  2*  2 procs)

 
     Parallelization info
     --------------------
     sticks:   dense  smooth     PW     G-vecs:    dense   smooth      PW
     Min         416     207     59               120460    42599    6547
     Max         417     208     60               120479    42626    6574
     Sum        3331    1663    475               963739   340921   52455
 
     Using Slab Decomposition
 

     Title: 
     Ni1Pd3_111-H_hcp_2-relax                                                   


     bravais-lattice index     =            0
     lattice parameter (alat)  =      10.0481  a.u.
     unit-cell volume          =    5428.4795 (a.u.)^3
     number of atoms/cell      =           25
     number of atomic types    =            3
     number of electrons       =       241.00
     number of Kohn-Sham states=          145
     kinetic-energy cutoff     =      60.0000  Ry
     charge density cutoff     =     480.0000  Ry
     scf convergence threshold =      1.0E-08
     mixing beta               =       0.2000
     number of iterations used =           12  local-TF  mixing
     energy convergence thresh.=      1.8E-05
     force convergence thresh. =      7.8E-04
     Exchange-correlation= PBE
                           (   1   4   3   4   0   0   0)
     nstep                     =           50


     celldm(1)=  10.048050  celldm(2)=   0.000000  celldm(3)=   0.000000
     celldm(4)=   0.000000  celldm(5)=   0.000000  celldm(6)=   0.000000

     crystal axes: (cart. coord. in units of alat)
               a(1) = (   1.000000   0.000000   0.000000 )  
               a(2) = (   0.500000   0.866025   0.000000 )  
               a(3) = (   0.000000   0.000000   6.178773 )  

     reciprocal axes: (cart. coord. in units 2 pi/alat)
               b(1) = (  1.000000 -0.577350  0.000000 )  
               b(2) = (  0.000000  1.154701  0.000000 )  
               b(3) = (  0.000000  0.000000  0.161844 )  


     PseudoPot. # 1 for Ni read from file:
     /tmpu/isholek_g/isholek/MIGUEL/PP/PAW/Ni.upf
     MD5 check sum: d88365a95a5e142bd87181c2c8b16588
     Pseudo is Projector augmented-wave + core cor, Zval = 10.0
     Generated using "atomic" code by A. Dal Corso  v.5.0.2 svn rev. 9415
     Shape of augmentation charge: PSQ
     Using radial grid of 1195 points,  6 beta functions with: 
                l(1) =   0
                l(2) =   0
                l(3) =   1
                l(4) =   1
                l(5) =   2
                l(6) =   2
     Q(r) pseudized with 0 coefficients 


     PseudoPot. # 2 for Pd read from file:
     /tmpu/isholek_g/isholek/MIGUEL/PP/PAW/Pd.upf
     MD5 check sum: e9d6f14fd83b79f8105499163af174c9
     Pseudo is Projector augmented-wave + core cor, Zval = 10.0
     Generated using "atomic" code by A. Dal Corso  v.5.0.2 svn rev. 9415
     Shape of augmentation charge: PSQ
     Using radial grid of 1235 points,  6 beta functions with: 
                l(1) =   0
                l(2) =   0
                l(3) =   1
                l(4) =   1
                l(5) =   2
                l(6) =   2
     Q(r) pseudized with 0 coefficients 


     PseudoPot. # 3 for H  read from file:
     /tmpu/isholek_g/isholek/MIGUEL/PP/PAW/H.upf
     MD5 check sum: 4cbe42a24e15140179a93d5bf84f2220
     Pseudo is Projector augmented-wave, Zval =  1.0
     Generated using "atomic" code by A. Dal Corso  v.5.0.2 svn rev. 9415
     Shape of augmentation charge: PSQ
     Using radial grid of  929 points,  2 beta functions with: 
                l(1) =   0
                l(2) =   0
     Q(r) pseudized with 0 coefficients 


     atomic species   valence    mass     pseudopotential
     Ni               10.00    58.69340     Ni( 1.00)
     Pd               10.00   106.42000     Pd( 1.00)
     H                 1.00     1.00794     H ( 1.00)

     Starting magnetic structure 
     atomic species   magnetization
     Ni              0.650
     Pd              0.100
     H               0.000

     No symmetry found



   Cartesian axes

     site n.     atom                  positions (alat units)
         1        Ni     tau(   1) = (   1.0000000   0.5773503   2.0687584  )
         2        Pd     tau(   2) = (   0.5000000   0.5773500   2.0687727  )
         3        Pd     tau(   3) = (   0.7499998   0.1443377   2.0687727  )
         4        Pd     tau(   4) = (   0.2500002   0.1443377   2.0687727  )
         5        Ni     tau(   5) = (   0.5000000   0.2886751   2.4770066  )
         6        Pd     tau(   6) = (   0.7499998   0.7216879   2.4770210  )
         7        Pd     tau(   7) = (   1.0000000   0.2886749   2.4770210  )
         8        Pd     tau(   8) = (   1.2500002   0.7216879   2.4770210  )
         9        Ni     tau(   9) = (   0.0000000  -0.0000000   2.8841673  )
        10        Pd     tau(  10) = (   1.0000000   0.8661098   2.8846297  )
        11        Pd     tau(  11) = (   0.7499269   0.4329705   2.8846297  )
        12        Pd     tau(  12) = (   1.2500730   0.4329705   2.8846297  )
        13        Ni     tau(  13) = (   1.0000000   0.5773503   3.2932083  )
        14        Pd     tau(  14) = (   0.7498729   0.1444109   3.2930618  )
        15        Pd     tau(  15) = (   0.5000000   0.5772035   3.2930618  )
        16        Pd     tau(  16) = (   0.2501271   0.1444109   3.2930618  )
        17        Ni     tau(  17) = (   0.5000000   0.2886751   3.7031032  )
        18        Pd     tau(  18) = (   0.7510407   0.7210870   3.7001030  )
        19        Pd     tau(  19) = (   1.0000000   0.2898768   3.7001029  )
        20        Pd     tau(  20) = (   1.2489593   0.7210870   3.7001030  )
        21        Ni     tau(  21) = (  -0.0000000   0.0000001   4.0940899  )
        22        Pd     tau(  22) = (   1.0000000   0.8682452   4.1148844  )
        23        Pd     tau(  23) = (   0.7480776   0.4319029   4.1148844  )
        24        Pd     tau(  24) = (   1.2519223   0.4319029   4.1148844  )
        25        H      tau(  25) = (   0.5000000   0.5773503   4.3029533  )

     --------------------------------------------
     DFT-D3 Dispersion Correction (3-body terms):
     --------------------------------------------
       Reference C6 values for interpolation: 

         atom   Coordination number   C6
         H          0.912             6.05
         H          0.000            15.18
         Ni         0.000          1149.49
         Ni         1.794           356.66
         Ni         6.546           257.56
         Ni         6.292           283.75
         Pd         0.000          1217.01
         Pd         1.863           573.90
         Pd         5.710           531.75

       Values used:

         atom   Coordination number  R0_AB[au]  C6      C8
         Ni         5.893            3.162    276.72  23187.44
         Pd         6.810            3.168    531.75  48720.73
         Pd         6.810            3.168    531.75  48720.73
         Pd         6.810            3.168    531.75  48720.73
         Ni         7.888            3.162    258.74  21680.87
         Pd         9.139            3.168    531.75  48720.73
         Pd         9.139            3.168    531.75  48720.73
         Pd         9.139            3.168    531.75  48720.73
         Ni         7.889            3.162    258.74  21680.67
         Pd         9.144            3.168    531.75  48720.73
         Pd         9.144            3.168    531.75  48720.73
         Pd         9.144            3.168    531.75  48720.73
         Ni         7.915            3.162    258.68  21675.80
         Pd         9.128            3.168    531.75  48720.73
         Pd         9.128            3.168    531.75  48720.73
         Pd         9.128            3.168    531.75  48720.73
         Ni         7.809            3.162    258.94  21697.06
         Pd         9.154            3.168    531.75  48720.73
         Pd         9.154            3.168    531.75  48720.73
         Pd         9.154            3.168    531.75  48720.73
         Ni         6.340            3.162    271.28  22730.94
         Pd         6.719            3.168    531.75  48720.73
         Pd         7.302            3.168    531.75  48720.73
         Pd         7.302            3.168    531.75  48720.73
         H          1.402            2.062      6.06     73.26

         Molecular C6 ( Ry / a.u.^6 ) =    265091.21


     number of k points=   100  Marzari-Vanderbilt smearing, width (Ry)=  0.0147

     Number of k-points >= 100: set verbosity='high' to print them.

     Dense  grid:   963739 G-vectors     FFT dimensions: (  72,  72, 450)

     Smooth grid:   340921 G-vectors     FFT dimensions: (  50,  50, 320)

     Estimated max dynamical RAM per process >     574.07 MB

     Estimated total dynamical RAM >      31.05 GB
 ----2D----2D----2D----2D----2D----2D----2D----2D----2D----2D----2D----2D
  The code is running with the 2D cutoff
  Please refer to:
  Sohier, T., Calandra, M., & Mauri, F. (2017), 
  Density functional perturbation theory for gated two-dimensional heterostructu
 res:
  Theoretical developments and application to flexural phonons in graphene.
  Physical Review B, 96(7), 75448. https://doi.org/10.1103/PhysRevB.96.075448
 ----2D----2D----2D----2D----2D----2D----2D----2D----2D----2D----2D----2D

     Check: negative core charge=   -0.000002
     Generating pointlists ...
     new r_m :   0.1470 (alat units)  1.4768 (a.u.) for type    1
     new r_m :   0.1417 (alat units)  1.4242 (a.u.) for type    2
     new r_m :   0.1417 (alat units)  1.4242 (a.u.) for type    3

     Initial potential from superposition of free atoms

     starting charge     240.9891, renormalised to     241.0000

     negative rho (up, down):  1.998E-04 5.262E-05
     Starting wfcs are  217 randomized atomic wfcs
     Checking if some PAW data can be deallocated... 

     total cpu time spent up to now is      445.4 secs

     Self-consistent Calculation

     iteration #  1     ecut=    60.00 Ry     beta= 0.20
     Davidson diagonalization with overlap
     ethr =  1.00E-02,  avg # of iterations =  3.0

     negative rho (up, down):  4.202E-04 3.371E-04

     total cpu time spent up to now is     1285.1 secs

     total energy              =   -7076.15445795 Ry
     estimated scf accuracy    <      23.35379450 Ry

     total magnetization       =    10.78 Bohr mag/cell
     absolute magnetization    =    10.79 Bohr mag/cell

     iteration #  2     ecut=    60.00 Ry     beta= 0.20
     Davidson diagonalization with overlap
     ethr =  9.69E-03,  avg # of iterations =  1.0

     negative rho (up, down):  7.408E-04 6.359E-04

     total cpu time spent up to now is     1996.9 secs

     total energy              =   -7076.76912246 Ry
     estimated scf accuracy    <       5.89024123 Ry

     total magnetization       =    15.95 Bohr mag/cell
     absolute magnetization    =    15.96 Bohr mag/cell

     iteration #  3     ecut=    60.00 Ry     beta= 0.20
     Davidson diagonalization with overlap
     ethr =  2.44E-03,  avg # of iterations =  1.0

     negative rho (up, down):  5.939E-04 5.086E-04

     total cpu time spent up to now is     2716.9 secs

     total energy              =   -7076.99544524 Ry
     estimated scf accuracy    <       2.08699262 Ry

     total magnetization       =    16.85 Bohr mag/cell
     absolute magnetization    =    16.91 Bohr mag/cell

     iteration #  4     ecut=    60.00 Ry     beta= 0.20
     Davidson diagonalization with overlap
     ethr =  8.66E-04,  avg # of iterations =  1.2

     negative rho (up, down):  2.604E-04 1.942E-04

     total cpu time spent up to now is     3443.9 secs

     total energy              =   -7077.17577370 Ry
     estimated scf accuracy    <       1.71583268 Ry

     total magnetization       =    15.08 Bohr mag/cell
     absolute magnetization    =    15.20 Bohr mag/cell

     iteration #  5     ecut=    60.00 Ry     beta= 0.20
     Davidson diagonalization with overlap
     ethr =  7.12E-04,  avg # of iterations =  1.6

     negative rho (up, down):  7.092E-05 4.295E-05

     total cpu time spent up to now is     4208.8 secs

     total energy              =   -7077.30493479 Ry
     estimated scf accuracy    <       1.34575257 Ry

     total magnetization       =    11.47 Bohr mag/cell
     absolute magnetization    =    12.01 Bohr mag/cell

     iteration #  6     ecut=    60.00 Ry     beta= 0.20
     Davidson diagonalization with overlap
     ethr =  5.58E-04,  avg # of iterations =  1.4

     negative rho (up, down):  2.586E-06 4.051E-06

     total cpu time spent up to now is     4955.1 secs

     total energy              =   -7077.42617756 Ry
     estimated scf accuracy    <       0.61518822 Ry

     total magnetization       =    12.46 Bohr mag/cell
     absolute magnetization    =    13.15 Bohr mag/cell

     iteration #  7     ecut=    60.00 Ry     beta= 0.20
     Davidson diagonalization with overlap
     ethr =  2.55E-04,  avg # of iterations =  3.0

     negative rho (up, down):  1.261E-07 4.367E-07

     total cpu time spent up to now is     5850.4 secs

     total energy              =   -7077.39908489 Ry
     estimated scf accuracy    <       1.48888777 Ry

     total magnetization       =    12.58 Bohr mag/cell
     absolute magnetization    =    13.42 Bohr mag/cell

     iteration #  8     ecut=    60.00 Ry     beta= 0.20
     Davidson diagonalization with overlap
     ethr =  2.55E-04,  avg # of iterations =  1.9

     negative rho (up, down):  2.754E-08 1.825E-07

     total cpu time spent up to now is     6605.6 secs

     total energy              =   -7077.44712493 Ry
     estimated scf accuracy    <       0.11364298 Ry

     total magnetization       =    11.15 Bohr mag/cell
     absolute magnetization    =    12.00 Bohr mag/cell

     iteration #  9     ecut=    60.00 Ry     beta= 0.20
     Davidson diagonalization with overlap
     ethr =  4.72E-05,  avg # of iterations = 13.3

     negative rho (up, down):  1.633E-08 1.028E-07

     total cpu time spent up to now is     7807.2 secs

     total energy              =   -7077.45486457 Ry
     estimated scf accuracy    <       0.19130846 Ry

     total magnetization       =     9.49 Bohr mag/cell
     absolute magnetization    =    10.46 Bohr mag/cell

     iteration # 10     ecut=    60.00 Ry     beta= 0.20
     Davidson diagonalization with overlap
     ethr =  4.72E-05,  avg # of iterations =  1.2

     negative rho (up, down):  1.295E-08 5.295E-08

     total cpu time spent up to now is     8535.2 secs

     total energy              =   -7077.45850011 Ry
     estimated scf accuracy    <       0.02377726 Ry

     total magnetization       =     9.64 Bohr mag/cell
     absolute magnetization    =    10.63 Bohr mag/cell

     iteration # 11     ecut=    60.00 Ry     beta= 0.20
     Davidson diagonalization with overlap
     ethr =  9.87E-06,  avg # of iterations =  4.6

     negative rho (up, down):  1.339E-08 3.958E-08

     total cpu time spent up to now is     9483.7 secs

     total energy              =   -7077.45969378 Ry
     estimated scf accuracy    <       0.02527981 Ry

     total magnetization       =     9.86 Bohr mag/cell
     absolute magnetization    =    10.83 Bohr mag/cell

     iteration # 12     ecut=    60.00 Ry     beta= 0.20
     Davidson diagonalization with overlap
     ethr =  9.87E-06,  avg # of iterations =  1.2

     negative rho (up, down):  2.121E-08 4.863E-08

     total cpu time spent up to now is    10210.6 secs

     total energy              =   -7077.46025386 Ry
     estimated scf accuracy    <       0.02099502 Ry

     total magnetization       =     9.72 Bohr mag/cell
     absolute magnetization    =    10.69 Bohr mag/cell

     iteration # 13     ecut=    60.00 Ry     beta= 0.20
     Davidson diagonalization with overlap
     ethr =  8.71E-06,  avg # of iterations =  1.2

     negative rho (up, down):  4.319E-08 7.862E-08

     total cpu time spent up to now is    10951.2 secs

     total energy              =   -7077.46102337 Ry
     estimated scf accuracy    <       0.02566652 Ry

     total magnetization       =     9.44 Bohr mag/cell
     absolute magnetization    =    10.36 Bohr mag/cell

     iteration # 14     ecut=    60.00 Ry     beta= 0.20
     Davidson diagonalization with overlap
     ethr =  8.71E-06,  avg # of iterations =  1.0

     negative rho (up, down):  7.134E-08 1.039E-07

     total cpu time spent up to now is    11683.2 secs

     total energy              =   -7077.46064057 Ry
     estimated scf accuracy    <       0.01465227 Ry

     total magnetization       =     9.55 Bohr mag/cell
     absolute magnetization    =    10.42 Bohr mag/cell

     iteration # 15     ecut=    60.00 Ry     beta= 0.20
     Davidson diagonalization with overlap
     ethr =  6.08E-06,  avg # of iterations =  1.0

     negative rho (up, down):  8.812E-08 1.136E-07

     total cpu time spent up to now is    12399.9 secs

     total energy              =   -7077.46014887 Ry
     estimated scf accuracy    <       0.00880130 Ry

     total magnetization       =     9.66 Bohr mag/cell
     absolute magnetization    =    10.49 Bohr mag/cell

     iteration # 16     ecut=    60.00 Ry     beta= 0.20
     Davidson diagonalization with overlap
     ethr =  3.65E-06,  avg # of iterations =  1.5

     negative rho (up, down):  8.760E-08 1.030E-07

     total cpu time spent up to now is    13162.9 secs

     total energy              =   -7077.45979257 Ry
     estimated scf accuracy    <       0.00973510 Ry

     total magnetization       =     9.63 Bohr mag/cell
     absolute magnetization    =    10.44 Bohr mag/cell

     iteration # 17     ecut=    60.00 Ry     beta= 0.20
     Davidson diagonalization with overlap
     ethr =  3.65E-06,  avg # of iterations =  1.0

     negative rho (up, down):  2.554E-08 2.917E-08

     total cpu time spent up to now is    13885.4 secs

     total energy              =   -7077.45885353 Ry
     estimated scf accuracy    <       0.00658464 Ry

     total magnetization       =     9.69 Bohr mag/cell
     absolute magnetization    =    10.48 Bohr mag/cell

     iteration # 18     ecut=    60.00 Ry     beta= 0.20
     Davidson diagonalization with overlap
     ethr =  2.73E-06,  avg # of iterations =  1.1

     negative rho (up, down):  1.589E-08 1.784E-08

     total cpu time spent up to now is    14603.8 secs

     total energy              =   -7077.45906743 Ry
     estimated scf accuracy    <       0.00169090 Ry

     total magnetization       =     9.75 Bohr mag/cell
     absolute magnetization    =    10.55 Bohr mag/cell

     iteration # 19     ecut=    60.00 Ry     beta= 0.20
     Davidson diagonalization with overlap
     ethr =  7.02E-07,  avg # of iterations =  1.7

     total cpu time spent up to now is    15352.8 secs

     total energy              =   -7077.45919529 Ry
     estimated scf accuracy    <       0.00107294 Ry

     total magnetization       =     9.76 Bohr mag/cell
     absolute magnetization    =    10.57 Bohr mag/cell

     iteration # 20     ecut=    60.00 Ry     beta= 0.20
     Davidson diagonalization with overlap
     ethr =  4.45E-07,  avg # of iterations =  2.5

     total cpu time spent up to now is    16194.1 secs

     total energy              =   -7077.45925499 Ry
     estimated scf accuracy    <       0.00136511 Ry

     total magnetization       =     9.80 Bohr mag/cell
     absolute magnetization    =    10.63 Bohr mag/cell

     iteration # 21     ecut=    60.00 Ry     beta= 0.20
     Davidson diagonalization with overlap
     ethr =  4.45E-07,  avg # of iterations =  1.0

     total cpu time spent up to now is    16900.8 secs

     total energy              =   -7077.45923750 Ry
     estimated scf accuracy    <       0.00109305 Ry

     total magnetization       =     9.79 Bohr mag/cell
     absolute magnetization    =    10.62 Bohr mag/cell

     iteration # 22     ecut=    60.00 Ry     beta= 0.20
     Davidson diagonalization with overlap
     ethr =  4.45E-07,  avg # of iterations =  1.1

     negative rho (up, down):  8.342E-07 8.331E-07

     total cpu time spent up to now is    17616.3 secs

     total energy              =   -7077.45919629 Ry
     estimated scf accuracy    <       0.00107994 Ry

     total magnetization       =     9.79 Bohr mag/cell
     absolute magnetization    =    10.63 Bohr mag/cell

     iteration # 23     ecut=    60.00 Ry     beta= 0.20
     Davidson diagonalization with overlap
     ethr =  4.45E-07,  avg # of iterations =  1.3

     negative rho (up, down):  3.664E-05 3.504E-05

     total cpu time spent up to now is    18341.9 secs

     total energy              =   -7077.45895879 Ry
     estimated scf accuracy    <       0.00083383 Ry

     total magnetization       =     9.84 Bohr mag/cell
     absolute magnetization    =    10.68 Bohr mag/cell

     iteration # 24     ecut=    60.00 Ry     beta= 0.20
     Davidson diagonalization with overlap
     ethr =  3.46E-07,  avg # of iterations =  2.2

     negative rho (up, down):  1.702E-04 1.662E-04

     total cpu time spent up to now is    19124.6 secs

     total energy              =   -7077.45903351 Ry
     estimated scf accuracy    <       0.00167573 Ry

     total magnetization       =     9.90 Bohr mag/cell
     absolute magnetization    =    10.76 Bohr mag/cell

     iteration # 25     ecut=    60.00 Ry     beta= 0.20
     Davidson diagonalization with overlap
     ethr =  3.46E-07,  avg # of iterations =  1.1

     negative rho (up, down):  5.942E-05 5.663E-05

     total cpu time spent up to now is    19843.4 secs

     total energy              =   -7077.45906905 Ry
     estimated scf accuracy    <       0.00154364 Ry

     total magnetization       =     9.89 Bohr mag/cell
     absolute magnetization    =    10.76 Bohr mag/cell

     iteration # 26     ecut=    60.00 Ry     beta= 0.20
     Davidson diagonalization with overlap
     ethr =  3.46E-07,  avg # of iterations =  1.4

     negative rho (up, down):  8.127E-05 7.815E-05

     total cpu time spent up to now is    20592.8 secs

     total energy              =   -7077.45917111 Ry
     estimated scf accuracy    <       0.00106651 Ry

     total magnetization       =     9.86 Bohr mag/cell
     absolute magnetization    =    10.73 Bohr mag/cell

     iteration # 27     ecut=    60.00 Ry     beta= 0.20
     Davidson diagonalization with overlap
     ethr =  3.46E-07,  avg # of iterations =  1.0

     negative rho (up, down):  4.353E-05 4.034E-05

     total cpu time spent up to now is    21305.1 secs

     total energy              =   -7077.45925430 Ry
     estimated scf accuracy    <       0.00087966 Ry

     total magnetization       =     9.85 Bohr mag/cell
     absolute magnetization    =    10.72 Bohr mag/cell

     iteration # 28     ecut=    60.00 Ry     beta= 0.20
     Davidson diagonalization with overlap
     ethr =  3.46E-07,  avg # of iterations =  1.1

     negative rho (up, down):  6.337E-05 5.985E-05

     total cpu time spent up to now is    22027.6 secs

     total energy              =   -7077.45927582 Ry
     estimated scf accuracy    <       0.00069282 Ry

     total magnetization       =     9.83 Bohr mag/cell
     absolute magnetization    =    10.70 Bohr mag/cell

     iteration # 29     ecut=    60.00 Ry     beta= 0.20
     Davidson diagonalization with overlap
     ethr =  2.87E-07,  avg # of iterations =  1.3

     negative rho (up, down):  1.190E-04 1.172E-04

     total cpu time spent up to now is    22790.9 secs

     total energy              =   -7077.45912675 Ry
     estimated scf accuracy    <       0.00064683 Ry

     total magnetization       =     9.81 Bohr mag/cell
     absolute magnetization    =    10.68 Bohr mag/cell

     iteration # 30     ecut=    60.00 Ry     beta= 0.20
     Davidson diagonalization with overlap
     ethr =  2.68E-07,  avg # of iterations =  1.6

     negative rho (up, down):  3.556E-04 3.501E-04

     total cpu time spent up to now is    23549.8 secs

     total energy              =   -7077.45916773 Ry
     estimated scf accuracy    <       0.00040409 Ry

     total magnetization       =     9.78 Bohr mag/cell
     absolute magnetization    =    10.62 Bohr mag/cell

     iteration # 31     ecut=    60.00 Ry     beta= 0.20
     Davidson diagonalization with overlap
     ethr =  1.68E-07,  avg # of iterations =  1.9

     negative rho (up, down):  4.675E-04 4.611E-04

     total cpu time spent up to now is    24314.6 secs

     total energy              =   -7077.45920492 Ry
     estimated scf accuracy    <       0.00011154 Ry

     total magnetization       =     9.80 Bohr mag/cell
     absolute magnetization    =    10.65 Bohr mag/cell

     iteration # 32     ecut=    60.00 Ry     beta= 0.20
     Davidson diagonalization with overlap
     ethr =  4.63E-08,  avg # of iterations =  2.4

     negative rho (up, down):  4.904E-04 4.831E-04

     total cpu time spent up to now is    25109.1 secs

     total energy              =   -7077.45920787 Ry
     estimated scf accuracy    <       0.00003648 Ry

     total magnetization       =     9.82 Bohr mag/cell
     absolute magnetization    =    10.66 Bohr mag/cell

     iteration # 33     ecut=    60.00 Ry     beta= 0.20
     Davidson diagonalization with overlap
     ethr =  1.51E-08,  avg # of iterations =  3.0

     negative rho (up, down):  2.909E-04 2.780E-04

     total cpu time spent up to now is    25972.5 secs

     total energy              =   -7077.45921258 Ry
     estimated scf accuracy    <       0.00001350 Ry

     total magnetization       =     9.83 Bohr mag/cell
     absolute magnetization    =    10.68 Bohr mag/cell

     iteration # 34     ecut=    60.00 Ry     beta= 0.20
     Davidson diagonalization with overlap
     ethr =  5.60E-09,  avg # of iterations =  2.5

     negative rho (up, down):  1.659E-04 1.383E-04

     total cpu time spent up to now is    26789.5 secs

     total energy              =   -7077.45921374 Ry
     estimated scf accuracy    <       0.00000731 Ry

     total magnetization       =     9.83 Bohr mag/cell
     absolute magnetization    =    10.68 Bohr mag/cell

     iteration # 35     ecut=    60.00 Ry     beta= 0.20
     Davidson diagonalization with overlap
     ethr =  3.03E-09,  avg # of iterations =  3.4

     negative rho (up, down):  1.173E-04 8.455E-05

     total cpu time spent up to now is    27681.0 secs

     total energy              =   -7077.45921457 Ry
     estimated scf accuracy    <       0.00000149 Ry

     total magnetization       =     9.83 Bohr mag/cell
     absolute magnetization    =    10.68 Bohr mag/cell

     iteration # 36     ecut=    60.00 Ry     beta= 0.20
     Davidson diagonalization with overlap
     ethr =  6.18E-10,  avg # of iterations =  4.2

     negative rho (up, down):  1.328E-04 9.893E-05

     total cpu time spent up to now is    28798.8 secs

     total energy              =   -7077.45921506 Ry
     estimated scf accuracy    <       0.00000106 Ry

     total magnetization       =     9.83 Bohr mag/cell
     absolute magnetization    =    10.68 Bohr mag/cell

     iteration # 37     ecut=    60.00 Ry     beta= 0.20
     Davidson diagonalization with overlap
     ethr =  4.40E-10,  avg # of iterations =  1.4

     negative rho (up, down):  1.179E-04 8.478E-05

     total cpu time spent up to now is    29537.9 secs

     total energy              =   -7077.45921507 Ry
     estimated scf accuracy    <       0.00000049 Ry

     total magnetization       =     9.83 Bohr mag/cell
     absolute magnetization    =    10.68 Bohr mag/cell

     iteration # 38     ecut=    60.00 Ry     beta= 0.20
     Davidson diagonalization with overlap
     ethr =  2.02E-10,  avg # of iterations =  2.3

     negative rho (up, down):  1.362E-04 1.017E-04

     total cpu time spent up to now is    30348.1 secs

     total energy              =   -7077.45921509 Ry
     estimated scf accuracy    <       0.00000027 Ry

     total magnetization       =     9.83 Bohr mag/cell
     absolute magnetization    =    10.68 Bohr mag/cell

     iteration # 39     ecut=    60.00 Ry     beta= 0.20
     Davidson diagonalization with overlap
     ethr =  1.10E-10,  avg # of iterations =  1.9

     negative rho (up, down):  1.435E-04 1.094E-04

     total cpu time spent up to now is    31120.0 secs

     total energy              =   -7077.45921512 Ry
     estimated scf accuracy    <       0.00000027 Ry

     total magnetization       =     9.83 Bohr mag/cell
     absolute magnetization    =    10.68 Bohr mag/cell

     iteration # 40     ecut=    60.00 Ry     beta= 0.20
     Davidson diagonalization with overlap
     ethr =  1.10E-10,  avg # of iterations =  1.3

     negative rho (up, down):  1.588E-04 1.234E-04

     total cpu time spent up to now is    31861.8 secs

     total energy              =   -7077.45921523 Ry
     estimated scf accuracy    <       0.00000019 Ry

     total magnetization       =     9.83 Bohr mag/cell
     absolute magnetization    =    10.68 Bohr mag/cell

     iteration # 41     ecut=    60.00 Ry     beta= 0.20
     Davidson diagonalization with overlap
     ethr =  7.68E-11,  avg # of iterations =  1.7

     negative rho (up, down):  1.643E-04 1.289E-04

     total cpu time spent up to now is    32629.0 secs

     total energy              =   -7077.45921526 Ry
     estimated scf accuracy    <       0.00000003 Ry

     total magnetization       =     9.84 Bohr mag/cell
     absolute magnetization    =    10.68 Bohr mag/cell

     iteration # 42     ecut=    60.00 Ry     beta= 0.20
     Davidson diagonalization with overlap
     ethr =  1.24E-11,  avg # of iterations =  3.2

     negative rho (up, down):  1.644E-04 1.289E-04

     total cpu time spent up to now is    33498.8 secs

     total energy              =   -7077.45921528 Ry
     estimated scf accuracy    <       0.00000008 Ry

     total magnetization       =     9.84 Bohr mag/cell
     absolute magnetization    =    10.68 Bohr mag/cell

     iteration # 43     ecut=    60.00 Ry     beta= 0.20
     Davidson diagonalization with overlap
     ethr =  1.24E-11,  avg # of iterations =  1.4

     negative rho (up, down):  1.660E-04 1.303E-04

     total cpu time spent up to now is    34238.0 secs

     total energy              =   -7077.45921530 Ry
     estimated scf accuracy    <       0.00000004 Ry

     total magnetization       =     9.84 Bohr mag/cell
     absolute magnetization    =    10.68 Bohr mag/cell

     iteration # 44     ecut=    60.00 Ry     beta= 0.20
     Davidson diagonalization with overlap
     ethr =  1.24E-11,  avg # of iterations =  1.3

     negative rho (up, down):  1.670E-04 1.313E-04

     total cpu time spent up to now is    34976.3 secs

     total energy              =   -7077.45921530 Ry
     estimated scf accuracy    <       0.00000002 Ry

     total magnetization       =     9.84 Bohr mag/cell
     absolute magnetization    =    10.68 Bohr mag/cell

     iteration # 45     ecut=    60.00 Ry     beta= 0.20
     Davidson diagonalization with overlap
     ethr =  8.67E-12,  avg # of iterations =  1.3

     negative rho (up, down):  1.676E-04 1.319E-04

     total cpu time spent up to now is    35700.9 secs

     total energy              =   -7077.45921531 Ry
     estimated scf accuracy    <       0.00000001 Ry

     total magnetization       =     9.84 Bohr mag/cell
     absolute magnetization    =    10.68 Bohr mag/cell

     iteration # 46     ecut=    60.00 Ry     beta= 0.20
     Davidson diagonalization with overlap
     ethr =  4.28E-12,  avg # of iterations =  2.2

     negative rho (up, down):  1.647E-04 1.290E-04

     total cpu time spent up to now is    36486.9 secs

     total energy              =   -7077.45921531 Ry
     estimated scf accuracy    <       0.00000002 Ry

     total magnetization       =     9.84 Bohr mag/cell
     absolute magnetization    =    10.68 Bohr mag/cell

     iteration # 47     ecut=    60.00 Ry     beta= 0.20
     Davidson diagonalization with overlap
     ethr =  4.28E-12,  avg # of iterations =  1.6

     negative rho (up, down):  1.586E-04 1.230E-04

     total cpu time spent up to now is    37240.8 secs

     total energy              =   -7077.45921530 Ry
     estimated scf accuracy    <       0.00000001 Ry

     total magnetization       =     9.84 Bohr mag/cell
     absolute magnetization    =    10.68 Bohr mag/cell

     iteration # 48     ecut=    60.00 Ry     beta= 0.20
     Davidson diagonalization with overlap
     ethr =  4.28E-12,  avg # of iterations =  2.0

     negative rho (up, down):  1.556E-04 1.199E-04
 
     Magnetic moment per site  (integrated on atomic sphere of radius R)
     atom   1 (R=0.147)  charge=  7.3511  magn=  0.9111
     atom   2 (R=0.142)  charge=  5.6669  magn=  0.2029
     atom   3 (R=0.142)  charge=  5.6669  magn=  0.2060
     atom   4 (R=0.142)  charge=  5.6669  magn=  0.2060
     atom   5 (R=0.147)  charge=  7.3497  magn=  0.8797
     atom   6 (R=0.142)  charge=  5.6531  magn=  0.2543
     atom   7 (R=0.142)  charge=  5.6532  magn=  0.2546
     atom   8 (R=0.142)  charge=  5.6531  magn=  0.2543
     atom   9 (R=0.147)  charge=  7.3541  magn=  0.8240
     atom  10 (R=0.142)  charge=  5.6502  magn=  0.2550
     atom  11 (R=0.142)  charge=  5.6500  magn=  0.2402
     atom  12 (R=0.142)  charge=  5.6500  magn=  0.2402
     atom  13 (R=0.147)  charge=  7.3545  magn=  0.8214
     atom  14 (R=0.142)  charge=  5.6506  magn=  0.2366
     atom  15 (R=0.142)  charge=  5.6498  magn=  0.2401
     atom  16 (R=0.142)  charge=  5.6506  magn=  0.2366
     atom  17 (R=0.147)  charge=  7.3500  magn=  0.8644
     atom  18 (R=0.142)  charge=  5.6531  magn=  0.2472
     atom  19 (R=0.142)  charge=  5.6538  magn=  0.2054
     atom  20 (R=0.142)  charge=  5.6531  magn=  0.2472
     atom  21 (R=0.147)  charge=  7.3586  magn=  0.7575
     atom  22 (R=0.142)  charge=  5.6722  magn=  0.1885
     atom  23 (R=0.142)  charge=  5.6603  magn=  0.1353
     atom  24 (R=0.142)  charge=  5.6603  magn=  0.1353
     atom  25 (R=0.142)  charge=  0.9640  magn= -0.0051

     total cpu time spent up to now is    38016.6 secs

     End of self-consistent calculation

     Number of k-points >= 100: set verbosity='high' to print the bands.

     the Fermi energy is    -5.1679 ev

!    total energy              =   -7077.45921528 Ry
     total all-electron energy =   -199909.895786 Ry
     estimated scf accuracy    <          5.7E-09 Ry
     smearing contrib. (-TS)   =       0.00063212 Ry
     internal energy E=F+TS    =   -7077.45984741 Ry

     The total energy is F=E-TS. E is the sum of the following terms:
     one-electron contribution =  -61257.38935595 Ry
     hartree contribution      =   30816.07913277 Ry
     xc contribution           =    -835.53828017 Ry
     ewald contribution        =   29333.55143652 Ry
     DFT-D3 Dispersion         =      -2.53501784 Ry
     one-center paw contrib.   =   -5131.62776274 Ry

     total magnetization       =     9.84 Bohr mag/cell
     absolute magnetization    =    10.68 Bohr mag/cell

     convergence has been achieved in  48 iterations

     negative rho (up, down):  1.556E-04 1.199E-04

     Forces acting on atoms (cartesian axes, Ry/au):

     atom    1 type  1   force =     0.00000040   -0.00001916    0.01592484
     atom    2 type  2   force =    -0.00000005   -0.01418446   -0.00876377
     atom    3 type  2   force =    -0.01244606    0.00714598   -0.00932139
     atom    4 type  2   force =     0.01244630    0.00714661   -0.00932466
     atom    5 type  1   force =     0.00000004    0.00007707    0.00012969
     atom    6 type  2   force =    -0.00055103    0.00011836    0.00507806
     atom    7 type  2   force =    -0.00000038   -0.00046950    0.00470154
     atom    8 type  2   force =     0.00055102    0.00011855    0.00507819
     atom    9 type  1   force =    -0.00000072    0.00032116    0.00076152
     atom   10 type  2   force =     0.00000016   -0.00049420   -0.00197141
     atom   11 type  2   force =     0.00026359   -0.00002616    0.00071783
     atom   12 type  2   force =    -0.00026366   -0.00002610    0.00071699
     atom   13 type  1   force =     0.00000022    0.00050483   -0.00094792
     atom   14 type  2   force =    -0.00012475   -0.00028935   -0.00198532
     atom   15 type  2   force =     0.00000001    0.00006273    0.00008404
     atom   16 type  2   force =     0.00012464   -0.00028947   -0.00198562
     atom   17 type  1   force =     0.00000004   -0.00068716   -0.00283845
     atom   18 type  2   force =     0.00081305    0.00124889   -0.00371113
     atom   19 type  2   force =     0.00000011   -0.00023835    0.00561561
     atom   20 type  2   force =    -0.00081323    0.00124890   -0.00371101
     atom   21 type  1   force =    -0.00000005   -0.00158823    0.00796663
     atom   22 type  2   force =    -0.00000013    0.00008019   -0.00071088
     atom   23 type  2   force =     0.00816336   -0.00175673    0.00754075
     atom   24 type  2   force =    -0.00816293   -0.00175634    0.00754038
     atom   25 type  3   force =     0.00000003    0.00375194   -0.01658452

     Total force =     0.026384     Total SCF correction =     0.000428


     Computing stress (Cartesian axis) and pressure


     negative rho (up, down):  1.556E-04 1.199E-04
          total   stress  (Ry/bohr**3)                   (kbar)     P=       -7.52
  -0.00007350  -0.00000000  -0.00000000          -10.81       -0.00       -0.00
  -0.00000000  -0.00008286   0.00000079           -0.00      -12.19        0.12
  -0.00000000   0.00000079   0.00000303           -0.00        0.12        0.45


     BFGS Geometry Optimization
     Energy error            =      0.0E+00 Ry
     Gradient error          =      1.7E-02 Ry/Bohr

     number of scf cycles    =   1
     number of bfgs steps    =   0

     energy             new  =   -7077.4592152837 Ry

     new trust radius        =       0.0170036302 bohr
     new conv_thr            =       0.0000000100 Ry


ATOMIC_POSITIONS (angstrom)
Ni               5.3171990772        3.0698863186       11.0000000000    0   0   0
Pd               2.6585995386        3.0698851333       11.0000764482    0   0   0
Pd               3.9878982814        0.7674721723       11.0000764482    0   0   0
Pd               1.3293007958        0.7674721723       11.0000764482    0   0   0
Ni               2.6585995386        1.5349431593       13.1707374333    0   0   0
Pd               3.9878982814        3.8373584909       13.1708138815    0   0   0
Pd               5.3171990772        1.5349419740       13.1708138815    0   0   0
Pd               6.6464998731        3.8373584909       13.1708138815    0   0   0
Ni              -0.0000003269        0.0001698842       15.3360944493
Pd               5.3171991514        4.6050165648       15.3371072320
Pd               3.9876502331        2.3021765620       15.3385303672
Pd               6.6467477205        2.3021766570       15.3385300145
Ni               5.3171991521        3.0701533835       17.5101424757
Pd               3.9871575821        0.7677084589       17.5088143747
Pd               2.6585995700        3.0691390211       17.5099096601
Pd               1.3300415722        0.7677084307       17.5088143460
Ni               2.6585994605        1.5345795415       19.6886346727
Pd               3.9938630844        3.8348240086       19.6722202210
Pd               5.3171990459        1.5412067637       19.6771555141
Pd               6.6405347791        3.8348240496       19.6722202534
Ni              -0.0000002737       -0.0008400234       21.7733070537
Pd               5.3171987696        4.6166749378       21.8792834249
Pd               3.9819973510        2.2955838716       21.8836497896
Pd               6.6524006096        2.2955841436       21.8836496879
H                2.6585994567        3.0718716783       22.8708833381



     Writing config-only to output data dir /tmpu/isholek_g/isholek/MIGUEL/QE/Hydrogen/111_2x2/SAVE/Ni1Pd3_111-H_hcp_2.save/ :
     XML data file
     NEW-OLD atomic charge density approx. for the potential

     Check: negative core charge=   -0.000002

     negative rho (up, down):  1.465E-04 1.308E-04
     Generating pointlists ...

     total cpu time spent up to now is    38710.7 secs

     Self-consistent Calculation

     iteration #  1     ecut=    60.00 Ry     beta= 0.20
     Davidson diagonalization with overlap
     ethr =  1.00E-06,  avg # of iterations =  5.0

     negative rho (up, down):  1.528E-04 1.268E-04

     total cpu time spent up to now is    40324.5 secs

     total energy              =   -7077.45972678 Ry
     estimated scf accuracy    <       0.00057323 Ry

     total magnetization       =     9.82 Bohr mag/cell
     absolute magnetization    =    10.67 Bohr mag/cell

     iteration #  2     ecut=    60.00 Ry     beta= 0.20
     Davidson diagonalization with overlap
     ethr =  2.38E-07,  avg # of iterations =  1.2

     negative rho (up, down):  1.529E-04 1.253E-04

     total cpu time spent up to now is    41054.4 secs

     total energy              =   -7077.45976427 Ry
     estimated scf accuracy    <       0.00084889 Ry

     total magnetization       =     9.84 Bohr mag/cell
     absolute magnetization    =    10.69 Bohr mag/cell

     iteration #  3     ecut=    60.00 Ry     beta= 0.20
     Davidson diagonalization with overlap
     ethr =  2.38E-07,  avg # of iterations =  1.0

     negative rho (up, down):  1.532E-04 1.241E-04

     total cpu time spent up to now is    41771.2 secs

     total energy              =   -7077.45979495 Ry
     estimated scf accuracy    <       0.00010602 Ry

     total magnetization       =     9.83 Bohr mag/cell
     absolute magnetization    =    10.68 Bohr mag/cell

     iteration #  4     ecut=    60.00 Ry     beta= 0.20
     Davidson diagonalization with overlap
     ethr =  4.40E-08,  avg # of iterations =  1.0

     negative rho (up, down):  1.534E-04 1.231E-04

     total cpu time spent up to now is    42487.4 secs

     total energy              =   -7077.45980711 Ry
     estimated scf accuracy    <       0.00015884 Ry

     total magnetization       =     9.83 Bohr mag/cell
     absolute magnetization    =    10.68 Bohr mag/cell

     iteration #  5     ecut=    60.00 Ry     beta= 0.20
     Davidson diagonalization with overlap
     ethr =  4.40E-08,  avg # of iterations =  1.0

     negative rho (up, down):  1.535E-04 1.219E-04

     total cpu time spent up to now is    43200.0 secs

     total energy              =   -7077.45982497 Ry
     estimated scf accuracy    <       0.00013826 Ry

     total magnetization       =     9.83 Bohr mag/cell
     absolute magnetization    =    10.68 Bohr mag/cell

     iteration #  6     ecut=    60.00 Ry     beta= 0.20
     Davidson diagonalization with overlap
     ethr =  4.40E-08,  avg # of iterations =  1.0

     negative rho (up, down):  1.534E-04 1.207E-04

     total cpu time spent up to now is    43913.8 secs

     total energy              =   -7077.45983802 Ry
     estimated scf accuracy    <       0.00005076 Ry

     total magnetization       =     9.83 Bohr mag/cell
     absolute magnetization    =    10.68 Bohr mag/cell

     iteration #  7     ecut=    60.00 Ry     beta= 0.20
     Davidson diagonalization with overlap
     ethr =  2.11E-08,  avg # of iterations =  2.0

     negative rho (up, down):  1.532E-04 1.196E-04

     total cpu time spent up to now is    44679.0 secs

     total energy              =   -7077.45984261 Ry
     estimated scf accuracy    <       0.00000321 Ry

     total magnetization       =     9.83 Bohr mag/cell
     absolute magnetization    =    10.68 Bohr mag/cell

     iteration #  8     ecut=    60.00 Ry     beta= 0.20
     Davidson diagonalization with overlap
     ethr =  1.33E-09,  avg # of iterations =  4.1

     negative rho (up, down):  1.526E-04 1.186E-04

     total cpu time spent up to now is    45687.3 secs

     total energy              =   -7077.45984409 Ry
     estimated scf accuracy    <       0.00000126 Ry

     total magnetization       =     9.83 Bohr mag/cell
     absolute magnetization    =    10.68 Bohr mag/cell

     iteration #  9     ecut=    60.00 Ry     beta= 0.20
     Davidson diagonalization with overlap
     ethr =  5.23E-10,  avg # of iterations =  2.1

     negative rho (up, down):  1.521E-04 1.178E-04

     total cpu time spent up to now is    46542.6 secs

     total energy              =   -7077.45984422 Ry
     estimated scf accuracy    <       0.00000057 Ry

     total magnetization       =     9.83 Bohr mag/cell
     absolute magnetization    =    10.68 Bohr mag/cell

     iteration # 10     ecut=    60.00 Ry     beta= 0.20
     Davidson diagonalization with overlap
     ethr =  2.37E-10,  avg # of iterations =  1.6

     negative rho (up, down):  1.519E-04 1.174E-04

     total cpu time spent up to now is    47305.4 secs

     total energy              =   -7077.45984423 Ry
     estimated scf accuracy    <       0.00000043 Ry

     total magnetization       =     9.83 Bohr mag/cell
     absolute magnetization    =    10.68 Bohr mag/cell

     iteration # 11     ecut=    60.00 Ry     beta= 0.20
     Davidson diagonalization with overlap
     ethr =  1.80E-10,  avg # of iterations =  1.1

     negative rho (up, down):  1.514E-04 1.166E-04

     total cpu time spent up to now is    48009.2 secs

     total energy              =   -7077.45984434 Ry
     estimated scf accuracy    <       0.00000043 Ry

     total magnetization       =     9.83 Bohr mag/cell
     absolute magnetization    =    10.68 Bohr mag/cell

     iteration # 12     ecut=    60.00 Ry     beta= 0.20
     Davidson diagonalization with overlap
     ethr =  1.77E-10,  avg # of iterations =  1.4

     negative rho (up, down):  1.512E-04 1.163E-04

     total cpu time spent up to now is    48744.2 secs

     total energy              =   -7077.45984438 Ry
     estimated scf accuracy    <       0.00000012 Ry

     total magnetization       =     9.83 Bohr mag/cell
     absolute magnetization    =    10.68 Bohr mag/cell

     iteration # 13     ecut=    60.00 Ry     beta= 0.20
     Davidson diagonalization with overlap
     ethr =  4.85E-11,  avg # of iterations =  2.4

     negative rho (up, down):  1.511E-04 1.161E-04

     total cpu time spent up to now is    49584.5 secs

     total energy              =   -7077.45984439 Ry
     estimated scf accuracy    <       0.00000004 Ry

     total magnetization       =     9.83 Bohr mag/cell
     absolute magnetization    =    10.68 Bohr mag/cell

     iteration # 14     ecut=    60.00 Ry     beta= 0.20
     Davidson diagonalization with overlap
     ethr =  1.57E-11,  avg # of iterations =  3.6

     negative rho (up, down):  1.511E-04 1.160E-04

     total cpu time spent up to now is    50573.1 secs

     total energy              =   -7077.45984439 Ry
     estimated scf accuracy    <       0.00000010 Ry

     total magnetization       =     9.83 Bohr mag/cell
     absolute magnetization    =    10.68 Bohr mag/cell

     iteration # 15     ecut=    60.00 Ry     beta= 0.20
     Davidson diagonalization with overlap
     ethr =  1.57E-11,  avg # of iterations =  2.0

     negative rho (up, down):  1.511E-04 1.159E-04

     total cpu time spent up to now is    51360.9 secs

     total energy              =   -7077.45984440 Ry
     estimated scf accuracy    <       0.00000003 Ry

     total magnetization       =     9.83 Bohr mag/cell
     absolute magnetization    =    10.68 Bohr mag/cell

     iteration # 16     ecut=    60.00 Ry     beta= 0.20
     Davidson diagonalization with overlap
     ethr =  1.35E-11,  avg # of iterations =  1.1

     negative rho (up, down):  1.514E-04 1.161E-04

     total cpu time spent up to now is    52105.1 secs

     total energy              =   -7077.45984440 Ry
     estimated scf accuracy    <       0.00000003 Ry

     total magnetization       =     9.83 Bohr mag/cell
     absolute magnetization    =    10.68 Bohr mag/cell

     iteration # 17     ecut=    60.00 Ry     beta= 0.20
     Davidson diagonalization with overlap
     ethr =  1.05E-11,  avg # of iterations =  1.4

     negative rho (up, down):  1.555E-04 1.199E-04
 
     Magnetic moment per site  (integrated on atomic sphere of radius R)
     atom   1 (R=0.147)  charge=  7.3511  magn=  0.9111
     atom   2 (R=0.142)  charge=  5.6669  magn=  0.2030
     atom   3 (R=0.142)  charge=  5.6669  magn=  0.2059
     atom   4 (R=0.142)  charge=  5.6669  magn=  0.2059
     atom   5 (R=0.147)  charge=  7.3497  magn=  0.8796
     atom   6 (R=0.142)  charge=  5.6531  magn=  0.2543
     atom   7 (R=0.142)  charge=  5.6532  magn=  0.2544
     atom   8 (R=0.142)  charge=  5.6531  magn=  0.2543
     atom   9 (R=0.147)  charge=  7.3541  magn=  0.8241
     atom  10 (R=0.142)  charge=  5.6502  magn=  0.2550
     atom  11 (R=0.142)  charge=  5.6500  magn=  0.2404
     atom  12 (R=0.142)  charge=  5.6500  magn=  0.2404
     atom  13 (R=0.147)  charge=  7.3545  magn=  0.8217
     atom  14 (R=0.142)  charge=  5.6505  magn=  0.2365
     atom  15 (R=0.142)  charge=  5.6498  magn=  0.2405
     atom  16 (R=0.142)  charge=  5.6505  magn=  0.2365
     atom  17 (R=0.147)  charge=  7.3499  magn=  0.8644
     atom  18 (R=0.142)  charge=  5.6530  magn=  0.2469
     atom  19 (R=0.142)  charge=  5.6538  magn=  0.2052
     atom  20 (R=0.142)  charge=  5.6530  magn=  0.2469
     atom  21 (R=0.147)  charge=  7.3586  magn=  0.7546
     atom  22 (R=0.142)  charge=  5.6720  magn=  0.1879
     atom  23 (R=0.142)  charge=  5.6603  magn=  0.1342
     atom  24 (R=0.142)  charge=  5.6603  magn=  0.1342
     atom  25 (R=0.142)  charge=  0.9688  magn= -0.0052

     total cpu time spent up to now is    52852.9 secs

     End of self-consistent calculation

     Number of k-points >= 100: set verbosity='high' to print the bands.

     the Fermi energy is    -5.1686 ev

!    total energy              =   -7077.45984440 Ry
     total all-electron energy =   -199909.896415 Ry
     estimated scf accuracy    <          8.5E-09 Ry
     smearing contrib. (-TS)   =       0.00065771 Ry
     internal energy E=F+TS    =   -7077.46050211 Ry

     The total energy is F=E-TS. E is the sum of the following terms:
     one-electron contribution =  -61247.91084064 Ry
     hartree contribution      =   30811.35071657 Ry
     xc contribution           =    -835.53636716 Ry
     ewald contribution        =   29328.79771808 Ry
     DFT-D3 Dispersion         =      -2.53460201 Ry
     one-center paw contrib.   =   -5131.62712696 Ry

     total magnetization       =     9.83 Bohr mag/cell
     absolute magnetization    =    10.68 Bohr mag/cell

     convergence has been achieved in  17 iterations

     negative rho (up, down):  1.555E-04 1.199E-04

     Forces acting on atoms (cartesian axes, Ry/au):

     atom    1 type  1   force =    -0.00000001   -0.00002667    0.01588157
     atom    2 type  2   force =    -0.00000000   -0.01418635   -0.00877908
     atom    3 type  2   force =    -0.01243621    0.00715124   -0.00935887
     atom    4 type  2   force =     0.01243619    0.00715122   -0.00935889
     atom    5 type  1   force =     0.00000001    0.00012745    0.00010709
     atom    6 type  2   force =    -0.00066255    0.00004526    0.00500235
     atom    7 type  2   force =    -0.00000005   -0.00046199    0.00475861
     atom    8 type  2   force =     0.00066254    0.00004530    0.00500225
     atom    9 type  1   force =     0.00000012    0.00019745    0.00054226
     atom   10 type  2   force =    -0.00000012   -0.00023942   -0.00172315
     atom   11 type  2   force =     0.00009971    0.00002255    0.00042586
     atom   12 type  2   force =    -0.00009964    0.00002238    0.00042602
     atom   13 type  1   force =    -0.00000004    0.00022053   -0.00079571
     atom   14 type  2   force =     0.00026844    0.00003033   -0.00150785
     atom   15 type  2   force =    -0.00000004   -0.00009132   -0.00017355
     atom   16 type  2   force =    -0.00026846    0.00003034   -0.00150795
     atom   17 type  1   force =    -0.00000002   -0.00011717   -0.00178946
     atom   18 type  2   force =     0.00033082    0.00054995   -0.00208310
     atom   19 type  2   force =     0.00000004   -0.00047191    0.00407664
     atom   20 type  2   force =    -0.00033086    0.00054996   -0.00208322
     atom   21 type  1   force =     0.00000007   -0.00201050    0.00677032
     atom   22 type  2   force =     0.00000003    0.00066113   -0.00103890
     atom   23 type  2   force =     0.00491190   -0.00158718    0.00622778
     atom   24 type  2   force =    -0.00491185   -0.00158725    0.00622780
     atom   25 type  3   force =    -0.00000002    0.00397467   -0.01524883

     Total force =     0.021663     Total SCF correction =     0.000707


     Computing stress (Cartesian axis) and pressure


     negative rho (up, down):  1.555E-04 1.199E-04
          total   stress  (Ry/bohr**3)                   (kbar)     P=       -7.28
  -0.00007163   0.00000000   0.00000000          -10.54        0.00        0.00
   0.00000000  -0.00008106   0.00000115            0.00      -11.92        0.17
   0.00000000   0.00000115   0.00000427            0.00        0.17        0.63

     Energy error            =      6.3E-04 Ry
     Gradient error          =      1.5E-02 Ry/Bohr

     number of scf cycles    =   2
     number of bfgs steps    =   1

     energy             old  =   -7077.4592152837 Ry
     energy             new  =   -7077.4598444020 Ry

     CASE: energy            _new < energy            _old


     WARNING: bfgs curvature condition failed, Theta= 0.990
     new trust radius        =       0.0187039932 bohr
     new conv_thr            =       0.0000000020 Ry


ATOMIC_POSITIONS (angstrom)
Ni               5.3171990772        3.0698863186       11.0000000000    0   0   0
Pd               2.6585995386        3.0698851333       11.0000764482    0   0   0
Pd               3.9878982814        0.7674721723       11.0000764482    0   0   0
Pd               1.3293007958        0.7674721723       11.0000764482    0   0   0
Ni               2.6585995386        1.5349431593       13.1707374333    0   0   0
Pd               3.9878982814        3.8373584909       13.1708138815    0   0   0
Pd               5.3171990772        1.5349419740       13.1708138815    0   0   0
Pd               6.6464998731        3.8373584909       13.1708138815    0   0   0
Ni              -0.0000003054        0.0003010015       15.3364466296
Pd               5.3171990951        4.6048507045       15.3360175215
Pd               3.9877230968        2.3021874152       15.3388148094
Pd               6.6466748894        2.3021874161       15.3388144913
Ni               5.3171991448        3.0703094110       17.5096368055
Pd               3.9872990106        0.7677063792       17.5078437474
Pd               2.6585995475        3.0690922391       17.5098184478
Pd               1.3299001261        0.7677063480       17.5078436402
Ni               2.6585994521        1.5344691590       19.6874511227
Pd               3.9941008027        3.8352124513       19.6708157589
Pd               5.3171990733        1.5409281145       19.6797959940
Pd               6.6402970271        3.8352124990       19.6708157362
Ni              -0.0000002362       -0.0020647509       21.7776030673
Pd               5.3171987790        4.6170486739       21.8786577681
Pd               3.9852704958        2.2945840241       21.8876154839
Pd               6.6491275173        2.2945842853       21.8876153673
H                2.6585994449        3.0743330607       22.8612965453



     Writing config-only to output data dir /tmpu/isholek_g/isholek/MIGUEL/QE/Hydrogen/111_2x2/SAVE/Ni1Pd3_111-H_hcp_2.save/ :
     XML data file
     NEW-OLD atomic charge density approx. for the potential

     Check: negative core charge=   -0.000002

     negative rho (up, down):  1.465E-04 1.302E-04
     Generating pointlists ...
     new r_m :   0.1454 (alat units)  1.4605 (a.u.) for type    1

     total cpu time spent up to now is    53544.0 secs

     Self-consistent Calculation

     iteration #  1     ecut=    60.00 Ry     beta= 0.20
     Davidson diagonalization with overlap
     ethr =  1.00E-06,  avg # of iterations =  5.0

     negative rho (up, down):  1.521E-04 1.255E-04

     total cpu time spent up to now is    55118.4 secs

     total energy              =   -7077.46023537 Ry
     estimated scf accuracy    <       0.00139489 Ry

     total magnetization       =     9.82 Bohr mag/cell
     absolute magnetization    =    10.66 Bohr mag/cell

     iteration #  2     ecut=    60.00 Ry     beta= 0.20
     Davidson diagonalization with overlap
     ethr =  5.79E-07,  avg # of iterations =  1.0

     negative rho (up, down):  1.524E-04 1.242E-04

     total cpu time spent up to now is    55826.4 secs

     total energy              =   -7077.46027377 Ry
     estimated scf accuracy    <       0.00201796 Ry

     total magnetization       =     9.83 Bohr mag/cell
     absolute magnetization    =    10.68 Bohr mag/cell

     iteration #  3     ecut=    60.00 Ry     beta= 0.20
     Davidson diagonalization with overlap
     ethr =  5.79E-07,  avg # of iterations =  1.0

     negative rho (up, down):  1.531E-04 1.235E-04

     total cpu time spent up to now is    56538.7 secs

     total energy              =   -7077.46032002 Ry
     estimated scf accuracy    <       0.00024916 Ry

     total magnetization       =     9.83 Bohr mag/cell
     absolute magnetization    =    10.67 Bohr mag/cell

     iteration #  4     ecut=    60.00 Ry     beta= 0.20
     Davidson diagonalization with overlap
     ethr =  1.03E-07,  avg # of iterations =  1.0

     negative rho (up, down):  1.535E-04 1.228E-04

     total cpu time spent up to now is    57241.5 secs

     total energy              =   -7077.46033130 Ry
     estimated scf accuracy    <       0.00022557 Ry

     total magnetization       =     9.82 Bohr mag/cell
     absolute magnetization    =    10.67 Bohr mag/cell

     iteration #  5     ecut=    60.00 Ry     beta= 0.20
     Davidson diagonalization with overlap
     ethr =  9.36E-08,  avg # of iterations =  1.0

     negative rho (up, down):  1.542E-04 1.222E-04

     total cpu time spent up to now is    57942.3 secs

     total energy              =   -7077.46034571 Ry
     estimated scf accuracy    <       0.00018448 Ry

     total magnetization       =     9.82 Bohr mag/cell
     absolute magnetization    =    10.67 Bohr mag/cell

     iteration #  6     ecut=    60.00 Ry     beta= 0.20
     Davidson diagonalization with overlap
     ethr =  7.65E-08,  avg # of iterations =  1.0

     negative rho (up, down):  1.548E-04 1.217E-04

     total cpu time spent up to now is    58645.9 secs

     total energy              =   -7077.46035360 Ry
     estimated scf accuracy    <       0.00004357 Ry

     total magnetization       =     9.83 Bohr mag/cell
     absolute magnetization    =    10.67 Bohr mag/cell

     iteration #  7     ecut=    60.00 Ry     beta= 0.20
     Davidson diagonalization with overlap
     ethr =  1.81E-08,  avg # of iterations =  2.0

     negative rho (up, down):  1.550E-04 1.213E-04

     total cpu time spent up to now is    59407.8 secs

     total energy              =   -7077.46035590 Ry
     estimated scf accuracy    <       0.00000311 Ry

     total magnetization       =     9.82 Bohr mag/cell
     absolute magnetization    =    10.67 Bohr mag/cell

     iteration #  8     ecut=    60.00 Ry     beta= 0.20
     Davidson diagonalization with overlap
     ethr =  1.29E-09,  avg # of iterations =  4.0

     negative rho (up, down):  1.549E-04 1.209E-04

     total cpu time spent up to now is    60347.9 secs

     total energy              =   -7077.46035657 Ry
     estimated scf accuracy    <       0.00000114 Ry

     total magnetization       =     9.82 Bohr mag/cell
     absolute magnetization    =    10.67 Bohr mag/cell

     iteration #  9     ecut=    60.00 Ry     beta= 0.20
     Davidson diagonalization with overlap
     ethr =  4.75E-10,  avg # of iterations =  1.9

     negative rho (up, down):  1.549E-04 1.206E-04

     total cpu time spent up to now is    61117.0 secs

     total energy              =   -7077.46035661 Ry
     estimated scf accuracy    <       0.00000031 Ry

     total magnetization       =     9.82 Bohr mag/cell
     absolute magnetization    =    10.67 Bohr mag/cell

     iteration # 10     ecut=    60.00 Ry     beta= 0.20
     Davidson diagonalization with overlap
     ethr =  1.30E-10,  avg # of iterations =  3.3

     negative rho (up, down):  1.549E-04 1.204E-04

     total cpu time spent up to now is    62084.8 secs

     total energy              =   -7077.46035660 Ry
     estimated scf accuracy    <       0.00000043 Ry

     total magnetization       =     9.82 Bohr mag/cell
     absolute magnetization    =    10.67 Bohr mag/cell

     iteration # 11     ecut=    60.00 Ry     beta= 0.20
     Davidson diagonalization with overlap
     ethr =  1.30E-10,  avg # of iterations =  1.2

     negative rho (up, down):  1.548E-04 1.200E-04

     total cpu time spent up to now is    62816.7 secs

     total energy              =   -7077.46035680 Ry
     estimated scf accuracy    <       0.00000058 Ry

     total magnetization       =     9.82 Bohr mag/cell
     absolute magnetization    =    10.67 Bohr mag/cell

     iteration # 12     ecut=    60.00 Ry     beta= 0.20
     Davidson diagonalization with overlap
     ethr =  1.30E-10,  avg # of iterations =  2.0

     negative rho (up, down):  1.548E-04 1.199E-04

     total cpu time spent up to now is    63568.4 secs

     total energy              =   -7077.46035686 Ry
     estimated scf accuracy    <       0.00000028 Ry

     total magnetization       =     9.82 Bohr mag/cell
     absolute magnetization    =    10.67 Bohr mag/cell

     iteration # 13     ecut=    60.00 Ry     beta= 0.20
     Davidson diagonalization with overlap
     ethr =  1.15E-10,  avg # of iterations =  2.0

     negative rho (up, down):  1.549E-04 1.198E-04

     total cpu time spent up to now is    64321.2 secs

     total energy              =   -7077.46035687 Ry
     estimated scf accuracy    <       0.00000006 Ry

     total magnetization       =     9.82 Bohr mag/cell
     absolute magnetization    =    10.67 Bohr mag/cell

     iteration # 14     ecut=    60.00 Ry     beta= 0.20
     Davidson diagonalization with overlap
     ethr =  2.49E-11,  avg # of iterations =  2.1

     negative rho (up, down):  1.549E-04 1.198E-04

     total cpu time spent up to now is    65104.2 secs

     total energy              =   -7077.46035687 Ry
     estimated scf accuracy    <       0.00000011 Ry

     total magnetization       =     9.82 Bohr mag/cell
     absolute magnetization    =    10.67 Bohr mag/cell

     iteration # 15     ecut=    60.00 Ry     beta= 0.20
     Davidson diagonalization with overlap
     ethr =  2.49E-11,  avg # of iterations =  2.0

     negative rho (up, down):  1.549E-04 1.197E-04

     total cpu time spent up to now is    65850.6 secs

     total energy              =   -7077.46035688 Ry
     estimated scf accuracy    <       0.00000004 Ry

     total magnetization       =     9.82 Bohr mag/cell
     absolute magnetization    =    10.67 Bohr mag/cell

     iteration # 16     ecut=    60.00 Ry     beta= 0.20
     Davidson diagonalization with overlap
     ethr =  1.71E-11,  avg # of iterations =  1.1

     negative rho (up, down):  1.550E-04 1.196E-04

     total cpu time spent up to now is    66561.3 secs

     total energy              =   -7077.46035688 Ry
     estimated scf accuracy    <       0.00000002 Ry

     total magnetization       =     9.82 Bohr mag/cell
     absolute magnetization    =    10.67 Bohr mag/cell

     iteration # 17     ecut=    60.00 Ry     beta= 0.20
     Davidson diagonalization with overlap
     ethr =  9.67E-12,  avg # of iterations =  1.9

     negative rho (up, down):  1.554E-04 1.199E-04
 
     Magnetic moment per site  (integrated on atomic sphere of radius R)
     atom   1 (R=0.145)  charge=  7.3022  magn=  0.9074
     atom   2 (R=0.142)  charge=  5.6669  magn=  0.2030
     atom   3 (R=0.142)  charge=  5.6669  magn=  0.2058
     atom   4 (R=0.142)  charge=  5.6669  magn=  0.2058
     atom   5 (R=0.145)  charge=  7.3001  magn=  0.8762
     atom   6 (R=0.142)  charge=  5.6531  magn=  0.2543
     atom   7 (R=0.142)  charge=  5.6532  magn=  0.2542
     atom   8 (R=0.142)  charge=  5.6531  magn=  0.2543
     atom   9 (R=0.145)  charge=  7.3039  magn=  0.8211
     atom  10 (R=0.142)  charge=  5.6502  magn=  0.2549
     atom  11 (R=0.142)  charge=  5.6500  magn=  0.2405
     atom  12 (R=0.142)  charge=  5.6500  magn=  0.2405
     atom  13 (R=0.145)  charge=  7.3042  magn=  0.8191
     atom  14 (R=0.142)  charge=  5.6505  magn=  0.2364
     atom  15 (R=0.142)  charge=  5.6497  magn=  0.2407
     atom  16 (R=0.142)  charge=  5.6505  magn=  0.2364
     atom  17 (R=0.145)  charge=  7.3002  magn=  0.8611
     atom  18 (R=0.142)  charge=  5.6530  magn=  0.2465
     atom  19 (R=0.142)  charge=  5.6539  magn=  0.2049
     atom  20 (R=0.142)  charge=  5.6530  magn=  0.2465
     atom  21 (R=0.145)  charge=  7.3091  magn=  0.7483
     atom  22 (R=0.142)  charge=  5.6718  magn=  0.1874
     atom  23 (R=0.142)  charge=  5.6602  magn=  0.1331
     atom  24 (R=0.142)  charge=  5.6602  magn=  0.1331
     atom  25 (R=0.142)  charge=  0.9747  magn= -0.0053

     total cpu time spent up to now is    67305.7 secs

     End of self-consistent calculation

     Number of k-points >= 100: set verbosity='high' to print the bands.

     the Fermi energy is    -5.1684 ev

!    total energy              =   -7077.46035688 Ry
     total all-electron energy =   -199909.896927 Ry
     estimated scf accuracy    <          1.9E-09 Ry
     smearing contrib. (-TS)   =       0.00068197 Ry
     internal energy E=F+TS    =   -7077.46103885 Ry

     The total energy is F=E-TS. E is the sum of the following terms:
     one-electron contribution =  -61237.97826008 Ry
     hartree contribution      =   30806.38581956 Ry
     xc contribution           =    -835.53506235 Ry
     ewald contribution        =   29323.82728127 Ry
     DFT-D3 Dispersion         =      -2.53417752 Ry
     one-center paw contrib.   =   -5131.62663973 Ry

     total magnetization       =     9.82 Bohr mag/cell
     absolute magnetization    =    10.67 Bohr mag/cell

     convergence has been achieved in  17 iterations

     negative rho (up, down):  1.554E-04 1.199E-04

     Forces acting on atoms (cartesian axes, Ry/au):

     atom    1 type  1   force =    -0.00000000   -0.00003571    0.01590845
     atom    2 type  2   force =     0.00000000   -0.01418972   -0.00874086
     atom    3 type  2   force =    -0.01242781    0.00715547   -0.00933928
     atom    4 type  2   force =     0.01242780    0.00715546   -0.00933931
     atom    5 type  1   force =     0.00000001    0.00017832    0.00010548
     atom    6 type  2   force =    -0.00077388   -0.00002269    0.00493850
     atom    7 type  2   force =    -0.00000004   -0.00045836    0.00483510
     atom    8 type  2   force =     0.00077388   -0.00002269    0.00493843
     atom    9 type  1   force =     0.00000008    0.00010530    0.00029960
     atom   10 type  2   force =    -0.00000007   -0.00002617   -0.00137419
     atom   11 type  2   force =     0.00001088    0.00007361    0.00014168
     atom   12 type  2   force =    -0.00001083    0.00007355    0.00014187
     atom   13 type  1   force =    -0.00000000    0.00007474   -0.00067924
     atom   14 type  2   force =     0.00041839    0.00018311   -0.00104068
     atom   15 type  2   force =    -0.00000004   -0.00014441   -0.00029900
     atom   16 type  2   force =    -0.00041843    0.00018308   -0.00104065
     atom   17 type  1   force =     0.00000002    0.00024924   -0.00107318
     atom   18 type  2   force =     0.00003111   -0.00002254   -0.00083625
     atom   19 type  2   force =    -0.00000000   -0.00059487    0.00289415
     atom   20 type  2   force =    -0.00003104   -0.00002252   -0.00083626
     atom   21 type  1   force =    -0.00000001   -0.00205272    0.00553994
     atom   22 type  2   force =    -0.00000007    0.00079335   -0.00124099
     atom   23 type  2   force =     0.00282078   -0.00144024    0.00485595
     atom   24 type  2   force =    -0.00282072   -0.00144032    0.00485601
     atom   25 type  3   force =     0.00000000    0.00424773   -0.01361528

     Total force =     0.018007     Total SCF correction =     0.000290


     Computing stress (Cartesian axis) and pressure


     negative rho (up, down):  1.554E-04 1.199E-04
          total   stress  (Ry/bohr**3)                   (kbar)     P=       -7.55
  -0.00007311   0.00000000   0.00000000          -10.75        0.00        0.00
   0.00000000  -0.00008274   0.00000152            0.00      -12.17        0.22
   0.00000000   0.00000152   0.00000186            0.00        0.22        0.27

     Energy error            =      5.1E-04 Ry
     Gradient error          =      1.4E-02 Ry/Bohr

     number of scf cycles    =   3
     number of bfgs steps    =   2

     energy             old  =   -7077.4598444020 Ry
     energy             new  =   -7077.4603568808 Ry

     CASE: energy            _new < energy            _old

     new trust radius        =       0.0280559898 bohr
     new conv_thr            =       0.0000000017 Ry


ATOMIC_POSITIONS (angstrom)
Ni               5.3171990772        3.0698863186       11.0000000000    0   0   0
Pd               2.6585995386        3.0698851333       11.0000764482    0   0   0
Pd               3.9878982814        0.7674721723       11.0000764482    0   0   0
Pd               1.3293007958        0.7674721723       11.0000764482    0   0   0
Ni               2.6585995386        1.5349431593       13.1707374333    0   0   0
Pd               3.9878982814        3.8373584909       13.1708138815    0   0   0
Pd               5.3171990772        1.5349419740       13.1708138815    0   0   0
Pd               6.6464998731        3.8373584909       13.1708138815    0   0   0
Ni              -0.0000003398        0.0004424353       15.3368255605
Pd               5.3171990575        4.6047477316       15.3345303720
Pd               3.9877746588        2.3022452472       15.3390527047
Pd               6.6466233566        2.3022451984       15.3390524165
Ni               5.3171991761        3.0704537694       17.5089073306
Pd               3.9876353488        0.7678157477       17.5066375992
Pd               2.6585995174        3.0689791496       17.5095778464
Pd               1.3295637456        0.7678156735       17.5066374677
Ni               2.6585994752        1.5345693348       19.6860815297
Pd               3.9942584784        3.8353974705       19.6695031300
Pd               5.3171990869        1.5403847703       19.6831611535
Pd               6.6401393751        3.8353975349       19.6695031055
Ni              -0.0000002468       -0.0040658815       21.7835961931
Pd               5.3171986988        4.6177384667       21.8774905550
Pd               3.9889820934        2.2930782452       21.8929610274
Pd               6.6454160313        2.2930784959       21.8929609069
H                2.6585994497        3.0785387087       22.8470580843



     Writing config-only to output data dir /tmpu/isholek_g/isholek/MIGUEL/QE/Hydrogen/111_2x2/SAVE/Ni1Pd3_111-H_hcp_2.save/ :
     XML data file
     NEW-OLD atomic charge density approx. for the potential

     Check: negative core charge=   -0.000002

     negative rho (up, down):  1.576E-04 1.344E-04
     Generating pointlists ...

     total cpu time spent up to now is    68004.6 secs

     Self-consistent Calculation

     iteration #  1     ecut=    60.00 Ry     beta= 0.20
     Davidson diagonalization with overlap
     ethr =  1.00E-06,  avg # of iterations =  5.2

     negative rho (up, down):  3.297E-04 3.062E-04

     total cpu time spent up to now is    69662.9 secs

     total energy              =   -7077.46077430 Ry
     estimated scf accuracy    <       0.00072933 Ry

     total magnetization       =     9.80 Bohr mag/cell
     absolute magnetization    =    10.65 Bohr mag/cell

     iteration #  2     ecut=    60.00 Ry     beta= 0.20
     Davidson diagonalization with overlap
     ethr =  3.03E-07,  avg # of iterations =  1.0

     negative rho (up, down):  2.848E-04 2.591E-04

     total cpu time spent up to now is    70359.6 secs

     total energy              =   -7077.46082173 Ry
     estimated scf accuracy    <       0.00181594 Ry

     total magnetization       =     9.82 Bohr mag/cell
     absolute magnetization    =    10.67 Bohr mag/cell

     iteration #  3     ecut=    60.00 Ry     beta= 0.20
     Davidson diagonalization with overlap
     ethr =  3.03E-07,  avg # of iterations =  1.0

     negative rho (up, down):  2.510E-04 2.234E-04

     total cpu time spent up to now is    71070.1 secs

     total energy              =   -7077.46086396 Ry
     estimated scf accuracy    <       0.00004998 Ry

     total magnetization       =     9.82 Bohr mag/cell
     absolute magnetization    =    10.67 Bohr mag/cell

     iteration #  4     ecut=    60.00 Ry     beta= 0.20
     Davidson diagonalization with overlap
     ethr =  2.07E-08,  avg # of iterations =  1.9

     negative rho (up, down):  2.265E-04 1.972E-04

     total cpu time spent up to now is    71818.1 secs

     total energy              =   -7077.46087842 Ry
     estimated scf accuracy    <       0.00010584 Ry

     total magnetization       =     9.81 Bohr mag/cell
     absolute magnetization    =    10.66 Bohr mag/cell

     iteration #  5     ecut=    60.00 Ry     beta= 0.20
     Davidson diagonalization with overlap
     ethr =  2.07E-08,  avg # of iterations =  1.0

     negative rho (up, down):  2.059E-04 1.752E-04

     total cpu time spent up to now is    72521.6 secs

     total energy              =   -7077.46089892 Ry
     estimated scf accuracy    <       0.00011415 Ry

     total magnetization       =     9.82 Bohr mag/cell
     absolute magnetization    =    10.66 Bohr mag/cell

     iteration #  6     ecut=    60.00 Ry     beta= 0.20
     Davidson diagonalization with overlap
     ethr =  2.07E-08,  avg # of iterations =  2.0

     negative rho (up, down):  1.904E-04 1.592E-04

     total cpu time spent up to now is    73271.2 secs

     total energy              =   -7077.46091894 Ry
     estimated scf accuracy    <       0.00005323 Ry

     total magnetization       =     9.82 Bohr mag/cell
     absolute magnetization    =    10.66 Bohr mag/cell

     iteration #  7     ecut=    60.00 Ry     beta= 0.20
     Davidson diagonalization with overlap
     ethr =  2.07E-08,  avg # of iterations =  2.0

     negative rho (up, down):  1.832E-04 1.518E-04

     total cpu time spent up to now is    74027.0 secs

     total energy              =   -7077.46092620 Ry
     estimated scf accuracy    <       0.00000769 Ry

     total magnetization       =     9.81 Bohr mag/cell
     absolute magnetization    =    10.66 Bohr mag/cell

     iteration #  8     ecut=    60.00 Ry     beta= 0.20
     Davidson diagonalization with overlap
     ethr =  3.19E-09,  avg # of iterations =  4.4

     negative rho (up, down):  1.761E-04 1.441E-04

     total cpu time spent up to now is    74940.1 secs

     total energy              =   -7077.46092787 Ry
     estimated scf accuracy    <       0.00000315 Ry

     total magnetization       =     9.81 Bohr mag/cell
     absolute magnetization    =    10.66 Bohr mag/cell

     iteration #  9     ecut=    60.00 Ry     beta= 0.20
     Davidson diagonalization with overlap
     ethr =  1.31E-09,  avg # of iterations =  2.0

     negative rho (up, down):  1.681E-04 1.352E-04

     total cpu time spent up to now is    75711.2 secs

     total energy              =   -7077.46092816 Ry
     estimated scf accuracy    <       0.00000116 Ry

     total magnetization       =     9.81 Bohr mag/cell
     absolute magnetization    =    10.66 Bohr mag/cell

     iteration # 10     ecut=    60.00 Ry     beta= 0.20
     Davidson diagonalization with overlap
     ethr =  4.80E-10,  avg # of iterations =  1.9

     negative rho (up, down):  1.621E-04 1.285E-04

     total cpu time spent up to now is    76461.3 secs

     total energy              =   -7077.46092823 Ry
     estimated scf accuracy    <       0.00000058 Ry

     total magnetization       =     9.81 Bohr mag/cell
     absolute magnetization    =    10.66 Bohr mag/cell

     iteration # 11     ecut=    60.00 Ry     beta= 0.20
     Davidson diagonalization with overlap
     ethr =  2.39E-10,  avg # of iterations =  2.0

     negative rho (up, down):  1.586E-04 1.246E-04

     total cpu time spent up to now is    77226.5 secs

     total energy              =   -7077.46092838 Ry
     estimated scf accuracy    <       0.00000030 Ry

     total magnetization       =     9.81 Bohr mag/cell
     absolute magnetization    =    10.66 Bohr mag/cell

     iteration # 12     ecut=    60.00 Ry     beta= 0.20
     Davidson diagonalization with overlap
     ethr =  1.24E-10,  avg # of iterations =  2.6

     negative rho (up, down):  1.558E-04 1.215E-04

     total cpu time spent up to now is    78023.7 secs

     total energy              =   -7077.46092844 Ry
     estimated scf accuracy    <       0.00000014 Ry

     total magnetization       =     9.81 Bohr mag/cell
     absolute magnetization    =    10.66 Bohr mag/cell

     iteration # 13     ecut=    60.00 Ry     beta= 0.20
     Davidson diagonalization with overlap
     ethr =  5.75E-11,  avg # of iterations =  2.6

     negative rho (up, down):  1.537E-04 1.191E-04

     total cpu time spent up to now is    78841.3 secs

     total energy              =   -7077.46092846 Ry
     estimated scf accuracy    <       0.00000006 Ry

     total magnetization       =     9.81 Bohr mag/cell
     absolute magnetization    =    10.66 Bohr mag/cell

     iteration # 14     ecut=    60.00 Ry     beta= 0.20
     Davidson diagonalization with overlap
     ethr =  2.39E-11,  avg # of iterations =  2.9

     negative rho (up, down):  1.523E-04 1.175E-04

     total cpu time spent up to now is    79709.1 secs

     total energy              =   -7077.46092848 Ry
     estimated scf accuracy    <       0.00000002 Ry

     total magnetization       =     9.81 Bohr mag/cell
     absolute magnetization    =    10.66 Bohr mag/cell

     iteration # 15     ecut=    60.00 Ry     beta= 0.20
     Davidson diagonalization with overlap
     ethr =  9.58E-12,  avg # of iterations =  3.1

     negative rho (up, down):  1.515E-04 1.165E-04

     total cpu time spent up to now is    80589.4 secs

     total energy              =   -7077.46092850 Ry
     estimated scf accuracy    <       0.00000001 Ry

     total magnetization       =     9.81 Bohr mag/cell
     absolute magnetization    =    10.66 Bohr mag/cell

     iteration # 16     ecut=    60.00 Ry     beta= 0.20
     Davidson diagonalization with overlap
     ethr =  5.99E-12,  avg # of iterations =  1.8

     negative rho (up, down):  1.512E-04 1.161E-04

     total cpu time spent up to now is    81348.6 secs

     total energy              =   -7077.46092851 Ry
     estimated scf accuracy    <       0.00000001 Ry

     total magnetization       =     9.81 Bohr mag/cell
     absolute magnetization    =    10.66 Bohr mag/cell

     iteration # 17     ecut=    60.00 Ry     beta= 0.20
     Davidson diagonalization with overlap
     ethr =  4.76E-12,  avg # of iterations =  2.0

     negative rho (up, down):  1.512E-04 1.160E-04

     total cpu time spent up to now is    82128.3 secs

     total energy              =   -7077.46092852 Ry
     estimated scf accuracy    <          2.9E-09 Ry

     total magnetization       =     9.81 Bohr mag/cell
     absolute magnetization    =    10.66 Bohr mag/cell

     iteration # 18     ecut=    60.00 Ry     beta= 0.20
     Davidson diagonalization with overlap
     ethr =  1.20E-12,  avg # of iterations =  3.7

     negative rho (up, down):  1.510E-04 1.158E-04

     total cpu time spent up to now is    83118.8 secs

     total energy              =   -7077.46092852 Ry
     estimated scf accuracy    <          2.0E-09 Ry

     total magnetization       =     9.81 Bohr mag/cell
     absolute magnetization    =    10.66 Bohr mag/cell

     iteration # 19     ecut=    60.00 Ry     beta= 0.20
     Davidson diagonalization with overlap
     ethr =  8.25E-13,  avg # of iterations =  2.0

     negative rho (up, down):  1.508E-04 1.154E-04

     total cpu time spent up to now is    83877.4 secs

     total energy              =   -7077.46092853 Ry
     estimated scf accuracy    <          2.0E-09 Ry

     total magnetization       =     9.81 Bohr mag/cell
     absolute magnetization    =    10.66 Bohr mag/cell

     iteration # 20     ecut=    60.00 Ry     beta= 0.20
     Davidson diagonalization with overlap
     ethr =  8.25E-13,  avg # of iterations =  1.0

     negative rho (up, down):  1.554E-04 1.199E-04
 
     Magnetic moment per site  (integrated on atomic sphere of radius R)
     atom   1 (R=0.145)  charge=  7.3022  magn=  0.9073
     atom   2 (R=0.142)  charge=  5.6669  magn=  0.2031
     atom   3 (R=0.142)  charge=  5.6669  magn=  0.2057
     atom   4 (R=0.142)  charge=  5.6669  magn=  0.2057
     atom   5 (R=0.145)  charge=  7.3001  magn=  0.8760
     atom   6 (R=0.142)  charge=  5.6531  magn=  0.2544
     atom   7 (R=0.142)  charge=  5.6532  magn=  0.2540
     atom   8 (R=0.142)  charge=  5.6531  magn=  0.2544
     atom   9 (R=0.145)  charge=  7.3040  magn=  0.8211
     atom  10 (R=0.142)  charge=  5.6502  magn=  0.2548
     atom  11 (R=0.142)  charge=  5.6500  magn=  0.2407
     atom  12 (R=0.142)  charge=  5.6500  magn=  0.2407
     atom  13 (R=0.145)  charge=  7.3041  magn=  0.8196
     atom  14 (R=0.142)  charge=  5.6504  magn=  0.2363
     atom  15 (R=0.142)  charge=  5.6497  magn=  0.2411
     atom  16 (R=0.142)  charge=  5.6504  magn=  0.2363
     atom  17 (R=0.145)  charge=  7.3001  magn=  0.8612
     atom  18 (R=0.142)  charge=  5.6529  magn=  0.2460
     atom  19 (R=0.142)  charge=  5.6539  magn=  0.2046
     atom  20 (R=0.142)  charge=  5.6529  magn=  0.2460
     atom  21 (R=0.145)  charge=  7.3094  magn=  0.7433
     atom  22 (R=0.142)  charge=  5.6715  magn=  0.1868
     atom  23 (R=0.142)  charge=  5.6605  magn=  0.1317
     atom  24 (R=0.142)  charge=  5.6605  magn=  0.1317
     atom  25 (R=0.142)  charge=  0.9840  magn= -0.0053

     total cpu time spent up to now is    84580.1 secs

     End of self-consistent calculation

     Number of k-points >= 100: set verbosity='high' to print the bands.

     the Fermi energy is    -5.1683 ev

!    total energy              =   -7077.46092855 Ry
     total all-electron energy =   -199909.897499 Ry
     estimated scf accuracy    <          1.5E-09 Ry
     smearing contrib. (-TS)   =       0.00071331 Ry
     internal energy E=F+TS    =   -7077.46164185 Ry

     The total energy is F=E-TS. E is the sum of the following terms:
     one-electron contribution =  -61224.03479233 Ry
     hartree contribution      =   30799.42280779 Ry
     xc contribution           =    -835.53397462 Ry
     ewald contribution        =   29316.84396179 Ry
     DFT-D3 Dispersion         =      -2.53359267 Ry
     one-center paw contrib.   =   -5131.62605180 Ry

     total magnetization       =     9.81 Bohr mag/cell
     absolute magnetization    =    10.66 Bohr mag/cell

     convergence has been achieved in  20 iterations

     negative rho (up, down):  1.554E-04 1.199E-04

     Forces acting on atoms (cartesian axes, Ry/au):

     atom    1 type  1   force =     0.00000000   -0.00004701    0.01590545
     atom    2 type  2   force =     0.00000001   -0.01419103   -0.00872114
     atom    3 type  2   force =    -0.01241643    0.00716013   -0.00933749
     atom    4 type  2   force =     0.01241644    0.00716012   -0.00933749
     atom    5 type  1   force =     0.00000001    0.00024619    0.00008064
     atom    6 type  2   force =    -0.00091668   -0.00009927    0.00482245
     atom    7 type  2   force =    -0.00000003   -0.00045787    0.00490583
     atom    8 type  2   force =     0.00091666   -0.00009925    0.00482241
     atom    9 type  1   force =     0.00000009    0.00001569    0.00001915
     atom   10 type  2   force =    -0.00000004    0.00021061   -0.00084189
     atom   11 type  2   force =    -0.00004951    0.00013949   -0.00017231
     atom   12 type  2   force =     0.00004955    0.00013945   -0.00017217
     atom   13 type  1   force =    -0.00000002   -0.00002297   -0.00046692
     atom   14 type  2   force =     0.00045040    0.00025704   -0.00042420
     atom   15 type  2   force =    -0.00000001   -0.00012987   -0.00034961
     atom   16 type  2   force =    -0.00045042    0.00025705   -0.00042417
     atom   17 type  1   force =     0.00000000    0.00055951   -0.00025507
     atom   18 type  2   force =    -0.00024399   -0.00062313    0.00045454
     atom   19 type  2   force =    -0.00000002   -0.00073377    0.00162661
     atom   20 type  2   force =     0.00024402   -0.00062311    0.00045454
     atom   21 type  1   force =    -0.00000003   -0.00178685    0.00386690
     atom   22 type  2   force =     0.00000005    0.00067172   -0.00136843
     atom   23 type  2   force =     0.00087616   -0.00131100    0.00302205
     atom   24 type  2   force =    -0.00087622   -0.00131102    0.00302209
     atom   25 type  3   force =     0.00000001    0.00461916   -0.01113174

     Total force =     0.013998     Total SCF correction =     0.000123


     Computing stress (Cartesian axis) and pressure


     negative rho (up, down):  1.554E-04 1.199E-04
          total   stress  (Ry/bohr**3)                   (kbar)     P=       -7.59
  -0.00007283   0.00000000   0.00000000          -10.71        0.00        0.00
   0.00000000  -0.00008282   0.00000199            0.00      -12.18        0.29
   0.00000000   0.00000199   0.00000078            0.00        0.29        0.12

     Energy error            =      5.7E-04 Ry
     Gradient error          =      1.1E-02 Ry/Bohr

     number of scf cycles    =   4
     number of bfgs steps    =   3

     energy             old  =   -7077.4603568808 Ry
     energy             new  =   -7077.4609285452 Ry

     CASE: energy            _new < energy            _old

     new trust radius        =       0.0420839847 bohr
     new conv_thr            =       0.0000000014 Ry


ATOMIC_POSITIONS (angstrom)
Ni               5.3171990772        3.0698863186       11.0000000000    0   0   0
Pd               2.6585995386        3.0698851333       11.0000764482    0   0   0
Pd               3.9878982814        0.7674721723       11.0000764482    0   0   0
Pd               1.3293007958        0.7674721723       11.0000764482    0   0   0
Ni               2.6585995386        1.5349431593       13.1707374333    0   0   0
Pd               3.9878982814        3.8373584909       13.1708138815    0   0   0
Pd               5.3171990772        1.5349419740       13.1708138815    0   0   0
Pd               6.6464998731        3.8373584909       13.1708138815    0   0   0
Ni              -0.0000004168        0.0005950854       15.3371925833
Pd               5.3171990359        4.6047911036       15.3325823388
Pd               3.9878089182        2.3023999665       15.3391598504
Pd               6.6465891303        2.3023998637       15.3391595397
Ni               5.3171992158        3.0706097551       17.5079055684
Pd               3.9882015190        0.7680519027       17.5052203805
Pd               2.6585994910        3.0688135182       17.5091461354
Pd               1.3289975098        0.7680517902       17.5052202048
Ni               2.6585994977        1.5350023272       19.6845642725
Pd               3.9942774568        3.8351648640       19.6684986367
Pd               5.3171990981        1.5393722444       19.6875484706
Pd               6.6401204036        3.8351649648       19.6684986270
Ni              -0.0000002844       -0.0070800258       21.7918971970
Pd               5.3171986842        4.6187327002       21.8754706568
Pd               3.9933681086        2.2907239643       21.9000543404
Pd               6.6410301043        2.2907242728       21.9000541808
H                2.6585994696        3.0857731003       22.8259960003



     Writing config-only to output data dir /tmpu/isholek_g/isholek/MIGUEL/QE/Hydrogen/111_2x2/SAVE/Ni1Pd3_111-H_hcp_2.save/ :
     XML data file
     NEW-OLD atomic charge density approx. for the potential

     Check: negative core charge=   -0.000002

     negative rho (up, down):  1.471E-04 1.325E-04
     Generating pointlists ...
     new r_m :   0.1421 (alat units)  1.4279 (a.u.) for type    1
     new r_m :   0.1403 (alat units)  1.4098 (a.u.) for type    2
     new r_m :   0.1403 (alat units)  1.4098 (a.u.) for type    3

     total cpu time spent up to now is    85278.5 secs

     Self-consistent Calculation

     iteration #  1     ecut=    60.00 Ry     beta= 0.20
     Davidson diagonalization with overlap
     ethr =  1.00E-06,  avg # of iterations =  5.6

     negative rho (up, down):  1.568E-04 1.318E-04

     total cpu time spent up to now is    87089.3 secs

     total energy              =   -7077.46114456 Ry
     estimated scf accuracy    <       0.00144836 Ry

     total magnetization       =     9.78 Bohr mag/cell
     absolute magnetization    =    10.62 Bohr mag/cell

     iteration #  2     ecut=    60.00 Ry     beta= 0.20
     Davidson diagonalization with overlap
     ethr =  6.01E-07,  avg # of iterations =  1.7

     negative rho (up, down):  1.556E-04 1.289E-04

     total cpu time spent up to now is    87841.6 secs

     total energy              =   -7077.46128017 Ry
     estimated scf accuracy    <       0.00362460 Ry

     total magnetization       =     9.82 Bohr mag/cell
     absolute magnetization    =    10.67 Bohr mag/cell

     iteration #  3     ecut=    60.00 Ry     beta= 0.20
     Davidson diagonalization with overlap
     ethr =  6.01E-07,  avg # of iterations =  1.0

     negative rho (up, down):  1.553E-04 1.268E-04

     total cpu time spent up to now is    88547.8 secs

     total energy              =   -7077.46137180 Ry
     estimated scf accuracy    <       0.00009132 Ry

     total magnetization       =     9.81 Bohr mag/cell
     absolute magnetization    =    10.66 Bohr mag/cell

     iteration #  4     ecut=    60.00 Ry     beta= 0.20
     Davidson diagonalization with overlap
     ethr =  3.79E-08,  avg # of iterations =  2.0

     negative rho (up, down):  1.548E-04 1.252E-04

     total cpu time spent up to now is    89348.0 secs

     total energy              =   -7077.46139981 Ry
     estimated scf accuracy    <       0.00013266 Ry

     total magnetization       =     9.80 Bohr mag/cell
     absolute magnetization    =    10.65 Bohr mag/cell

     iteration #  5     ecut=    60.00 Ry     beta= 0.20
     Davidson diagonalization with overlap
     ethr =  3.79E-08,  avg # of iterations =  1.0

     negative rho (up, down):  1.544E-04 1.235E-04

     total cpu time spent up to now is    90066.4 secs

     total energy              =   -7077.46142899 Ry
     estimated scf accuracy    <       0.00014731 Ry

     total magnetization       =     9.80 Bohr mag/cell
     absolute magnetization    =    10.65 Bohr mag/cell

     iteration #  6     ecut=    60.00 Ry     beta= 0.20
     Davidson diagonalization with overlap
     ethr =  3.79E-08,  avg # of iterations =  1.3

     negative rho (up, down):  1.535E-04 1.213E-04

     total cpu time spent up to now is    90805.9 secs

     total energy              =   -7077.46146616 Ry
     estimated scf accuracy    <       0.00008342 Ry

     total magnetization       =     9.80 Bohr mag/cell
     absolute magnetization    =    10.65 Bohr mag/cell

     iteration #  7     ecut=    60.00 Ry     beta= 0.20
     Davidson diagonalization with overlap
     ethr =  3.46E-08,  avg # of iterations =  2.0

     negative rho (up, down):  1.519E-04 1.185E-04

     total cpu time spent up to now is    91555.6 secs

     total energy              =   -7077.46148360 Ry
     estimated scf accuracy    <       0.00002433 Ry

     total magnetization       =     9.80 Bohr mag/cell
     absolute magnetization    =    10.65 Bohr mag/cell

     iteration #  8     ecut=    60.00 Ry     beta= 0.20
     Davidson diagonalization with overlap
     ethr =  1.01E-08,  avg # of iterations =  3.8

     negative rho (up, down):  1.506E-04 1.166E-04

     total cpu time spent up to now is    92410.4 secs

     total energy              =   -7077.46148716 Ry
     estimated scf accuracy    <       0.00000761 Ry

     total magnetization       =     9.80 Bohr mag/cell
     absolute magnetization    =    10.65 Bohr mag/cell

     iteration #  9     ecut=    60.00 Ry     beta= 0.20
     Davidson diagonalization with overlap
     ethr =  3.16E-09,  avg # of iterations =  2.3

     negative rho (up, down):  1.492E-04 1.150E-04

     total cpu time spent up to now is    93195.1 secs

     total energy              =   -7077.46148769 Ry
     estimated scf accuracy    <       0.00000303 Ry

     total magnetization       =     9.80 Bohr mag/cell
     absolute magnetization    =    10.65 Bohr mag/cell

     iteration # 10     ecut=    60.00 Ry     beta= 0.20
     Davidson diagonalization with overlap
     ethr =  1.26E-09,  avg # of iterations =  1.8

     negative rho (up, down):  1.478E-04 1.134E-04

     total cpu time spent up to now is    93936.5 secs

     total energy              =   -7077.46148776 Ry
     estimated scf accuracy    <       0.00000132 Ry

     total magnetization       =     9.80 Bohr mag/cell
     absolute magnetization    =    10.65 Bohr mag/cell

     iteration # 11     ecut=    60.00 Ry     beta= 0.20
     Davidson diagonalization with overlap
     ethr =  5.47E-10,  avg # of iterations =  2.2

     negative rho (up, down):  1.468E-04 1.122E-04

     total cpu time spent up to now is    94708.4 secs

     total energy              =   -7077.46148798 Ry
     estimated scf accuracy    <       0.00000051 Ry

     total magnetization       =     9.80 Bohr mag/cell
     absolute magnetization    =    10.65 Bohr mag/cell

     iteration # 12     ecut=    60.00 Ry     beta= 0.20
     Davidson diagonalization with overlap
     ethr =  2.11E-10,  avg # of iterations =  3.6

     negative rho (up, down):  1.458E-04 1.111E-04

     total cpu time spent up to now is    95574.0 secs

     total energy              =   -7077.46148804 Ry
     estimated scf accuracy    <       0.00000018 Ry

     total magnetization       =     9.80 Bohr mag/cell
     absolute magnetization    =    10.64 Bohr mag/cell

     iteration # 13     ecut=    60.00 Ry     beta= 0.20
     Davidson diagonalization with overlap
     ethr =  7.46E-11,  avg # of iterations =  3.7

     negative rho (up, down):  1.452E-04 1.104E-04

     total cpu time spent up to now is    96497.7 secs

     total energy              =   -7077.46148805 Ry
     estimated scf accuracy    <       0.00000018 Ry

     total magnetization       =     9.80 Bohr mag/cell
     absolute magnetization    =    10.64 Bohr mag/cell

     iteration # 14     ecut=    60.00 Ry     beta= 0.20
     Davidson diagonalization with overlap
     ethr =  7.46E-11,  avg # of iterations =  1.4

     negative rho (up, down):  1.451E-04 1.102E-04

     total cpu time spent up to now is    97243.0 secs

     total energy              =   -7077.46148807 Ry
     estimated scf accuracy    <       0.00000005 Ry

     total magnetization       =     9.80 Bohr mag/cell
     absolute magnetization    =    10.64 Bohr mag/cell

     iteration # 15     ecut=    60.00 Ry     beta= 0.20
     Davidson diagonalization with overlap
     ethr =  2.22E-11,  avg # of iterations =  2.4

     negative rho (up, down):  1.451E-04 1.101E-04

     total cpu time spent up to now is    98076.3 secs

     total energy              =   -7077.46148808 Ry
     estimated scf accuracy    <       0.00000007 Ry

     total magnetization       =     9.80 Bohr mag/cell
     absolute magnetization    =    10.64 Bohr mag/cell

     iteration # 16     ecut=    60.00 Ry     beta= 0.20
     Davidson diagonalization with overlap
     ethr =  2.22E-11,  avg # of iterations =  1.2

     negative rho (up, down):  1.454E-04 1.103E-04

     total cpu time spent up to now is    98801.9 secs

     total energy              =   -7077.46148809 Ry
     estimated scf accuracy    <       0.00000003 Ry

     total magnetization       =     9.80 Bohr mag/cell
     absolute magnetization    =    10.64 Bohr mag/cell

     iteration # 17     ecut=    60.00 Ry     beta= 0.20
     Davidson diagonalization with overlap
     ethr =  1.33E-11,  avg # of iterations =  2.0

     negative rho (up, down):  1.462E-04 1.110E-04

     total cpu time spent up to now is    99567.6 secs

     total energy              =   -7077.46148810 Ry
     estimated scf accuracy    <       0.00000003 Ry

     total magnetization       =     9.80 Bohr mag/cell
     absolute magnetization    =    10.64 Bohr mag/cell

     iteration # 18     ecut=    60.00 Ry     beta= 0.20
     Davidson diagonalization with overlap
     ethr =  1.10E-11,  avg # of iterations =  1.5

     negative rho (up, down):  1.466E-04 1.114E-04

     total cpu time spent up to now is   100312.3 secs

     total energy              =   -7077.46148810 Ry
     estimated scf accuracy    <          2.7E-09 Ry

     total magnetization       =     9.80 Bohr mag/cell
     absolute magnetization    =    10.64 Bohr mag/cell

     iteration # 19     ecut=    60.00 Ry     beta= 0.20
     Davidson diagonalization with overlap
     ethr =  1.12E-12,  avg # of iterations =  4.3

     negative rho (up, down):  1.468E-04 1.115E-04

     total cpu time spent up to now is   101403.7 secs

     total energy              =   -7077.46148810 Ry
     estimated scf accuracy    <          4.1E-09 Ry

     total magnetization       =     9.80 Bohr mag/cell
     absolute magnetization    =    10.64 Bohr mag/cell

     iteration # 20     ecut=    60.00 Ry     beta= 0.20
     Davidson diagonalization with overlap
     ethr =  1.12E-12,  avg # of iterations =  1.0

     negative rho (up, down):  1.475E-04 1.122E-04

     total cpu time spent up to now is   102115.1 secs

     total energy              =   -7077.46148810 Ry
     estimated scf accuracy    <          4.2E-09 Ry

     total magnetization       =     9.80 Bohr mag/cell
     absolute magnetization    =    10.64 Bohr mag/cell

     iteration # 21     ecut=    60.00 Ry     beta= 0.20
     Davidson diagonalization with overlap
     ethr =  1.12E-12,  avg # of iterations =  1.9

     negative rho (up, down):  1.481E-04 1.129E-04

     total cpu time spent up to now is   102868.2 secs

     total energy              =   -7077.46148810 Ry
     estimated scf accuracy    <          4.6E-09 Ry

     total magnetization       =     9.80 Bohr mag/cell
     absolute magnetization    =    10.64 Bohr mag/cell

     iteration # 22     ecut=    60.00 Ry     beta= 0.20
     Davidson diagonalization with overlap
     ethr =  1.12E-12,  avg # of iterations =  1.5

     negative rho (up, down):  1.490E-04 1.137E-04

     total cpu time spent up to now is   103615.9 secs

     total energy              =   -7077.46148810 Ry
     estimated scf accuracy    <          3.6E-09 Ry

     total magnetization       =     9.80 Bohr mag/cell
     absolute magnetization    =    10.64 Bohr mag/cell

     iteration # 23     ecut=    60.00 Ry     beta= 0.20
     Davidson diagonalization with overlap
     ethr =  1.12E-12,  avg # of iterations =  1.0

     negative rho (up, down):  1.498E-04 1.144E-04

     total cpu time spent up to now is   104334.7 secs

     total energy              =   -7077.46148811 Ry
     estimated scf accuracy    <          4.3E-09 Ry

     total magnetization       =     9.80 Bohr mag/cell
     absolute magnetization    =    10.64 Bohr mag/cell

     iteration # 24     ecut=    60.00 Ry     beta= 0.20
     Davidson diagonalization with overlap
     ethr =  1.12E-12,  avg # of iterations =  1.0

     negative rho (up, down):  1.508E-04 1.154E-04

     total cpu time spent up to now is   105046.2 secs

     total energy              =   -7077.46148811 Ry
     estimated scf accuracy    <          3.9E-09 Ry

     total magnetization       =     9.80 Bohr mag/cell
     absolute magnetization    =    10.64 Bohr mag/cell

     iteration # 25     ecut=    60.00 Ry     beta= 0.20
     Davidson diagonalization with overlap
     ethr =  1.12E-12,  avg # of iterations =  1.0

     negative rho (up, down):  1.524E-04 1.170E-04

     total cpu time spent up to now is   105759.5 secs

     total energy              =   -7077.46148811 Ry
     estimated scf accuracy    <          3.1E-09 Ry

     total magnetization       =     9.80 Bohr mag/cell
     absolute magnetization    =    10.64 Bohr mag/cell

     iteration # 26     ecut=    60.00 Ry     beta= 0.20
     Davidson diagonalization with overlap
     ethr =  1.12E-12,  avg # of iterations =  1.0

     negative rho (up, down):  1.541E-04 1.187E-04

     total cpu time spent up to now is   106477.4 secs

     total energy              =   -7077.46148812 Ry
     estimated scf accuracy    <          1.7E-09 Ry

     total magnetization       =     9.80 Bohr mag/cell
     absolute magnetization    =    10.64 Bohr mag/cell

     iteration # 27     ecut=    60.00 Ry     beta= 0.20
     Davidson diagonalization with overlap
     ethr =  6.91E-13,  avg # of iterations =  1.5

     negative rho (up, down):  1.554E-04 1.199E-04
 
     Magnetic moment per site  (integrated on atomic sphere of radius R)
     atom   1 (R=0.142)  charge=  7.2025  magn=  0.8994
     atom   2 (R=0.140)  charge=  5.5910  magn=  0.2009
     atom   3 (R=0.140)  charge=  5.5911  magn=  0.2032
     atom   4 (R=0.140)  charge=  5.5911  magn=  0.2032
     atom   5 (R=0.142)  charge=  7.1989  magn=  0.8687
     atom   6 (R=0.140)  charge=  5.5774  magn=  0.2517
     atom   7 (R=0.140)  charge=  5.5775  magn=  0.2510
     atom   8 (R=0.140)  charge=  5.5774  magn=  0.2517
     atom   9 (R=0.142)  charge=  7.2022  magn=  0.8146
     atom  10 (R=0.140)  charge=  5.5748  magn=  0.2518
     atom  11 (R=0.140)  charge=  5.5749  magn=  0.2384
     atom  12 (R=0.140)  charge=  5.5749  magn=  0.2384
     atom  13 (R=0.142)  charge=  7.2022  magn=  0.8139
     atom  14 (R=0.140)  charge=  5.5758  magn=  0.2335
     atom  15 (R=0.140)  charge=  5.5750  magn=  0.2387
     atom  16 (R=0.140)  charge=  5.5758  magn=  0.2335
     atom  17 (R=0.142)  charge=  7.1990  magn=  0.8545
     atom  18 (R=0.140)  charge=  5.5772  magn=  0.2424
     atom  19 (R=0.140)  charge=  5.5783  magn=  0.2018
     atom  20 (R=0.140)  charge=  5.5772  magn=  0.2424
     atom  21 (R=0.142)  charge=  7.2087  magn=  0.7293
     atom  22 (R=0.140)  charge=  5.5956  magn=  0.1840
     atom  23 (R=0.140)  charge=  5.5858  magn=  0.1285
     atom  24 (R=0.140)  charge=  5.5858  magn=  0.1285
     atom  25 (R=0.140)  charge=  0.9782  magn= -0.0054

     total cpu time spent up to now is   107215.0 secs

     End of self-consistent calculation

     Number of k-points >= 100: set verbosity='high' to print the bands.

     the Fermi energy is    -5.1676 ev

!    total energy              =   -7077.46148812 Ry
     total all-electron energy =   -199909.898058 Ry
     estimated scf accuracy    <          9.1E-10 Ry
     smearing contrib. (-TS)   =       0.00075391 Ry
     internal energy E=F+TS    =   -7077.46224203 Ry

     The total energy is F=E-TS. E is the sum of the following terms:
     one-electron contribution =  -61204.67758256 Ry
     hartree contribution      =   30789.75818174 Ry
     xc contribution           =    -835.53343443 Ry
     ewald contribution        =   29307.14881820 Ry
     DFT-D3 Dispersion         =      -2.53279449 Ry
     one-center paw contrib.   =   -5131.62543049 Ry

     total magnetization       =     9.80 Bohr mag/cell
     absolute magnetization    =    10.64 Bohr mag/cell

     convergence has been achieved in  27 iterations

     negative rho (up, down):  1.554E-04 1.199E-04

     Forces acting on atoms (cartesian axes, Ry/au):

     atom    1 type  1   force =     0.00000000   -0.00006165    0.01589648
     atom    2 type  2   force =    -0.00000001   -0.01419489   -0.00870481
     atom    3 type  2   force =    -0.01240222    0.00716477   -0.00933882
     atom    4 type  2   force =     0.01240221    0.00716478   -0.00933884
     atom    5 type  1   force =     0.00000001    0.00033215    0.00000061
     atom    6 type  2   force =    -0.00109375   -0.00017948    0.00461185
     atom    7 type  2   force =    -0.00000004   -0.00046733    0.00493532
     atom    8 type  2   force =     0.00109373   -0.00017947    0.00461180
     atom    9 type  1   force =     0.00000012   -0.00006181   -0.00029843
     atom   10 type  2   force =    -0.00000003    0.00046718   -0.00006938
     atom   11 type  2   force =    -0.00008689    0.00020754   -0.00049475
     atom   12 type  2   force =     0.00008691    0.00020751   -0.00049461
     atom   13 type  1   force =    -0.00000004   -0.00006756   -0.00010093
     atom   14 type  2   force =     0.00033639    0.00024576    0.00042477
     atom   15 type  2   force =    -0.00000002   -0.00004628   -0.00027968
     atom   16 type  2   force =    -0.00033641    0.00024579    0.00042479
     atom   17 type  1   force =     0.00000001    0.00073609    0.00067455
     atom   18 type  2   force =    -0.00046596   -0.00124332    0.00173767
     atom   19 type  2   force =    -0.00000002   -0.00087800    0.00013198
     atom   20 type  2   force =     0.00046599   -0.00124332    0.00173769
     atom   21 type  1   force =     0.00000004   -0.00102859    0.00151597
     atom   22 type  2   force =     0.00000004    0.00021792   -0.00131539
     atom   23 type  2   force =    -0.00100835   -0.00117849    0.00060212
     atom   24 type  2   force =     0.00100827   -0.00117855    0.00060217
     atom   25 type  3   force =     0.00000001    0.00501925   -0.00747211

     Total force =     0.010235     Total SCF correction =     0.000173


     Computing stress (Cartesian axis) and pressure


     negative rho (up, down):  1.554E-04 1.199E-04
          total   stress  (Ry/bohr**3)                   (kbar)     P=       -7.74
  -0.00007296   0.00000000   0.00000000          -10.73        0.00        0.00
   0.00000000  -0.00008348   0.00000260            0.00      -12.28        0.38
   0.00000000   0.00000260  -0.00000135            0.00        0.38       -0.20

     Energy error            =      5.6E-04 Ry
     Gradient error          =      7.5E-03 Ry/Bohr

     number of scf cycles    =   5
     number of bfgs steps    =   4

     energy             old  =   -7077.4609285452 Ry
     energy             new  =   -7077.4614881174 Ry

     CASE: energy            _new < energy            _old

     new trust radius        =       0.0631259771 bohr
     new conv_thr            =       0.0000000010 Ry


ATOMIC_POSITIONS (angstrom)
Ni               5.3171990772        3.0698863186       11.0000000000    0   0   0
Pd               2.6585995386        3.0698851333       11.0000764482    0   0   0
Pd               3.9878982814        0.7674721723       11.0000764482    0   0   0
Pd               1.3293007958        0.7674721723       11.0000764482    0   0   0
Ni               2.6585995386        1.5349431593       13.1707374333    0   0   0
Pd               3.9878982814        3.8373584909       13.1708138815    0   0   0
Pd               5.3171990772        1.5349419740       13.1708138815    0   0   0
Pd               6.6464998731        3.8373584909       13.1708138815    0   0   0
Ni              -0.0000005261        0.0007481540       15.3373900860
Pd               5.3171990160        4.6052069175       15.3302979815
Pd               3.9878155777        2.3027535750       15.3389077530
Pd               6.6465824996        2.3027534059       15.3389073726
Ni               5.3171992645        3.0708103086       17.5066828924
Pd               3.9890189585        0.7684430528       17.5039355122
Pd               2.6585994500        3.0686397466       17.5084972334
Pd               1.3281799645        0.7684428976       17.5039352483
Ni               2.6585995363        1.5359861077       19.6832278761
Pd               3.9940076170        3.8339407783       19.6685202374
Pd               5.3171991141        1.5374667113       19.6929993528
Pd               6.6403902414        3.8339409083       19.6685202915
Ni              -0.0000002742       -0.0112145698       21.8028661222
Pd               5.3171986664        4.6198357286       21.8721022489
Pd               3.9982736648        2.2869158996       21.9088724124
Pd               6.6361246561        2.2869162750       21.9088721892
H                2.6585995095        3.0985568540       22.7951340786



     Writing config-only to output data dir /tmpu/isholek_g/isholek/MIGUEL/QE/Hydrogen/111_2x2/SAVE/Ni1Pd3_111-H_hcp_2.save/ :
     XML data file
     NEW-OLD atomic charge density approx. for the potential

     Check: negative core charge=   -0.000002

     negative rho (up, down):  1.536E-04 1.314E-04
     Generating pointlists ...
     new r_m :   0.1392 (alat units)  1.3987 (a.u.) for type    1

     total cpu time spent up to now is   107911.1 secs

     Self-consistent Calculation

     iteration #  1     ecut=    60.00 Ry     beta= 0.20
     Davidson diagonalization with overlap
     ethr =  1.00E-06,  avg # of iterations =  7.0

     negative rho (up, down):  1.865E-04 1.547E-04

     total cpu time spent up to now is   109861.7 secs

     total energy              =   -7077.46127939 Ry
     estimated scf accuracy    <       0.00401561 Ry

     total magnetization       =     9.74 Bohr mag/cell
     absolute magnetization    =    10.59 Bohr mag/cell

     iteration #  2     ecut=    60.00 Ry     beta= 0.20
     Davidson diagonalization with overlap
     ethr =  1.67E-06,  avg # of iterations =  1.1

     negative rho (up, down):  1.777E-04 1.446E-04

     total cpu time spent up to now is   110580.5 secs

     total energy              =   -7077.46149150 Ry
     estimated scf accuracy    <       0.00806769 Ry

     total magnetization       =     9.81 Bohr mag/cell
     absolute magnetization    =    10.66 Bohr mag/cell

     iteration #  3     ecut=    60.00 Ry     beta= 0.20
     Davidson diagonalization with overlap
     ethr =  1.67E-06,  avg # of iterations =  1.0

     negative rho (up, down):  1.720E-04 1.382E-04

     total cpu time spent up to now is   111299.4 secs

     total energy              =   -7077.46166480 Ry
     estimated scf accuracy    <       0.00017311 Ry

     total magnetization       =     9.79 Bohr mag/cell
     absolute magnetization    =    10.64 Bohr mag/cell

     iteration #  4     ecut=    60.00 Ry     beta= 0.20
     Davidson diagonalization with overlap
     ethr =  7.18E-08,  avg # of iterations =  2.0

     negative rho (up, down):  1.678E-04 1.334E-04

     total cpu time spent up to now is   112086.3 secs

     total energy              =   -7077.46170835 Ry
     estimated scf accuracy    <       0.00024324 Ry

     total magnetization       =     9.78 Bohr mag/cell
     absolute magnetization    =    10.63 Bohr mag/cell

     iteration #  5     ecut=    60.00 Ry     beta= 0.20
     Davidson diagonalization with overlap
     ethr =  7.18E-08,  avg # of iterations =  1.0

     negative rho (up, down):  1.642E-04 1.295E-04

     total cpu time spent up to now is   112805.5 secs

     total energy              =   -7077.46175447 Ry
     estimated scf accuracy    <       0.00029879 Ry

     total magnetization       =     9.79 Bohr mag/cell
     absolute magnetization    =    10.63 Bohr mag/cell

     iteration #  6     ecut=    60.00 Ry     beta= 0.20
     Davidson diagonalization with overlap
     ethr =  7.18E-08,  avg # of iterations =  1.4

     negative rho (up, down):  1.601E-04 1.254E-04

     total cpu time spent up to now is   113537.9 secs

     total energy              =   -7077.46181276 Ry
     estimated scf accuracy    <       0.00017356 Ry

     total magnetization       =     9.79 Bohr mag/cell
     absolute magnetization    =    10.63 Bohr mag/cell

     iteration #  7     ecut=    60.00 Ry     beta= 0.20
     Davidson diagonalization with overlap
     ethr =  7.18E-08,  avg # of iterations =  2.0

     negative rho (up, down):  1.551E-04 1.205E-04

     total cpu time spent up to now is   114306.0 secs

     total energy              =   -7077.46184621 Ry
     estimated scf accuracy    <       0.00007388 Ry

     total magnetization       =     9.78 Bohr mag/cell
     absolute magnetization    =    10.63 Bohr mag/cell

     iteration #  8     ecut=    60.00 Ry     beta= 0.20
     Davidson diagonalization with overlap
     ethr =  3.07E-08,  avg # of iterations =  2.8

     negative rho (up, down):  1.516E-04 1.171E-04

     total cpu time spent up to now is   115118.6 secs

     total energy              =   -7077.46185132 Ry
     estimated scf accuracy    <       0.00001774 Ry

     total magnetization       =     9.78 Bohr mag/cell
     absolute magnetization    =    10.63 Bohr mag/cell

     iteration #  9     ecut=    60.00 Ry     beta= 0.20
     Davidson diagonalization with overlap
     ethr =  7.36E-09,  avg # of iterations =  4.5

     negative rho (up, down):  1.477E-04 1.131E-04

     total cpu time spent up to now is   115991.0 secs

     total energy              =   -7077.46185348 Ry
     estimated scf accuracy    <       0.00000870 Ry

     total magnetization       =     9.78 Bohr mag/cell
     absolute magnetization    =    10.63 Bohr mag/cell

     iteration # 10     ecut=    60.00 Ry     beta= 0.20
     Davidson diagonalization with overlap
     ethr =  3.61E-09,  avg # of iterations =  1.8

     negative rho (up, down):  1.450E-04 1.104E-04

     total cpu time spent up to now is   116741.7 secs

     total energy              =   -7077.46185376 Ry
     estimated scf accuracy    <       0.00000321 Ry

     total magnetization       =     9.78 Bohr mag/cell
     absolute magnetization    =    10.63 Bohr mag/cell

     iteration # 11     ecut=    60.00 Ry     beta= 0.20
     Davidson diagonalization with overlap
     ethr =  1.33E-09,  avg # of iterations =  1.7

     negative rho (up, down):  1.422E-04 1.075E-04

     total cpu time spent up to now is   117497.5 secs

     total energy              =   -7077.46185397 Ry
     estimated scf accuracy    <       0.00000085 Ry

     total magnetization       =     9.78 Bohr mag/cell
     absolute magnetization    =    10.63 Bohr mag/cell

     iteration # 12     ecut=    60.00 Ry     beta= 0.20
     Davidson diagonalization with overlap
     ethr =  3.51E-10,  avg # of iterations =  3.4

     negative rho (up, down):  1.410E-04 1.062E-04

     total cpu time spent up to now is   118417.6 secs

     total energy              =   -7077.46185410 Ry
     estimated scf accuracy    <       0.00000062 Ry

     total magnetization       =     9.78 Bohr mag/cell
     absolute magnetization    =    10.62 Bohr mag/cell

     iteration # 13     ecut=    60.00 Ry     beta= 0.20
     Davidson diagonalization with overlap
     ethr =  2.59E-10,  avg # of iterations =  2.0

     negative rho (up, down):  1.402E-04 1.054E-04

     total cpu time spent up to now is   119192.7 secs

     total energy              =   -7077.46185411 Ry
     estimated scf accuracy    <       0.00000060 Ry

     total magnetization       =     9.78 Bohr mag/cell
     absolute magnetization    =    10.62 Bohr mag/cell

     iteration # 14     ecut=    60.00 Ry     beta= 0.20
     Davidson diagonalization with overlap
     ethr =  2.51E-10,  avg # of iterations =  1.0

     negative rho (up, down):  1.387E-04 1.039E-04

     total cpu time spent up to now is   119916.3 secs

     total energy              =   -7077.46185409 Ry
     estimated scf accuracy    <       0.00000092 Ry

     total magnetization       =     9.78 Bohr mag/cell
     absolute magnetization    =    10.62 Bohr mag/cell

     iteration # 15     ecut=    60.00 Ry     beta= 0.20
     Davidson diagonalization with overlap
     ethr =  2.51E-10,  avg # of iterations =  1.1

     negative rho (up, down):  1.385E-04 1.036E-04

     total cpu time spent up to now is   120631.1 secs

     total energy              =   -7077.46185415 Ry
     estimated scf accuracy    <       0.00000020 Ry

     total magnetization       =     9.78 Bohr mag/cell
     absolute magnetization    =    10.62 Bohr mag/cell

     iteration # 16     ecut=    60.00 Ry     beta= 0.20
     Davidson diagonalization with overlap
     ethr =  8.26E-11,  avg # of iterations =  2.0

     negative rho (up, down):  1.390E-04 1.041E-04

     total cpu time spent up to now is   121399.7 secs

     total energy              =   -7077.46185418 Ry
     estimated scf accuracy    <       0.00000016 Ry

     total magnetization       =     9.78 Bohr mag/cell
     absolute magnetization    =    10.62 Bohr mag/cell

     iteration # 17     ecut=    60.00 Ry     beta= 0.20
     Davidson diagonalization with overlap
     ethr =  6.69E-11,  avg # of iterations =  2.0

     negative rho (up, down):  1.402E-04 1.052E-04

     total cpu time spent up to now is   122173.5 secs

     total energy              =   -7077.46185419 Ry
     estimated scf accuracy    <       0.00000009 Ry

     total magnetization       =     9.78 Bohr mag/cell
     absolute magnetization    =    10.62 Bohr mag/cell

     iteration # 18     ecut=    60.00 Ry     beta= 0.20
     Davidson diagonalization with overlap
     ethr =  3.63E-11,  avg # of iterations =  1.7

     negative rho (up, down):  1.407E-04 1.057E-04

     total cpu time spent up to now is   122926.0 secs

     total energy              =   -7077.46185420 Ry
     estimated scf accuracy    <       0.00000002 Ry

     total magnetization       =     9.78 Bohr mag/cell
     absolute magnetization    =    10.62 Bohr mag/cell

     iteration # 19     ecut=    60.00 Ry     beta= 0.20
     Davidson diagonalization with overlap
     ethr =  7.08E-12,  avg # of iterations =  4.4

     negative rho (up, down):  1.418E-04 1.068E-04

     total cpu time spent up to now is   123856.5 secs

     total energy              =   -7077.46185420 Ry
     estimated scf accuracy    <       0.00000001 Ry

     total magnetization       =     9.78 Bohr mag/cell
     absolute magnetization    =    10.62 Bohr mag/cell

     iteration # 20     ecut=    60.00 Ry     beta= 0.20
     Davidson diagonalization with overlap
     ethr =  4.54E-12,  avg # of iterations =  1.4

     negative rho (up, down):  1.424E-04 1.074E-04

     total cpu time spent up to now is   124600.1 secs

     total energy              =   -7077.46185420 Ry
     estimated scf accuracy    <       0.00000001 Ry

     total magnetization       =     9.78 Bohr mag/cell
     absolute magnetization    =    10.62 Bohr mag/cell

     iteration # 21     ecut=    60.00 Ry     beta= 0.20
     Davidson diagonalization with overlap
     ethr =  4.54E-12,  avg # of iterations =  1.0

     negative rho (up, down):  1.444E-04 1.093E-04

     total cpu time spent up to now is   125313.0 secs

     total energy              =   -7077.46185421 Ry
     estimated scf accuracy    <       0.00000001 Ry

     total magnetization       =     9.78 Bohr mag/cell
     absolute magnetization    =    10.62 Bohr mag/cell

     iteration # 22     ecut=    60.00 Ry     beta= 0.20
     Davidson diagonalization with overlap
     ethr =  4.21E-12,  avg # of iterations =  1.3

     negative rho (up, down):  1.467E-04 1.115E-04

     total cpu time spent up to now is   126051.6 secs

     total energy              =   -7077.46185421 Ry
     estimated scf accuracy    <          8.4E-09 Ry

     total magnetization       =     9.78 Bohr mag/cell
     absolute magnetization    =    10.62 Bohr mag/cell

     iteration # 23     ecut=    60.00 Ry     beta= 0.20
     Davidson diagonalization with overlap
     ethr =  3.47E-12,  avg # of iterations =  1.1

     negative rho (up, down):  1.506E-04 1.154E-04

     total cpu time spent up to now is   126767.5 secs

     total energy              =   -7077.46185422 Ry
     estimated scf accuracy    <       0.00000001 Ry

     total magnetization       =     9.78 Bohr mag/cell
     absolute magnetization    =    10.62 Bohr mag/cell

     iteration # 24     ecut=    60.00 Ry     beta= 0.20
     Davidson diagonalization with overlap
     ethr =  3.47E-12,  avg # of iterations =  1.7

     negative rho (up, down):  1.524E-04 1.171E-04

     total cpu time spent up to now is   127514.4 secs

     total energy              =   -7077.46185422 Ry
     estimated scf accuracy    <          9.2E-09 Ry

     total magnetization       =     9.78 Bohr mag/cell
     absolute magnetization    =    10.62 Bohr mag/cell

     iteration # 25     ecut=    60.00 Ry     beta= 0.20
     Davidson diagonalization with overlap
     ethr =  3.47E-12,  avg # of iterations =  1.0

     negative rho (up, down):  1.536E-04 1.183E-04

     total cpu time spent up to now is   128217.0 secs

     total energy              =   -7077.46185423 Ry
     estimated scf accuracy    <          7.4E-09 Ry

     total magnetization       =     9.78 Bohr mag/cell
     absolute magnetization    =    10.62 Bohr mag/cell

     iteration # 26     ecut=    60.00 Ry     beta= 0.20
     Davidson diagonalization with overlap
     ethr =  3.08E-12,  avg # of iterations =  1.1

     negative rho (up, down):  1.540E-04 1.187E-04

     total cpu time spent up to now is   128940.4 secs

     total energy              =   -7077.46185423 Ry
     estimated scf accuracy    <          7.2E-09 Ry

     total magnetization       =     9.78 Bohr mag/cell
     absolute magnetization    =    10.62 Bohr mag/cell

     iteration # 27     ecut=    60.00 Ry     beta= 0.20
     Davidson diagonalization with overlap
     ethr =  3.00E-12,  avg # of iterations =  1.0

     negative rho (up, down):  1.548E-04 1.194E-04

     total cpu time spent up to now is   129641.5 secs

     total energy              =   -7077.46185423 Ry
     estimated scf accuracy    <          2.9E-09 Ry

     total magnetization       =     9.78 Bohr mag/cell
     absolute magnetization    =    10.62 Bohr mag/cell

     iteration # 28     ecut=    60.00 Ry     beta= 0.20
     Davidson diagonalization with overlap
     ethr =  1.21E-12,  avg # of iterations =  1.2

     negative rho (up, down):  1.553E-04 1.200E-04

     total cpu time spent up to now is   130365.3 secs

     total energy              =   -7077.46185423 Ry
     estimated scf accuracy    <          1.5E-09 Ry

     total magnetization       =     9.78 Bohr mag/cell
     absolute magnetization    =    10.62 Bohr mag/cell

     iteration # 29     ecut=    60.00 Ry     beta= 0.20
     Davidson diagonalization with overlap
     ethr =  6.09E-13,  avg # of iterations =  1.3

     negative rho (up, down):  1.553E-04 1.200E-04

     total cpu time spent up to now is   131088.4 secs

     total energy              =   -7077.46185423 Ry
     estimated scf accuracy    <          1.4E-09 Ry

     total magnetization       =     9.78 Bohr mag/cell
     absolute magnetization    =    10.62 Bohr mag/cell

     iteration # 30     ecut=    60.00 Ry     beta= 0.20
     Davidson diagonalization with overlap
     ethr =  5.87E-13,  avg # of iterations =  1.0

     negative rho (up, down):  1.554E-04 1.201E-04
 
     Magnetic moment per site  (integrated on atomic sphere of radius R)
     atom   1 (R=0.139)  charge=  7.1112  magn=  0.8918
     atom   2 (R=0.140)  charge=  5.5910  magn=  0.2011
     atom   3 (R=0.140)  charge=  5.5911  magn=  0.2031
     atom   4 (R=0.140)  charge=  5.5911  magn=  0.2031
     atom   5 (R=0.139)  charge=  7.1064  magn=  0.8615
     atom   6 (R=0.140)  charge=  5.5774  magn=  0.2519
     atom   7 (R=0.140)  charge=  5.5776  magn=  0.2509
     atom   8 (R=0.140)  charge=  5.5774  magn=  0.2519
     atom   9 (R=0.139)  charge=  7.1104  magn=  0.8085
     atom  10 (R=0.140)  charge=  5.5748  magn=  0.2516
     atom  11 (R=0.140)  charge=  5.5749  magn=  0.2388
     atom  12 (R=0.140)  charge=  5.5749  magn=  0.2388
     atom  13 (R=0.139)  charge=  7.1099  magn=  0.8087
     atom  14 (R=0.140)  charge=  5.5756  magn=  0.2333
     atom  15 (R=0.140)  charge=  5.5750  magn=  0.2389
     atom  16 (R=0.140)  charge=  5.5756  magn=  0.2333
     atom  17 (R=0.139)  charge=  7.1065  magn=  0.8484
     atom  18 (R=0.140)  charge=  5.5771  magn=  0.2412
     atom  19 (R=0.140)  charge=  5.5787  magn=  0.2012
     atom  20 (R=0.140)  charge=  5.5771  magn=  0.2412
     atom  21 (R=0.139)  charge=  7.1173  magn=  0.7109
     atom  22 (R=0.140)  charge=  5.5951  magn=  0.1833
     atom  23 (R=0.140)  charge=  5.5867  magn=  0.1265
     atom  24 (R=0.140)  charge=  5.5867  magn=  0.1265
     atom  25 (R=0.140)  charge=  0.9977  magn= -0.0055

     total cpu time spent up to now is   131785.3 secs

     End of self-consistent calculation

     Number of k-points >= 100: set verbosity='high' to print the bands.

     the Fermi energy is    -5.1663 ev

!    total energy              =   -7077.46185423 Ry
     total all-electron energy =   -199909.898424 Ry
     estimated scf accuracy    <          9.5E-10 Ry
     smearing contrib. (-TS)   =       0.00080317 Ry
     internal energy E=F+TS    =   -7077.46265739 Ry

     The total energy is F=E-TS. E is the sum of the following terms:
     one-electron contribution =  -61179.04192605 Ry
     hartree contribution      =   30776.96102843 Ry
     xc contribution           =    -835.53430350 Ry
     ewald contribution        =   29294.30916498 Ry
     DFT-D3 Dispersion         =      -2.53175711 Ry
     one-center paw contrib.   =   -5131.62486415 Ry

     total magnetization       =     9.78 Bohr mag/cell
     absolute magnetization    =    10.62 Bohr mag/cell

     convergence has been achieved in  30 iterations

     negative rho (up, down):  1.554E-04 1.201E-04

     Forces acting on atoms (cartesian axes, Ry/au):

     atom    1 type  1   force =     0.00000000   -0.00008228    0.01588783
     atom    2 type  2   force =     0.00000000   -0.01420115   -0.00869498
     atom    3 type  2   force =    -0.01238580    0.00716925   -0.00933803
     atom    4 type  2   force =     0.01238579    0.00716924   -0.00933804
     atom    5 type  1   force =     0.00000001    0.00042731   -0.00009572
     atom    6 type  2   force =    -0.00128345   -0.00022927    0.00431532
     atom    7 type  2   force =    -0.00000004   -0.00049918    0.00490049
     atom    8 type  2   force =     0.00128342   -0.00022925    0.00431526
     atom    9 type  1   force =     0.00000013   -0.00007622   -0.00054153
     atom   10 type  2   force =    -0.00000002    0.00067136    0.00096300
     atom   11 type  2   force =    -0.00007816    0.00024666   -0.00064157
     atom   12 type  2   force =     0.00007814    0.00024667   -0.00064142
     atom   13 type  1   force =    -0.00000005   -0.00004702    0.00041164
     atom   14 type  2   force =     0.00002419    0.00011518    0.00142050
     atom   15 type  2   force =    -0.00000002    0.00012404   -0.00005690
     atom   16 type  2   force =    -0.00002420    0.00011522    0.00142056
     atom   17 type  1   force =    -0.00000004    0.00053253    0.00150249
     atom   18 type  2   force =    -0.00053445   -0.00171680    0.00258670
     atom   19 type  2   force =     0.00000001   -0.00101034   -0.00154854
     atom   20 type  2   force =     0.00053449   -0.00171679    0.00258666
     atom   21 type  1   force =     0.00000007    0.00064995   -0.00176447
     atom   22 type  2   force =     0.00000001   -0.00072311   -0.00086012
     atom   23 type  2   force =    -0.00251252   -0.00105282   -0.00226974
     atom   24 type  2   force =     0.00251246   -0.00105293   -0.00226963
     atom   25 type  3   force =     0.00000001    0.00516975   -0.00224978

     Total force =     0.009717     Total SCF correction =     0.000239


     Computing stress (Cartesian axis) and pressure


     negative rho (up, down):  1.554E-04 1.201E-04
          total   stress  (Ry/bohr**3)                   (kbar)     P=       -7.85
  -0.00007260   0.00000000   0.00000000          -10.68        0.00        0.00
   0.00000000  -0.00008373   0.00000328            0.00      -12.32        0.48
   0.00000000   0.00000328  -0.00000368            0.00        0.48       -0.54

     Energy error            =      3.7E-04 Ry
     Gradient error          =      5.2E-03 Ry/Bohr

     number of scf cycles    =   6
     number of bfgs steps    =   5

     energy             old  =   -7077.4614881174 Ry
     energy             new  =   -7077.4618542290 Ry

     CASE: energy            _new < energy            _old

     new trust radius        =       0.0186855591 bohr
     new conv_thr            =       0.0000000007 Ry


ATOMIC_POSITIONS (angstrom)
Ni               5.3171990772        3.0698863186       11.0000000000    0   0   0
Pd               2.6585995386        3.0698851333       11.0000764482    0   0   0
Pd               3.9878982814        0.7674721723       11.0000764482    0   0   0
Pd               1.3293007958        0.7674721723       11.0000764482    0   0   0
Ni               2.6585995386        1.5349431593       13.1707374333    0   0   0
Pd               3.9878982814        3.8373584909       13.1708138815    0   0   0
Pd               5.3171990772        1.5349419740       13.1708138815    0   0   0
Pd               6.6464998731        3.8373584909       13.1708138815    0   0   0
Ni              -0.0000005480        0.0007625936       15.3371758770
Pd               5.3171990182        4.6056283377       15.3303062939
Pd               3.9877991254        2.3029578189       15.3385568283
Pd               6.6465989402        2.3029576523       15.3385564310
Ni               5.3171992639        3.0708713248       17.5066357862
Pd               3.9891468901        0.7685414553       17.5043801582
Pd               2.6585994297        3.0686965032       17.5083706708
Pd               1.3280520003        0.7685413057       17.5043798867
Ni               2.6585995239        1.5363874033       19.6836155152
Pd               3.9937306028        3.8328362181       19.6696864019
Pd               5.3171991379        1.5365179623       19.6935481634
Pd               6.6406672578        3.8328363615       19.6696864543
Ni              -0.0000002344       -0.0116420578       21.8044155551
Pd               5.3171986581        4.6195705815       21.8709637823
Pd               3.9984396680        2.2854671920       21.9097263910
Pd               6.6359586803        2.2854675585       21.9097261823
H                2.6585995279        3.1041783173       22.7869995140



     Writing config-only to output data dir /tmpu/isholek_g/isholek/MIGUEL/QE/Hydrogen/111_2x2/SAVE/Ni1Pd3_111-H_hcp_2.save/ :
     XML data file
     NEW-OLD atomic charge density approx. for the potential

     Check: negative core charge=   -0.000002

     negative rho (up, down):  1.459E-04 1.323E-04
     Generating pointlists ...
     new r_m :   0.1384 (alat units)  1.3906 (a.u.) for type    3

     total cpu time spent up to now is   132479.8 secs

     Self-consistent Calculation

     iteration #  1     ecut=    60.00 Ry     beta= 0.20
     Davidson diagonalization with overlap
     ethr =  1.00E-06,  avg # of iterations =  3.2

     Threshold (ethr) on eigenvalues was too large:
     Diagonalizing with lowered threshold

     Davidson diagonalization with overlap
     ethr =  4.72E-08,  avg # of iterations =  3.8

     negative rho (up, down):  1.667E-04 1.438E-04

     total cpu time spent up to now is   134816.7 secs

     total energy              =   -7077.46193613 Ry
     estimated scf accuracy    <       0.00009992 Ry

     total magnetization       =     9.77 Bohr mag/cell
     absolute magnetization    =    10.62 Bohr mag/cell

     iteration #  2     ecut=    60.00 Ry     beta= 0.20
     Davidson diagonalization with overlap
     ethr =  4.15E-08,  avg # of iterations =  1.0

     negative rho (up, down):  1.627E-04 1.376E-04

     total cpu time spent up to now is   135516.8 secs

     total energy              =   -7077.46194016 Ry
     estimated scf accuracy    <       0.00007346 Ry

     total magnetization       =     9.78 Bohr mag/cell
     absolute magnetization    =    10.62 Bohr mag/cell

     iteration #  3     ecut=    60.00 Ry     beta= 0.20
     Davidson diagonalization with overlap
     ethr =  3.05E-08,  avg # of iterations =  1.0

     negative rho (up, down):  1.599E-04 1.327E-04

     total cpu time spent up to now is   136217.1 secs

     total energy              =   -7077.46194446 Ry
     estimated scf accuracy    <       0.00001703 Ry

     total magnetization       =     9.77 Bohr mag/cell
     absolute magnetization    =    10.62 Bohr mag/cell

     iteration #  4     ecut=    60.00 Ry     beta= 0.20
     Davidson diagonalization with overlap
     ethr =  7.07E-09,  avg # of iterations =  1.0

     negative rho (up, down):  1.578E-04 1.289E-04

     total cpu time spent up to now is   136935.6 secs

     total energy              =   -7077.46194614 Ry
     estimated scf accuracy    <       0.00000627 Ry

     total magnetization       =     9.77 Bohr mag/cell
     absolute magnetization    =    10.62 Bohr mag/cell

     iteration #  5     ecut=    60.00 Ry     beta= 0.20
     Davidson diagonalization with overlap
     ethr =  2.60E-09,  avg # of iterations =  1.7

     negative rho (up, down):  1.568E-04 1.253E-04

     total cpu time spent up to now is   137695.6 secs

     total energy              =   -7077.46194800 Ry
     estimated scf accuracy    <       0.00000374 Ry

     total magnetization       =     9.77 Bohr mag/cell
     absolute magnetization    =    10.62 Bohr mag/cell

     iteration #  6     ecut=    60.00 Ry     beta= 0.20
     Davidson diagonalization with overlap
     ethr =  1.55E-09,  avg # of iterations =  3.7

     negative rho (up, down):  1.559E-04 1.232E-04

     total cpu time spent up to now is   138567.8 secs

     total energy              =   -7077.46194847 Ry
     estimated scf accuracy    <       0.00000206 Ry

     total magnetization       =     9.77 Bohr mag/cell
     absolute magnetization    =    10.62 Bohr mag/cell

     iteration #  7     ecut=    60.00 Ry     beta= 0.20
     Davidson diagonalization with overlap
     ethr =  8.53E-10,  avg # of iterations =  2.0

     negative rho (up, down):  1.541E-04 1.209E-04

     total cpu time spent up to now is   139323.6 secs

     total energy              =   -7077.46194854 Ry
     estimated scf accuracy    <       0.00000034 Ry

     total magnetization       =     9.77 Bohr mag/cell
     absolute magnetization    =    10.62 Bohr mag/cell

     iteration #  8     ecut=    60.00 Ry     beta= 0.20
     Davidson diagonalization with overlap
     ethr =  1.39E-10,  avg # of iterations =  4.0

     negative rho (up, down):  1.527E-04 1.191E-04

     total cpu time spent up to now is   140190.6 secs

     total energy              =   -7077.46194860 Ry
     estimated scf accuracy    <       0.00000010 Ry

     total magnetization       =     9.77 Bohr mag/cell
     absolute magnetization    =    10.62 Bohr mag/cell

     iteration #  9     ecut=    60.00 Ry     beta= 0.20
     Davidson diagonalization with overlap
     ethr =  4.06E-11,  avg # of iterations =  3.1

     negative rho (up, down):  1.510E-04 1.173E-04

     total cpu time spent up to now is   141070.2 secs

     total energy              =   -7077.46194861 Ry
     estimated scf accuracy    <       0.00000039 Ry

     total magnetization       =     9.77 Bohr mag/cell
     absolute magnetization    =    10.62 Bohr mag/cell

     iteration # 10     ecut=    60.00 Ry     beta= 0.20
     Davidson diagonalization with overlap
     ethr =  4.06E-11,  avg # of iterations =  2.0

     negative rho (up, down):  1.502E-04 1.161E-04

     total cpu time spent up to now is   141836.5 secs

     total energy              =   -7077.46194862 Ry
     estimated scf accuracy    <       0.00000015 Ry

     total magnetization       =     9.77 Bohr mag/cell
     absolute magnetization    =    10.62 Bohr mag/cell

     iteration # 11     ecut=    60.00 Ry     beta= 0.20
     Davidson diagonalization with overlap
     ethr =  4.06E-11,  avg # of iterations =  1.0

     negative rho (up, down):  1.498E-04 1.155E-04

     total cpu time spent up to now is   142534.6 secs

     total energy              =   -7077.46194862 Ry
     estimated scf accuracy    <       0.00000011 Ry

     total magnetization       =     9.77 Bohr mag/cell
     absolute magnetization    =    10.62 Bohr mag/cell

     iteration # 12     ecut=    60.00 Ry     beta= 0.20
     Davidson diagonalization with overlap
     ethr =  4.06E-11,  avg # of iterations =  1.0

     negative rho (up, down):  1.494E-04 1.149E-04

     total cpu time spent up to now is   143237.0 secs

     total energy              =   -7077.46194862 Ry
     estimated scf accuracy    <       0.00000009 Ry

     total magnetization       =     9.77 Bohr mag/cell
     absolute magnetization    =    10.62 Bohr mag/cell

     iteration # 13     ecut=    60.00 Ry     beta= 0.20
     Davidson diagonalization with overlap
     ethr =  3.64E-11,  avg # of iterations =  1.0

     negative rho (up, down):  1.492E-04 1.146E-04

     total cpu time spent up to now is   143948.5 secs

     total energy              =   -7077.46194862 Ry
     estimated scf accuracy    <       0.00000009 Ry

     total magnetization       =     9.77 Bohr mag/cell
     absolute magnetization    =    10.62 Bohr mag/cell

     iteration # 14     ecut=    60.00 Ry     beta= 0.20
     Davidson diagonalization with overlap
     ethr =  3.64E-11,  avg # of iterations =  1.0

     negative rho (up, down):  1.493E-04 1.145E-04

     total cpu time spent up to now is   144660.7 secs

     total energy              =   -7077.46194862 Ry
     estimated scf accuracy    <       0.00000002 Ry

     total magnetization       =     9.77 Bohr mag/cell
     absolute magnetization    =    10.62 Bohr mag/cell

     iteration # 15     ecut=    60.00 Ry     beta= 0.20
     Davidson diagonalization with overlap
     ethr =  1.03E-11,  avg # of iterations =  1.0

     negative rho (up, down):  1.495E-04 1.146E-04

     total cpu time spent up to now is   145373.9 secs

     total energy              =   -7077.46194863 Ry
     estimated scf accuracy    <          7.5E-09 Ry

     total magnetization       =     9.77 Bohr mag/cell
     absolute magnetization    =    10.62 Bohr mag/cell

     iteration # 16     ecut=    60.00 Ry     beta= 0.20
     Davidson diagonalization with overlap
     ethr =  3.10E-12,  avg # of iterations =  2.0

     negative rho (up, down):  1.500E-04 1.150E-04

     total cpu time spent up to now is   146138.0 secs

     total energy              =   -7077.46194863 Ry
     estimated scf accuracy    <          3.7E-09 Ry

     total magnetization       =     9.77 Bohr mag/cell
     absolute magnetization    =    10.62 Bohr mag/cell

     iteration # 17     ecut=    60.00 Ry     beta= 0.20
     Davidson diagonalization with overlap
     ethr =  1.55E-12,  avg # of iterations =  1.8

     negative rho (up, down):  1.504E-04 1.154E-04

     total cpu time spent up to now is   146896.4 secs

     total energy              =   -7077.46194863 Ry
     estimated scf accuracy    <          2.0E-09 Ry

     total magnetization       =     9.77 Bohr mag/cell
     absolute magnetization    =    10.62 Bohr mag/cell

     iteration # 18     ecut=    60.00 Ry     beta= 0.20
     Davidson diagonalization with overlap
     ethr =  8.16E-13,  avg # of iterations =  1.9

     negative rho (up, down):  1.505E-04 1.155E-04

     total cpu time spent up to now is   147683.4 secs

     total energy              =   -7077.46194863 Ry
     estimated scf accuracy    <          1.7E-09 Ry

     total magnetization       =     9.77 Bohr mag/cell
     absolute magnetization    =    10.62 Bohr mag/cell

     iteration # 19     ecut=    60.00 Ry     beta= 0.20
     Davidson diagonalization with overlap
     ethr =  6.88E-13,  avg # of iterations =  1.2

     negative rho (up, down):  1.507E-04 1.156E-04

     total cpu time spent up to now is   148416.6 secs

     total energy              =   -7077.46194863 Ry
     estimated scf accuracy    <          1.8E-09 Ry

     total magnetization       =     9.77 Bohr mag/cell
     absolute magnetization    =    10.62 Bohr mag/cell

     iteration # 20     ecut=    60.00 Ry     beta= 0.20
     Davidson diagonalization with overlap
     ethr =  6.88E-13,  avg # of iterations =  1.2

     negative rho (up, down):  1.508E-04 1.157E-04

     total cpu time spent up to now is   149145.2 secs

     total energy              =   -7077.46194863 Ry
     estimated scf accuracy    <          1.5E-09 Ry

     total magnetization       =     9.77 Bohr mag/cell
     absolute magnetization    =    10.62 Bohr mag/cell

     iteration # 21     ecut=    60.00 Ry     beta= 0.20
     Davidson diagonalization with overlap
     ethr =  6.36E-13,  avg # of iterations =  1.0

     negative rho (up, down):  1.507E-04 1.155E-04

     total cpu time spent up to now is   149856.2 secs

     total energy              =   -7077.46194863 Ry
     estimated scf accuracy    <          1.7E-09 Ry

     total magnetization       =     9.77 Bohr mag/cell
     absolute magnetization    =    10.62 Bohr mag/cell

     iteration # 22     ecut=    60.00 Ry     beta= 0.20
     Davidson diagonalization with overlap
     ethr =  6.36E-13,  avg # of iterations =  1.0

     negative rho (up, down):  1.511E-04 1.159E-04

     total cpu time spent up to now is   150559.8 secs

     total energy              =   -7077.46194863 Ry
     estimated scf accuracy    <          2.0E-09 Ry

     total magnetization       =     9.77 Bohr mag/cell
     absolute magnetization    =    10.62 Bohr mag/cell

     iteration # 23     ecut=    60.00 Ry     beta= 0.20
     Davidson diagonalization with overlap
     ethr =  6.36E-13,  avg # of iterations =  1.0

     negative rho (up, down):  1.525E-04 1.173E-04

     total cpu time spent up to now is   151260.2 secs

     total energy              =   -7077.46194864 Ry
     estimated scf accuracy    <          1.7E-09 Ry

     total magnetization       =     9.77 Bohr mag/cell
     absolute magnetization    =    10.62 Bohr mag/cell

     iteration # 24     ecut=    60.00 Ry     beta= 0.20
     Davidson diagonalization with overlap
     ethr =  6.36E-13,  avg # of iterations =  1.3

     negative rho (up, down):  1.533E-04 1.181E-04

     total cpu time spent up to now is   151988.6 secs

     total energy              =   -7077.46194864 Ry
     estimated scf accuracy    <          9.5E-10 Ry

     total magnetization       =     9.77 Bohr mag/cell
     absolute magnetization    =    10.62 Bohr mag/cell

     iteration # 25     ecut=    60.00 Ry     beta= 0.20
     Davidson diagonalization with overlap
     ethr =  3.95E-13,  avg # of iterations =  1.1

     negative rho (up, down):  1.539E-04 1.187E-04

     total cpu time spent up to now is   152706.0 secs

     total energy              =   -7077.46194864 Ry
     estimated scf accuracy    <          1.4E-09 Ry

     total magnetization       =     9.77 Bohr mag/cell
     absolute magnetization    =    10.62 Bohr mag/cell

     iteration # 26     ecut=    60.00 Ry     beta= 0.20
     Davidson diagonalization with overlap
     ethr =  3.95E-13,  avg # of iterations =  1.0

     negative rho (up, down):  1.547E-04 1.194E-04

     total cpu time spent up to now is   153403.3 secs

     total energy              =   -7077.46194864 Ry
     estimated scf accuracy    <          1.1E-09 Ry

     total magnetization       =     9.77 Bohr mag/cell
     absolute magnetization    =    10.62 Bohr mag/cell

     iteration # 27     ecut=    60.00 Ry     beta= 0.20
     Davidson diagonalization with overlap
     ethr =  3.95E-13,  avg # of iterations =  1.1

     negative rho (up, down):  1.555E-04 1.202E-04
 
     Magnetic moment per site  (integrated on atomic sphere of radius R)
     atom   1 (R=0.139)  charge=  7.1112  magn=  0.8918
     atom   2 (R=0.140)  charge=  5.5910  magn=  0.2011
     atom   3 (R=0.140)  charge=  5.5911  magn=  0.2032
     atom   4 (R=0.140)  charge=  5.5911  magn=  0.2032
     atom   5 (R=0.139)  charge=  7.1064  magn=  0.8614
     atom   6 (R=0.140)  charge=  5.5774  magn=  0.2519
     atom   7 (R=0.140)  charge=  5.5776  magn=  0.2509
     atom   8 (R=0.140)  charge=  5.5774  magn=  0.2519
     atom   9 (R=0.139)  charge=  7.1104  magn=  0.8086
     atom  10 (R=0.140)  charge=  5.5748  magn=  0.2516
     atom  11 (R=0.140)  charge=  5.5749  magn=  0.2388
     atom  12 (R=0.140)  charge=  5.5749  magn=  0.2388
     atom  13 (R=0.139)  charge=  7.1098  magn=  0.8090
     atom  14 (R=0.140)  charge=  5.5756  magn=  0.2333
     atom  15 (R=0.140)  charge=  5.5750  magn=  0.2388
     atom  16 (R=0.140)  charge=  5.5756  magn=  0.2333
     atom  17 (R=0.139)  charge=  7.1065  magn=  0.8487
     atom  18 (R=0.140)  charge=  5.5771  magn=  0.2409
     atom  19 (R=0.140)  charge=  5.5787  magn=  0.2011
     atom  20 (R=0.140)  charge=  5.5771  magn=  0.2409
     atom  21 (R=0.139)  charge=  7.1176  magn=  0.7070
     atom  22 (R=0.140)  charge=  5.5950  magn=  0.1834
     atom  23 (R=0.140)  charge=  5.5870  magn=  0.1264
     atom  24 (R=0.140)  charge=  5.5870  magn=  0.1264
     atom  25 (R=0.138)  charge=  0.9753  magn= -0.0056

     total cpu time spent up to now is   154110.0 secs

     End of self-consistent calculation

     Number of k-points >= 100: set verbosity='high' to print the bands.

     the Fermi energy is    -5.1658 ev

!    total energy              =   -7077.46194864 Ry
     total all-electron energy =   -199909.898519 Ry
     estimated scf accuracy    <          2.9E-10 Ry
     smearing contrib. (-TS)   =       0.00080527 Ry
     internal energy E=F+TS    =   -7077.46275391 Ry

     The total energy is F=E-TS. E is the sum of the following terms:
     one-electron contribution =  -61175.33092635 Ry
     hartree contribution      =   30775.11193097 Ry
     xc contribution           =    -835.53557663 Ry
     ewald contribution        =   29292.44836678 Ry
     DFT-D3 Dispersion         =      -2.53163131 Ry
     one-center paw contrib.   =   -5131.62491738 Ry

     total magnetization       =     9.77 Bohr mag/cell
     absolute magnetization    =    10.62 Bohr mag/cell

     convergence has been achieved in  27 iterations

     negative rho (up, down):  1.555E-04 1.202E-04

     Forces acting on atoms (cartesian axes, Ry/au):

     atom    1 type  1   force =    -0.00000000   -0.00008492    0.01588768
     atom    2 type  2   force =    -0.00000001   -0.01420169   -0.00870720
     atom    3 type  2   force =    -0.01238468    0.00716821   -0.00933430
     atom    4 type  2   force =     0.01238467    0.00716820   -0.00933432
     atom    5 type  1   force =     0.00000001    0.00042614   -0.00012147
     atom    6 type  2   force =    -0.00126182   -0.00018319    0.00425285
     atom    7 type  2   force =    -0.00000004   -0.00051643    0.00482120
     atom    8 type  2   force =     0.00126178   -0.00018317    0.00425280
     atom    9 type  1   force =     0.00000014   -0.00000547   -0.00042603
     atom   10 type  2   force =    -0.00000003    0.00056934    0.00108239
     atom   11 type  2   force =    -0.00003519    0.00020643   -0.00041610
     atom   12 type  2   force =     0.00003518    0.00020644   -0.00041595
     atom   13 type  1   force =    -0.00000007   -0.00001558    0.00051820
     atom   14 type  2   force =    -0.00011321    0.00003819    0.00143320
     atom   15 type  2   force =    -0.00000001    0.00016839    0.00007191
     atom   16 type  2   force =     0.00011320    0.00003822    0.00143325
     atom   17 type  1   force =    -0.00000000    0.00018303    0.00138535
     atom   18 type  2   force =    -0.00039401   -0.00153649    0.00208227
     atom   19 type  2   force =    -0.00000001   -0.00096672   -0.00164077
     atom   20 type  2   force =     0.00039405   -0.00153647    0.00208225
     atom   21 type  1   force =     0.00000005    0.00107135   -0.00227333
     atom   22 type  2   force =     0.00000008   -0.00110533   -0.00044352
     atom   23 type  2   force =    -0.00215498   -0.00095614   -0.00255074
     atom   24 type  2   force =     0.00215488   -0.00095620   -0.00255067
     atom   25 type  3   force =     0.00000001    0.00500383   -0.00108898

     Total force =     0.009161     Total SCF correction =     0.000093


     Computing stress (Cartesian axis) and pressure


     negative rho (up, down):  1.555E-04 1.202E-04
          total   stress  (Ry/bohr**3)                   (kbar)     P=       -7.80
  -0.00007218   0.00000000   0.00000000          -10.62        0.00        0.00
   0.00000000  -0.00008333   0.00000337            0.00      -12.26        0.50
   0.00000000   0.00000337  -0.00000353            0.00        0.50       -0.52

     Energy error            =      9.4E-05 Ry
     Gradient error          =      5.0E-03 Ry/Bohr

     number of scf cycles    =   7
     number of bfgs steps    =   6

     energy             old  =   -7077.4618542290 Ry
     energy             new  =   -7077.4619486429 Ry

     CASE: energy            _new < energy            _old

     new trust radius        =       0.0205541150 bohr
     new conv_thr            =       0.0000000005 Ry


ATOMIC_POSITIONS (angstrom)
Ni               5.3171990772        3.0698863186       11.0000000000    0   0   0
Pd               2.6585995386        3.0698851333       11.0000764482    0   0   0
Pd               3.9878982814        0.7674721723       11.0000764482    0   0   0
Pd               1.3293007958        0.7674721723       11.0000764482    0   0   0
Ni               2.6585995386        1.5349431593       13.1707374333    0   0   0
Pd               3.9878982814        3.8373584909       13.1708138815    0   0   0
Pd               5.3171990772        1.5349419740       13.1708138815    0   0   0
Pd               6.6464998731        3.8373584909       13.1708138815    0   0   0
Ni              -0.0000005388        0.0007990424       15.3368206517
Pd               5.3171990160        4.6062450574       15.3308356622
Pd               3.9877891410        2.3032313234       15.3381102544
Pd               6.6466089024        2.3032311646       15.3381098675
Ni               5.3171992406        3.0709489225       17.5068542512
Pd               3.9891509079        0.7686086923       17.5054389206
Pd               2.6585994110        3.0688507950       17.5083376311
Pd               1.3280479461        0.7686085492       17.5054386443
Ni               2.6585995181        1.5367210297       19.6845281977
Pd               3.9933561025        3.8311833990       19.6715102653
Pd               5.3171991553        1.5352083501       19.6933729915
Pd               6.6410417680        3.8311835659       19.6715103162
Ni              -0.0000001813       -0.0113952492       21.8047417436
Pd               5.3171986962        4.6186724807       21.8698228197
Pd               3.9978963050        2.2836814520       21.9093444894
Pd               6.6365020352        2.2836818087       21.9093442987
H                2.6585995511        3.1116872781       22.7791306122



     Writing config-only to output data dir /tmpu/isholek_g/isholek/MIGUEL/QE/Hydrogen/111_2x2/SAVE/Ni1Pd3_111-H_hcp_2.save/ :
     XML data file
     NEW-OLD atomic charge density approx. for the potential

     Check: negative core charge=   -0.000002

     negative rho (up, down):  1.463E-04 1.306E-04
     Generating pointlists ...
     new r_m :   0.1376 (alat units)  1.3824 (a.u.) for type    1

     total cpu time spent up to now is   154812.0 secs

     Self-consistent Calculation

     iteration #  1     ecut=    60.00 Ry     beta= 0.20
     Davidson diagonalization with overlap
     ethr =  1.00E-06,  avg # of iterations =  4.0

     Threshold (ethr) on eigenvalues was too large:
     Diagonalizing with lowered threshold

     Davidson diagonalization with overlap
     ethr =  4.60E-08,  avg # of iterations =  2.8

     negative rho (up, down):  1.526E-04 1.265E-04

     total cpu time spent up to now is   157128.5 secs

     total energy              =   -7077.46205402 Ry
     estimated scf accuracy    <       0.00009648 Ry

     total magnetization       =     9.77 Bohr mag/cell
     absolute magnetization    =    10.61 Bohr mag/cell

     iteration #  2     ecut=    60.00 Ry     beta= 0.20
     Davidson diagonalization with overlap
     ethr =  4.00E-08,  avg # of iterations =  1.0

     negative rho (up, down):  1.529E-04 1.252E-04

     total cpu time spent up to now is   157833.1 secs

     total energy              =   -7077.46206054 Ry
     estimated scf accuracy    <       0.00005564 Ry

     total magnetization       =     9.77 Bohr mag/cell
     absolute magnetization    =    10.62 Bohr mag/cell

     iteration #  3     ecut=    60.00 Ry     beta= 0.20
     Davidson diagonalization with overlap
     ethr =  2.31E-08,  avg # of iterations =  1.0

     negative rho (up, down):  1.533E-04 1.240E-04

     total cpu time spent up to now is   158536.2 secs

     total energy              =   -7077.46206559 Ry
     estimated scf accuracy    <       0.00002379 Ry

     total magnetization       =     9.77 Bohr mag/cell
     absolute magnetization    =    10.62 Bohr mag/cell

     iteration #  4     ecut=    60.00 Ry     beta= 0.20
     Davidson diagonalization with overlap
     ethr =  9.87E-09,  avg # of iterations =  1.0

     negative rho (up, down):  1.535E-04 1.230E-04

     total cpu time spent up to now is   159254.5 secs

     total energy              =   -7077.46206890 Ry
     estimated scf accuracy    <       0.00000964 Ry

     total magnetization       =     9.77 Bohr mag/cell
     absolute magnetization    =    10.62 Bohr mag/cell

     iteration #  5     ecut=    60.00 Ry     beta= 0.20
     Davidson diagonalization with overlap
     ethr =  4.00E-09,  avg # of iterations =  1.4

     negative rho (up, down):  1.530E-04 1.209E-04

     total cpu time spent up to now is   160008.5 secs

     total energy              =   -7077.46207326 Ry
     estimated scf accuracy    <       0.00000668 Ry

     total magnetization       =     9.77 Bohr mag/cell
     absolute magnetization    =    10.62 Bohr mag/cell

     iteration #  6     ecut=    60.00 Ry     beta= 0.20
     Davidson diagonalization with overlap
     ethr =  2.77E-09,  avg # of iterations =  2.4

     negative rho (up, down):  1.527E-04 1.197E-04

     total cpu time spent up to now is   160825.4 secs

     total energy              =   -7077.46207415 Ry
     estimated scf accuracy    <       0.00000214 Ry

     total magnetization       =     9.77 Bohr mag/cell
     absolute magnetization    =    10.62 Bohr mag/cell

     iteration #  7     ecut=    60.00 Ry     beta= 0.20
     Davidson diagonalization with overlap
     ethr =  8.88E-10,  avg # of iterations =  2.7

     negative rho (up, down):  1.518E-04 1.182E-04

     total cpu time spent up to now is   161638.2 secs

     total energy              =   -7077.46207419 Ry
     estimated scf accuracy    <       0.00000063 Ry

     total magnetization       =     9.77 Bohr mag/cell
     absolute magnetization    =    10.62 Bohr mag/cell

     iteration #  8     ecut=    60.00 Ry     beta= 0.20
     Davidson diagonalization with overlap
     ethr =  2.62E-10,  avg # of iterations =  4.3

     negative rho (up, down):  1.512E-04 1.174E-04

     total cpu time spent up to now is   162563.2 secs

     total energy              =   -7077.46207430 Ry
     estimated scf accuracy    <       0.00000030 Ry

     total magnetization       =     9.77 Bohr mag/cell
     absolute magnetization    =    10.62 Bohr mag/cell

     iteration #  9     ecut=    60.00 Ry     beta= 0.20
     Davidson diagonalization with overlap
     ethr =  1.26E-10,  avg # of iterations =  1.6

     negative rho (up, down):  1.502E-04 1.162E-04

     total cpu time spent up to now is   163316.1 secs

     total energy              =   -7077.46207432 Ry
     estimated scf accuracy    <       0.00000035 Ry

     total magnetization       =     9.77 Bohr mag/cell
     absolute magnetization    =    10.62 Bohr mag/cell

     iteration # 10     ecut=    60.00 Ry     beta= 0.20
     Davidson diagonalization with overlap
     ethr =  1.26E-10,  avg # of iterations =  2.0

     negative rho (up, down):  1.498E-04 1.155E-04

     total cpu time spent up to now is   164079.2 secs

     total energy              =   -7077.46207433 Ry
     estimated scf accuracy    <       0.00000007 Ry

     total magnetization       =     9.77 Bohr mag/cell
     absolute magnetization    =    10.62 Bohr mag/cell

     iteration # 11     ecut=    60.00 Ry     beta= 0.20
     Davidson diagonalization with overlap
     ethr =  2.99E-11,  avg # of iterations =  2.5

     negative rho (up, down):  1.496E-04 1.152E-04

     total cpu time spent up to now is   164871.8 secs

     total energy              =   -7077.46207433 Ry
     estimated scf accuracy    <       0.00000010 Ry

     total magnetization       =     9.77 Bohr mag/cell
     absolute magnetization    =    10.62 Bohr mag/cell

     iteration # 12     ecut=    60.00 Ry     beta= 0.20
     Davidson diagonalization with overlap
     ethr =  2.99E-11,  avg # of iterations =  1.0

     negative rho (up, down):  1.492E-04 1.146E-04

     total cpu time spent up to now is   165585.2 secs

     total energy              =   -7077.46207433 Ry
     estimated scf accuracy    <       0.00000007 Ry

     total magnetization       =     9.77 Bohr mag/cell
     absolute magnetization    =    10.62 Bohr mag/cell

     iteration # 13     ecut=    60.00 Ry     beta= 0.20
     Davidson diagonalization with overlap
     ethr =  2.72E-11,  avg # of iterations =  2.0

     negative rho (up, down):  1.490E-04 1.144E-04

     total cpu time spent up to now is   166342.8 secs

     total energy              =   -7077.46207433 Ry
     estimated scf accuracy    <       0.00000006 Ry

     total magnetization       =     9.77 Bohr mag/cell
     absolute magnetization    =    10.62 Bohr mag/cell

     iteration # 14     ecut=    60.00 Ry     beta= 0.20
     Davidson diagonalization with overlap
     ethr =  2.62E-11,  avg # of iterations =  1.0

     negative rho (up, down):  1.489E-04 1.141E-04

     total cpu time spent up to now is   167068.5 secs

     total energy              =   -7077.46207433 Ry
     estimated scf accuracy    <       0.00000005 Ry

     total magnetization       =     9.77 Bohr mag/cell
     absolute magnetization    =    10.62 Bohr mag/cell

     iteration # 15     ecut=    60.00 Ry     beta= 0.20
     Davidson diagonalization with overlap
     ethr =  2.11E-11,  avg # of iterations =  1.0

     negative rho (up, down):  1.491E-04 1.142E-04

     total cpu time spent up to now is   167776.8 secs

     total energy              =   -7077.46207433 Ry
     estimated scf accuracy    <       0.00000002 Ry

     total magnetization       =     9.77 Bohr mag/cell
     absolute magnetization    =    10.62 Bohr mag/cell

     iteration # 16     ecut=    60.00 Ry     beta= 0.20
     Davidson diagonalization with overlap
     ethr =  8.09E-12,  avg # of iterations =  1.4

     negative rho (up, down):  1.499E-04 1.149E-04

     total cpu time spent up to now is   168523.9 secs

     total energy              =   -7077.46207433 Ry
     estimated scf accuracy    <          8.9E-09 Ry

     total magnetization       =     9.77 Bohr mag/cell
     absolute magnetization    =    10.62 Bohr mag/cell

     iteration # 17     ecut=    60.00 Ry     beta= 0.20
     Davidson diagonalization with overlap
     ethr =  3.71E-12,  avg # of iterations =  1.9

     negative rho (up, down):  1.500E-04 1.150E-04

     total cpu time spent up to now is   169279.5 secs

     total energy              =   -7077.46207433 Ry
     estimated scf accuracy    <          2.1E-09 Ry

     total magnetization       =     9.77 Bohr mag/cell
     absolute magnetization    =    10.62 Bohr mag/cell

     iteration # 18     ecut=    60.00 Ry     beta= 0.20
     Davidson diagonalization with overlap
     ethr =  8.64E-13,  avg # of iterations =  4.2

     negative rho (up, down):  1.502E-04 1.151E-04

     total cpu time spent up to now is   170229.0 secs

     total energy              =   -7077.46207433 Ry
     estimated scf accuracy    <          1.4E-09 Ry

     total magnetization       =     9.77 Bohr mag/cell
     absolute magnetization    =    10.62 Bohr mag/cell

     iteration # 19     ecut=    60.00 Ry     beta= 0.20
     Davidson diagonalization with overlap
     ethr =  6.01E-13,  avg # of iterations =  1.2

     negative rho (up, down):  1.501E-04 1.150E-04

     total cpu time spent up to now is   170946.6 secs

     total energy              =   -7077.46207433 Ry
     estimated scf accuracy    <          2.1E-09 Ry

     total magnetization       =     9.77 Bohr mag/cell
     absolute magnetization    =    10.62 Bohr mag/cell

     iteration # 20     ecut=    60.00 Ry     beta= 0.20
     Davidson diagonalization with overlap
     ethr =  6.01E-13,  avg # of iterations =  1.0

     negative rho (up, down):  1.500E-04 1.149E-04

     total cpu time spent up to now is   171652.8 secs

     total energy              =   -7077.46207433 Ry
     estimated scf accuracy    <          1.5E-09 Ry

     total magnetization       =     9.77 Bohr mag/cell
     absolute magnetization    =    10.62 Bohr mag/cell

     iteration # 21     ecut=    60.00 Ry     beta= 0.20
     Davidson diagonalization with overlap
     ethr =  6.01E-13,  avg # of iterations =  1.0

     negative rho (up, down):  1.505E-04 1.154E-04

     total cpu time spent up to now is   172368.4 secs

     total energy              =   -7077.46207434 Ry
     estimated scf accuracy    <          1.5E-09 Ry

     total magnetization       =     9.77 Bohr mag/cell
     absolute magnetization    =    10.62 Bohr mag/cell

     iteration # 22     ecut=    60.00 Ry     beta= 0.20
     Davidson diagonalization with overlap
     ethr =  6.01E-13,  avg # of iterations =  1.0

     negative rho (up, down):  1.514E-04 1.162E-04

     total cpu time spent up to now is   173081.4 secs

     total energy              =   -7077.46207434 Ry
     estimated scf accuracy    <          2.0E-09 Ry

     total magnetization       =     9.77 Bohr mag/cell
     absolute magnetization    =    10.62 Bohr mag/cell

     iteration # 23     ecut=    60.00 Ry     beta= 0.20
     Davidson diagonalization with overlap
     ethr =  6.01E-13,  avg # of iterations =  1.0

     negative rho (up, down):  1.528E-04 1.176E-04

     total cpu time spent up to now is   173795.5 secs

     total energy              =   -7077.46207434 Ry
     estimated scf accuracy    <          1.8E-09 Ry

     total magnetization       =     9.77 Bohr mag/cell
     absolute magnetization    =    10.62 Bohr mag/cell

     iteration # 24     ecut=    60.00 Ry     beta= 0.20
     Davidson diagonalization with overlap
     ethr =  6.01E-13,  avg # of iterations =  1.2

     negative rho (up, down):  1.538E-04 1.186E-04

     total cpu time spent up to now is   174522.5 secs

     total energy              =   -7077.46207434 Ry
     estimated scf accuracy    <          1.3E-09 Ry

     total magnetization       =     9.77 Bohr mag/cell
     absolute magnetization    =    10.62 Bohr mag/cell

     iteration # 25     ecut=    60.00 Ry     beta= 0.20
     Davidson diagonalization with overlap
     ethr =  5.48E-13,  avg # of iterations =  1.0

     negative rho (up, down):  1.541E-04 1.189E-04

     total cpu time spent up to now is   175237.0 secs

     total energy              =   -7077.46207434 Ry
     estimated scf accuracy    <          2.0E-09 Ry

     total magnetization       =     9.77 Bohr mag/cell
     absolute magnetization    =    10.62 Bohr mag/cell

     iteration # 26     ecut=    60.00 Ry     beta= 0.20
     Davidson diagonalization with overlap
     ethr =  5.48E-13,  avg # of iterations =  1.0

     negative rho (up, down):  1.544E-04 1.192E-04

     total cpu time spent up to now is   175950.8 secs

     total energy              =   -7077.46207434 Ry
     estimated scf accuracy    <          1.6E-09 Ry

     total magnetization       =     9.77 Bohr mag/cell
     absolute magnetization    =    10.62 Bohr mag/cell

     iteration # 27     ecut=    60.00 Ry     beta= 0.20
     Davidson diagonalization with overlap
     ethr =  5.48E-13,  avg # of iterations =  1.0

     negative rho (up, down):  1.544E-04 1.191E-04

     total cpu time spent up to now is   176666.4 secs

     total energy              =   -7077.46207434 Ry
     estimated scf accuracy    <          1.5E-09 Ry

     total magnetization       =     9.77 Bohr mag/cell
     absolute magnetization    =    10.62 Bohr mag/cell

     iteration # 28     ecut=    60.00 Ry     beta= 0.20
     Davidson diagonalization with overlap
     ethr =  5.48E-13,  avg # of iterations =  1.0

     negative rho (up, down):  1.543E-04 1.191E-04

     total cpu time spent up to now is   177378.2 secs

     total energy              =   -7077.46207434 Ry
     estimated scf accuracy    <          1.4E-09 Ry

     total magnetization       =     9.77 Bohr mag/cell
     absolute magnetization    =    10.62 Bohr mag/cell

     iteration # 29     ecut=    60.00 Ry     beta= 0.20
     Davidson diagonalization with overlap
     ethr =  5.48E-13,  avg # of iterations =  1.0

     negative rho (up, down):  1.545E-04 1.192E-04

     total cpu time spent up to now is   178089.8 secs

     total energy              =   -7077.46207434 Ry
     estimated scf accuracy    <          1.7E-09 Ry

     total magnetization       =     9.77 Bohr mag/cell
     absolute magnetization    =    10.62 Bohr mag/cell

     iteration # 30     ecut=    60.00 Ry     beta= 0.20
     Davidson diagonalization with overlap
     ethr =  5.48E-13,  avg # of iterations =  1.0

     negative rho (up, down):  1.544E-04 1.191E-04

     total cpu time spent up to now is   178795.1 secs

     total energy              =   -7077.46207434 Ry
     estimated scf accuracy    <          1.9E-09 Ry

     total magnetization       =     9.77 Bohr mag/cell
     absolute magnetization    =    10.62 Bohr mag/cell

     iteration # 31     ecut=    60.00 Ry     beta= 0.20
     Davidson diagonalization with overlap
     ethr =  5.48E-13,  avg # of iterations =  1.0

     negative rho (up, down):  1.544E-04 1.191E-04

     total cpu time spent up to now is   179499.0 secs

     total energy              =   -7077.46207434 Ry
     estimated scf accuracy    <          1.3E-09 Ry

     total magnetization       =     9.77 Bohr mag/cell
     absolute magnetization    =    10.62 Bohr mag/cell

     iteration # 32     ecut=    60.00 Ry     beta= 0.20
     Davidson diagonalization with overlap
     ethr =  5.48E-13,  avg # of iterations =  1.0

     negative rho (up, down):  1.549E-04 1.196E-04

     total cpu time spent up to now is   180233.3 secs

     total energy              =   -7077.46207434 Ry
     estimated scf accuracy    <          1.4E-09 Ry

     total magnetization       =     9.77 Bohr mag/cell
     absolute magnetization    =    10.62 Bohr mag/cell

     iteration # 33     ecut=    60.00 Ry     beta= 0.20
     Davidson diagonalization with overlap
     ethr =  5.48E-13,  avg # of iterations =  1.0

     negative rho (up, down):  1.552E-04 1.199E-04

     total cpu time spent up to now is   180956.2 secs

     total energy              =   -7077.46207434 Ry
     estimated scf accuracy    <          1.8E-09 Ry

     total magnetization       =     9.77 Bohr mag/cell
     absolute magnetization    =    10.62 Bohr mag/cell

     iteration # 34     ecut=    60.00 Ry     beta= 0.20
     Davidson diagonalization with overlap
     ethr =  5.48E-13,  avg # of iterations =  1.0

     negative rho (up, down):  1.554E-04 1.201E-04

     total cpu time spent up to now is   181670.9 secs

     total energy              =   -7077.46207435 Ry
     estimated scf accuracy    <          1.1E-09 Ry

     total magnetization       =     9.77 Bohr mag/cell
     absolute magnetization    =    10.62 Bohr mag/cell

     iteration # 35     ecut=    60.00 Ry     beta= 0.20
     Davidson diagonalization with overlap
     ethr =  4.48E-13,  avg # of iterations =  1.0

     negative rho (up, down):  1.555E-04 1.202E-04
 
     Magnetic moment per site  (integrated on atomic sphere of radius R)
     atom   1 (R=0.138)  charge=  7.0589  magn=  0.8874
     atom   2 (R=0.140)  charge=  5.5910  magn=  0.2011
     atom   3 (R=0.140)  charge=  5.5911  magn=  0.2032
     atom   4 (R=0.140)  charge=  5.5911  magn=  0.2032
     atom   5 (R=0.138)  charge=  7.0540  magn=  0.8573
     atom   6 (R=0.140)  charge=  5.5775  magn=  0.2520
     atom   7 (R=0.140)  charge=  5.5776  magn=  0.2511
     atom   8 (R=0.140)  charge=  5.5775  magn=  0.2520
     atom   9 (R=0.138)  charge=  7.0573  magn=  0.8048
     atom  10 (R=0.140)  charge=  5.5748  magn=  0.2515
     atom  11 (R=0.140)  charge=  5.5748  magn=  0.2389
     atom  12 (R=0.140)  charge=  5.5748  magn=  0.2389
     atom  13 (R=0.138)  charge=  7.0567  magn=  0.8055
     atom  14 (R=0.140)  charge=  5.5757  magn=  0.2333
     atom  15 (R=0.140)  charge=  5.5749  magn=  0.2386
     atom  16 (R=0.140)  charge=  5.5757  magn=  0.2333
     atom  17 (R=0.138)  charge=  7.0541  magn=  0.8451
     atom  18 (R=0.140)  charge=  5.5771  magn=  0.2406
     atom  19 (R=0.140)  charge=  5.5787  magn=  0.2011
     atom  20 (R=0.140)  charge=  5.5771  magn=  0.2406
     atom  21 (R=0.138)  charge=  7.0650  magn=  0.6993
     atom  22 (R=0.140)  charge=  5.5949  magn=  0.1836
     atom  23 (R=0.140)  charge=  5.5872  magn=  0.1266
     atom  24 (R=0.140)  charge=  5.5872  magn=  0.1266
     atom  25 (R=0.138)  charge=  0.9785  magn= -0.0056

     total cpu time spent up to now is   182363.8 secs

     End of self-consistent calculation

     Number of k-points >= 100: set verbosity='high' to print the bands.

     the Fermi energy is    -5.1651 ev

!    total energy              =   -7077.46207434 Ry
     total all-electron energy =   -199909.898645 Ry
     estimated scf accuracy    <          4.1E-10 Ry
     smearing contrib. (-TS)   =       0.00079953 Ry
     internal energy E=F+TS    =   -7077.46287387 Ry

     The total energy is F=E-TS. E is the sum of the following terms:
     one-electron contribution =  -61174.56458531 Ry
     hartree contribution      =   30774.73477592 Ry
     xc contribution           =    -835.53764882 Ry
     ewald contribution        =   29292.06139939 Ry
     DFT-D3 Dispersion         =      -2.53163227 Ry
     one-center paw contrib.   =   -5131.62518278 Ry

     total magnetization       =     9.77 Bohr mag/cell
     absolute magnetization    =    10.62 Bohr mag/cell

     convergence has been achieved in  35 iterations

     negative rho (up, down):  1.555E-04 1.202E-04

     Forces acting on atoms (cartesian axes, Ry/au):

     atom    1 type  1   force =    -0.00000000   -0.00008573    0.01589273
     atom    2 type  2   force =     0.00000000   -0.01420224   -0.00872332
     atom    3 type  2   force =    -0.01238680    0.00716675   -0.00932073
     atom    4 type  2   force =     0.01238681    0.00716675   -0.00932073
     atom    5 type  1   force =     0.00000002    0.00040609   -0.00013881
     atom    6 type  2   force =    -0.00118560   -0.00010108    0.00423350
     atom    7 type  2   force =    -0.00000004   -0.00053285    0.00472256
     atom    8 type  2   force =     0.00118557   -0.00010107    0.00423345
     atom    9 type  1   force =     0.00000013    0.00010194   -0.00020986
     atom   10 type  2   force =    -0.00000002    0.00036424    0.00104862
     atom   11 type  2   force =     0.00001954    0.00013547   -0.00004036
     atom   12 type  2   force =    -0.00001954    0.00013548   -0.00004021
     atom   13 type  1   force =    -0.00000006    0.00000918    0.00054870
     atom   14 type  2   force =    -0.00024327   -0.00004207    0.00122925
     atom   15 type  2   force =    -0.00000002    0.00018652    0.00020547
     atom   16 type  2   force =     0.00024328   -0.00004205    0.00122930
     atom   17 type  1   force =    -0.00000003   -0.00033454    0.00103083
     atom   18 type  2   force =    -0.00016677   -0.00116298    0.00115061
     atom   19 type  2   force =    -0.00000001   -0.00085143   -0.00150441
     atom   20 type  2   force =     0.00016681   -0.00116299    0.00115060
     atom   21 type  1   force =     0.00000002    0.00133903   -0.00247210
     atom   22 type  2   force =     0.00000006   -0.00145744    0.00014498
     atom   23 type  2   force =    -0.00145302   -0.00079943   -0.00244104
     atom   24 type  2   force =     0.00145292   -0.00079947   -0.00244099
     atom   25 type  3   force =     0.00000001    0.00466392   -0.00016803

     Total force =     0.007979     Total SCF correction =     0.000168


     Computing stress (Cartesian axis) and pressure


     negative rho (up, down):  1.555E-04 1.202E-04
          total   stress  (Ry/bohr**3)                   (kbar)     P=       -7.73
  -0.00007182   0.00000000   0.00000000          -10.57        0.00        0.00
   0.00000000  -0.00008288   0.00000340            0.00      -12.19        0.50
   0.00000000   0.00000340  -0.00000302            0.00        0.50       -0.44

     Energy error            =      1.3E-04 Ry
     Gradient error          =      4.7E-03 Ry/Bohr

     number of scf cycles    =   8
     number of bfgs steps    =   7

     energy             old  =   -7077.4619486429 Ry
     energy             new  =   -7077.4620743447 Ry

     CASE: energy            _new < energy            _old

     new trust radius        =       0.0308311725 bohr
     new conv_thr            =       0.0000000006 Ry


ATOMIC_POSITIONS (angstrom)
Ni               5.3171990772        3.0698863186       11.0000000000    0   0   0
Pd               2.6585995386        3.0698851333       11.0000764482    0   0   0
Pd               3.9878982814        0.7674721723       11.0000764482    0   0   0
Pd               1.3293007958        0.7674721723       11.0000764482    0   0   0
Ni               2.6585995386        1.5349431593       13.1707374333    0   0   0
Pd               3.9878982814        3.8373584909       13.1708138815    0   0   0
Pd               5.3171990772        1.5349419740       13.1708138815    0   0   0
Pd               6.6464998731        3.8373584909       13.1708138815    0   0   0
Ni              -0.0000004816        0.0009361934       15.3362745513
Pd               5.3171990130        4.6072276398       15.3321628898
Pd               3.9878047675        2.3036583314       15.3375858532
Pd               6.6465932408        2.3036581943       15.3375855325
Ni               5.3171991863        3.0710711697       17.5074772846
Pd               3.9889641667        0.7686417777       17.5075275727
Pd               2.6585993701        3.0691774571       17.5084573960
Pd               1.3282346412        0.7686416597       17.5075273175
Ni               2.6585994666        1.5368186456       19.6862504436
Pd               3.9928272597        3.8283973996       19.6743639730
Pd               5.3171991890        1.5329966587       19.6922957910
Pd               6.6415706438        3.8283975737       19.6743640135
Ni              -0.0000000973       -0.0101752884       21.8036348534
Pd               5.3171987588        4.6165002227       21.8685543943
Pd               3.9965401440        2.2808683864       21.9073994884
Pd               6.6378581530        2.2808687103       21.9073993405
H                2.6585995921        3.1243589832       22.7688538356



     Writing config-only to output data dir /tmpu/isholek_g/isholek/MIGUEL/QE/Hydrogen/111_2x2/SAVE/Ni1Pd3_111-H_hcp_2.save/ :
     XML data file
     NEW-OLD atomic charge density approx. for the potential

     Check: negative core charge=   -0.000002

     negative rho (up, down):  1.472E-04 1.317E-04
     Generating pointlists ...
     new r_m :   0.1364 (alat units)  1.3710 (a.u.) for type    3

     total cpu time spent up to now is   183056.4 secs

     Self-consistent Calculation

     iteration #  1     ecut=    60.00 Ry     beta= 0.20
     Davidson diagonalization with overlap
     ethr =  1.00E-06,  avg # of iterations =  4.8

     negative rho (up, down):  1.553E-04 1.295E-04

     total cpu time spent up to now is   184673.3 secs

     total energy              =   -7077.46212313 Ry
     estimated scf accuracy    <       0.00088438 Ry

     total magnetization       =     9.75 Bohr mag/cell
     absolute magnetization    =    10.60 Bohr mag/cell

     iteration #  2     ecut=    60.00 Ry     beta= 0.20
     Davidson diagonalization with overlap
     ethr =  3.67E-07,  avg # of iterations =  1.2

     negative rho (up, down):  1.558E-04 1.282E-04

     total cpu time spent up to now is   185403.4 secs

     total energy              =   -7077.46218009 Ry
     estimated scf accuracy    <       0.00016228 Ry

     total magnetization       =     9.78 Bohr mag/cell
     absolute magnetization    =    10.62 Bohr mag/cell

     iteration #  3     ecut=    60.00 Ry     beta= 0.20
     Davidson diagonalization with overlap
     ethr =  6.73E-08,  avg # of iterations =  2.0

     negative rho (up, down):  1.562E-04 1.271E-04

     total cpu time spent up to now is   186245.7 secs

     total energy              =   -7077.46220873 Ry
     estimated scf accuracy    <       0.00010442 Ry

     total magnetization       =     9.77 Bohr mag/cell
     absolute magnetization    =    10.61 Bohr mag/cell

     iteration #  4     ecut=    60.00 Ry     beta= 0.20
     Davidson diagonalization with overlap
     ethr =  4.33E-08,  avg # of iterations =  1.1

     negative rho (up, down):  1.561E-04 1.259E-04

     total cpu time spent up to now is   186962.5 secs

     total energy              =   -7077.46221975 Ry
     estimated scf accuracy    <       0.00003450 Ry

     total magnetization       =     9.77 Bohr mag/cell
     absolute magnetization    =    10.61 Bohr mag/cell

     iteration #  5     ecut=    60.00 Ry     beta= 0.20
     Davidson diagonalization with overlap
     ethr =  1.43E-08,  avg # of iterations =  1.7

     negative rho (up, down):  1.556E-04 1.238E-04

     total cpu time spent up to now is   187713.5 secs

     total energy              =   -7077.46223683 Ry
     estimated scf accuracy    <       0.00001935 Ry

     total magnetization       =     9.77 Bohr mag/cell
     absolute magnetization    =    10.61 Bohr mag/cell

     iteration #  6     ecut=    60.00 Ry     beta= 0.20
     Davidson diagonalization with overlap
     ethr =  8.03E-09,  avg # of iterations =  2.0

     negative rho (up, down):  1.549E-04 1.221E-04

     total cpu time spent up to now is   188501.0 secs

     total energy              =   -7077.46224257 Ry
     estimated scf accuracy    <       0.00001453 Ry

     total magnetization       =     9.77 Bohr mag/cell
     absolute magnetization    =    10.61 Bohr mag/cell

     iteration #  7     ecut=    60.00 Ry     beta= 0.20
     Davidson diagonalization with overlap
     ethr =  6.03E-09,  avg # of iterations =  2.0

     negative rho (up, down):  1.533E-04 1.197E-04

     total cpu time spent up to now is   189264.5 secs

     total energy              =   -7077.46224407 Ry
     estimated scf accuracy    <       0.00000249 Ry

     total magnetization       =     9.77 Bohr mag/cell
     absolute magnetization    =    10.61 Bohr mag/cell

     iteration #  8     ecut=    60.00 Ry     beta= 0.20
     Davidson diagonalization with overlap
     ethr =  1.03E-09,  avg # of iterations =  4.4

     negative rho (up, down):  1.518E-04 1.180E-04

     total cpu time spent up to now is   190405.4 secs

     total energy              =   -7077.46224485 Ry
     estimated scf accuracy    <       0.00000140 Ry

     total magnetization       =     9.77 Bohr mag/cell
     absolute magnetization    =    10.61 Bohr mag/cell

     iteration #  9     ecut=    60.00 Ry     beta= 0.20
     Davidson diagonalization with overlap
     ethr =  5.80E-10,  avg # of iterations =  1.1

     negative rho (up, down):  1.507E-04 1.167E-04

     total cpu time spent up to now is   191124.3 secs

     total energy              =   -7077.46224485 Ry
     estimated scf accuracy    <       0.00000118 Ry

     total magnetization       =     9.77 Bohr mag/cell
     absolute magnetization    =    10.61 Bohr mag/cell

     iteration # 10     ecut=    60.00 Ry     beta= 0.20
     Davidson diagonalization with overlap
     ethr =  4.89E-10,  avg # of iterations =  1.0

     negative rho (up, down):  1.497E-04 1.154E-04

     total cpu time spent up to now is   191832.1 secs

     total energy              =   -7077.46224485 Ry
     estimated scf accuracy    <       0.00000038 Ry

     total magnetization       =     9.77 Bohr mag/cell
     absolute magnetization    =    10.61 Bohr mag/cell

     iteration # 11     ecut=    60.00 Ry     beta= 0.20
     Davidson diagonalization with overlap
     ethr =  1.57E-10,  avg # of iterations =  1.7

     negative rho (up, down):  1.489E-04 1.145E-04

     total cpu time spent up to now is   192588.1 secs

     total energy              =   -7077.46224484 Ry
     estimated scf accuracy    <       0.00000044 Ry

     total magnetization       =     9.77 Bohr mag/cell
     absolute magnetization    =    10.61 Bohr mag/cell

     iteration # 12     ecut=    60.00 Ry     beta= 0.20
     Davidson diagonalization with overlap
     ethr =  1.57E-10,  avg # of iterations =  1.0

     negative rho (up, down):  1.483E-04 1.137E-04

     total cpu time spent up to now is   193305.2 secs

     total energy              =   -7077.46224487 Ry
     estimated scf accuracy    <       0.00000023 Ry

     total magnetization       =     9.77 Bohr mag/cell
     absolute magnetization    =    10.61 Bohr mag/cell

     iteration # 13     ecut=    60.00 Ry     beta= 0.20
     Davidson diagonalization with overlap
     ethr =  9.40E-11,  avg # of iterations =  2.0

     negative rho (up, down):  1.477E-04 1.130E-04

     total cpu time spent up to now is   194081.7 secs

     total energy              =   -7077.46224487 Ry
     estimated scf accuracy    <       0.00000039 Ry

     total magnetization       =     9.77 Bohr mag/cell
     absolute magnetization    =    10.61 Bohr mag/cell

     iteration # 14     ecut=    60.00 Ry     beta= 0.20
     Davidson diagonalization with overlap
     ethr =  9.40E-11,  avg # of iterations =  1.0

     negative rho (up, down):  1.471E-04 1.124E-04

     total cpu time spent up to now is   194795.2 secs

     total energy              =   -7077.46224486 Ry
     estimated scf accuracy    <       0.00000025 Ry

     total magnetization       =     9.77 Bohr mag/cell
     absolute magnetization    =    10.61 Bohr mag/cell

     iteration # 15     ecut=    60.00 Ry     beta= 0.20
     Davidson diagonalization with overlap
     ethr =  9.40E-11,  avg # of iterations =  1.0

     negative rho (up, down):  1.469E-04 1.121E-04

     total cpu time spent up to now is   195523.3 secs

     total energy              =   -7077.46224486 Ry
     estimated scf accuracy    <       0.00000013 Ry

     total magnetization       =     9.77 Bohr mag/cell
     absolute magnetization    =    10.61 Bohr mag/cell

     iteration # 16     ecut=    60.00 Ry     beta= 0.20
     Davidson diagonalization with overlap
     ethr =  5.55E-11,  avg # of iterations =  1.0

     negative rho (up, down):  1.471E-04 1.122E-04

     total cpu time spent up to now is   196241.8 secs

     total energy              =   -7077.46224487 Ry
     estimated scf accuracy    <       0.00000008 Ry

     total magnetization       =     9.77 Bohr mag/cell
     absolute magnetization    =    10.61 Bohr mag/cell

     iteration # 17     ecut=    60.00 Ry     beta= 0.20
     Davidson diagonalization with overlap
     ethr =  3.52E-11,  avg # of iterations =  1.0

     negative rho (up, down):  1.479E-04 1.129E-04

     total cpu time spent up to now is   196956.3 secs

     total energy              =   -7077.46224487 Ry
     estimated scf accuracy    <       0.00000001 Ry

     total magnetization       =     9.77 Bohr mag/cell
     absolute magnetization    =    10.61 Bohr mag/cell

     iteration # 18     ecut=    60.00 Ry     beta= 0.20
     Davidson diagonalization with overlap
     ethr =  5.59E-12,  avg # of iterations =  2.1

     negative rho (up, down):  1.483E-04 1.132E-04

     total cpu time spent up to now is   197776.0 secs

     total energy              =   -7077.46224487 Ry
     estimated scf accuracy    <          4.0E-09 Ry

     total magnetization       =     9.77 Bohr mag/cell
     absolute magnetization    =    10.61 Bohr mag/cell

     iteration # 19     ecut=    60.00 Ry     beta= 0.20
     Davidson diagonalization with overlap
     ethr =  1.65E-12,  avg # of iterations =  3.0

     negative rho (up, down):  1.487E-04 1.136E-04

     total cpu time spent up to now is   198667.0 secs

     total energy              =   -7077.46224487 Ry
     estimated scf accuracy    <          3.2E-09 Ry

     total magnetization       =     9.77 Bohr mag/cell
     absolute magnetization    =    10.61 Bohr mag/cell

     iteration # 20     ecut=    60.00 Ry     beta= 0.20
     Davidson diagonalization with overlap
     ethr =  1.35E-12,  avg # of iterations =  1.2

     negative rho (up, down):  1.493E-04 1.142E-04

     total cpu time spent up to now is   199402.6 secs

     total energy              =   -7077.46224487 Ry
     estimated scf accuracy    <          3.5E-09 Ry

     total magnetization       =     9.77 Bohr mag/cell
     absolute magnetization    =    10.61 Bohr mag/cell

     iteration # 21     ecut=    60.00 Ry     beta= 0.20
     Davidson diagonalization with overlap
     ethr =  1.35E-12,  avg # of iterations =  1.0

     negative rho (up, down):  1.498E-04 1.147E-04

     total cpu time spent up to now is   200128.2 secs

     total energy              =   -7077.46224487 Ry
     estimated scf accuracy    <          3.6E-09 Ry

     total magnetization       =     9.77 Bohr mag/cell
     absolute magnetization    =    10.61 Bohr mag/cell

     iteration # 22     ecut=    60.00 Ry     beta= 0.20
     Davidson diagonalization with overlap
     ethr =  1.35E-12,  avg # of iterations =  1.0

     negative rho (up, down):  1.497E-04 1.146E-04

     total cpu time spent up to now is   200857.0 secs

     total energy              =   -7077.46224487 Ry
     estimated scf accuracy    <          4.8E-09 Ry

     total magnetization       =     9.77 Bohr mag/cell
     absolute magnetization    =    10.61 Bohr mag/cell

     iteration # 23     ecut=    60.00 Ry     beta= 0.20
     Davidson diagonalization with overlap
     ethr =  1.35E-12,  avg # of iterations =  1.0

     negative rho (up, down):  1.502E-04 1.150E-04

     total cpu time spent up to now is   201580.6 secs

     total energy              =   -7077.46224487 Ry
     estimated scf accuracy    <          3.5E-09 Ry

     total magnetization       =     9.77 Bohr mag/cell
     absolute magnetization    =    10.61 Bohr mag/cell

     iteration # 24     ecut=    60.00 Ry     beta= 0.20
     Davidson diagonalization with overlap
     ethr =  1.35E-12,  avg # of iterations =  1.0

     negative rho (up, down):  1.505E-04 1.154E-04

     total cpu time spent up to now is   202295.8 secs

     total energy              =   -7077.46224488 Ry
     estimated scf accuracy    <          4.7E-09 Ry

     total magnetization       =     9.77 Bohr mag/cell
     absolute magnetization    =    10.61 Bohr mag/cell

     iteration # 25     ecut=    60.00 Ry     beta= 0.20
     Davidson diagonalization with overlap
     ethr =  1.35E-12,  avg # of iterations =  2.0

     negative rho (up, down):  1.510E-04 1.159E-04

     total cpu time spent up to now is   203059.1 secs

     total energy              =   -7077.46224488 Ry
     estimated scf accuracy    <          2.4E-09 Ry

     total magnetization       =     9.77 Bohr mag/cell
     absolute magnetization    =    10.61 Bohr mag/cell

     iteration # 26     ecut=    60.00 Ry     beta= 0.20
     Davidson diagonalization with overlap
     ethr =  1.00E-12,  avg # of iterations =  1.0

     negative rho (up, down):  1.511E-04 1.159E-04

     total cpu time spent up to now is   203770.0 secs

     total energy              =   -7077.46224488 Ry
     estimated scf accuracy    <          2.3E-09 Ry

     total magnetization       =     9.77 Bohr mag/cell
     absolute magnetization    =    10.61 Bohr mag/cell

     iteration # 27     ecut=    60.00 Ry     beta= 0.20
     Davidson diagonalization with overlap
     ethr =  9.53E-13,  avg # of iterations =  1.0

     negative rho (up, down):  1.510E-04 1.158E-04

     total cpu time spent up to now is   204486.6 secs

     total energy              =   -7077.46224488 Ry
     estimated scf accuracy    <          2.2E-09 Ry

     total magnetization       =     9.77 Bohr mag/cell
     absolute magnetization    =    10.61 Bohr mag/cell

     iteration # 28     ecut=    60.00 Ry     beta= 0.20
     Davidson diagonalization with overlap
     ethr =  9.17E-13,  avg # of iterations =  1.0

     negative rho (up, down):  1.513E-04 1.161E-04

     total cpu time spent up to now is   205198.3 secs

     total energy              =   -7077.46224488 Ry
     estimated scf accuracy    <          2.2E-09 Ry

     total magnetization       =     9.77 Bohr mag/cell
     absolute magnetization    =    10.61 Bohr mag/cell

     iteration # 29     ecut=    60.00 Ry     beta= 0.20
     Davidson diagonalization with overlap
     ethr =  9.03E-13,  avg # of iterations =  1.0

     negative rho (up, down):  1.530E-04 1.177E-04

     total cpu time spent up to now is   205906.5 secs

     total energy              =   -7077.46224488 Ry
     estimated scf accuracy    <          2.8E-09 Ry

     total magnetization       =     9.77 Bohr mag/cell
     absolute magnetization    =    10.61 Bohr mag/cell

     iteration # 30     ecut=    60.00 Ry     beta= 0.20
     Davidson diagonalization with overlap
     ethr =  9.03E-13,  avg # of iterations =  1.0

     negative rho (up, down):  1.535E-04 1.183E-04

     total cpu time spent up to now is   206618.0 secs

     total energy              =   -7077.46224489 Ry
     estimated scf accuracy    <          7.7E-09 Ry

     total magnetization       =     9.77 Bohr mag/cell
     absolute magnetization    =    10.61 Bohr mag/cell

     iteration # 31     ecut=    60.00 Ry     beta= 0.20
     Davidson diagonalization with overlap
     ethr =  9.03E-13,  avg # of iterations =  1.0

     negative rho (up, down):  1.542E-04 1.190E-04

     total cpu time spent up to now is   207321.7 secs

     total energy              =   -7077.46224489 Ry
     estimated scf accuracy    <          4.9E-09 Ry

     total magnetization       =     9.77 Bohr mag/cell
     absolute magnetization    =    10.61 Bohr mag/cell

     iteration # 32     ecut=    60.00 Ry     beta= 0.20
     Davidson diagonalization with overlap
     ethr =  9.03E-13,  avg # of iterations =  1.0

     negative rho (up, down):  1.539E-04 1.186E-04

     total cpu time spent up to now is   208028.5 secs

     total energy              =   -7077.46224489 Ry
     estimated scf accuracy    <          7.2E-09 Ry

     total magnetization       =     9.77 Bohr mag/cell
     absolute magnetization    =    10.61 Bohr mag/cell

     iteration # 33     ecut=    60.00 Ry     beta= 0.20
     Davidson diagonalization with overlap
     ethr =  9.03E-13,  avg # of iterations =  1.0

     negative rho (up, down):  1.540E-04 1.187E-04

     total cpu time spent up to now is   208763.3 secs

     total energy              =   -7077.46224489 Ry
     estimated scf accuracy    <          7.5E-09 Ry

     total magnetization       =     9.77 Bohr mag/cell
     absolute magnetization    =    10.61 Bohr mag/cell

     iteration # 34     ecut=    60.00 Ry     beta= 0.20
     Davidson diagonalization with overlap
     ethr =  9.03E-13,  avg # of iterations =  1.0

     negative rho (up, down):  1.556E-04 1.204E-04

     total cpu time spent up to now is   209468.8 secs

     total energy              =   -7077.46224489 Ry
     estimated scf accuracy    <          6.5E-09 Ry

     total magnetization       =     9.77 Bohr mag/cell
     absolute magnetization    =    10.61 Bohr mag/cell

     iteration # 35     ecut=    60.00 Ry     beta= 0.20
     Davidson diagonalization with overlap
     ethr =  9.03E-13,  avg # of iterations =  1.0

     negative rho (up, down):  1.543E-04 1.190E-04

     total cpu time spent up to now is   210193.1 secs

     total energy              =   -7077.46224489 Ry
     estimated scf accuracy    <          8.3E-09 Ry

     total magnetization       =     9.77 Bohr mag/cell
     absolute magnetization    =    10.61 Bohr mag/cell

     iteration # 36     ecut=    60.00 Ry     beta= 0.20
     Davidson diagonalization with overlap
     ethr =  9.03E-13,  avg # of iterations =  1.0

     negative rho (up, down):  1.544E-04 1.191E-04

     total cpu time spent up to now is   210905.1 secs

     total energy              =   -7077.46224489 Ry
     estimated scf accuracy    <          5.3E-09 Ry

     total magnetization       =     9.77 Bohr mag/cell
     absolute magnetization    =    10.61 Bohr mag/cell

     iteration # 37     ecut=    60.00 Ry     beta= 0.20
     Davidson diagonalization with overlap
     ethr =  9.03E-13,  avg # of iterations =  1.0

     negative rho (up, down):  1.542E-04 1.189E-04

     total cpu time spent up to now is   211617.5 secs

     total energy              =   -7077.46224489 Ry
     estimated scf accuracy    <          5.7E-09 Ry

     total magnetization       =     9.77 Bohr mag/cell
     absolute magnetization    =    10.61 Bohr mag/cell

     iteration # 38     ecut=    60.00 Ry     beta= 0.20
     Davidson diagonalization with overlap
     ethr =  9.03E-13,  avg # of iterations =  1.0

     negative rho (up, down):  1.541E-04 1.189E-04

     total cpu time spent up to now is   212331.4 secs

     total energy              =   -7077.46224489 Ry
     estimated scf accuracy    <          5.0E-09 Ry

     total magnetization       =     9.77 Bohr mag/cell
     absolute magnetization    =    10.61 Bohr mag/cell

     iteration # 39     ecut=    60.00 Ry     beta= 0.20
     Davidson diagonalization with overlap
     ethr =  9.03E-13,  avg # of iterations =  1.0

     negative rho (up, down):  1.530E-04 1.178E-04

     total cpu time spent up to now is   213047.8 secs

     total energy              =   -7077.46224488 Ry
     estimated scf accuracy    <          4.5E-09 Ry

     total magnetization       =     9.77 Bohr mag/cell
     absolute magnetization    =    10.61 Bohr mag/cell

     iteration # 40     ecut=    60.00 Ry     beta= 0.20
     Davidson diagonalization with overlap
     ethr =  9.03E-13,  avg # of iterations =  1.0

     negative rho (up, down):  1.531E-04 1.179E-04

     total cpu time spent up to now is   213765.4 secs

     total energy              =   -7077.46224488 Ry
     estimated scf accuracy    <          3.1E-09 Ry

     total magnetization       =     9.77 Bohr mag/cell
     absolute magnetization    =    10.61 Bohr mag/cell

     iteration # 41     ecut=    60.00 Ry     beta= 0.20
     Davidson diagonalization with overlap
     ethr =  9.03E-13,  avg # of iterations =  1.0

     negative rho (up, down):  1.539E-04 1.187E-04

     total cpu time spent up to now is   214485.3 secs

     total energy              =   -7077.46224488 Ry
     estimated scf accuracy    <          6.3E-10 Ry

     total magnetization       =     9.77 Bohr mag/cell
     absolute magnetization    =    10.61 Bohr mag/cell

     iteration # 42     ecut=    60.00 Ry     beta= 0.20
     Davidson diagonalization with overlap
     ethr =  2.62E-13,  avg # of iterations =  1.0

     negative rho (up, down):  1.556E-04 1.204E-04
 
     Magnetic moment per site  (integrated on atomic sphere of radius R)
     atom   1 (R=0.138)  charge=  7.0589  magn=  0.8875
     atom   2 (R=0.140)  charge=  5.5911  magn=  0.2010
     atom   3 (R=0.140)  charge=  5.5911  magn=  0.2034
     atom   4 (R=0.140)  charge=  5.5911  magn=  0.2034
     atom   5 (R=0.138)  charge=  7.0540  magn=  0.8572
     atom   6 (R=0.140)  charge=  5.5775  magn=  0.2521
     atom   7 (R=0.140)  charge=  5.5775  magn=  0.2514
     atom   8 (R=0.140)  charge=  5.5775  magn=  0.2521
     atom   9 (R=0.138)  charge=  7.0572  magn=  0.8049
     atom  10 (R=0.140)  charge=  5.5747  magn=  0.2514
     atom  11 (R=0.140)  charge=  5.5748  magn=  0.2388
     atom  12 (R=0.140)  charge=  5.5748  magn=  0.2388
     atom  13 (R=0.138)  charge=  7.0567  magn=  0.8059
     atom  14 (R=0.140)  charge=  5.5756  magn=  0.2334
     atom  15 (R=0.140)  charge=  5.5749  magn=  0.2381
     atom  16 (R=0.140)  charge=  5.5756  magn=  0.2334
     atom  17 (R=0.138)  charge=  7.0542  magn=  0.8459
     atom  18 (R=0.140)  charge=  5.5773  magn=  0.2403
     atom  19 (R=0.140)  charge=  5.5787  magn=  0.2011
     atom  20 (R=0.140)  charge=  5.5773  magn=  0.2403
     atom  21 (R=0.138)  charge=  7.0655  magn=  0.6928
     atom  22 (R=0.140)  charge=  5.5949  magn=  0.1839
     atom  23 (R=0.140)  charge=  5.5875  magn=  0.1273
     atom  24 (R=0.140)  charge=  5.5875  magn=  0.1273
     atom  25 (R=0.136)  charge=  0.9544  magn= -0.0058

     total cpu time spent up to now is   215189.8 secs

     End of self-consistent calculation

     Number of k-points >= 100: set verbosity='high' to print the bands.

     the Fermi energy is    -5.1642 ev

!    total energy              =   -7077.46224489 Ry
     total all-electron energy =   -199909.898815 Ry
     estimated scf accuracy    <          3.6E-10 Ry
     smearing contrib. (-TS)   =       0.00078505 Ry
     internal energy E=F+TS    =   -7077.46302994 Ry

     The total energy is F=E-TS. E is the sum of the following terms:
     one-electron contribution =  -61177.44494436 Ry
     hartree contribution      =   30776.18489664 Ry
     xc contribution           =    -835.54125338 Ry
     ewald contribution        =   29293.49578163 Ry
     DFT-D3 Dispersion         =      -2.53177799 Ry
     one-center paw contrib.   =   -5131.62573246 Ry

     total magnetization       =     9.77 Bohr mag/cell
     absolute magnetization    =    10.61 Bohr mag/cell

     convergence has been achieved in  42 iterations

     negative rho (up, down):  1.556E-04 1.204E-04

     Forces acting on atoms (cartesian axes, Ry/au):

     atom    1 type  1   force =     0.00000001   -0.00008492    0.01589412
     atom    2 type  2   force =    -0.00000001   -0.01420338   -0.00876288
     atom    3 type  2   force =    -0.01239167    0.00716396   -0.00930850
     atom    4 type  2   force =     0.01239168    0.00716395   -0.00930851
     atom    5 type  1   force =     0.00000001    0.00036374   -0.00012159
     atom    6 type  2   force =    -0.00102720    0.00003566    0.00427579
     atom    7 type  2   force =    -0.00000003   -0.00054326    0.00460026
     atom    8 type  2   force =     0.00102717    0.00003567    0.00427575
     atom    9 type  1   force =     0.00000011    0.00025338    0.00017946
     atom   10 type  2   force =    -0.00000002   -0.00000219    0.00079797
     atom   11 type  2   force =     0.00008641    0.00002046    0.00053929
     atom   12 type  2   force =    -0.00008641    0.00002046    0.00053940
     atom   13 type  1   force =    -0.00000005    0.00001122    0.00050394
     atom   14 type  2   force =    -0.00036164   -0.00013248    0.00069820
     atom   15 type  2   force =     0.00000000    0.00015851    0.00034005
     atom   16 type  2   force =     0.00036164   -0.00013248    0.00069824
     atom   17 type  1   force =    -0.00000001   -0.00112033    0.00038740
     atom   18 type  2   force =     0.00019261   -0.00050805   -0.00039269
     atom   19 type  2   force =    -0.00000003   -0.00058490   -0.00109019
     atom   20 type  2   force =    -0.00019257   -0.00050806   -0.00039267
     atom   21 type  1   force =     0.00000000    0.00144003   -0.00237708
     atom   22 type  2   force =     0.00000005   -0.00177761    0.00100864
     atom   23 type  2   force =    -0.00036841   -0.00050318   -0.00185099
     atom   24 type  2   force =     0.00036834   -0.00050320   -0.00185096
     atom   25 type  3   force =     0.00000001    0.00393701    0.00071753

     Total force =     0.006510     Total SCF correction =     0.000100


     Computing stress (Cartesian axis) and pressure


     negative rho (up, down):  1.556E-04 1.204E-04
          total   stress  (Ry/bohr**3)                   (kbar)     P=       -7.49
  -0.00007053   0.00000000   0.00000000          -10.37        0.00        0.00
   0.00000000  -0.00008132   0.00000332            0.00      -11.96        0.49
   0.00000000   0.00000332  -0.00000095            0.00        0.49       -0.14

     Energy error            =      1.7E-04 Ry
     Gradient error          =      3.9E-03 Ry/Bohr

     number of scf cycles    =   9
     number of bfgs steps    =   8

     energy             old  =   -7077.4620743447 Ry
     energy             new  =   -7077.4622448881 Ry

     CASE: energy            _new < energy            _old

     new trust radius        =       0.0462467587 bohr
     new conv_thr            =       0.0000000005 Ry


ATOMIC_POSITIONS (angstrom)
Ni               5.3171990772        3.0698863186       11.0000000000    0   0   0
Pd               2.6585995386        3.0698851333       11.0000764482    0   0   0
Pd               3.9878982814        0.7674721723       11.0000764482    0   0   0
Pd               1.3293007958        0.7674721723       11.0000764482    0   0   0
Ni               2.6585995386        1.5349431593       13.1707374333    0   0   0
Pd               3.9878982814        3.8373584909       13.1708138815    0   0   0
Pd               5.3171990772        1.5349419740       13.1708138815    0   0   0
Pd               6.6464998731        3.8373584909       13.1708138815    0   0   0
Ni              -0.0000003117        0.0013372404       15.3356818995
Pd               5.3171989886        4.6085648483       15.3346898395
Pd               3.9878921390        2.3042606671       15.3373290796
Pd               6.6465058152        2.3042605609       15.3373289375
Ni               5.3171990722        3.0712263091       17.5087746265
Pd               3.9884048116        0.7685790230       17.5109941161
Pd               2.6585993208        3.0697495262       17.5089043801
Pd               1.3287939370        0.7685789346       17.5109939291
Ni               2.6585993929        1.5359545425       19.6889911431
Pd               3.9922655016        3.8241275162       19.6779712841
Pd               5.3171992100        1.5294907615       19.6897616004
Pd               6.6421324792        3.8241277040       19.6779713301
Ni               0.0000000354       -0.0072531017       21.7998704976
Pd               5.3171988655        4.6119911324       21.8677437945
Pd               3.9941520815        2.2766361321       21.9029902672
Pd               6.6402461167        2.2766363753       21.9029902266
H                2.6585996512        3.1450519556       22.7557880237



     Writing config-only to output data dir /tmpu/isholek_g/isholek/MIGUEL/QE/Hydrogen/111_2x2/SAVE/Ni1Pd3_111-H_hcp_2.save/ :
     XML data file
     NEW-OLD atomic charge density approx. for the potential

     Check: negative core charge=   -0.000002

     negative rho (up, down):  1.495E-04 1.318E-04
     Generating pointlists ...
     new r_m :   0.1349 (alat units)  1.3555 (a.u.) for type    1
     new r_m :   0.1349 (alat units)  1.3555 (a.u.) for type    3

     total cpu time spent up to now is   215885.7 secs

     Self-consistent Calculation

     iteration #  1     ecut=    60.00 Ry     beta= 0.20
     Davidson diagonalization with overlap
     ethr =  1.00E-06,  avg # of iterations =  5.3

     negative rho (up, down):  1.699E-04 1.429E-04

     total cpu time spent up to now is   217761.4 secs

     total energy              =   -7077.46212047 Ry
     estimated scf accuracy    <       0.00416056 Ry

     total magnetization       =     9.73 Bohr mag/cell
     absolute magnetization    =    10.58 Bohr mag/cell

     iteration #  2     ecut=    60.00 Ry     beta= 0.20
     Davidson diagonalization with overlap
     ethr =  1.73E-06,  avg # of iterations =  1.0

     negative rho (up, down):  1.679E-04 1.392E-04

     total cpu time spent up to now is   218474.3 secs

     total energy              =   -7077.46224078 Ry
     estimated scf accuracy    <       0.00058191 Ry

     total magnetization       =     9.78 Bohr mag/cell
     absolute magnetization    =    10.62 Bohr mag/cell

     iteration #  3     ecut=    60.00 Ry     beta= 0.20
     Davidson diagonalization with overlap
     ethr =  2.41E-07,  avg # of iterations =  1.0

     negative rho (up, down):  1.665E-04 1.364E-04

     total cpu time spent up to now is   219192.6 secs

     total energy              =   -7077.46228751 Ry
     estimated scf accuracy    <       0.00036903 Ry

     total magnetization       =     9.76 Bohr mag/cell
     absolute magnetization    =    10.60 Bohr mag/cell

     iteration #  4     ecut=    60.00 Ry     beta= 0.20
     Davidson diagonalization with overlap
     ethr =  1.53E-07,  avg # of iterations =  1.0

     negative rho (up, down):  1.650E-04 1.339E-04

     total cpu time spent up to now is   219912.5 secs

     total energy              =   -7077.46231511 Ry
     estimated scf accuracy    <       0.00015576 Ry

     total magnetization       =     9.76 Bohr mag/cell
     absolute magnetization    =    10.61 Bohr mag/cell

     iteration #  5     ecut=    60.00 Ry     beta= 0.20
     Davidson diagonalization with overlap
     ethr =  6.46E-08,  avg # of iterations =  1.0

     negative rho (up, down):  1.638E-04 1.316E-04

     total cpu time spent up to now is   220630.2 secs

     total energy              =   -7077.46236523 Ry
     estimated scf accuracy    <       0.00009381 Ry

     total magnetization       =     9.77 Bohr mag/cell
     absolute magnetization    =    10.61 Bohr mag/cell

     iteration #  6     ecut=    60.00 Ry     beta= 0.20
     Davidson diagonalization with overlap
     ethr =  3.89E-08,  avg # of iterations =  2.0

     negative rho (up, down):  1.623E-04 1.293E-04

     total cpu time spent up to now is   221398.5 secs

     total energy              =   -7077.46238302 Ry
     estimated scf accuracy    <       0.00007480 Ry

     total magnetization       =     9.77 Bohr mag/cell
     absolute magnetization    =    10.61 Bohr mag/cell

     iteration #  7     ecut=    60.00 Ry     beta= 0.20
     Davidson diagonalization with overlap
     ethr =  3.10E-08,  avg # of iterations =  1.1

     negative rho (up, down):  1.587E-04 1.253E-04

     total cpu time spent up to now is   222121.7 secs

     total energy              =   -7077.46239331 Ry
     estimated scf accuracy    <       0.00001191 Ry

     total magnetization       =     9.76 Bohr mag/cell
     absolute magnetization    =    10.61 Bohr mag/cell

     iteration #  8     ecut=    60.00 Ry     beta= 0.20
     Davidson diagonalization with overlap
     ethr =  4.94E-09,  avg # of iterations =  4.2

     negative rho (up, down):  1.567E-04 1.229E-04

     total cpu time spent up to now is   223120.9 secs

     total energy              =   -7077.46239523 Ry
     estimated scf accuracy    <       0.00000481 Ry

     total magnetization       =     9.76 Bohr mag/cell
     absolute magnetization    =    10.61 Bohr mag/cell

     iteration #  9     ecut=    60.00 Ry     beta= 0.20
     Davidson diagonalization with overlap
     ethr =  2.00E-09,  avg # of iterations =  1.7

     negative rho (up, down):  1.534E-04 1.195E-04

     total cpu time spent up to now is   223870.8 secs

     total energy              =   -7077.46239539 Ry
     estimated scf accuracy    <       0.00000524 Ry

     total magnetization       =     9.76 Bohr mag/cell
     absolute magnetization    =    10.61 Bohr mag/cell

     iteration # 10     ecut=    60.00 Ry     beta= 0.20
     Davidson diagonalization with overlap
     ethr =  2.00E-09,  avg # of iterations =  1.1

     negative rho (up, down):  1.513E-04 1.171E-04

     total cpu time spent up to now is   224589.7 secs

     total energy              =   -7077.46239555 Ry
     estimated scf accuracy    <       0.00000097 Ry

     total magnetization       =     9.76 Bohr mag/cell
     absolute magnetization    =    10.61 Bohr mag/cell

     iteration # 11     ecut=    60.00 Ry     beta= 0.20
     Davidson diagonalization with overlap
     ethr =  4.03E-10,  avg # of iterations =  4.3

     negative rho (up, down):  1.502E-04 1.159E-04

     total cpu time spent up to now is   225587.2 secs

     total energy              =   -7077.46239574 Ry
     estimated scf accuracy    <       0.00000033 Ry

     total magnetization       =     9.76 Bohr mag/cell
     absolute magnetization    =    10.61 Bohr mag/cell

     iteration # 12     ecut=    60.00 Ry     beta= 0.20
     Davidson diagonalization with overlap
     ethr =  1.36E-10,  avg # of iterations =  1.6

     negative rho (up, down):  1.494E-04 1.149E-04

     total cpu time spent up to now is   226408.7 secs

     total energy              =   -7077.46239577 Ry
     estimated scf accuracy    <       0.00000029 Ry

     total magnetization       =     9.76 Bohr mag/cell
     absolute magnetization    =    10.61 Bohr mag/cell

     iteration # 13     ecut=    60.00 Ry     beta= 0.20
     Davidson diagonalization with overlap
     ethr =  1.22E-10,  avg # of iterations =  1.1

     negative rho (up, down):  1.483E-04 1.137E-04

     total cpu time spent up to now is   227134.4 secs

     total energy              =   -7077.46239577 Ry
     estimated scf accuracy    <       0.00000039 Ry

     total magnetization       =     9.76 Bohr mag/cell
     absolute magnetization    =    10.61 Bohr mag/cell

     iteration # 14     ecut=    60.00 Ry     beta= 0.20
     Davidson diagonalization with overlap
     ethr =  1.22E-10,  avg # of iterations =  1.0

     negative rho (up, down):  1.469E-04 1.122E-04

     total cpu time spent up to now is   227838.1 secs

     total energy              =   -7077.46239577 Ry
     estimated scf accuracy    <       0.00000043 Ry

     total magnetization       =     9.76 Bohr mag/cell
     absolute magnetization    =    10.61 Bohr mag/cell

     iteration # 15     ecut=    60.00 Ry     beta= 0.20
     Davidson diagonalization with overlap
     ethr =  1.22E-10,  avg # of iterations =  1.0

     negative rho (up, down):  1.460E-04 1.113E-04

     total cpu time spent up to now is   228548.6 secs

     total energy              =   -7077.46239577 Ry
     estimated scf accuracy    <       0.00000028 Ry

     total magnetization       =     9.76 Bohr mag/cell
     absolute magnetization    =    10.61 Bohr mag/cell

     iteration # 16     ecut=    60.00 Ry     beta= 0.20
     Davidson diagonalization with overlap
     ethr =  1.14E-10,  avg # of iterations =  1.0

     negative rho (up, down):  1.457E-04 1.108E-04

     total cpu time spent up to now is   229252.7 secs

     total energy              =   -7077.46239577 Ry
     estimated scf accuracy    <       0.00000021 Ry

     total magnetization       =     9.76 Bohr mag/cell
     absolute magnetization    =    10.61 Bohr mag/cell

     iteration # 17     ecut=    60.00 Ry     beta= 0.20
     Davidson diagonalization with overlap
     ethr =  8.63E-11,  avg # of iterations =  1.0

     negative rho (up, down):  1.460E-04 1.111E-04

     total cpu time spent up to now is   229986.3 secs

     total energy              =   -7077.46239578 Ry
     estimated scf accuracy    <       0.00000003 Ry

     total magnetization       =     9.76 Bohr mag/cell
     absolute magnetization    =    10.61 Bohr mag/cell

     iteration # 18     ecut=    60.00 Ry     beta= 0.20
     Davidson diagonalization with overlap
     ethr =  1.16E-11,  avg # of iterations =  1.5

     negative rho (up, down):  1.463E-04 1.113E-04

     total cpu time spent up to now is   230759.4 secs

     total energy              =   -7077.46239578 Ry
     estimated scf accuracy    <          3.4E-09 Ry

     total magnetization       =     9.76 Bohr mag/cell
     absolute magnetization    =    10.61 Bohr mag/cell

     iteration # 19     ecut=    60.00 Ry     beta= 0.20
     Davidson diagonalization with overlap
     ethr =  1.42E-12,  avg # of iterations =  3.7

     negative rho (up, down):  1.468E-04 1.118E-04

     total cpu time spent up to now is   231890.8 secs

     total energy              =   -7077.46239578 Ry
     estimated scf accuracy    <          3.7E-09 Ry

     total magnetization       =     9.76 Bohr mag/cell
     absolute magnetization    =    10.61 Bohr mag/cell

     iteration # 20     ecut=    60.00 Ry     beta= 0.20
     Davidson diagonalization with overlap
     ethr =  1.42E-12,  avg # of iterations =  1.0

     negative rho (up, down):  1.471E-04 1.120E-04

     total cpu time spent up to now is   232609.0 secs

     total energy              =   -7077.46239578 Ry
     estimated scf accuracy    <          4.6E-09 Ry

     total magnetization       =     9.76 Bohr mag/cell
     absolute magnetization    =    10.61 Bohr mag/cell

     iteration # 21     ecut=    60.00 Ry     beta= 0.20
     Davidson diagonalization with overlap
     ethr =  1.42E-12,  avg # of iterations =  1.0

     negative rho (up, down):  1.481E-04 1.130E-04

     total cpu time spent up to now is   233318.5 secs

     total energy              =   -7077.46239578 Ry
     estimated scf accuracy    <          3.5E-09 Ry

     total magnetization       =     9.76 Bohr mag/cell
     absolute magnetization    =    10.61 Bohr mag/cell

     iteration # 22     ecut=    60.00 Ry     beta= 0.20
     Davidson diagonalization with overlap
     ethr =  1.42E-12,  avg # of iterations =  1.0

     negative rho (up, down):  1.489E-04 1.138E-04

     total cpu time spent up to now is   234028.9 secs

     total energy              =   -7077.46239579 Ry
     estimated scf accuracy    <          4.9E-09 Ry

     total magnetization       =     9.76 Bohr mag/cell
     absolute magnetization    =    10.61 Bohr mag/cell

     iteration # 23     ecut=    60.00 Ry     beta= 0.20
     Davidson diagonalization with overlap
     ethr =  1.42E-12,  avg # of iterations =  1.0

     negative rho (up, down):  1.497E-04 1.146E-04

     total cpu time spent up to now is   234757.2 secs

     total energy              =   -7077.46239579 Ry
     estimated scf accuracy    <          3.6E-09 Ry

     total magnetization       =     9.76 Bohr mag/cell
     absolute magnetization    =    10.61 Bohr mag/cell

     iteration # 24     ecut=    60.00 Ry     beta= 0.20
     Davidson diagonalization with overlap
     ethr =  1.42E-12,  avg # of iterations =  1.0

     negative rho (up, down):  1.507E-04 1.155E-04

     total cpu time spent up to now is   235485.7 secs

     total energy              =   -7077.46239579 Ry
     estimated scf accuracy    <          5.2E-09 Ry

     total magnetization       =     9.76 Bohr mag/cell
     absolute magnetization    =    10.61 Bohr mag/cell

     iteration # 25     ecut=    60.00 Ry     beta= 0.20
     Davidson diagonalization with overlap
     ethr =  1.42E-12,  avg # of iterations =  1.0

     negative rho (up, down):  1.524E-04 1.172E-04

     total cpu time spent up to now is   236204.3 secs

     total energy              =   -7077.46239579 Ry
     estimated scf accuracy    <          5.4E-09 Ry

     total magnetization       =     9.76 Bohr mag/cell
     absolute magnetization    =    10.61 Bohr mag/cell

     iteration # 26     ecut=    60.00 Ry     beta= 0.20
     Davidson diagonalization with overlap
     ethr =  1.42E-12,  avg # of iterations =  1.0

     negative rho (up, down):  1.534E-04 1.182E-04

     total cpu time spent up to now is   236917.7 secs

     total energy              =   -7077.46239580 Ry
     estimated scf accuracy    <          3.8E-09 Ry

     total magnetization       =     9.76 Bohr mag/cell
     absolute magnetization    =    10.61 Bohr mag/cell

     iteration # 27     ecut=    60.00 Ry     beta= 0.20
     Davidson diagonalization with overlap
     ethr =  1.42E-12,  avg # of iterations =  1.0

     negative rho (up, down):  1.538E-04 1.186E-04

     total cpu time spent up to now is   237632.7 secs

     total energy              =   -7077.46239580 Ry
     estimated scf accuracy    <          3.9E-09 Ry

     total magnetization       =     9.76 Bohr mag/cell
     absolute magnetization    =    10.61 Bohr mag/cell

     iteration # 28     ecut=    60.00 Ry     beta= 0.20
     Davidson diagonalization with overlap
     ethr =  1.42E-12,  avg # of iterations =  1.0

     negative rho (up, down):  1.541E-04 1.189E-04

     total cpu time spent up to now is   238345.6 secs

     total energy              =   -7077.46239580 Ry
     estimated scf accuracy    <          5.1E-09 Ry

     total magnetization       =     9.76 Bohr mag/cell
     absolute magnetization    =    10.61 Bohr mag/cell

     iteration # 29     ecut=    60.00 Ry     beta= 0.20
     Davidson diagonalization with overlap
     ethr =  1.42E-12,  avg # of iterations =  1.0

     negative rho (up, down):  1.550E-04 1.197E-04

     total cpu time spent up to now is   239057.2 secs

     total energy              =   -7077.46239580 Ry
     estimated scf accuracy    <          3.6E-09 Ry

     total magnetization       =     9.76 Bohr mag/cell
     absolute magnetization    =    10.61 Bohr mag/cell

     iteration # 30     ecut=    60.00 Ry     beta= 0.20
     Davidson diagonalization with overlap
     ethr =  1.42E-12,  avg # of iterations =  1.0

     negative rho (up, down):  1.557E-04 1.205E-04
 
     Magnetic moment per site  (integrated on atomic sphere of radius R)
     atom   1 (R=0.135)  charge=  6.9706  magn=  0.8798
     atom   2 (R=0.140)  charge=  5.5911  magn=  0.2010
     atom   3 (R=0.140)  charge=  5.5911  magn=  0.2036
     atom   4 (R=0.140)  charge=  5.5911  magn=  0.2036
     atom   5 (R=0.135)  charge=  6.9646  magn=  0.8499
     atom   6 (R=0.140)  charge=  5.5774  magn=  0.2522
     atom   7 (R=0.140)  charge=  5.5775  magn=  0.2517
     atom   8 (R=0.140)  charge=  5.5774  magn=  0.2522
     atom   9 (R=0.135)  charge=  6.9668  magn=  0.7983
     atom  10 (R=0.140)  charge=  5.5747  magn=  0.2512
     atom  11 (R=0.140)  charge=  5.5747  magn=  0.2387
     atom  12 (R=0.140)  charge=  5.5747  magn=  0.2387
     atom  13 (R=0.135)  charge=  6.9671  magn=  0.7997
     atom  14 (R=0.140)  charge=  5.5755  magn=  0.2336
     atom  15 (R=0.140)  charge=  5.5750  magn=  0.2374
     atom  16 (R=0.140)  charge=  5.5755  magn=  0.2336
     atom  17 (R=0.135)  charge=  6.9653  magn=  0.8400
     atom  18 (R=0.140)  charge=  5.5775  magn=  0.2400
     atom  19 (R=0.140)  charge=  5.5787  magn=  0.2012
     atom  20 (R=0.140)  charge=  5.5775  magn=  0.2400
     atom  21 (R=0.135)  charge=  6.9766  magn=  0.6773
     atom  22 (R=0.140)  charge=  5.5950  magn=  0.1842
     atom  23 (R=0.140)  charge=  5.5878  magn=  0.1287
     atom  24 (R=0.140)  charge=  5.5878  magn=  0.1287
     atom  25 (R=0.135)  charge=  0.9354  magn= -0.0059

     total cpu time spent up to now is   239757.8 secs

     End of self-consistent calculation

     Number of k-points >= 100: set verbosity='high' to print the bands.

     the Fermi energy is    -5.1627 ev

!    total energy              =   -7077.46239580 Ry
     total all-electron energy =   -199909.898966 Ry
     estimated scf accuracy    <          4.8E-10 Ry
     smearing contrib. (-TS)   =       0.00076254 Ry
     internal energy E=F+TS    =   -7077.46315834 Ry

     The total energy is F=E-TS. E is the sum of the following terms:
     one-electron contribution =  -61187.24393708 Ry
     hartree contribution      =   30781.09084988 Ry
     xc contribution           =    -835.54686074 Ry
     ewald contribution        =   29298.39565753 Ry
     DFT-D3 Dispersion         =      -2.53215448 Ry
     one-center paw contrib.   =   -5131.62671345 Ry

     total magnetization       =     9.76 Bohr mag/cell
     absolute magnetization    =    10.61 Bohr mag/cell

     convergence has been achieved in  30 iterations

     negative rho (up, down):  1.557E-04 1.205E-04

     Forces acting on atoms (cartesian axes, Ry/au):

     atom    1 type  1   force =    -0.00000000   -0.00008203    0.01592693
     atom    2 type  2   force =    -0.00000000   -0.01420775   -0.00880794
     atom    3 type  2   force =    -0.01240083    0.00715997   -0.00927807
     atom    4 type  2   force =     0.01240083    0.00715997   -0.00927807
     atom    5 type  1   force =     0.00000000    0.00029501    0.00001685
     atom    6 type  2   force =    -0.00076212    0.00021848    0.00448841
     atom    7 type  2   force =    -0.00000003   -0.00051956    0.00455618
     atom    8 type  2   force =     0.00076210    0.00021848    0.00448840
     atom    9 type  1   force =     0.00000005    0.00040600    0.00075358
     atom   10 type  2   force =    -0.00000000   -0.00053056    0.00018948
     atom   11 type  2   force =     0.00013518   -0.00013313    0.00122130
     atom   12 type  2   force =    -0.00013519   -0.00013311    0.00122134
     atom   13 type  1   force =    -0.00000004   -0.00005169    0.00024714
     atom   14 type  2   force =    -0.00038105   -0.00020559   -0.00032060
     atom   15 type  2   force =     0.00000002    0.00002435    0.00038288
     atom   16 type  2   force =     0.00038106   -0.00020562   -0.00032057
     atom   17 type  1   force =     0.00000004   -0.00211369   -0.00067670
     atom   18 type  2   force =     0.00063745    0.00044361   -0.00245626
     atom   19 type  2   force =    -0.00000005   -0.00007378   -0.00030703
     atom   20 type  2   force =    -0.00063745    0.00044363   -0.00245623
     atom   21 type  1   force =     0.00000000    0.00119119   -0.00191973
     atom   22 type  2   force =     0.00000004   -0.00180268    0.00201990
     atom   23 type  2   force =     0.00092665   -0.00001177   -0.00054830
     atom   24 type  2   force =    -0.00092667   -0.00001179   -0.00054827
     atom   25 type  3   force =    -0.00000000    0.00252206    0.00140538

     Total force =     0.006803     Total SCF correction =     0.000145


     Computing stress (Cartesian axis) and pressure


     negative rho (up, down):  1.557E-04 1.205E-04
          total   stress  (Ry/bohr**3)                   (kbar)     P=       -7.40
  -0.00007066   0.00000000   0.00000000          -10.39        0.00        0.00
   0.00000000  -0.00008091   0.00000303            0.00      -11.90        0.45
   0.00000000   0.00000303   0.00000072            0.00        0.45        0.11

     Energy error            =      1.5E-04 Ry
     Gradient error          =      2.5E-03 Ry/Bohr

     number of scf cycles    =  10
     number of bfgs steps    =   9

     energy             old  =   -7077.4622448881 Ry
     energy             new  =   -7077.4623957986 Ry

     CASE: energy            _new < energy            _old

     new trust radius        =       0.0150058277 bohr
     new conv_thr            =       0.0000000003 Ry


ATOMIC_POSITIONS (angstrom)
Ni               5.3171990772        3.0698863186       11.0000000000    0   0   0
Pd               2.6585995386        3.0698851333       11.0000764482    0   0   0
Pd               3.9878982814        0.7674721723       11.0000764482    0   0   0
Pd               1.3293007958        0.7674721723       11.0000764482    0   0   0
Ni               2.6585995386        1.5349431593       13.1707374333    0   0   0
Pd               3.9878982814        3.8373584909       13.1708138815    0   0   0
Pd               5.3171990772        1.5349419740       13.1708138815    0   0   0
Pd               6.6464998731        3.8373584909       13.1708138815    0   0   0
Ni              -0.0000001910        0.0016605197       15.3358616094
Pd               5.3171989731        4.6087259151       15.3357237435
Pd               3.9879715815        2.3043812123       15.3378594746
Pd               6.6464263551        2.3043811303       15.3378594534
Ni               5.3171989993        3.0712035825       17.5093761354
Pd               3.9880316315        0.7684647267       17.5120337460
Pd               2.6585993159        3.0699317007       17.5092409724
Pd               1.3291671108        0.7684646410       17.5120336191
Ni               2.6585993876        1.5345448967       19.6896749074
Pd               3.9923837312        3.8229331720       19.6780221131
Pd               5.3171991832        1.5283776257       19.6883868147
Pd               6.6420142798        3.8229333738       19.6780221613
Ni               0.0000000940       -0.0055554711       21.7970016859
Pd               5.3171989183        4.6095772000       21.8686606897
Pd               3.9932848766        2.2754265774       21.9007523671
Pd               6.6411132650        2.2754267430       21.9007524161
H                2.6585996650        3.1527051280       22.7536703982



     Writing config-only to output data dir /tmpu/isholek_g/isholek/MIGUEL/QE/Hydrogen/111_2x2/SAVE/Ni1Pd3_111-H_hcp_2.save/ :
     XML data file
     NEW-OLD atomic charge density approx. for the potential

     Check: negative core charge=   -0.000002

     negative rho (up, down):  1.470E-04 1.311E-04
     Generating pointlists ...

     total cpu time spent up to now is   240454.4 secs

     Self-consistent Calculation

     iteration #  1     ecut=    60.00 Ry     beta= 0.20
     Davidson diagonalization with overlap
     ethr =  1.00E-06,  avg # of iterations =  4.0

     Threshold (ethr) on eigenvalues was too large:
     Diagonalizing with lowered threshold

     Davidson diagonalization with overlap
     ethr =  9.97E-08,  avg # of iterations =  2.0

     negative rho (up, down):  1.538E-04 1.273E-04

     total cpu time spent up to now is   242615.5 secs

     total energy              =   -7077.46241905 Ry
     estimated scf accuracy    <       0.00023210 Ry

     total magnetization       =     9.76 Bohr mag/cell
     absolute magnetization    =    10.60 Bohr mag/cell

     iteration #  2     ecut=    60.00 Ry     beta= 0.20
     Davidson diagonalization with overlap
     ethr =  9.63E-08,  avg # of iterations =  1.0

     negative rho (up, down):  1.546E-04 1.264E-04

     total cpu time spent up to now is   243340.2 secs

     total energy              =   -7077.46243102 Ry
     estimated scf accuracy    <       0.00002723 Ry

     total magnetization       =     9.76 Bohr mag/cell
     absolute magnetization    =    10.61 Bohr mag/cell

     iteration #  3     ecut=    60.00 Ry     beta= 0.20
     Davidson diagonalization with overlap
     ethr =  1.13E-08,  avg # of iterations =  2.0

     negative rho (up, down):  1.551E-04 1.255E-04

     total cpu time spent up to now is   244144.8 secs

     total energy              =   -7077.46243710 Ry
     estimated scf accuracy    <       0.00003405 Ry

     total magnetization       =     9.76 Bohr mag/cell
     absolute magnetization    =    10.60 Bohr mag/cell

     iteration #  4     ecut=    60.00 Ry     beta= 0.20
     Davidson diagonalization with overlap
     ethr =  1.13E-08,  avg # of iterations =  1.0

     negative rho (up, down):  1.556E-04 1.249E-04

     total cpu time spent up to now is   244877.8 secs

     total energy              =   -7077.46244112 Ry
     estimated scf accuracy    <       0.00000963 Ry

     total magnetization       =     9.76 Bohr mag/cell
     absolute magnetization    =    10.60 Bohr mag/cell

     iteration #  5     ecut=    60.00 Ry     beta= 0.20
     Davidson diagonalization with overlap
     ethr =  3.99E-09,  avg # of iterations =  1.5

     negative rho (up, down):  1.560E-04 1.239E-04

     total cpu time spent up to now is   245630.9 secs

     total energy              =   -7077.46244652 Ry
     estimated scf accuracy    <       0.00000693 Ry

     total magnetization       =     9.76 Bohr mag/cell
     absolute magnetization    =    10.61 Bohr mag/cell

     iteration #  6     ecut=    60.00 Ry     beta= 0.20
     Davidson diagonalization with overlap
     ethr =  2.88E-09,  avg # of iterations =  2.0

     negative rho (up, down):  1.561E-04 1.232E-04

     total cpu time spent up to now is   246410.6 secs

     total energy              =   -7077.46244815 Ry
     estimated scf accuracy    <       0.00000250 Ry

     total magnetization       =     9.76 Bohr mag/cell
     absolute magnetization    =    10.60 Bohr mag/cell

     iteration #  7     ecut=    60.00 Ry     beta= 0.20
     Davidson diagonalization with overlap
     ethr =  1.04E-09,  avg # of iterations =  2.2

     negative rho (up, down):  1.557E-04 1.221E-04

     total cpu time spent up to now is   247215.2 secs

     total energy              =   -7077.46244854 Ry
     estimated scf accuracy    <       0.00000060 Ry

     total magnetization       =     9.76 Bohr mag/cell
     absolute magnetization    =    10.60 Bohr mag/cell

     iteration #  8     ecut=    60.00 Ry     beta= 0.20
     Davidson diagonalization with overlap
     ethr =  2.49E-10,  avg # of iterations =  4.8

     negative rho (up, down):  1.555E-04 1.216E-04

     total cpu time spent up to now is   248272.2 secs

     total energy              =   -7077.46244869 Ry
     estimated scf accuracy    <       0.00000042 Ry

     total magnetization       =     9.76 Bohr mag/cell
     absolute magnetization    =    10.60 Bohr mag/cell

     iteration #  9     ecut=    60.00 Ry     beta= 0.20
     Davidson diagonalization with overlap
     ethr =  1.73E-10,  avg # of iterations =  1.1

     negative rho (up, down):  1.547E-04 1.206E-04

     total cpu time spent up to now is   248990.8 secs

     total energy              =   -7077.46244868 Ry
     estimated scf accuracy    <       0.00000026 Ry

     total magnetization       =     9.76 Bohr mag/cell
     absolute magnetization    =    10.60 Bohr mag/cell

     iteration # 10     ecut=    60.00 Ry     beta= 0.20
     Davidson diagonalization with overlap
     ethr =  1.07E-10,  avg # of iterations =  1.3

     negative rho (up, down):  1.540E-04 1.197E-04

     total cpu time spent up to now is   249731.9 secs

     total energy              =   -7077.46244868 Ry
     estimated scf accuracy    <       0.00000009 Ry

     total magnetization       =     9.76 Bohr mag/cell
     absolute magnetization    =    10.60 Bohr mag/cell

     iteration # 11     ecut=    60.00 Ry     beta= 0.20
     Davidson diagonalization with overlap
     ethr =  3.79E-11,  avg # of iterations =  1.6

     negative rho (up, down):  1.539E-04 1.194E-04

     total cpu time spent up to now is   250509.4 secs

     total energy              =   -7077.46244869 Ry
     estimated scf accuracy    <       0.00000009 Ry

     total magnetization       =     9.76 Bohr mag/cell
     absolute magnetization    =    10.60 Bohr mag/cell

     iteration # 12     ecut=    60.00 Ry     beta= 0.20
     Davidson diagonalization with overlap
     ethr =  3.53E-11,  avg # of iterations =  1.0

     negative rho (up, down):  1.536E-04 1.190E-04

     total cpu time spent up to now is   251225.0 secs

     total energy              =   -7077.46244869 Ry
     estimated scf accuracy    <       0.00000010 Ry

     total magnetization       =     9.76 Bohr mag/cell
     absolute magnetization    =    10.60 Bohr mag/cell

     iteration # 13     ecut=    60.00 Ry     beta= 0.20
     Davidson diagonalization with overlap
     ethr =  3.53E-11,  avg # of iterations =  1.0

     negative rho (up, down):  1.532E-04 1.184E-04

     total cpu time spent up to now is   251944.5 secs

     total energy              =   -7077.46244868 Ry
     estimated scf accuracy    <       0.00000011 Ry

     total magnetization       =     9.76 Bohr mag/cell
     absolute magnetization    =    10.60 Bohr mag/cell

     iteration # 14     ecut=    60.00 Ry     beta= 0.20
     Davidson diagonalization with overlap
     ethr =  3.53E-11,  avg # of iterations =  1.0

     negative rho (up, down):  1.531E-04 1.183E-04

     total cpu time spent up to now is   252663.3 secs

     total energy              =   -7077.46244869 Ry
     estimated scf accuracy    <       0.00000004 Ry

     total magnetization       =     9.76 Bohr mag/cell
     absolute magnetization    =    10.60 Bohr mag/cell

     iteration # 15     ecut=    60.00 Ry     beta= 0.20
     Davidson diagonalization with overlap
     ethr =  1.85E-11,  avg # of iterations =  1.0

     negative rho (up, down):  1.530E-04 1.181E-04

     total cpu time spent up to now is   253390.7 secs

     total energy              =   -7077.46244869 Ry
     estimated scf accuracy    <       0.00000004 Ry

     total magnetization       =     9.76 Bohr mag/cell
     absolute magnetization    =    10.60 Bohr mag/cell

     iteration # 16     ecut=    60.00 Ry     beta= 0.20
     Davidson diagonalization with overlap
     ethr =  1.57E-11,  avg # of iterations =  1.0

     negative rho (up, down):  1.529E-04 1.180E-04

     total cpu time spent up to now is   254125.0 secs

     total energy              =   -7077.46244869 Ry
     estimated scf accuracy    <       0.00000002 Ry

     total magnetization       =     9.76 Bohr mag/cell
     absolute magnetization    =    10.60 Bohr mag/cell

     iteration # 17     ecut=    60.00 Ry     beta= 0.20
     Davidson diagonalization with overlap
     ethr =  1.01E-11,  avg # of iterations =  1.0

     negative rho (up, down):  1.531E-04 1.180E-04

     total cpu time spent up to now is   254847.0 secs

     total energy              =   -7077.46244869 Ry
     estimated scf accuracy    <          8.0E-10 Ry

     total magnetization       =     9.76 Bohr mag/cell
     absolute magnetization    =    10.60 Bohr mag/cell

     iteration # 18     ecut=    60.00 Ry     beta= 0.20
     Davidson diagonalization with overlap
     ethr =  3.33E-13,  avg # of iterations =  5.1

     negative rho (up, down):  1.532E-04 1.182E-04

     total cpu time spent up to now is   256183.2 secs

     total energy              =   -7077.46244869 Ry
     estimated scf accuracy    <          3.3E-10 Ry

     total magnetization       =     9.76 Bohr mag/cell
     absolute magnetization    =    10.60 Bohr mag/cell

     iteration # 19     ecut=    60.00 Ry     beta= 0.20
     Davidson diagonalization with overlap
     ethr =  1.36E-13,  avg # of iterations =  1.4

     negative rho (up, down):  1.533E-04 1.183E-04

     total cpu time spent up to now is   256945.4 secs

     total energy              =   -7077.46244869 Ry
     estimated scf accuracy    <          3.4E-10 Ry

     total magnetization       =     9.76 Bohr mag/cell
     absolute magnetization    =    10.60 Bohr mag/cell

     iteration # 20     ecut=    60.00 Ry     beta= 0.20
     Davidson diagonalization with overlap
     ethr =  1.36E-13,  avg # of iterations =  1.0

     negative rho (up, down):  1.536E-04 1.184E-04

     total cpu time spent up to now is   257691.4 secs

     total energy              =   -7077.46244869 Ry
     estimated scf accuracy    <          3.8E-10 Ry

     total magnetization       =     9.76 Bohr mag/cell
     absolute magnetization    =    10.60 Bohr mag/cell

     iteration # 21     ecut=    60.00 Ry     beta= 0.20
     Davidson diagonalization with overlap
     ethr =  1.36E-13,  avg # of iterations =  1.0

     negative rho (up, down):  1.537E-04 1.186E-04

     total cpu time spent up to now is   258411.6 secs

     total energy              =   -7077.46244869 Ry
     estimated scf accuracy    <          3.8E-10 Ry

     total magnetization       =     9.76 Bohr mag/cell
     absolute magnetization    =    10.60 Bohr mag/cell

     iteration # 22     ecut=    60.00 Ry     beta= 0.20
     Davidson diagonalization with overlap
     ethr =  1.36E-13,  avg # of iterations =  1.0

     negative rho (up, down):  1.538E-04 1.187E-04

     total cpu time spent up to now is   259120.2 secs

     total energy              =   -7077.46244869 Ry
     estimated scf accuracy    <          4.1E-10 Ry

     total magnetization       =     9.76 Bohr mag/cell
     absolute magnetization    =    10.60 Bohr mag/cell

     iteration # 23     ecut=    60.00 Ry     beta= 0.20
     Davidson diagonalization with overlap
     ethr =  1.36E-13,  avg # of iterations =  1.0

     negative rho (up, down):  1.538E-04 1.186E-04

     total cpu time spent up to now is   259863.5 secs

     total energy              =   -7077.46244869 Ry
     estimated scf accuracy    <          4.5E-10 Ry

     total magnetization       =     9.76 Bohr mag/cell
     absolute magnetization    =    10.60 Bohr mag/cell

     iteration # 24     ecut=    60.00 Ry     beta= 0.20
     Davidson diagonalization with overlap
     ethr =  1.36E-13,  avg # of iterations =  1.0

     negative rho (up, down):  1.538E-04 1.186E-04

     total cpu time spent up to now is   260585.6 secs

     total energy              =   -7077.46244869 Ry
     estimated scf accuracy    <          4.2E-10 Ry

     total magnetization       =     9.76 Bohr mag/cell
     absolute magnetization    =    10.60 Bohr mag/cell

     iteration # 25     ecut=    60.00 Ry     beta= 0.20
     Davidson diagonalization with overlap
     ethr =  1.36E-13,  avg # of iterations =  1.0

     negative rho (up, down):  1.538E-04 1.186E-04

     total cpu time spent up to now is   261289.1 secs

     total energy              =   -7077.46244869 Ry
     estimated scf accuracy    <          4.5E-10 Ry

     total magnetization       =     9.76 Bohr mag/cell
     absolute magnetization    =    10.60 Bohr mag/cell

     iteration # 26     ecut=    60.00 Ry     beta= 0.20
     Davidson diagonalization with overlap
     ethr =  1.36E-13,  avg # of iterations =  1.0

     negative rho (up, down):  1.539E-04 1.187E-04

     total cpu time spent up to now is   261985.1 secs

     total energy              =   -7077.46244869 Ry
     estimated scf accuracy    <          3.6E-10 Ry

     total magnetization       =     9.76 Bohr mag/cell
     absolute magnetization    =    10.60 Bohr mag/cell

     iteration # 27     ecut=    60.00 Ry     beta= 0.20
     Davidson diagonalization with overlap
     ethr =  1.36E-13,  avg # of iterations =  1.0

     negative rho (up, down):  1.539E-04 1.187E-04

     total cpu time spent up to now is   262697.0 secs

     total energy              =   -7077.46244869 Ry
     estimated scf accuracy    <          4.4E-10 Ry

     total magnetization       =     9.76 Bohr mag/cell
     absolute magnetization    =    10.60 Bohr mag/cell

     iteration # 28     ecut=    60.00 Ry     beta= 0.20
     Davidson diagonalization with overlap
     ethr =  1.36E-13,  avg # of iterations =  1.0

     negative rho (up, down):  1.539E-04 1.187E-04

     total cpu time spent up to now is   263407.7 secs

     total energy              =   -7077.46244869 Ry
     estimated scf accuracy    <          5.6E-10 Ry

     total magnetization       =     9.76 Bohr mag/cell
     absolute magnetization    =    10.60 Bohr mag/cell

     iteration # 29     ecut=    60.00 Ry     beta= 0.20
     Davidson diagonalization with overlap
     ethr =  1.36E-13,  avg # of iterations =  1.0

     negative rho (up, down):  1.541E-04 1.189E-04

     total cpu time spent up to now is   264112.7 secs

     total energy              =   -7077.46244869 Ry
     estimated scf accuracy    <          4.6E-10 Ry

     total magnetization       =     9.76 Bohr mag/cell
     absolute magnetization    =    10.60 Bohr mag/cell

     iteration # 30     ecut=    60.00 Ry     beta= 0.20
     Davidson diagonalization with overlap
     ethr =  1.36E-13,  avg # of iterations =  1.0

     negative rho (up, down):  1.543E-04 1.191E-04

     total cpu time spent up to now is   264834.9 secs

     total energy              =   -7077.46244869 Ry
     estimated scf accuracy    <          4.3E-10 Ry

     total magnetization       =     9.76 Bohr mag/cell
     absolute magnetization    =    10.60 Bohr mag/cell

     iteration # 31     ecut=    60.00 Ry     beta= 0.20
     Davidson diagonalization with overlap
     ethr =  1.36E-13,  avg # of iterations =  1.0

     negative rho (up, down):  1.557E-04 1.205E-04
 
     Magnetic moment per site  (integrated on atomic sphere of radius R)
     atom   1 (R=0.135)  charge=  6.9706  magn=  0.8799
     atom   2 (R=0.140)  charge=  5.5911  magn=  0.2009
     atom   3 (R=0.140)  charge=  5.5911  magn=  0.2036
     atom   4 (R=0.140)  charge=  5.5911  magn=  0.2036
     atom   5 (R=0.135)  charge=  6.9646  magn=  0.8499
     atom   6 (R=0.140)  charge=  5.5774  magn=  0.2521
     atom   7 (R=0.140)  charge=  5.5775  magn=  0.2517
     atom   8 (R=0.140)  charge=  5.5774  magn=  0.2521
     atom   9 (R=0.135)  charge=  6.9668  magn=  0.7982
     atom  10 (R=0.140)  charge=  5.5747  magn=  0.2511
     atom  11 (R=0.140)  charge=  5.5748  magn=  0.2386
     atom  12 (R=0.140)  charge=  5.5748  magn=  0.2386
     atom  13 (R=0.135)  charge=  6.9671  magn=  0.7997
     atom  14 (R=0.140)  charge=  5.5754  magn=  0.2336
     atom  15 (R=0.140)  charge=  5.5750  magn=  0.2372
     atom  16 (R=0.140)  charge=  5.5754  magn=  0.2336
     atom  17 (R=0.135)  charge=  6.9653  magn=  0.8404
     atom  18 (R=0.140)  charge=  5.5775  magn=  0.2401
     atom  19 (R=0.140)  charge=  5.5787  magn=  0.2014
     atom  20 (R=0.140)  charge=  5.5775  magn=  0.2401
     atom  21 (R=0.135)  charge=  6.9767  magn=  0.6746
     atom  22 (R=0.140)  charge=  5.5951  magn=  0.1841
     atom  23 (R=0.140)  charge=  5.5878  magn=  0.1294
     atom  24 (R=0.140)  charge=  5.5878  magn=  0.1294
     atom  25 (R=0.135)  charge=  0.9341  magn= -0.0060

     total cpu time spent up to now is   265547.7 secs

     End of self-consistent calculation

     Number of k-points >= 100: set verbosity='high' to print the bands.

     the Fermi energy is    -5.1625 ev

!    total energy              =   -7077.46244869 Ry
     total all-electron energy =   -199909.899019 Ry
     estimated scf accuracy    <          2.7E-10 Ry
     smearing contrib. (-TS)   =       0.00075956 Ry
     internal energy E=F+TS    =   -7077.46320825 Ry

     The total energy is F=E-TS. E is the sum of the following terms:
     one-electron contribution =  -61194.68301628 Ry
     hartree contribution      =   30784.81146726 Ry
     xc contribution           =    -835.54850187 Ry
     ewald contribution        =   29302.11629556 Ry
     DFT-D3 Dispersion         =      -2.53236863 Ry
     one-center paw contrib.   =   -5131.62708429 Ry

     total magnetization       =     9.76 Bohr mag/cell
     absolute magnetization    =    10.60 Bohr mag/cell

     convergence has been achieved in  31 iterations

     negative rho (up, down):  1.557E-04 1.205E-04

     Forces acting on atoms (cartesian axes, Ry/au):

     atom    1 type  1   force =     0.00000000   -0.00008000    0.01593162
     atom    2 type  2   force =    -0.00000000   -0.01420850   -0.00882294
     atom    3 type  2   force =    -0.01240372    0.00715990   -0.00927876
     atom    4 type  2   force =     0.01240373    0.00715990   -0.00927877
     atom    5 type  1   force =    -0.00000000    0.00028228    0.00014224
     atom    6 type  2   force =    -0.00068477    0.00023215    0.00466904
     atom    7 type  2   force =    -0.00000001   -0.00047214    0.00468560
     atom    8 type  2   force =     0.00068476    0.00023215    0.00466905
     atom    9 type  1   force =     0.00000002    0.00035722    0.00083219
     atom   10 type  2   force =     0.00000001   -0.00061174   -0.00016354
     atom   11 type  2   force =     0.00010156   -0.00014852    0.00113746
     atom   12 type  2   force =    -0.00010157   -0.00014849    0.00113745
     atom   13 type  1   force =    -0.00000002   -0.00011775    0.00003602
     atom   14 type  2   force =    -0.00023814   -0.00018020   -0.00071493
     atom   15 type  2   force =     0.00000003   -0.00008630    0.00025480
     atom   16 type  2   force =     0.00023815   -0.00018023   -0.00071491
     atom   17 type  1   force =     0.00000002   -0.00210526   -0.00090164
     atom   18 type  2   force =     0.00063686    0.00060862   -0.00259240
     atom   19 type  2   force =    -0.00000004    0.00015505   -0.00001239
     atom   20 type  2   force =    -0.00063685    0.00060861   -0.00259237
     atom   21 type  1   force =    -0.00000003    0.00070242   -0.00146292
     atom   22 type  2   force =     0.00000003   -0.00140357    0.00192642
     atom   23 type  2   force =     0.00095932    0.00015721    0.00001480
     atom   24 type  2   force =    -0.00095931    0.00015721    0.00001481
     atom   25 type  3   force =    -0.00000001    0.00192996    0.00108407

     Total force =     0.006366     Total SCF correction =     0.000068


     Computing stress (Cartesian axis) and pressure


     negative rho (up, down):  1.557E-04 1.205E-04
          total   stress  (Ry/bohr**3)                   (kbar)     P=       -7.30
  -0.00007041  -0.00000000   0.00000000          -10.36       -0.00        0.00
  -0.00000000  -0.00008046   0.00000282           -0.00      -11.84        0.41
   0.00000000   0.00000282   0.00000191            0.00        0.41        0.28

     Energy error            =      5.3E-05 Ry
     Gradient error          =      2.6E-03 Ry/Bohr

     number of scf cycles    =  11
     number of bfgs steps    =  10

     energy             old  =   -7077.4623957986 Ry
     energy             new  =   -7077.4624486934 Ry

     CASE: energy            _new < energy            _old

     new trust radius        =       0.0165064105 bohr
     new conv_thr            =       0.0000000003 Ry


ATOMIC_POSITIONS (angstrom)
Ni               5.3171990772        3.0698863186       11.0000000000    0   0   0
Pd               2.6585995386        3.0698851333       11.0000764482    0   0   0
Pd               3.9878982814        0.7674721723       11.0000764482    0   0   0
Pd               1.3293007958        0.7674721723       11.0000764482    0   0   0
Ni               2.6585995386        1.5349431593       13.1707374333    0   0   0
Pd               3.9878982814        3.8373584909       13.1708138815    0   0   0
Pd               5.3171990772        1.5349419740       13.1708138815    0   0   0
Pd               6.6464998731        3.8373584909       13.1708138815    0   0   0
Ni              -0.0000000222        0.0021821660       15.3365599214
Pd               5.3171989605        4.6085041937       15.3366462956
Pd               3.9880884514        2.3044086802       15.3390515552
Pd               6.6463094675        2.3044086362       15.3390516906
Ni               5.3171989030        3.0710518740       17.5099833315
Pd               3.9875665259        0.7682651373       17.5126043065
Pd               2.6585993275        3.0700168930       17.5096882994
Pd               1.3296322281        0.7682650480       17.5126042740
Ni               2.6585993910        1.5318185920       19.6898760181
Pd               3.9928587836        3.8220773436       19.6765961818
Pd               5.3171991250        1.5274215035       19.6867900664
Pd               6.6415392693        3.8220775436       19.6765962419
Ni               0.0000001306       -0.0034883088       21.7929195244
Pd               5.3171989919        4.6063754656       21.8708055396
Pd               3.9925603899        2.2744266643       21.8983102955
Pd               6.6418376818        2.2744267270       21.8983104661
H                2.6585996704        3.1613984473       22.7528199787



     Writing config-only to output data dir /tmpu/isholek_g/isholek/MIGUEL/QE/Hydrogen/111_2x2/SAVE/Ni1Pd3_111-H_hcp_2.save/ :
     XML data file
     NEW-OLD atomic charge density approx. for the potential

     Check: negative core charge=   -0.000002

     negative rho (up, down):  1.473E-04 1.312E-04
     Generating pointlists ...

     total cpu time spent up to now is   266243.0 secs

     Self-consistent Calculation

     iteration #  1     ecut=    60.00 Ry     beta= 0.20
     Davidson diagonalization with overlap
     ethr =  1.00E-06,  avg # of iterations =  4.1

     Threshold (ethr) on eigenvalues was too large:
     Diagonalizing with lowered threshold

     Davidson diagonalization with overlap
     ethr =  7.35E-08,  avg # of iterations =  2.1

     negative rho (up, down):  1.543E-04 1.282E-04

     total cpu time spent up to now is   268586.2 secs

     total energy              =   -7077.46247818 Ry
     estimated scf accuracy    <       0.00017505 Ry

     total magnetization       =     9.75 Bohr mag/cell
     absolute magnetization    =    10.60 Bohr mag/cell

     iteration #  2     ecut=    60.00 Ry     beta= 0.20
     Davidson diagonalization with overlap
     ethr =  7.26E-08,  avg # of iterations =  1.0

     negative rho (up, down):  1.551E-04 1.270E-04

     total cpu time spent up to now is   269297.3 secs

     total energy              =   -7077.46249175 Ry
     estimated scf accuracy    <       0.00002015 Ry

     total magnetization       =     9.76 Bohr mag/cell
     absolute magnetization    =    10.61 Bohr mag/cell

     iteration #  3     ecut=    60.00 Ry     beta= 0.20
     Davidson diagonalization with overlap
     ethr =  8.36E-09,  avg # of iterations =  2.0

     negative rho (up, down):  1.553E-04 1.260E-04

     total cpu time spent up to now is   270145.2 secs

     total energy              =   -7077.46249843 Ry
     estimated scf accuracy    <       0.00001392 Ry

     total magnetization       =     9.76 Bohr mag/cell
     absolute magnetization    =    10.60 Bohr mag/cell

     iteration #  4     ecut=    60.00 Ry     beta= 0.20
     Davidson diagonalization with overlap
     ethr =  5.77E-09,  avg # of iterations =  1.1

     negative rho (up, down):  1.557E-04 1.252E-04

     total cpu time spent up to now is   270866.1 secs

     total energy              =   -7077.46250265 Ry
     estimated scf accuracy    <       0.00001464 Ry

     total magnetization       =     9.76 Bohr mag/cell
     absolute magnetization    =    10.60 Bohr mag/cell

     iteration #  5     ecut=    60.00 Ry     beta= 0.20
     Davidson diagonalization with overlap
     ethr =  5.77E-09,  avg # of iterations =  1.0

     negative rho (up, down):  1.563E-04 1.243E-04

     total cpu time spent up to now is   271578.9 secs

     total energy              =   -7077.46251181 Ry
     estimated scf accuracy    <       0.00000750 Ry

     total magnetization       =     9.76 Bohr mag/cell
     absolute magnetization    =    10.60 Bohr mag/cell

     iteration #  6     ecut=    60.00 Ry     beta= 0.20
     Davidson diagonalization with overlap
     ethr =  3.11E-09,  avg # of iterations =  2.1

     negative rho (up, down):  1.564E-04 1.235E-04

     total cpu time spent up to now is   272418.9 secs

     total energy              =   -7077.46251383 Ry
     estimated scf accuracy    <       0.00000166 Ry

     total magnetization       =     9.76 Bohr mag/cell
     absolute magnetization    =    10.60 Bohr mag/cell

     iteration #  7     ecut=    60.00 Ry     beta= 0.20
     Davidson diagonalization with overlap
     ethr =  6.90E-10,  avg # of iterations =  3.1

     negative rho (up, down):  1.563E-04 1.228E-04

     total cpu time spent up to now is   273315.2 secs

     total energy              =   -7077.46251414 Ry
     estimated scf accuracy    <       0.00000105 Ry

     total magnetization       =     9.76 Bohr mag/cell
     absolute magnetization    =    10.60 Bohr mag/cell

     iteration #  8     ecut=    60.00 Ry     beta= 0.20
     Davidson diagonalization with overlap
     ethr =  4.37E-10,  avg # of iterations =  2.0

     negative rho (up, down):  1.559E-04 1.221E-04

     total cpu time spent up to now is   274098.7 secs

     total energy              =   -7077.46251422 Ry
     estimated scf accuracy    <       0.00000032 Ry

     total magnetization       =     9.76 Bohr mag/cell
     absolute magnetization    =    10.60 Bohr mag/cell

     iteration #  9     ecut=    60.00 Ry     beta= 0.20
     Davidson diagonalization with overlap
     ethr =  1.34E-10,  avg # of iterations =  2.7

     negative rho (up, down):  1.556E-04 1.215E-04

     total cpu time spent up to now is   274969.0 secs

     total energy              =   -7077.46251423 Ry
     estimated scf accuracy    <       0.00000021 Ry

     total magnetization       =     9.76 Bohr mag/cell
     absolute magnetization    =    10.60 Bohr mag/cell

     iteration # 10     ecut=    60.00 Ry     beta= 0.20
     Davidson diagonalization with overlap
     ethr =  8.60E-11,  avg # of iterations =  1.8

     negative rho (up, down):  1.551E-04 1.208E-04

     total cpu time spent up to now is   275738.2 secs

     total energy              =   -7077.46251424 Ry
     estimated scf accuracy    <       0.00000010 Ry

     total magnetization       =     9.76 Bohr mag/cell
     absolute magnetization    =    10.60 Bohr mag/cell

     iteration # 11     ecut=    60.00 Ry     beta= 0.20
     Davidson diagonalization with overlap
     ethr =  4.08E-11,  avg # of iterations =  2.7

     negative rho (up, down):  1.550E-04 1.205E-04

     total cpu time spent up to now is   276592.9 secs

     total energy              =   -7077.46251425 Ry
     estimated scf accuracy    <       0.00000002 Ry

     total magnetization       =     9.76 Bohr mag/cell
     absolute magnetization    =    10.60 Bohr mag/cell

     iteration # 12     ecut=    60.00 Ry     beta= 0.20
     Davidson diagonalization with overlap
     ethr =  9.60E-12,  avg # of iterations =  3.4

     negative rho (up, down):  1.548E-04 1.202E-04

     total cpu time spent up to now is   277715.2 secs

     total energy              =   -7077.46251425 Ry
     estimated scf accuracy    <       0.00000007 Ry

     total magnetization       =     9.76 Bohr mag/cell
     absolute magnetization    =    10.60 Bohr mag/cell

     iteration # 13     ecut=    60.00 Ry     beta= 0.20
     Davidson diagonalization with overlap
     ethr =  9.60E-12,  avg # of iterations =  1.1

     negative rho (up, down):  1.546E-04 1.199E-04

     total cpu time spent up to now is   278439.3 secs

     total energy              =   -7077.46251425 Ry
     estimated scf accuracy    <       0.00000004 Ry

     total magnetization       =     9.76 Bohr mag/cell
     absolute magnetization    =    10.60 Bohr mag/cell

     iteration # 14     ecut=    60.00 Ry     beta= 0.20
     Davidson diagonalization with overlap
     ethr =  9.60E-12,  avg # of iterations =  1.5

     negative rho (up, down):  1.546E-04 1.198E-04

     total cpu time spent up to now is   279184.2 secs

     total energy              =   -7077.46251425 Ry
     estimated scf accuracy    <       0.00000002 Ry

     total magnetization       =     9.76 Bohr mag/cell
     absolute magnetization    =    10.60 Bohr mag/cell

     iteration # 15     ecut=    60.00 Ry     beta= 0.20
     Davidson diagonalization with overlap
     ethr =  7.89E-12,  avg # of iterations =  1.0

     negative rho (up, down):  1.545E-04 1.196E-04

     total cpu time spent up to now is   279904.3 secs

     total energy              =   -7077.46251426 Ry
     estimated scf accuracy    <       0.00000002 Ry

     total magnetization       =     9.76 Bohr mag/cell
     absolute magnetization    =    10.60 Bohr mag/cell

     iteration # 16     ecut=    60.00 Ry     beta= 0.20
     Davidson diagonalization with overlap
     ethr =  7.89E-12,  avg # of iterations =  1.0

     negative rho (up, down):  1.545E-04 1.196E-04

     total cpu time spent up to now is   280617.8 secs

     total energy              =   -7077.46251426 Ry
     estimated scf accuracy    <       0.00000001 Ry

     total magnetization       =     9.76 Bohr mag/cell
     absolute magnetization    =    10.60 Bohr mag/cell

     iteration # 17     ecut=    60.00 Ry     beta= 0.20
     Davidson diagonalization with overlap
     ethr =  4.15E-12,  avg # of iterations =  1.0

     negative rho (up, down):  1.544E-04 1.194E-04

     total cpu time spent up to now is   281335.4 secs

     total energy              =   -7077.46251426 Ry
     estimated scf accuracy    <          5.4E-09 Ry

     total magnetization       =     9.76 Bohr mag/cell
     absolute magnetization    =    10.60 Bohr mag/cell

     iteration # 18     ecut=    60.00 Ry     beta= 0.20
     Davidson diagonalization with overlap
     ethr =  2.25E-12,  avg # of iterations =  1.1

     negative rho (up, down):  1.545E-04 1.194E-04

     total cpu time spent up to now is   282071.8 secs

     total energy              =   -7077.46251426 Ry
     estimated scf accuracy    <          8.2E-10 Ry

     total magnetization       =     9.76 Bohr mag/cell
     absolute magnetization    =    10.60 Bohr mag/cell

     iteration # 19     ecut=    60.00 Ry     beta= 0.20
     Davidson diagonalization with overlap
     ethr =  3.41E-13,  avg # of iterations =  2.2

     negative rho (up, down):  1.557E-04 1.205E-04
 
     Magnetic moment per site  (integrated on atomic sphere of radius R)
     atom   1 (R=0.135)  charge=  6.9706  magn=  0.8799
     atom   2 (R=0.140)  charge=  5.5911  magn=  0.2008
     atom   3 (R=0.140)  charge=  5.5911  magn=  0.2036
     atom   4 (R=0.140)  charge=  5.5911  magn=  0.2036
     atom   5 (R=0.135)  charge=  6.9646  magn=  0.8498
     atom   6 (R=0.140)  charge=  5.5774  magn=  0.2520
     atom   7 (R=0.140)  charge=  5.5775  magn=  0.2516
     atom   8 (R=0.140)  charge=  5.5774  magn=  0.2520
     atom   9 (R=0.135)  charge=  6.9668  magn=  0.7982
     atom  10 (R=0.140)  charge=  5.5748  magn=  0.2509
     atom  11 (R=0.140)  charge=  5.5748  magn=  0.2384
     atom  12 (R=0.140)  charge=  5.5748  magn=  0.2384
     atom  13 (R=0.135)  charge=  6.9671  magn=  0.7997
     atom  14 (R=0.140)  charge=  5.5754  magn=  0.2337
     atom  15 (R=0.140)  charge=  5.5750  magn=  0.2371
     atom  16 (R=0.140)  charge=  5.5754  magn=  0.2337
     atom  17 (R=0.135)  charge=  6.9653  magn=  0.8409
     atom  18 (R=0.140)  charge=  5.5776  magn=  0.2402
     atom  19 (R=0.140)  charge=  5.5787  magn=  0.2015
     atom  20 (R=0.140)  charge=  5.5776  magn=  0.2402
     atom  21 (R=0.135)  charge=  6.9766  magn=  0.6720
     atom  22 (R=0.140)  charge=  5.5951  magn=  0.1836
     atom  23 (R=0.140)  charge=  5.5877  magn=  0.1300
     atom  24 (R=0.140)  charge=  5.5877  magn=  0.1300
     atom  25 (R=0.135)  charge=  0.9317  magn= -0.0061

     total cpu time spent up to now is   282860.2 secs

     End of self-consistent calculation

     Number of k-points >= 100: set verbosity='high' to print the bands.

     the Fermi energy is    -5.1626 ev

!    total energy              =   -7077.46251426 Ry
     total all-electron energy =   -199909.899084 Ry
     estimated scf accuracy    <          3.0E-10 Ry
     smearing contrib. (-TS)   =       0.00076722 Ry
     internal energy E=F+TS    =   -7077.46328148 Ry

     The total energy is F=E-TS. E is the sum of the following terms:
     one-electron contribution =  -61205.28888953 Ry
     hartree contribution      =   30790.11473545 Ry
     xc contribution           =    -835.54964864 Ry
     ewald contribution        =   29307.42055305 Ry
     DFT-D3 Dispersion         =      -2.53260952 Ry
     one-center paw contrib.   =   -5131.62742228 Ry

     total magnetization       =     9.76 Bohr mag/cell
     absolute magnetization    =    10.60 Bohr mag/cell

     convergence has been achieved in  19 iterations

     negative rho (up, down):  1.557E-04 1.205E-04

     Forces acting on atoms (cartesian axes, Ry/au):

     atom    1 type  1   force =     0.00000000   -0.00007918    0.01593255
     atom    2 type  2   force =     0.00000000   -0.01420980   -0.00882882
     atom    3 type  2   force =    -0.01240603    0.00716159   -0.00928610
     atom    4 type  2   force =     0.01240603    0.00716160   -0.00928610
     atom    5 type  1   force =    -0.00000001    0.00028970    0.00031326
     atom    6 type  2   force =    -0.00065163    0.00018176    0.00493531
     atom    7 type  2   force =     0.00000000   -0.00038950    0.00497507
     atom    8 type  2   force =     0.00065162    0.00018176    0.00493535
     atom    9 type  1   force =    -0.00000003    0.00018796    0.00067673
     atom   10 type  2   force =     0.00000003   -0.00053534   -0.00058662
     atom   11 type  2   force =     0.00001834   -0.00012274    0.00064704
     atom   12 type  2   force =    -0.00001835   -0.00012269    0.00064697
     atom   13 type  1   force =     0.00000000   -0.00020614   -0.00029728
     atom   14 type  2   force =     0.00002244   -0.00012252   -0.00103063
     atom   15 type  2   force =     0.00000002   -0.00024916   -0.00000020
     atom   16 type  2   force =    -0.00002242   -0.00012253   -0.00103062
     atom   17 type  1   force =     0.00000001   -0.00164126   -0.00089705
     atom   18 type  2   force =     0.00043003    0.00055031   -0.00197213
     atom   19 type  2   force =    -0.00000001    0.00037552    0.00020843
     atom   20 type  2   force =    -0.00043005    0.00055028   -0.00197209
     atom   21 type  1   force =    -0.00000003   -0.00004567   -0.00084873
     atom   22 type  2   force =     0.00000000   -0.00061642    0.00132126
     atom   23 type  2   force =     0.00054231    0.00029575    0.00050116
     atom   24 type  2   force =    -0.00054227    0.00029578    0.00050115
     atom   25 type  3   force =    -0.00000001    0.00123094    0.00044211

     Total force =     0.004754     Total SCF correction =     0.000105


     Computing stress (Cartesian axis) and pressure


     negative rho (up, down):  1.557E-04 1.205E-04
          total   stress  (Ry/bohr**3)                   (kbar)     P=       -7.22
  -0.00007025  -0.00000000  -0.00000000          -10.33       -0.00       -0.00
  -0.00000000  -0.00008008   0.00000251           -0.00      -11.78        0.37
  -0.00000000   0.00000251   0.00000314           -0.00        0.37        0.46

     Energy error            =      6.6E-05 Ry
     Gradient error          =      2.0E-03 Ry/Bohr

     number of scf cycles    =  12
     number of bfgs steps    =  11

     energy             old  =   -7077.4624486934 Ry
     energy             new  =   -7077.4625142585 Ry

     CASE: energy            _new < energy            _old

     new trust radius        =       0.0164255725 bohr
     new conv_thr            =       0.0000000003 Ry


ATOMIC_POSITIONS (angstrom)
Ni               5.3171990772        3.0698863186       11.0000000000    0   0   0
Pd               2.6585995386        3.0698851333       11.0000764482    0   0   0
Pd               3.9878982814        0.7674721723       11.0000764482    0   0   0
Pd               1.3293007958        0.7674721723       11.0000764482    0   0   0
Ni               2.6585995386        1.5349431593       13.1707374333    0   0   0
Pd               3.9878982814        3.8373584909       13.1708138815    0   0   0
Pd               5.3171990772        1.5349419740       13.1708138815    0   0   0
Pd               6.6464998731        3.8373584909       13.1708138815    0   0   0
Ni               0.0000001309        0.0027899546       15.3377621173
Pd               5.3171989623        4.6078390745       15.3368850929
Pd               3.9881903643        2.3043237054       15.3406328749
Pd               6.6462075362        2.3043237321       15.3406331277
Ni               5.3171988120        3.0707045514       17.5102139641
Pd               3.9872284757        0.7680051673       17.5121514293
Pd               2.6585993559        3.0698366193       17.5100398023
Pd               1.3299703082        0.7680050709       17.5121515048
Ni               2.6585994074        1.5280054801       19.6892836019
Pd               3.9936209333        3.8217902132       19.6736820525
Pd               5.3171990584        1.5269314003       19.6855191431
Pd               6.6407771429        3.8217903889       19.6736821591
Ni               0.0000001509       -0.0018256872       21.7885788183
Pd               5.3171990606        4.6031205471       21.8738230888
Pd               3.9921987077        2.2738464704       21.8966215282
Pd               6.6421993205        2.2738464519       21.8966218242
H                2.6585996616        3.1700832044       22.7524642685



     Writing config-only to output data dir /tmpu/isholek_g/isholek/MIGUEL/QE/Hydrogen/111_2x2/SAVE/Ni1Pd3_111-H_hcp_2.save/ :
     XML data file
     NEW-OLD atomic charge density approx. for the potential

     Check: negative core charge=   -0.000002

     negative rho (up, down):  1.479E-04 1.309E-04
     Generating pointlists ...

     total cpu time spent up to now is   283551.8 secs

     Self-consistent Calculation

     iteration #  1     ecut=    60.00 Ry     beta= 0.20
     Davidson diagonalization with overlap
     ethr =  1.00E-06,  avg # of iterations =  4.2

     Threshold (ethr) on eigenvalues was too large:
     Diagonalizing with lowered threshold

     Davidson diagonalization with overlap
     ethr =  9.50E-08,  avg # of iterations =  2.2

     negative rho (up, down):  1.543E-04 1.279E-04

     total cpu time spent up to now is   285900.9 secs

     total energy              =   -7077.46251601 Ry
     estimated scf accuracy    <       0.00022808 Ry

     total magnetization       =     9.75 Bohr mag/cell
     absolute magnetization    =    10.59 Bohr mag/cell

     iteration #  2     ecut=    60.00 Ry     beta= 0.20
     Davidson diagonalization with overlap
     ethr =  9.46E-08,  avg # of iterations =  1.0

     negative rho (up, down):  1.550E-04 1.267E-04

     total cpu time spent up to now is   286601.8 secs

     total energy              =   -7077.46253162 Ry
     estimated scf accuracy    <       0.00003648 Ry

     total magnetization       =     9.76 Bohr mag/cell
     absolute magnetization    =    10.60 Bohr mag/cell

     iteration #  3     ecut=    60.00 Ry     beta= 0.20
     Davidson diagonalization with overlap
     ethr =  1.51E-08,  avg # of iterations =  2.4

     negative rho (up, down):  1.554E-04 1.258E-04

     total cpu time spent up to now is   287431.6 secs

     total energy              =   -7077.46254025 Ry
     estimated scf accuracy    <       0.00002549 Ry

     total magnetization       =     9.76 Bohr mag/cell
     absolute magnetization    =    10.60 Bohr mag/cell

     iteration #  4     ecut=    60.00 Ry     beta= 0.20
     Davidson diagonalization with overlap
     ethr =  1.06E-08,  avg # of iterations =  1.2

     negative rho (up, down):  1.557E-04 1.250E-04

     total cpu time spent up to now is   288148.3 secs

     total energy              =   -7077.46254587 Ry
     estimated scf accuracy    <       0.00002047 Ry

     total magnetization       =     9.76 Bohr mag/cell
     absolute magnetization    =    10.60 Bohr mag/cell

     iteration #  5     ecut=    60.00 Ry     beta= 0.20
     Davidson diagonalization with overlap
     ethr =  8.50E-09,  avg # of iterations =  1.2

     negative rho (up, down):  1.565E-04 1.245E-04

     total cpu time spent up to now is   288860.7 secs

     total energy              =   -7077.46255717 Ry
     estimated scf accuracy    <       0.00001250 Ry

     total magnetization       =     9.76 Bohr mag/cell
     absolute magnetization    =    10.60 Bohr mag/cell

     iteration #  6     ecut=    60.00 Ry     beta= 0.20
     Davidson diagonalization with overlap
     ethr =  5.19E-09,  avg # of iterations =  2.0

     negative rho (up, down):  1.568E-04 1.240E-04

     total cpu time spent up to now is   289665.1 secs

     total energy              =   -7077.46255965 Ry
     estimated scf accuracy    <       0.00000313 Ry

     total magnetization       =     9.76 Bohr mag/cell
     absolute magnetization    =    10.60 Bohr mag/cell

     iteration #  7     ecut=    60.00 Ry     beta= 0.20
     Davidson diagonalization with overlap
     ethr =  1.30E-09,  avg # of iterations =  3.4

     negative rho (up, down):  1.568E-04 1.234E-04

     total cpu time spent up to now is   290593.1 secs

     total energy              =   -7077.46256034 Ry
     estimated scf accuracy    <       0.00000123 Ry

     total magnetization       =     9.76 Bohr mag/cell
     absolute magnetization    =    10.60 Bohr mag/cell

     iteration #  8     ecut=    60.00 Ry     beta= 0.20
     Davidson diagonalization with overlap
     ethr =  5.09E-10,  avg # of iterations =  2.6

     negative rho (up, down):  1.567E-04 1.230E-04

     total cpu time spent up to now is   291512.7 secs

     total energy              =   -7077.46256049 Ry
     estimated scf accuracy    <       0.00000040 Ry

     total magnetization       =     9.76 Bohr mag/cell
     absolute magnetization    =    10.60 Bohr mag/cell

     iteration #  9     ecut=    60.00 Ry     beta= 0.20
     Davidson diagonalization with overlap
     ethr =  1.66E-10,  avg # of iterations =  1.6

     negative rho (up, down):  1.564E-04 1.224E-04

     total cpu time spent up to now is   292319.1 secs

     total energy              =   -7077.46256046 Ry
     estimated scf accuracy    <       0.00000024 Ry

     total magnetization       =     9.76 Bohr mag/cell
     absolute magnetization    =    10.60 Bohr mag/cell

     iteration # 10     ecut=    60.00 Ry     beta= 0.20
     Davidson diagonalization with overlap
     ethr =  1.01E-10,  avg # of iterations =  2.0

     negative rho (up, down):  1.563E-04 1.221E-04

     total cpu time spent up to now is   293098.9 secs

     total energy              =   -7077.46256050 Ry
     estimated scf accuracy    <       0.00000009 Ry

     total magnetization       =     9.76 Bohr mag/cell
     absolute magnetization    =    10.60 Bohr mag/cell

     iteration # 11     ecut=    60.00 Ry     beta= 0.20
     Davidson diagonalization with overlap
     ethr =  3.62E-11,  avg # of iterations =  2.3

     negative rho (up, down):  1.563E-04 1.219E-04

     total cpu time spent up to now is   293930.2 secs

     total energy              =   -7077.46256050 Ry
     estimated scf accuracy    <       0.00000006 Ry

     total magnetization       =     9.76 Bohr mag/cell
     absolute magnetization    =    10.60 Bohr mag/cell

     iteration # 12     ecut=    60.00 Ry     beta= 0.20
     Davidson diagonalization with overlap
     ethr =  2.40E-11,  avg # of iterations =  1.5

     negative rho (up, down):  1.562E-04 1.217E-04

     total cpu time spent up to now is   294670.7 secs

     total energy              =   -7077.46256050 Ry
     estimated scf accuracy    <       0.00000003 Ry

     total magnetization       =     9.76 Bohr mag/cell
     absolute magnetization    =    10.60 Bohr mag/cell

     iteration # 13     ecut=    60.00 Ry     beta= 0.20
     Davidson diagonalization with overlap
     ethr =  1.09E-11,  avg # of iterations =  2.4

     negative rho (up, down):  1.562E-04 1.215E-04

     total cpu time spent up to now is   295459.7 secs

     total energy              =   -7077.46256050 Ry
     estimated scf accuracy    <       0.00000003 Ry

     total magnetization       =     9.76 Bohr mag/cell
     absolute magnetization    =    10.60 Bohr mag/cell

     iteration # 14     ecut=    60.00 Ry     beta= 0.20
     Davidson diagonalization with overlap
     ethr =  1.05E-11,  avg # of iterations =  1.3

     negative rho (up, down):  1.562E-04 1.214E-04

     total cpu time spent up to now is   296177.4 secs

     total energy              =   -7077.46256050 Ry
     estimated scf accuracy    <       0.00000001 Ry

     total magnetization       =     9.76 Bohr mag/cell
     absolute magnetization    =    10.60 Bohr mag/cell

     iteration # 15     ecut=    60.00 Ry     beta= 0.20
     Davidson diagonalization with overlap
     ethr =  6.06E-12,  avg # of iterations =  1.4

     negative rho (up, down):  1.561E-04 1.213E-04

     total cpu time spent up to now is   296933.9 secs

     total energy              =   -7077.46256050 Ry
     estimated scf accuracy    <       0.00000001 Ry

     total magnetization       =     9.76 Bohr mag/cell
     absolute magnetization    =    10.60 Bohr mag/cell

     iteration # 16     ecut=    60.00 Ry     beta= 0.20
     Davidson diagonalization with overlap
     ethr =  4.47E-12,  avg # of iterations =  1.4

     negative rho (up, down):  1.561E-04 1.212E-04

     total cpu time spent up to now is   297674.6 secs

     total energy              =   -7077.46256050 Ry
     estimated scf accuracy    <          7.5E-09 Ry

     total magnetization       =     9.76 Bohr mag/cell
     absolute magnetization    =    10.60 Bohr mag/cell

     iteration # 17     ecut=    60.00 Ry     beta= 0.20
     Davidson diagonalization with overlap
     ethr =  3.10E-12,  avg # of iterations =  1.1

     negative rho (up, down):  1.559E-04 1.210E-04

     total cpu time spent up to now is   298403.4 secs

     total energy              =   -7077.46256050 Ry
     estimated scf accuracy    <          3.6E-09 Ry

     total magnetization       =     9.76 Bohr mag/cell
     absolute magnetization    =    10.60 Bohr mag/cell

     iteration # 18     ecut=    60.00 Ry     beta= 0.20
     Davidson diagonalization with overlap
     ethr =  1.51E-12,  avg # of iterations =  2.2

     negative rho (up, down):  1.559E-04 1.209E-04

     total cpu time spent up to now is   299179.1 secs

     total energy              =   -7077.46256050 Ry
     estimated scf accuracy    <          5.9E-10 Ry

     total magnetization       =     9.76 Bohr mag/cell
     absolute magnetization    =    10.60 Bohr mag/cell

     iteration # 19     ecut=    60.00 Ry     beta= 0.20
     Davidson diagonalization with overlap
     ethr =  2.46E-13,  avg # of iterations =  4.8

     negative rho (up, down):  1.556E-04 1.204E-04
 
     Magnetic moment per site  (integrated on atomic sphere of radius R)
     atom   1 (R=0.135)  charge=  6.9706  magn=  0.8799
     atom   2 (R=0.140)  charge=  5.5911  magn=  0.2008
     atom   3 (R=0.140)  charge=  5.5911  magn=  0.2035
     atom   4 (R=0.140)  charge=  5.5911  magn=  0.2035
     atom   5 (R=0.135)  charge=  6.9646  magn=  0.8498
     atom   6 (R=0.140)  charge=  5.5774  magn=  0.2518
     atom   7 (R=0.140)  charge=  5.5774  magn=  0.2512
     atom   8 (R=0.140)  charge=  5.5774  magn=  0.2518
     atom   9 (R=0.135)  charge=  6.9669  magn=  0.7980
     atom  10 (R=0.140)  charge=  5.5748  magn=  0.2508
     atom  11 (R=0.140)  charge=  5.5750  magn=  0.2382
     atom  12 (R=0.140)  charge=  5.5750  magn=  0.2382
     atom  13 (R=0.135)  charge=  6.9672  magn=  0.7995
     atom  14 (R=0.140)  charge=  5.5755  magn=  0.2338
     atom  15 (R=0.140)  charge=  5.5751  magn=  0.2373
     atom  16 (R=0.140)  charge=  5.5755  magn=  0.2338
     atom  17 (R=0.135)  charge=  6.9653  magn=  0.8415
     atom  18 (R=0.140)  charge=  5.5776  magn=  0.2403
     atom  19 (R=0.140)  charge=  5.5786  magn=  0.2015
     atom  20 (R=0.140)  charge=  5.5776  magn=  0.2403
     atom  21 (R=0.135)  charge=  6.9766  magn=  0.6697
     atom  22 (R=0.140)  charge=  5.5953  magn=  0.1828
     atom  23 (R=0.140)  charge=  5.5876  magn=  0.1304
     atom  24 (R=0.140)  charge=  5.5876  magn=  0.1304
     atom  25 (R=0.135)  charge=  0.9293  magn= -0.0061

     total cpu time spent up to now is   300291.9 secs

     End of self-consistent calculation

     Number of k-points >= 100: set verbosity='high' to print the bands.

     the Fermi energy is    -5.1628 ev

!    total energy              =   -7077.46256050 Ry
     total all-electron energy =   -199909.899131 Ry
     estimated scf accuracy    <          8.9E-11 Ry
     smearing contrib. (-TS)   =       0.00079092 Ry
     internal energy E=F+TS    =   -7077.46335142 Ry

     The total energy is F=E-TS. E is the sum of the following terms:
     one-electron contribution =  -61216.41149675 Ry
     hartree contribution      =   30795.67382334 Ry
     xc contribution           =    -835.55011092 Ry
     ewald contribution        =   29312.98485103 Ry
     DFT-D3 Dispersion         =      -2.53277807 Ry
     one-center paw contrib.   =   -5131.62764006 Ry

     total magnetization       =     9.76 Bohr mag/cell
     absolute magnetization    =    10.60 Bohr mag/cell

     convergence has been achieved in  19 iterations

     negative rho (up, down):  1.556E-04 1.204E-04

     Forces acting on atoms (cartesian axes, Ry/au):

     atom    1 type  1   force =    -0.00000000   -0.00008017    0.01593322
     atom    2 type  2   force =    -0.00000000   -0.01420933   -0.00882159
     atom    3 type  2   force =    -0.01240603    0.00716529   -0.00930156
     atom    4 type  2   force =     0.01240603    0.00716529   -0.00930156
     atom    5 type  1   force =    -0.00000002    0.00032616    0.00051265
     atom    6 type  2   force =    -0.00070798    0.00006531    0.00519681
     atom    7 type  2   force =     0.00000001   -0.00029573    0.00537475
     atom    8 type  2   force =     0.00070798    0.00006530    0.00519687
     atom    9 type  1   force =    -0.00000007   -0.00008178    0.00027464
     atom   10 type  2   force =     0.00000004   -0.00025023   -0.00086204
     atom   11 type  2   force =    -0.00008549   -0.00005427   -0.00020322
     atom   12 type  2   force =     0.00008548   -0.00005424   -0.00020331
     atom   13 type  1   force =     0.00000003   -0.00026033   -0.00063629
     atom   14 type  2   force =     0.00028910   -0.00008142   -0.00104654
     atom   15 type  2   force =     0.00000001   -0.00040387   -0.00030122
     atom   16 type  2   force =    -0.00028908   -0.00008139   -0.00104656
     atom   17 type  1   force =    -0.00000001   -0.00071953   -0.00059398
     atom   18 type  2   force =     0.00002093    0.00022517   -0.00059722
     atom   19 type  2   force =     0.00000002    0.00046691    0.00018654
     atom   20 type  2   force =    -0.00002096    0.00022510   -0.00059723
     atom   21 type  1   force =    -0.00000002   -0.00069420   -0.00039560
     atom   22 type  2   force =     0.00000002    0.00035798    0.00022186
     atom   23 type  2   force =    -0.00020577    0.00034047    0.00060659
     atom   24 type  2   force =     0.00020579    0.00034051    0.00060657
     atom   25 type  3   force =    -0.00000001    0.00052299   -0.00020258

     Total force =     0.002865     Total SCF correction =     0.000038


     Computing stress (Cartesian axis) and pressure


     negative rho (up, down):  1.556E-04 1.204E-04
          total   stress  (Ry/bohr**3)                   (kbar)     P=       -7.24
  -0.00007076  -0.00000000  -0.00000000          -10.41       -0.00       -0.00
  -0.00000000  -0.00008038   0.00000218           -0.00      -11.82        0.32
  -0.00000000   0.00000218   0.00000349           -0.00        0.32        0.51

     Energy error            =      4.6E-05 Ry
     Gradient error          =      1.0E-03 Ry/Bohr

     number of scf cycles    =  13
     number of bfgs steps    =  12

     energy             old  =   -7077.4625142585 Ry
     energy             new  =   -7077.4625605036 Ry

     CASE: energy            _new < energy            _old

     new trust radius        =       0.0038138472 bohr
     new conv_thr            =       0.0000000001 Ry


ATOMIC_POSITIONS (angstrom)
Ni               5.3171990772        3.0698863186       11.0000000000    0   0   0
Pd               2.6585995386        3.0698851333       11.0000764482    0   0   0
Pd               3.9878982814        0.7674721723       11.0000764482    0   0   0
Pd               1.3293007958        0.7674721723       11.0000764482    0   0   0
Ni               2.6585995386        1.5349431593       13.1707374333    0   0   0
Pd               3.9878982814        3.8373584909       13.1708138815    0   0   0
Pd               5.3171990772        1.5349419740       13.1708138815    0   0   0
Pd               6.6464998731        3.8373584909       13.1708138815    0   0   0
Ni               0.0000001246        0.0028897216       15.3382705057
Pd               5.3171989840        4.6074666543       15.3362797665
Pd               3.9881664504        2.3042483870       15.3409382451
Pd               6.6462314401        2.3042484428       15.3409384740
Ni               5.3171988120        3.0704625311       17.5098131429
Pd               3.9873429499        0.7678911539       17.5112366298
Pd               2.6585993681        3.0695226225       17.5099275891
Pd               1.3298558520        0.7678910720       17.5112367177
Ni               2.6585994104        1.5266258042       19.6886160149
Pd               3.9938553743        3.8220150182       19.6723798215
Pd               5.3171990504        1.5271814620       19.6855319052
Pd               6.6405426895        3.8220151462       19.6723799311
Ni               0.0000001396       -0.0019885311       21.7876013534
Pd               5.3171990895        4.6026784350       21.8747145543
Pd               3.9922482055        2.2739892840       21.8969247268
Pd               6.6421498306        2.2739892703       21.8969250379
H                2.6585996510        3.1720739903       22.7521327465



     Writing config-only to output data dir /tmpu/isholek_g/isholek/MIGUEL/QE/Hydrogen/111_2x2/SAVE/Ni1Pd3_111-H_hcp_2.save/ :
     XML data file
     NEW-OLD atomic charge density approx. for the potential

     Check: negative core charge=   -0.000002

     negative rho (up, down):  1.458E-04 1.305E-04
     Generating pointlists ...

     total cpu time spent up to now is   300988.4 secs

     Self-consistent Calculation

     iteration #  1     ecut=    60.00 Ry     beta= 0.20
     Davidson diagonalization with overlap
     ethr =  1.00E-06,  avg # of iterations =  3.0

     Threshold (ethr) on eigenvalues was too large:
     Diagonalizing with lowered threshold

     Davidson diagonalization with overlap
     ethr =  6.05E-09,  avg # of iterations =  5.0

     negative rho (up, down):  1.513E-04 1.254E-04

     total cpu time spent up to now is   303603.2 secs

     total energy              =   -7077.46256782 Ry
     estimated scf accuracy    <       0.00000402 Ry

     total magnetization       =     9.75 Bohr mag/cell
     absolute magnetization    =    10.60 Bohr mag/cell

     iteration #  2     ecut=    60.00 Ry     beta= 0.20
     Davidson diagonalization with overlap
     ethr =  1.67E-09,  avg # of iterations =  1.3

     negative rho (up, down):  1.520E-04 1.245E-04

     total cpu time spent up to now is   304383.4 secs

     total energy              =   -7077.46256861 Ry
     estimated scf accuracy    <       0.00000542 Ry

     total magnetization       =     9.76 Bohr mag/cell
     absolute magnetization    =    10.60 Bohr mag/cell

     iteration #  3     ecut=    60.00 Ry     beta= 0.20
     Davidson diagonalization with overlap
     ethr =  1.67E-09,  avg # of iterations =  1.0

     negative rho (up, down):  1.529E-04 1.233E-04

     total cpu time spent up to now is   305089.9 secs

     total energy              =   -7077.46257078 Ry
     estimated scf accuracy    <       0.00000172 Ry

     total magnetization       =     9.76 Bohr mag/cell
     absolute magnetization    =    10.60 Bohr mag/cell

     iteration #  4     ecut=    60.00 Ry     beta= 0.20
     Davidson diagonalization with overlap
     ethr =  7.15E-10,  avg # of iterations =  2.0

     negative rho (up, down):  1.534E-04 1.226E-04

     total cpu time spent up to now is   305883.4 secs

     total energy              =   -7077.46257152 Ry
     estimated scf accuracy    <       0.00000222 Ry

     total magnetization       =     9.75 Bohr mag/cell
     absolute magnetization    =    10.60 Bohr mag/cell

     iteration #  5     ecut=    60.00 Ry     beta= 0.20
     Davidson diagonalization with overlap
     ethr =  7.15E-10,  avg # of iterations =  1.6

     negative rho (up, down):  1.541E-04 1.218E-04

     total cpu time spent up to now is   306639.4 secs

     total energy              =   -7077.46257209 Ry
     estimated scf accuracy    <       0.00000103 Ry

     total magnetization       =     9.75 Bohr mag/cell
     absolute magnetization    =    10.60 Bohr mag/cell

     iteration #  6     ecut=    60.00 Ry     beta= 0.20
     Davidson diagonalization with overlap
     ethr =  4.27E-10,  avg # of iterations =  2.0

     negative rho (up, down):  1.545E-04 1.215E-04

     total cpu time spent up to now is   307437.7 secs

     total energy              =   -7077.46257219 Ry
     estimated scf accuracy    <       0.00000023 Ry

     total magnetization       =     9.76 Bohr mag/cell
     absolute magnetization    =    10.60 Bohr mag/cell

     iteration #  7     ecut=    60.00 Ry     beta= 0.20
     Davidson diagonalization with overlap
     ethr =  9.42E-11,  avg # of iterations =  2.0

     negative rho (up, down):  1.547E-04 1.213E-04

     total cpu time spent up to now is   308198.5 secs

     total energy              =   -7077.46257220 Ry
     estimated scf accuracy    <       0.00000005 Ry

     total magnetization       =     9.75 Bohr mag/cell
     absolute magnetization    =    10.60 Bohr mag/cell

     iteration #  8     ecut=    60.00 Ry     beta= 0.20
     Davidson diagonalization with overlap
     ethr =  2.02E-11,  avg # of iterations =  4.2

     negative rho (up, down):  1.548E-04 1.211E-04

     total cpu time spent up to now is   309230.7 secs

     total energy              =   -7077.46257221 Ry
     estimated scf accuracy    <       0.00000002 Ry

     total magnetization       =     9.75 Bohr mag/cell
     absolute magnetization    =    10.60 Bohr mag/cell

     iteration #  9     ecut=    60.00 Ry     beta= 0.20
     Davidson diagonalization with overlap
     ethr =  8.69E-12,  avg # of iterations =  2.1

     negative rho (up, down):  1.550E-04 1.211E-04

     total cpu time spent up to now is   310015.9 secs

     total energy              =   -7077.46257220 Ry
     estimated scf accuracy    <       0.00000001 Ry

     total magnetization       =     9.75 Bohr mag/cell
     absolute magnetization    =    10.60 Bohr mag/cell

     iteration # 10     ecut=    60.00 Ry     beta= 0.20
     Davidson diagonalization with overlap
     ethr =  4.33E-12,  avg # of iterations =  2.1

     negative rho (up, down):  1.552E-04 1.210E-04

     total cpu time spent up to now is   310887.3 secs

     total energy              =   -7077.46257221 Ry
     estimated scf accuracy    <          5.1E-09 Ry

     total magnetization       =     9.75 Bohr mag/cell
     absolute magnetization    =    10.60 Bohr mag/cell

     iteration # 11     ecut=    60.00 Ry     beta= 0.20
     Davidson diagonalization with overlap
     ethr =  2.13E-12,  avg # of iterations =  2.1

     negative rho (up, down):  1.554E-04 1.210E-04

     total cpu time spent up to now is   311665.0 secs

     total energy              =   -7077.46257221 Ry
     estimated scf accuracy    <          5.0E-09 Ry

     total magnetization       =     9.75 Bohr mag/cell
     absolute magnetization    =    10.60 Bohr mag/cell

     iteration # 12     ecut=    60.00 Ry     beta= 0.20
     Davidson diagonalization with overlap
     ethr =  2.06E-12,  avg # of iterations =  1.4

     negative rho (up, down):  1.555E-04 1.209E-04

     total cpu time spent up to now is   312400.6 secs

     total energy              =   -7077.46257221 Ry
     estimated scf accuracy    <          1.1E-09 Ry

     total magnetization       =     9.75 Bohr mag/cell
     absolute magnetization    =    10.60 Bohr mag/cell

     iteration # 13     ecut=    60.00 Ry     beta= 0.20
     Davidson diagonalization with overlap
     ethr =  4.71E-13,  avg # of iterations =  3.2

     negative rho (up, down):  1.556E-04 1.209E-04

     total cpu time spent up to now is   313271.5 secs

     total energy              =   -7077.46257221 Ry
     estimated scf accuracy    <          1.2E-09 Ry

     total magnetization       =     9.75 Bohr mag/cell
     absolute magnetization    =    10.60 Bohr mag/cell

     iteration # 14     ecut=    60.00 Ry     beta= 0.20
     Davidson diagonalization with overlap
     ethr =  4.71E-13,  avg # of iterations =  1.0

     negative rho (up, down):  1.557E-04 1.210E-04

     total cpu time spent up to now is   313982.2 secs

     total energy              =   -7077.46257221 Ry
     estimated scf accuracy    <          7.6E-10 Ry

     total magnetization       =     9.75 Bohr mag/cell
     absolute magnetization    =    10.60 Bohr mag/cell

     iteration # 15     ecut=    60.00 Ry     beta= 0.20
     Davidson diagonalization with overlap
     ethr =  3.17E-13,  avg # of iterations =  2.0

     negative rho (up, down):  1.558E-04 1.209E-04

     total cpu time spent up to now is   314771.4 secs

     total energy              =   -7077.46257221 Ry
     estimated scf accuracy    <          8.9E-10 Ry

     total magnetization       =     9.75 Bohr mag/cell
     absolute magnetization    =    10.60 Bohr mag/cell

     iteration # 16     ecut=    60.00 Ry     beta= 0.20
     Davidson diagonalization with overlap
     ethr =  3.17E-13,  avg # of iterations =  1.0

     negative rho (up, down):  1.558E-04 1.209E-04

     total cpu time spent up to now is   315496.8 secs

     total energy              =   -7077.46257221 Ry
     estimated scf accuracy    <          5.0E-10 Ry

     total magnetization       =     9.75 Bohr mag/cell
     absolute magnetization    =    10.60 Bohr mag/cell

     iteration # 17     ecut=    60.00 Ry     beta= 0.20
     Davidson diagonalization with overlap
     ethr =  2.07E-13,  avg # of iterations =  1.1

     negative rho (up, down):  1.559E-04 1.209E-04

     total cpu time spent up to now is   316219.4 secs

     total energy              =   -7077.46257221 Ry
     estimated scf accuracy    <          6.3E-10 Ry

     total magnetization       =     9.75 Bohr mag/cell
     absolute magnetization    =    10.60 Bohr mag/cell

     iteration # 18     ecut=    60.00 Ry     beta= 0.20
     Davidson diagonalization with overlap
     ethr =  2.07E-13,  avg # of iterations =  1.0

     negative rho (up, down):  1.555E-04 1.204E-04
 
     Magnetic moment per site  (integrated on atomic sphere of radius R)
     atom   1 (R=0.135)  charge=  6.9706  magn=  0.8799
     atom   2 (R=0.140)  charge=  5.5911  magn=  0.2008
     atom   3 (R=0.140)  charge=  5.5911  magn=  0.2034
     atom   4 (R=0.140)  charge=  5.5911  magn=  0.2034
     atom   5 (R=0.135)  charge=  6.9646  magn=  0.8497
     atom   6 (R=0.140)  charge=  5.5774  magn=  0.2518
     atom   7 (R=0.140)  charge=  5.5774  magn=  0.2511
     atom   8 (R=0.140)  charge=  5.5774  magn=  0.2518
     atom   9 (R=0.135)  charge=  6.9669  magn=  0.7979
     atom  10 (R=0.140)  charge=  5.5748  magn=  0.2508
     atom  11 (R=0.140)  charge=  5.5750  magn=  0.2383
     atom  12 (R=0.140)  charge=  5.5750  magn=  0.2383
     atom  13 (R=0.135)  charge=  6.9673  magn=  0.7995
     atom  14 (R=0.140)  charge=  5.5756  magn=  0.2338
     atom  15 (R=0.140)  charge=  5.5751  magn=  0.2374
     atom  16 (R=0.140)  charge=  5.5756  magn=  0.2338
     atom  17 (R=0.135)  charge=  6.9652  magn=  0.8416
     atom  18 (R=0.140)  charge=  5.5776  magn=  0.2403
     atom  19 (R=0.140)  charge=  5.5786  magn=  0.2015
     atom  20 (R=0.140)  charge=  5.5776  magn=  0.2403
     atom  21 (R=0.135)  charge=  6.9766  magn=  0.6691
     atom  22 (R=0.140)  charge=  5.5953  magn=  0.1825
     atom  23 (R=0.140)  charge=  5.5876  magn=  0.1303
     atom  24 (R=0.140)  charge=  5.5876  magn=  0.1303
     atom  25 (R=0.135)  charge=  0.9294  magn= -0.0062

     total cpu time spent up to now is   316927.8 secs

     End of self-consistent calculation

     Number of k-points >= 100: set verbosity='high' to print the bands.

     the Fermi energy is    -5.1629 ev

!    total energy              =   -7077.46257221 Ry
     total all-electron energy =   -199909.899142 Ry
     estimated scf accuracy    <          8.2E-11 Ry
     smearing contrib. (-TS)   =       0.00080656 Ry
     internal energy E=F+TS    =   -7077.46337876 Ry

     The total energy is F=E-TS. E is the sum of the following terms:
     one-electron contribution =  -61218.58530698 Ry
     hartree contribution      =   30796.75944958 Ry
     xc contribution           =    -835.54993388 Ry
     ewald contribution        =   29314.07277278 Ry
     DFT-D3 Dispersion         =      -2.53275301 Ry
     one-center paw contrib.   =   -5131.62760727 Ry

     total magnetization       =     9.75 Bohr mag/cell
     absolute magnetization    =    10.60 Bohr mag/cell

     convergence has been achieved in  18 iterations

     negative rho (up, down):  1.555E-04 1.204E-04

     Forces acting on atoms (cartesian axes, Ry/au):

     atom    1 type  1   force =     0.00000000   -0.00008216    0.01593049
     atom    2 type  2   force =     0.00000000   -0.01420853   -0.00881108
     atom    3 type  2   force =    -0.01240413    0.00716674   -0.00930899
     atom    4 type  2   force =     0.01240413    0.00716674   -0.00930899
     atom    5 type  1   force =    -0.00000001    0.00035115    0.00053240
     atom    6 type  2   force =    -0.00078969    0.00001313    0.00518724
     atom    7 type  2   force =     0.00000001   -0.00029069    0.00547040
     atom    8 type  2   force =     0.00078969    0.00001312    0.00518729
     atom    9 type  1   force =    -0.00000006   -0.00017605    0.00002305
     atom   10 type  2   force =     0.00000002   -0.00006948   -0.00073902
     atom   11 type  2   force =    -0.00009640   -0.00002615   -0.00051481
     atom   12 type  2   force =     0.00009641   -0.00002615   -0.00051489
     atom   13 type  1   force =     0.00000005   -0.00021518   -0.00065235
     atom   14 type  2   force =     0.00027297   -0.00011884   -0.00078675
     atom   15 type  2   force =    -0.00000001   -0.00039910   -0.00033145
     atom   16 type  2   force =    -0.00027295   -0.00011880   -0.00078679
     atom   17 type  1   force =     0.00000001   -0.00028163   -0.00037307
     atom   18 type  2   force =    -0.00013376    0.00003715   -0.00001301
     atom   19 type  2   force =     0.00000000    0.00035712    0.00001231
     atom   20 type  2   force =     0.00013374    0.00003711   -0.00001305
     atom   21 type  1   force =    -0.00000004   -0.00059844   -0.00043931
     atom   22 type  2   force =    -0.00000001    0.00054203   -0.00023247
     atom   23 type  2   force =    -0.00037611    0.00028121    0.00034413
     atom   24 type  2   force =     0.00037614    0.00028122    0.00034407
     atom   25 type  3   force =    -0.00000001    0.00036448   -0.00020536

     Total force =     0.002329     Total SCF correction =     0.000062


     Computing stress (Cartesian axis) and pressure


     negative rho (up, down):  1.555E-04 1.204E-04
          total   stress  (Ry/bohr**3)                   (kbar)     P=       -7.28
  -0.00007109  -0.00000000  -0.00000000          -10.46       -0.00       -0.00
  -0.00000000  -0.00008064   0.00000209           -0.00      -11.86        0.31
  -0.00000000   0.00000209   0.00000318           -0.00        0.31        0.47

     Energy error            =      1.2E-05 Ry
     Gradient error          =      7.9E-04 Ry/Bohr

     number of scf cycles    =  14
     number of bfgs steps    =  13

     energy             old  =   -7077.4625605036 Ry
     energy             new  =   -7077.4625722059 Ry

     CASE: energy            _new < energy            _old

     new trust radius        =       0.0032738400 bohr
     new conv_thr            =            1.0E-10 Ry


ATOMIC_POSITIONS (angstrom)
Ni               5.3171990772        3.0698863186       11.0000000000    0   0   0
Pd               2.6585995386        3.0698851333       11.0000764482    0   0   0
Pd               3.9878982814        0.7674721723       11.0000764482    0   0   0
Pd               1.3293007958        0.7674721723       11.0000764482    0   0   0
Ni               2.6585995386        1.5349431593       13.1707374333    0   0   0
Pd               3.9878982814        3.8373584909       13.1708138815    0   0   0
Pd               5.3171990772        1.5349419740       13.1708138815    0   0   0
Pd               6.6464998731        3.8373584909       13.1708138815    0   0   0
Ni               0.0000000543        0.0028144264       15.3386743119
Pd               5.3171990195        4.6071145643       15.3351408328
Pd               3.9880752760        2.3041608243       15.3407412995
Pd               6.6463226215        2.3041608974       15.3407414241
Ni               5.3171988631        3.0701194309       17.5089268330
Pd               3.9876527365        0.7676923072       17.5098257928
Pd               2.6585993723        3.0689485299       17.5095659260
Pd               1.3295460926        0.7676922631       17.5098258451
Ni               2.6585994278        1.5253873329       19.6877090911
Pd               3.9939361176        3.8222938179       19.6712794407
Pd               5.3171990431        1.5276887674       19.6857074505
Pd               6.6404619224        3.8222938877       19.6712795230
Ni               0.0000000889       -0.0026669868       21.7867511162
Pd               5.3171991011        4.6028687970       21.8751469138
Pd               3.9922212127        2.2743386584       21.8976673157
Pd               6.6421768567        2.2743386652       21.8976675722
H                2.6585996360        3.1736735535       22.7514673510



     Writing config-only to output data dir /tmpu/isholek_g/isholek/MIGUEL/QE/Hydrogen/111_2x2/SAVE/Ni1Pd3_111-H_hcp_2.save/ :
     XML data file
     NEW-OLD atomic charge density approx. for the potential

     Check: negative core charge=   -0.000002

     negative rho (up, down):  1.463E-04 1.306E-04
     Generating pointlists ...

     total cpu time spent up to now is   317624.9 secs

     Self-consistent Calculation

     iteration #  1     ecut=    60.00 Ry     beta= 0.20
     Davidson diagonalization with overlap
     ethr =  1.00E-06,  avg # of iterations =  3.0

     Threshold (ethr) on eigenvalues was too large:
     Diagonalizing with lowered threshold

     Davidson diagonalization with overlap
     ethr =  2.61E-08,  avg # of iterations =  3.3

     negative rho (up, down):  1.543E-04 1.284E-04

     total cpu time spent up to now is   319938.3 secs

     total energy              =   -7077.46257490 Ry
     estimated scf accuracy    <       0.00003514 Ry

     total magnetization       =     9.75 Bohr mag/cell
     absolute magnetization    =    10.59 Bohr mag/cell

     iteration #  2     ecut=    60.00 Ry     beta= 0.20
     Davidson diagonalization with overlap
     ethr =  1.46E-08,  avg # of iterations =  1.0

     negative rho (up, down):  1.541E-04 1.264E-04

     total cpu time spent up to now is   320654.6 secs

     total energy              =   -7077.46257724 Ry
     estimated scf accuracy    <       0.00000723 Ry

     total magnetization       =     9.75 Bohr mag/cell
     absolute magnetization    =    10.60 Bohr mag/cell

     iteration #  3     ecut=    60.00 Ry     beta= 0.20
     Davidson diagonalization with overlap
     ethr =  3.00E-09,  avg # of iterations =  1.0

     negative rho (up, down):  1.540E-04 1.247E-04

     total cpu time spent up to now is   321358.1 secs

     total energy              =   -7077.46257944 Ry
     estimated scf accuracy    <       0.00001998 Ry

     total magnetization       =     9.75 Bohr mag/cell
     absolute magnetization    =    10.59 Bohr mag/cell

     iteration #  4     ecut=    60.00 Ry     beta= 0.20
     Davidson diagonalization with overlap
     ethr =  3.00E-09,  avg # of iterations =  1.0

     negative rho (up, down):  1.540E-04 1.234E-04

     total cpu time spent up to now is   322065.2 secs

     total energy              =   -7077.46258086 Ry
     estimated scf accuracy    <       0.00000271 Ry

     total magnetization       =     9.75 Bohr mag/cell
     absolute magnetization    =    10.59 Bohr mag/cell

     iteration #  5     ecut=    60.00 Ry     beta= 0.20
     Davidson diagonalization with overlap
     ethr =  1.12E-09,  avg # of iterations =  2.0

     negative rho (up, down):  1.541E-04 1.223E-04

     total cpu time spent up to now is   322817.2 secs

     total energy              =   -7077.46258168 Ry
     estimated scf accuracy    <       0.00000121 Ry

     total magnetization       =     9.75 Bohr mag/cell
     absolute magnetization    =    10.59 Bohr mag/cell

     iteration #  6     ecut=    60.00 Ry     beta= 0.20
     Davidson diagonalization with overlap
     ethr =  5.04E-10,  avg # of iterations =  2.0

     negative rho (up, down):  1.544E-04 1.216E-04

     total cpu time spent up to now is   323584.6 secs

     total energy              =   -7077.46258200 Ry
     estimated scf accuracy    <       0.00000049 Ry

     total magnetization       =     9.75 Bohr mag/cell
     absolute magnetization    =    10.59 Bohr mag/cell

     iteration #  7     ecut=    60.00 Ry     beta= 0.20
     Davidson diagonalization with overlap
     ethr =  2.04E-10,  avg # of iterations =  2.4

     negative rho (up, down):  1.544E-04 1.211E-04

     total cpu time spent up to now is   324432.4 secs

     total energy              =   -7077.46258207 Ry
     estimated scf accuracy    <       0.00000006 Ry

     total magnetization       =     9.75 Bohr mag/cell
     absolute magnetization    =    10.59 Bohr mag/cell

     iteration #  8     ecut=    60.00 Ry     beta= 0.20
     Davidson diagonalization with overlap
     ethr =  2.28E-11,  avg # of iterations =  5.0

     negative rho (up, down):  1.543E-04 1.207E-04

     total cpu time spent up to now is   325519.0 secs

     total energy              =   -7077.46258208 Ry
     estimated scf accuracy    <       0.00000007 Ry

     total magnetization       =     9.75 Bohr mag/cell
     absolute magnetization    =    10.59 Bohr mag/cell

     iteration #  9     ecut=    60.00 Ry     beta= 0.20
     Davidson diagonalization with overlap
     ethr =  2.28E-11,  avg # of iterations =  2.0

     negative rho (up, down):  1.544E-04 1.205E-04

     total cpu time spent up to now is   326263.4 secs

     total energy              =   -7077.46258208 Ry
     estimated scf accuracy    <       0.00000006 Ry

     total magnetization       =     9.75 Bohr mag/cell
     absolute magnetization    =    10.59 Bohr mag/cell

     iteration # 10     ecut=    60.00 Ry     beta= 0.20
     Davidson diagonalization with overlap
     ethr =  2.28E-11,  avg # of iterations =  1.0

     negative rho (up, down):  1.545E-04 1.203E-04

     total cpu time spent up to now is   326962.8 secs

     total energy              =   -7077.46258208 Ry
     estimated scf accuracy    <       0.00000008 Ry

     total magnetization       =     9.75 Bohr mag/cell
     absolute magnetization    =    10.59 Bohr mag/cell

     iteration # 11     ecut=    60.00 Ry     beta= 0.20
     Davidson diagonalization with overlap
     ethr =  2.28E-11,  avg # of iterations =  1.0

     negative rho (up, down):  1.546E-04 1.202E-04

     total cpu time spent up to now is   327665.5 secs

     total energy              =   -7077.46258208 Ry
     estimated scf accuracy    <       0.00000006 Ry

     total magnetization       =     9.75 Bohr mag/cell
     absolute magnetization    =    10.59 Bohr mag/cell

     iteration # 12     ecut=    60.00 Ry     beta= 0.20
     Davidson diagonalization with overlap
     ethr =  2.28E-11,  avg # of iterations =  1.0

     negative rho (up, down):  1.547E-04 1.202E-04

     total cpu time spent up to now is   328372.9 secs

     total energy              =   -7077.46258208 Ry
     estimated scf accuracy    <       0.00000003 Ry

     total magnetization       =     9.75 Bohr mag/cell
     absolute magnetization    =    10.59 Bohr mag/cell

     iteration # 13     ecut=    60.00 Ry     beta= 0.20
     Davidson diagonalization with overlap
     ethr =  1.43E-11,  avg # of iterations =  1.0

     negative rho (up, down):  1.548E-04 1.202E-04

     total cpu time spent up to now is   329088.0 secs

     total energy              =   -7077.46258208 Ry
     estimated scf accuracy    <       0.00000003 Ry

     total magnetization       =     9.75 Bohr mag/cell
     absolute magnetization    =    10.59 Bohr mag/cell

     iteration # 14     ecut=    60.00 Ry     beta= 0.20
     Davidson diagonalization with overlap
     ethr =  1.35E-11,  avg # of iterations =  1.0

     negative rho (up, down):  1.550E-04 1.203E-04

     total cpu time spent up to now is   329807.1 secs

     total energy              =   -7077.46258208 Ry
     estimated scf accuracy    <       0.00000002 Ry

     total magnetization       =     9.75 Bohr mag/cell
     absolute magnetization    =    10.59 Bohr mag/cell

     iteration # 15     ecut=    60.00 Ry     beta= 0.20
     Davidson diagonalization with overlap
     ethr =  9.58E-12,  avg # of iterations =  1.0

     negative rho (up, down):  1.551E-04 1.203E-04

     total cpu time spent up to now is   330526.0 secs

     total energy              =   -7077.46258208 Ry
     estimated scf accuracy    <          7.3E-09 Ry

     total magnetization       =     9.75 Bohr mag/cell
     absolute magnetization    =    10.59 Bohr mag/cell

     iteration # 16     ecut=    60.00 Ry     beta= 0.20
     Davidson diagonalization with overlap
     ethr =  3.03E-12,  avg # of iterations =  1.0

     negative rho (up, down):  1.553E-04 1.205E-04

     total cpu time spent up to now is   331234.3 secs

     total energy              =   -7077.46258208 Ry
     estimated scf accuracy    <          4.0E-09 Ry

     total magnetization       =     9.75 Bohr mag/cell
     absolute magnetization    =    10.59 Bohr mag/cell

     iteration # 17     ecut=    60.00 Ry     beta= 0.20
     Davidson diagonalization with overlap
     ethr =  1.65E-12,  avg # of iterations =  1.0

     negative rho (up, down):  1.554E-04 1.204E-04

     total cpu time spent up to now is   331953.3 secs

     total energy              =   -7077.46258209 Ry
     estimated scf accuracy    <          1.9E-10 Ry

     total magnetization       =     9.75 Bohr mag/cell
     absolute magnetization    =    10.59 Bohr mag/cell

     iteration # 18     ecut=    60.00 Ry     beta= 0.20
     Davidson diagonalization with overlap
     ethr =  1.00E-13,  avg # of iterations =  1.7

     negative rho (up, down):  1.554E-04 1.204E-04

     total cpu time spent up to now is   332743.0 secs

     total energy              =   -7077.46258209 Ry
     estimated scf accuracy    <          2.5E-10 Ry

     total magnetization       =     9.75 Bohr mag/cell
     absolute magnetization    =    10.59 Bohr mag/cell

     iteration # 19     ecut=    60.00 Ry     beta= 0.20
     Davidson diagonalization with overlap
     ethr =  1.00E-13,  avg # of iterations =  1.0

     negative rho (up, down):  1.554E-04 1.204E-04

     total cpu time spent up to now is   333463.5 secs

     total energy              =   -7077.46258209 Ry
     estimated scf accuracy    <          2.1E-10 Ry

     total magnetization       =     9.75 Bohr mag/cell
     absolute magnetization    =    10.59 Bohr mag/cell

     iteration # 20     ecut=    60.00 Ry     beta= 0.20
     Davidson diagonalization with overlap
     ethr =  1.00E-13,  avg # of iterations =  1.0

     negative rho (up, down):  1.554E-04 1.204E-04

     total cpu time spent up to now is   334178.0 secs

     total energy              =   -7077.46258208 Ry
     estimated scf accuracy    <          1.2E-10 Ry

     total magnetization       =     9.75 Bohr mag/cell
     absolute magnetization    =    10.59 Bohr mag/cell

     iteration # 21     ecut=    60.00 Ry     beta= 0.20
     Davidson diagonalization with overlap
     ethr =  1.00E-13,  avg # of iterations =  1.0

     negative rho (up, down):  1.554E-04 1.203E-04
 
     Magnetic moment per site  (integrated on atomic sphere of radius R)
     atom   1 (R=0.135)  charge=  6.9706  magn=  0.8798
     atom   2 (R=0.140)  charge=  5.5911  magn=  0.2008
     atom   3 (R=0.140)  charge=  5.5911  magn=  0.2033
     atom   4 (R=0.140)  charge=  5.5911  magn=  0.2033
     atom   5 (R=0.135)  charge=  6.9646  magn=  0.8496
     atom   6 (R=0.140)  charge=  5.5774  magn=  0.2518
     atom   7 (R=0.140)  charge=  5.5775  magn=  0.2510
     atom   8 (R=0.140)  charge=  5.5774  magn=  0.2518
     atom   9 (R=0.135)  charge=  6.9670  magn=  0.7978
     atom  10 (R=0.140)  charge=  5.5747  magn=  0.2509
     atom  11 (R=0.140)  charge=  5.5750  magn=  0.2383
     atom  12 (R=0.140)  charge=  5.5750  magn=  0.2383
     atom  13 (R=0.135)  charge=  6.9674  magn=  0.7995
     atom  14 (R=0.140)  charge=  5.5757  magn=  0.2337
     atom  15 (R=0.140)  charge=  5.5751  magn=  0.2376
     atom  16 (R=0.140)  charge=  5.5757  magn=  0.2337
     atom  17 (R=0.135)  charge=  6.9652  magn=  0.8418
     atom  18 (R=0.140)  charge=  5.5775  magn=  0.2402
     atom  19 (R=0.140)  charge=  5.5786  magn=  0.2013
     atom  20 (R=0.140)  charge=  5.5775  magn=  0.2402
     atom  21 (R=0.135)  charge=  6.9767  magn=  0.6685
     atom  22 (R=0.140)  charge=  5.5953  magn=  0.1823
     atom  23 (R=0.140)  charge=  5.5877  magn=  0.1300
     atom  24 (R=0.140)  charge=  5.5877  magn=  0.1300
     atom  25 (R=0.135)  charge=  0.9300  magn= -0.0062

     total cpu time spent up to now is   334882.6 secs

     End of self-consistent calculation

     Number of k-points >= 100: set verbosity='high' to print the bands.

     the Fermi energy is    -5.1631 ev

!    total energy              =   -7077.46258208 Ry
     total all-electron energy =   -199909.899152 Ry
     estimated scf accuracy    <          2.5E-11 Ry
     smearing contrib. (-TS)   =       0.00082513 Ry
     internal energy E=F+TS    =   -7077.46340722 Ry

     The total energy is F=E-TS. E is the sum of the following terms:
     one-electron contribution =  -61220.00300235 Ry
     hartree contribution      =   30797.46808755 Ry
     xc contribution           =    -835.54986873 Ry
     ewald contribution        =   29314.78164185 Ry
     DFT-D3 Dispersion         =      -2.53269898 Ry
     one-center paw contrib.   =   -5131.62756657 Ry

     total magnetization       =     9.75 Bohr mag/cell
     absolute magnetization    =    10.59 Bohr mag/cell

     convergence has been achieved in  21 iterations

     negative rho (up, down):  1.554E-04 1.203E-04

     Forces acting on atoms (cartesian axes, Ry/au):

     atom    1 type  1   force =     0.00000000   -0.00008541    0.01591865
     atom    2 type  2   force =     0.00000000   -0.01420724   -0.00879427
     atom    3 type  2   force =    -0.01240135    0.00716715   -0.00931045
     atom    4 type  2   force =     0.01240136    0.00716715   -0.00931045
     atom    5 type  1   force =    -0.00000001    0.00037621    0.00045328
     atom    6 type  2   force =    -0.00090810   -0.00002076    0.00504907
     atom    7 type  2   force =     0.00000000   -0.00032737    0.00545282
     atom    8 type  2   force =     0.00090810   -0.00002076    0.00504909
     atom    9 type  1   force =    -0.00000003   -0.00023035   -0.00027874
     atom   10 type  2   force =    -0.00000001    0.00011001   -0.00043289
     atom   11 type  2   force =    -0.00006758   -0.00001516   -0.00066997
     atom   12 type  2   force =     0.00006760   -0.00001519   -0.00067001
     atom   13 type  1   force =     0.00000002   -0.00011278   -0.00056697
     atom   14 type  2   force =     0.00013604   -0.00020306   -0.00036483
     atom   15 type  2   force =     0.00000001   -0.00033699   -0.00027038
     atom   16 type  2   force =    -0.00013602   -0.00020304   -0.00036487
     atom   17 type  1   force =     0.00000000    0.00013133   -0.00016529
     atom   18 type  2   force =    -0.00020714   -0.00012149    0.00035655
     atom   19 type  2   force =     0.00000001    0.00015139   -0.00023119
     atom   20 type  2   force =     0.00020714   -0.00012152    0.00035654
     atom   21 type  1   force =    -0.00000002   -0.00021670   -0.00052683
     atom   22 type  2   force =    -0.00000002    0.00051268   -0.00058144
     atom   23 type  2   force =    -0.00028435    0.00018354   -0.00003751
     atom   24 type  2   force =     0.00028436    0.00018354   -0.00003755
     atom   25 type  3   force =    -0.00000001    0.00025479   -0.00002233

     Total force =     0.001964     Total SCF correction =     0.000030


     Computing stress (Cartesian axis) and pressure


     negative rho (up, down):  1.554E-04 1.203E-04
          total   stress  (Ry/bohr**3)                   (kbar)     P=       -7.29
  -0.00007111  -0.00000000  -0.00000000          -10.46       -0.00       -0.00
  -0.00000000  -0.00008060   0.00000204           -0.00      -11.86        0.30
  -0.00000000   0.00000204   0.00000306           -0.00        0.30        0.45

     Energy error            =      9.9E-06 Ry
     Gradient error          =      6.7E-04 Ry/Bohr

     bfgs converged in  15 scf cycles and  14 bfgs steps
     (criteria: energy <  1.8E-05 Ry, force <  7.8E-04 Ry/Bohr)

     End of BFGS Geometry Optimization

     Final energy             =   -7077.4625820849 Ry

     File /tmpu/isholek_g/isholek/MIGUEL/QE/Hydrogen/111_2x2/SAVE/Ni1Pd3_111-H_hcp_2.bfgs deleted, as requested
Begin final coordinates

ATOMIC_POSITIONS (angstrom)
Ni               5.3171990772        3.0698863186       11.0000000000    0   0   0
Pd               2.6585995386        3.0698851333       11.0000764482    0   0   0
Pd               3.9878982814        0.7674721723       11.0000764482    0   0   0
Pd               1.3293007958        0.7674721723       11.0000764482    0   0   0
Ni               2.6585995386        1.5349431593       13.1707374333    0   0   0
Pd               3.9878982814        3.8373584909       13.1708138815    0   0   0
Pd               5.3171990772        1.5349419740       13.1708138815    0   0   0
Pd               6.6464998731        3.8373584909       13.1708138815    0   0   0
Ni               0.0000000543        0.0028144264       15.3386743119
Pd               5.3171990195        4.6071145643       15.3351408328
Pd               3.9880752760        2.3041608243       15.3407412995
Pd               6.6463226215        2.3041608974       15.3407414241
Ni               5.3171988631        3.0701194309       17.5089268330
Pd               3.9876527365        0.7676923072       17.5098257928
Pd               2.6585993723        3.0689485299       17.5095659260
Pd               1.3295460926        0.7676922631       17.5098258451
Ni               2.6585994278        1.5253873329       19.6877090911
Pd               3.9939361176        3.8222938179       19.6712794407
Pd               5.3171990431        1.5276887674       19.6857074505
Pd               6.6404619224        3.8222938877       19.6712795230
Ni               0.0000000889       -0.0026669868       21.7867511162
Pd               5.3171991011        4.6028687970       21.8751469138
Pd               3.9922212127        2.2743386584       21.8976673157
Pd               6.6421768567        2.2743386652       21.8976675722
H                2.6585996360        3.1736735535       22.7514673510
End final coordinates



     Writing all to output data dir /tmpu/isholek_g/isholek/MIGUEL/QE/Hydrogen/111_2x2/SAVE/Ni1Pd3_111-H_hcp_2.save/ :
     XML data file, charge density, pseudopotentials, collected wavefunctions
 
     init_run     :    210.02s CPU    406.18s WALL (       1 calls)
     electrons    : 167582.63s CPU 324707.16s WALL (      15 calls)
     update_pot   :     27.65s CPU     52.85s WALL (      14 calls)
     forces       :    457.08s CPU    878.57s WALL (      15 calls)
     force_dftd3  :     18.76s CPU     35.38s WALL (      15 calls)
     stress       :   4756.73s CPU   9192.12s WALL (      15 calls)
     stres_dftd3  :     20.84s CPU     38.79s WALL (      15 calls)

     Called by init_run:
     wfcinit      :    149.39s CPU    289.14s WALL (       1 calls)
     potinit      :      2.39s CPU      4.87s WALL (       1 calls)
     hinit0       :      0.67s CPU      1.39s WALL (       1 calls)

     Called by electrons:
     c_bands      : 139411.17s CPU 270276.39s WALL (     408 calls)
     sum_band     :  25018.58s CPU  48352.90s WALL (     408 calls)
     v_of_rho     :    268.69s CPU    529.36s WALL (     416 calls)
     newd         :    129.89s CPU    263.87s WALL (     416 calls)
     PAW_pot      :    430.41s CPU    828.24s WALL (     430 calls)
     mix_rho      :   2169.88s CPU   4160.81s WALL (     408 calls)
     energy_dftd3 :      4.62s CPU      8.89s WALL (      15 calls)

     Called by c_bands:
     init_us_2    :    235.43s CPU    422.69s WALL (   21525 calls)
     init_us_2:cp :    235.07s CPU    422.25s WALL (   21525 calls)
     cegterg      :  88999.59s CPU 173000.86s WALL (   10200 calls)

     Called by *egterg:
     cdiaghg      :   6900.11s CPU  13426.48s WALL (   28398 calls)
     h_psi        :  68787.46s CPU 134111.72s WALL (   28948 calls)
     s_psi        :   2840.68s CPU   5500.61s WALL (   28948 calls)
     g_psi        :    100.37s CPU    202.41s WALL (   18723 calls)

     Called by h_psi:
     h_psi:calbec :   3700.75s CPU   7117.68s WALL (   28948 calls)
     vloc_psi     :  62136.06s CPU 121221.92s WALL (   28948 calls)
     add_vuspsi   :   2903.72s CPU   5560.69s WALL (   28948 calls)

     General routines
     calbec       :   6340.18s CPU  12209.59s WALL (   41373 calls)
     fft          :    197.10s CPU    396.34s WALL (   10998 calls)
     ffts         :    480.51s CPU    946.79s WALL (   49126 calls)
     fftw         :  72814.85s CPU 140658.47s WALL ( 7841886 calls)
     interpolate  :     21.53s CPU     42.64s WALL (     832 calls)
 
     Parallel routines
 
     PWSCF        :   2d 0h12m CPU   3d21h24m WALL

 
   This run was terminated on:  11:10:39   7Apr2026            

=------------------------------------------------------------------------------=
   JOB DONE.
=------------------------------------------------------------------------------=
