
     Program PWSCF v.7.3 starts on 20Apr2026 at 23: 3:38 

     This program is part of the open-source Quantum ESPRESSO suite
     for quantum simulation of materials; please cite
         "P. Giannozzi et al., J. Phys.:Condens. Matter 21 395502 (2009);
         "P. Giannozzi et al., J. Phys.:Condens. Matter 29 465901 (2017);
         "P. Giannozzi et al., J. Chem. Phys. 152 154105 (2020);
          URL http://www.quantum-espresso.org", 
     in publications or presentations arising from this work. More details at
     http://www.quantum-espresso.org/quote

     Parallel version (MPI), running on    64 processors

     MPI processes distributed on     4 nodes
     54632 MiB available memory on the printing compute node when the environment starts
 
     Reading input from /tmpu/isholek_g/isholek/MIGUEL/QE/Hydrogen/111_2x2/RELAX/Ni1Pd3_111-B2-relax.in

     Current dimensions of program PWSCF are:
     Max number of different atomic species (ntypx) = 10
     Max number of k-points (npk) =  40000
     Max angular momentum in pseudopotentials (lmaxx) =  4
     file Ni.upf: wavefunction(s)  4S 3D renormalized
     file Pd.upf: wavefunction(s)  5S 4D renormalized
     file H.upf: wavefunction(s)  1S renormalized

     IMPORTANT: XC functional enforced from input :
     Exchange-correlation= PBE
                           (   1   4   3   4   0   0   0)
     Any further DFT definition will be discarded
     Please, verify this is what you really want

 
     K-points division:     npool     =       8
     R & G space division:  proc/nbgrp/npool/nimage =       8
     Subspace diagonalization in iterative solution of the eigenvalue problem:
     one sub-group per band group will be used
     scalapack distributed-memory algorithm (size of sub-group:  2*  2 procs)

 
     Parallelization info
     --------------------
     sticks:   dense  smooth     PW     G-vecs:    dense   smooth      PW
     Min         416     207     59               120460    42599    6547
     Max         417     208     60               120479    42626    6574
     Sum        3331    1663    475               963739   340921   52455
 
     Using Slab Decomposition
 

     Title: 
     Ni1Pd3_111-B2-relax                                                        


     bravais-lattice index     =            0
     lattice parameter (alat)  =      10.0481  a.u.
     unit-cell volume          =    5428.4795 (a.u.)^3
     number of atoms/cell      =           25
     number of atomic types    =            3
     number of electrons       =       241.00
     number of Kohn-Sham states=          145
     kinetic-energy cutoff     =      60.0000  Ry
     charge density cutoff     =     480.0000  Ry
     scf convergence threshold =      1.0E-08
     mixing beta               =       0.2000
     number of iterations used =           12  local-TF  mixing
     energy convergence thresh.=      1.8E-05
     force convergence thresh. =      7.8E-04
     Exchange-correlation= PBE
                           (   1   4   3   4   0   0   0)
     nstep                     =           50


     celldm(1)=  10.048050  celldm(2)=   0.000000  celldm(3)=   0.000000
     celldm(4)=   0.000000  celldm(5)=   0.000000  celldm(6)=   0.000000

     crystal axes: (cart. coord. in units of alat)
               a(1) = (   1.000000   0.000000   0.000000 )  
               a(2) = (   0.500000   0.866025   0.000000 )  
               a(3) = (   0.000000   0.000000   6.178773 )  

     reciprocal axes: (cart. coord. in units 2 pi/alat)
               b(1) = (  1.000000 -0.577350  0.000000 )  
               b(2) = (  0.000000  1.154701  0.000000 )  
               b(3) = (  0.000000  0.000000  0.161844 )  


     PseudoPot. # 1 for Ni read from file:
     /tmpu/isholek_g/isholek/MIGUEL/PP/PAW/Ni.upf
     MD5 check sum: d88365a95a5e142bd87181c2c8b16588
     Pseudo is Projector augmented-wave + core cor, Zval = 10.0
     Generated using "atomic" code by A. Dal Corso  v.5.0.2 svn rev. 9415
     Shape of augmentation charge: PSQ
     Using radial grid of 1195 points,  6 beta functions with: 
                l(1) =   0
                l(2) =   0
                l(3) =   1
                l(4) =   1
                l(5) =   2
                l(6) =   2
     Q(r) pseudized with 0 coefficients 


     PseudoPot. # 2 for Pd read from file:
     /tmpu/isholek_g/isholek/MIGUEL/PP/PAW/Pd.upf
     MD5 check sum: e9d6f14fd83b79f8105499163af174c9
     Pseudo is Projector augmented-wave + core cor, Zval = 10.0
     Generated using "atomic" code by A. Dal Corso  v.5.0.2 svn rev. 9415
     Shape of augmentation charge: PSQ
     Using radial grid of 1235 points,  6 beta functions with: 
                l(1) =   0
                l(2) =   0
                l(3) =   1
                l(4) =   1
                l(5) =   2
                l(6) =   2
     Q(r) pseudized with 0 coefficients 


     PseudoPot. # 3 for H  read from file:
     /tmpu/isholek_g/isholek/MIGUEL/PP/PAW/H.upf
     MD5 check sum: 4cbe42a24e15140179a93d5bf84f2220
     Pseudo is Projector augmented-wave, Zval =  1.0
     Generated using "atomic" code by A. Dal Corso  v.5.0.2 svn rev. 9415
     Shape of augmentation charge: PSQ
     Using radial grid of  929 points,  2 beta functions with: 
                l(1) =   0
                l(2) =   0
     Q(r) pseudized with 0 coefficients 


     atomic species   valence    mass     pseudopotential
     Ni               10.00    58.69340     Ni( 1.00)
     Pd               10.00   106.42000     Pd( 1.00)
     H                 1.00     1.00794     H ( 1.00)

     Starting magnetic structure 
     atomic species   magnetization
     Ni              0.065
     Pd              0.010
     H               0.000

     No symmetry found



   Cartesian axes

     site n.     atom                  positions (alat units)
         1        Ni     tau(   1) = (   1.0000000   0.5773503   2.0687584  )
         2        Pd     tau(   2) = (   0.5000000   0.5773500   2.0687727  )
         3        Pd     tau(   3) = (   0.7499998   0.1443377   2.0687727  )
         4        Pd     tau(   4) = (   0.2500002   0.1443377   2.0687727  )
         5        Ni     tau(   5) = (   0.5000000   0.2886751   2.4770066  )
         6        Pd     tau(   6) = (   0.7499998   0.7216879   2.4770210  )
         7        Pd     tau(   7) = (   1.0000000   0.2886749   2.4770210  )
         8        Pd     tau(   8) = (   1.2500002   0.7216879   2.4770210  )
         9        Ni     tau(   9) = (   0.0000000  -0.0000000   2.8841673  )
        10        Pd     tau(  10) = (   1.0000000   0.8661098   2.8846297  )
        11        Pd     tau(  11) = (   0.7499269   0.4329705   2.8846297  )
        12        Pd     tau(  12) = (   1.2500730   0.4329705   2.8846297  )
        13        Ni     tau(  13) = (   1.0000000   0.5773503   3.2932083  )
        14        Pd     tau(  14) = (   0.7498729   0.1444109   3.2930618  )
        15        Pd     tau(  15) = (   0.5000000   0.5772035   3.2930618  )
        16        Pd     tau(  16) = (   0.2501271   0.1444109   3.2930618  )
        17        Ni     tau(  17) = (   0.5000000   0.2886751   3.7031032  )
        18        Pd     tau(  18) = (   0.7510407   0.7210870   3.7001030  )
        19        Pd     tau(  19) = (   1.0000000   0.2898768   3.7001029  )
        20        Pd     tau(  20) = (   1.2489593   0.7210870   3.7001030  )
        21        Ni     tau(  21) = (  -0.0000000   0.0000001   4.0940899  )
        22        Pd     tau(  22) = (   1.0000000   0.8682452   4.1148844  )
        23        Pd     tau(  23) = (   0.7480776   0.4319029   4.1148844  )
        24        Pd     tau(  24) = (   1.2519223   0.4319029   4.1148844  )
        25        H      tau(  25) = (   0.2501271   0.0000001   4.3029533  )

     --------------------------------------------
     DFT-D3 Dispersion Correction (3-body terms):
     --------------------------------------------
       Reference C6 values for interpolation: 

         atom   Coordination number   C6
         H          0.912             6.05
         H          0.000            15.18
         Ni         0.000          1149.49
         Ni         1.794           356.66
         Ni         6.546           257.56
         Ni         6.292           283.75
         Pd         0.000          1217.01
         Pd         1.863           573.90
         Pd         5.710           531.75

       Values used:

         atom   Coordination number  R0_AB[au]  C6      C8
         Ni         5.893            3.162    276.72  23187.44
         Pd         6.810            3.168    531.75  48720.73
         Pd         6.810            3.168    531.75  48720.73
         Pd         6.810            3.168    531.75  48720.73
         Ni         7.888            3.162    258.74  21680.87
         Pd         9.139            3.168    531.75  48720.73
         Pd         9.139            3.168    531.75  48720.73
         Pd         9.139            3.168    531.75  48720.73
         Ni         7.889            3.162    258.74  21680.67
         Pd         9.144            3.168    531.75  48720.73
         Pd         9.144            3.168    531.75  48720.73
         Pd         9.144            3.168    531.75  48720.73
         Ni         7.915            3.162    258.68  21675.80
         Pd         9.128            3.168    531.75  48720.73
         Pd         9.128            3.168    531.75  48720.73
         Pd         9.128            3.168    531.75  48720.73
         Ni         7.809            3.162    258.94  21697.08
         Pd         9.155            3.168    531.75  48720.73
         Pd         9.154            3.168    531.75  48720.73
         Pd         9.154            3.168    531.75  48720.73
         Ni         6.649            3.162    267.24  22392.55
         Pd         7.593            3.168    531.75  48720.73
         Pd         6.733            3.168    531.75  48720.73
         Pd         6.733            3.168    531.75  48720.73
         H          1.447            2.062      6.06     73.24

         Molecular C6 ( Ry / a.u.^6 ) =    264971.64


     number of k points=   100  Marzari-Vanderbilt smearing, width (Ry)=  0.0147

     Number of k-points >= 100: set verbosity='high' to print them.

     Dense  grid:   963739 G-vectors     FFT dimensions: (  72,  72, 450)

     Smooth grid:   340921 G-vectors     FFT dimensions: (  50,  50, 320)

     Estimated max dynamical RAM per process >     574.07 MB

     Estimated total dynamical RAM >      31.05 GB
 ----2D----2D----2D----2D----2D----2D----2D----2D----2D----2D----2D----2D
  The code is running with the 2D cutoff
  Please refer to:
  Sohier, T., Calandra, M., & Mauri, F. (2017), 
  Density functional perturbation theory for gated two-dimensional heterostructu
 res:
  Theoretical developments and application to flexural phonons in graphene.
  Physical Review B, 96(7), 75448. https://doi.org/10.1103/PhysRevB.96.075448
 ----2D----2D----2D----2D----2D----2D----2D----2D----2D----2D----2D----2D

     Check: negative core charge=   -0.000002
     Generating pointlists ...
     new r_m :   0.1344 (alat units)  1.3506 (a.u.) for type    1
     new r_m :   0.1290 (alat units)  1.2963 (a.u.) for type    2
     new r_m :   0.1290 (alat units)  1.2963 (a.u.) for type    3

     Initial potential from superposition of free atoms

     starting charge     240.9891, renormalised to     241.0000

     negative rho (up, down):  1.313E-04 1.163E-04
     Starting wfcs are  217 randomized atomic wfcs
     Checking if some PAW data can be deallocated... 

     total cpu time spent up to now is       95.8 secs

     Self-consistent Calculation

     iteration #  1     ecut=    60.00 Ry     beta= 0.20
     Davidson diagonalization with overlap
     ethr =  1.00E-02,  avg # of iterations =  3.0

     negative rho (up, down):  2.792E-04 2.693E-04

     total cpu time spent up to now is      296.1 secs

     total energy              =   -7078.08729375 Ry
     estimated scf accuracy    <      20.50195665 Ry

     total magnetization       =     1.07 Bohr mag/cell
     absolute magnetization    =     1.08 Bohr mag/cell

     iteration #  2     ecut=    60.00 Ry     beta= 0.20
     Davidson diagonalization with overlap
     ethr =  8.51E-03,  avg # of iterations =  1.0

     negative rho (up, down):  1.280E-04 1.193E-04

     total cpu time spent up to now is      466.7 secs

     total energy              =   -7075.19510946 Ry
     estimated scf accuracy    <      10.36050557 Ry

     total magnetization       =     0.96 Bohr mag/cell
     absolute magnetization    =     0.97 Bohr mag/cell

     iteration #  3     ecut=    60.00 Ry     beta= 0.20
     Davidson diagonalization with overlap
     ethr =  4.30E-03,  avg # of iterations =  2.0

     negative rho (up, down):  2.509E-04 2.409E-04

     total cpu time spent up to now is      660.3 secs

     total energy              =   -7077.76518744 Ry
     estimated scf accuracy    <      53.60234500 Ry

     total magnetization       =     4.59 Bohr mag/cell
     absolute magnetization    =     4.64 Bohr mag/cell

     iteration #  4     ecut=    60.00 Ry     beta= 0.20
     Davidson diagonalization with overlap
     ethr =  4.30E-03,  avg # of iterations =  1.0

     negative rho (up, down):  2.346E-04 2.236E-04

     total cpu time spent up to now is      829.5 secs

     total energy              =   -7075.76689916 Ry
     estimated scf accuracy    <      16.71907422 Ry

     total magnetization       =     4.99 Bohr mag/cell
     absolute magnetization    =     5.02 Bohr mag/cell

     iteration #  5     ecut=    60.00 Ry     beta= 0.20
     Davidson diagonalization with overlap
     ethr =  4.30E-03,  avg # of iterations =  1.1

     negative rho (up, down):  5.169E-05 4.849E-05

     total cpu time spent up to now is     1004.8 secs

     total energy              =   -7077.52160788 Ry
     estimated scf accuracy    <       6.29152471 Ry

     total magnetization       =     0.87 Bohr mag/cell
     absolute magnetization    =     0.91 Bohr mag/cell

     iteration #  6     ecut=    60.00 Ry     beta= 0.20
     Davidson diagonalization with overlap
     ethr =  2.61E-03,  avg # of iterations =  1.0

     negative rho (up, down):  2.918E-06 2.322E-06

     total cpu time spent up to now is     1173.9 secs

     total energy              =   -7077.68645613 Ry
     estimated scf accuracy    <       4.42946742 Ry

     total magnetization       =     1.02 Bohr mag/cell
     absolute magnetization    =     1.12 Bohr mag/cell

     iteration #  7     ecut=    60.00 Ry     beta= 0.20
     Davidson diagonalization with overlap
     ethr =  1.84E-03,  avg # of iterations =  1.0

     negative rho (up, down):  2.284E-07 1.736E-07

     total cpu time spent up to now is     1343.5 secs

     total energy              =   -7077.48878907 Ry
     estimated scf accuracy    <       4.69374046 Ry

     total magnetization       =     0.94 Bohr mag/cell
     absolute magnetization    =     1.07 Bohr mag/cell

     iteration #  8     ecut=    60.00 Ry     beta= 0.20
     Davidson diagonalization with overlap
     ethr =  1.84E-03,  avg # of iterations =  1.0

     negative rho (up, down):  2.147E-07 1.670E-07

     total cpu time spent up to now is     1513.4 secs

     total energy              =   -7077.52160092 Ry
     estimated scf accuracy    <       2.59641956 Ry

     total magnetization       =     2.42 Bohr mag/cell
     absolute magnetization    =     2.52 Bohr mag/cell

     iteration #  9     ecut=    60.00 Ry     beta= 0.20
     Davidson diagonalization with overlap
     ethr =  1.08E-03,  avg # of iterations =  1.0

     negative rho (up, down):  3.980E-07 3.343E-07

     total cpu time spent up to now is     1684.0 secs

     total energy              =   -7077.51538088 Ry
     estimated scf accuracy    <       2.55719900 Ry

     total magnetization       =     2.46 Bohr mag/cell
     absolute magnetization    =     2.56 Bohr mag/cell

     iteration # 10     ecut=    60.00 Ry     beta= 0.20
     Davidson diagonalization with overlap
     ethr =  1.06E-03,  avg # of iterations =  1.0

     negative rho (up, down):  1.401E-06 1.321E-06

     total cpu time spent up to now is     1853.8 secs

     total energy              =   -7077.49956927 Ry
     estimated scf accuracy    <       2.39408439 Ry

     total magnetization       =     2.60 Bohr mag/cell
     absolute magnetization    =     2.71 Bohr mag/cell

     iteration # 11     ecut=    60.00 Ry     beta= 0.20
     Davidson diagonalization with overlap
     ethr =  9.93E-04,  avg # of iterations =  1.0

     negative rho (up, down):  7.245E-04 7.215E-04

     total cpu time spent up to now is     2025.1 secs

     total energy              =   -7077.57010749 Ry
     estimated scf accuracy    <       2.14274482 Ry

     total magnetization       =     2.71 Bohr mag/cell
     absolute magnetization    =     2.81 Bohr mag/cell

     iteration # 12     ecut=    60.00 Ry     beta= 0.20
     Davidson diagonalization with overlap
     ethr =  8.89E-04,  avg # of iterations =  1.0

     negative rho (up, down):  3.068E-03 3.055E-03

     total cpu time spent up to now is     2194.6 secs

     total energy              =   -7077.58909996 Ry
     estimated scf accuracy    <       3.39535257 Ry

     total magnetization       =     1.34 Bohr mag/cell
     absolute magnetization    =     1.40 Bohr mag/cell

     iteration # 13     ecut=    60.00 Ry     beta= 0.20
     Davidson diagonalization with overlap
     ethr =  8.89E-04,  avg # of iterations =  1.0

     negative rho (up, down):  1.161E-03 1.160E-03

     total cpu time spent up to now is     2364.8 secs

     total energy              =   -7077.56270740 Ry
     estimated scf accuracy    <       3.40551767 Ry

     total magnetization       =     0.46 Bohr mag/cell
     absolute magnetization    =     0.55 Bohr mag/cell

     iteration # 14     ecut=    60.00 Ry     beta= 0.20
     Davidson diagonalization with overlap
     ethr =  8.89E-04,  avg # of iterations =  1.0

     negative rho (up, down):  3.403E-05 3.448E-05

     total cpu time spent up to now is     2533.4 secs

     total energy              =   -7077.40132456 Ry
     estimated scf accuracy    <       3.14950699 Ry

     total magnetization       =     1.38 Bohr mag/cell
     absolute magnetization    =     1.41 Bohr mag/cell

     iteration # 15     ecut=    60.00 Ry     beta= 0.20
     Davidson diagonalization with overlap
     ethr =  8.89E-04,  avg # of iterations =  1.0

     negative rho (up, down):  9.007E-06 8.865E-06

     total cpu time spent up to now is     2702.9 secs

     total energy              =   -7077.39548987 Ry
     estimated scf accuracy    <       0.86815787 Ry

     total magnetization       =     3.90 Bohr mag/cell
     absolute magnetization    =     3.97 Bohr mag/cell

     iteration # 16     ecut=    60.00 Ry     beta= 0.20
     Davidson diagonalization with overlap
     ethr =  3.60E-04,  avg # of iterations =  1.8

     negative rho (up, down):  4.860E-05 4.786E-05

     total cpu time spent up to now is     2880.4 secs

     total energy              =   -7077.42383856 Ry
     estimated scf accuracy    <       0.64538345 Ry

     total magnetization       =     5.11 Bohr mag/cell
     absolute magnetization    =     5.19 Bohr mag/cell

     iteration # 17     ecut=    60.00 Ry     beta= 0.20
     Davidson diagonalization with overlap
     ethr =  2.68E-04,  avg # of iterations =  1.0

     negative rho (up, down):  1.091E-03 1.083E-03

     total cpu time spent up to now is     3050.1 secs

     total energy              =   -7077.58621677 Ry
     estimated scf accuracy    <       0.67254765 Ry

     total magnetization       =     4.46 Bohr mag/cell
     absolute magnetization    =     4.54 Bohr mag/cell

     iteration # 18     ecut=    60.00 Ry     beta= 0.20
     Davidson diagonalization with overlap
     ethr =  2.68E-04,  avg # of iterations =  2.2

     negative rho (up, down):  5.916E-05 5.578E-05

     total cpu time spent up to now is     3236.6 secs

     total energy              =   -7077.48432424 Ry
     estimated scf accuracy    <       1.85730007 Ry

     total magnetization       =     6.86 Bohr mag/cell
     absolute magnetization    =     7.33 Bohr mag/cell

     iteration # 19     ecut=    60.00 Ry     beta= 0.20
     Davidson diagonalization with overlap
     ethr =  2.68E-04,  avg # of iterations =  1.0

     negative rho (up, down):  1.831E-06 1.652E-06

     total cpu time spent up to now is     3408.8 secs

     total energy              =   -7077.44500610 Ry
     estimated scf accuracy    <       0.45385643 Ry

     total magnetization       =     8.50 Bohr mag/cell
     absolute magnetization    =     8.87 Bohr mag/cell

     iteration # 20     ecut=    60.00 Ry     beta= 0.20
     Davidson diagonalization with overlap
     ethr =  1.88E-04,  avg # of iterations =  1.5

     negative rho (up, down):  3.032E-06 2.814E-06

     total cpu time spent up to now is     3582.7 secs

     total energy              =   -7077.45948365 Ry
     estimated scf accuracy    <       0.39689618 Ry

     total magnetization       =     7.26 Bohr mag/cell
     absolute magnetization    =     7.64 Bohr mag/cell

     iteration # 21     ecut=    60.00 Ry     beta= 0.20
     Davidson diagonalization with overlap
     ethr =  1.65E-04,  avg # of iterations =  1.0

     negative rho (up, down):  2.199E-07 2.166E-07

     total cpu time spent up to now is     3755.3 secs

     total energy              =   -7077.43853352 Ry
     estimated scf accuracy    <       0.30000279 Ry

     total magnetization       =     8.51 Bohr mag/cell
     absolute magnetization    =     8.92 Bohr mag/cell

     iteration # 22     ecut=    60.00 Ry     beta= 0.20
     Davidson diagonalization with overlap
     ethr =  1.24E-04,  avg # of iterations =  1.4

     negative rho (up, down):  1.272E-05 1.272E-05

     total cpu time spent up to now is     3930.6 secs

     total energy              =   -7077.42190666 Ry
     estimated scf accuracy    <       0.34881124 Ry

     total magnetization       =     7.47 Bohr mag/cell
     absolute magnetization    =     7.83 Bohr mag/cell

     iteration # 23     ecut=    60.00 Ry     beta= 0.20
     Davidson diagonalization with overlap
     ethr =  1.24E-04,  avg # of iterations =  1.7

     negative rho (up, down):  1.322E-05 1.347E-05

     total cpu time spent up to now is     4105.4 secs

     total energy              =   -7077.44196003 Ry
     estimated scf accuracy    <       0.52453042 Ry

     total magnetization       =     8.86 Bohr mag/cell
     absolute magnetization    =     9.26 Bohr mag/cell

     iteration # 24     ecut=    60.00 Ry     beta= 0.20
     Davidson diagonalization with overlap
     ethr =  1.24E-04,  avg # of iterations =  1.0

     negative rho (up, down):  1.982E-07 2.716E-07

     total cpu time spent up to now is     4277.0 secs

     total energy              =   -7077.43171565 Ry
     estimated scf accuracy    <       0.53484299 Ry

     total magnetization       =     8.66 Bohr mag/cell
     absolute magnetization    =     9.05 Bohr mag/cell

     iteration # 25     ecut=    60.00 Ry     beta= 0.20
     Davidson diagonalization with overlap
     ethr =  1.24E-04,  avg # of iterations =  2.0

     negative rho (up, down):  4.519E-07 6.531E-07

     total cpu time spent up to now is     4455.1 secs

     total energy              =   -7077.43180931 Ry
     estimated scf accuracy    <       0.24133907 Ry

     total magnetization       =     7.80 Bohr mag/cell
     absolute magnetization    =     8.15 Bohr mag/cell

     iteration # 26     ecut=    60.00 Ry     beta= 0.20
     Davidson diagonalization with overlap
     ethr =  1.00E-04,  avg # of iterations =  1.2

     negative rho (up, down):  8.945E-06 1.022E-05

     total cpu time spent up to now is     4629.1 secs

     total energy              =   -7077.42965188 Ry
     estimated scf accuracy    <       0.30197023 Ry

     total magnetization       =     6.90 Bohr mag/cell
     absolute magnetization    =     7.22 Bohr mag/cell

     iteration # 27     ecut=    60.00 Ry     beta= 0.20
     Davidson diagonalization with overlap
     ethr =  1.00E-04,  avg # of iterations =  1.2

     negative rho (up, down):  1.185E-04 1.210E-04

     total cpu time spent up to now is     4802.0 secs

     total energy              =   -7077.42063776 Ry
     estimated scf accuracy    <       0.33820486 Ry

     total magnetization       =     5.93 Bohr mag/cell
     absolute magnetization    =     6.21 Bohr mag/cell

     iteration # 28     ecut=    60.00 Ry     beta= 0.20
     Davidson diagonalization with overlap
     ethr =  1.00E-04,  avg # of iterations =  1.8

     negative rho (up, down):  3.044E-04 3.054E-04

     total cpu time spent up to now is     4979.0 secs

     total energy              =   -7077.42588371 Ry
     estimated scf accuracy    <       0.34705009 Ry

     total magnetization       =     4.80 Bohr mag/cell
     absolute magnetization    =     5.01 Bohr mag/cell

     iteration # 29     ecut=    60.00 Ry     beta= 0.20
     Davidson diagonalization with overlap
     ethr =  1.00E-04,  avg # of iterations =  1.1

     negative rho (up, down):  1.114E-03 1.113E-03

     total cpu time spent up to now is     5150.1 secs

     total energy              =   -7077.42671537 Ry
     estimated scf accuracy    <       0.25922513 Ry

     total magnetization       =     4.13 Bohr mag/cell
     absolute magnetization    =     4.30 Bohr mag/cell

     iteration # 30     ecut=    60.00 Ry     beta= 0.20
     Davidson diagonalization with overlap
     ethr =  1.00E-04,  avg # of iterations =  1.1

     negative rho (up, down):  1.024E-03 1.022E-03

     total cpu time spent up to now is     5320.8 secs

     total energy              =   -7077.43403770 Ry
     estimated scf accuracy    <       0.15335499 Ry

     total magnetization       =     3.08 Bohr mag/cell
     absolute magnetization    =     3.62 Bohr mag/cell

     iteration # 31     ecut=    60.00 Ry     beta= 0.20
     Davidson diagonalization with overlap
     ethr =  6.36E-05,  avg # of iterations =  1.1

     negative rho (up, down):  5.665E-04 5.647E-04

     total cpu time spent up to now is     5492.2 secs

     total energy              =   -7077.41660660 Ry
     estimated scf accuracy    <       0.17376054 Ry

     total magnetization       =     2.93 Bohr mag/cell
     absolute magnetization    =     3.46 Bohr mag/cell

     iteration # 32     ecut=    60.00 Ry     beta= 0.20
     Davidson diagonalization with overlap
     ethr =  6.36E-05,  avg # of iterations =  2.7

     negative rho (up, down):  1.361E-03 1.359E-03

     total cpu time spent up to now is     5674.9 secs

     total energy              =   -7077.42659194 Ry
     estimated scf accuracy    <       0.06641046 Ry

     total magnetization       =     3.22 Bohr mag/cell
     absolute magnetization    =     3.44 Bohr mag/cell

     iteration # 33     ecut=    60.00 Ry     beta= 0.20
     Davidson diagonalization with overlap
     ethr =  2.76E-05,  avg # of iterations =  4.1

     negative rho (up, down):  7.779E-04 7.772E-04

     total cpu time spent up to now is     5852.6 secs

     total energy              =   -7077.41172640 Ry
     estimated scf accuracy    <       0.11466907 Ry

     total magnetization       =     2.92 Bohr mag/cell
     absolute magnetization    =     3.79 Bohr mag/cell

     iteration # 34     ecut=    60.00 Ry     beta= 0.20
     Davidson diagonalization with overlap
     ethr =  2.76E-05,  avg # of iterations =  1.3

     negative rho (up, down):  4.457E-04 4.448E-04

     total cpu time spent up to now is     6023.6 secs

     total energy              =   -7077.41887915 Ry
     estimated scf accuracy    <       0.15572890 Ry

     total magnetization       =     4.13 Bohr mag/cell
     absolute magnetization    =     4.27 Bohr mag/cell

     iteration # 35     ecut=    60.00 Ry     beta= 0.20
     Davidson diagonalization with overlap
     ethr =  2.76E-05,  avg # of iterations =  1.0

     negative rho (up, down):  4.968E-04 4.962E-04

     total cpu time spent up to now is     6191.6 secs

     total energy              =   -7077.42029289 Ry
     estimated scf accuracy    <       0.16674402 Ry

     total magnetization       =     3.76 Bohr mag/cell
     absolute magnetization    =     3.88 Bohr mag/cell

     iteration # 36     ecut=    60.00 Ry     beta= 0.20
     Davidson diagonalization with overlap
     ethr =  2.76E-05,  avg # of iterations =  1.0

     negative rho (up, down):  1.854E-04 1.856E-04

     total cpu time spent up to now is     6363.9 secs

     total energy              =   -7077.40948237 Ry
     estimated scf accuracy    <       0.15859502 Ry

     total magnetization       =     3.86 Bohr mag/cell
     absolute magnetization    =     3.97 Bohr mag/cell

     iteration # 37     ecut=    60.00 Ry     beta= 0.20
     Davidson diagonalization with overlap
     ethr =  2.76E-05,  avg # of iterations =  1.0

     negative rho (up, down):  2.648E-05 2.664E-05

     total cpu time spent up to now is     6534.5 secs

     total energy              =   -7077.41552454 Ry
     estimated scf accuracy    <       0.42740901 Ry

     total magnetization       =     4.65 Bohr mag/cell
     absolute magnetization    =     4.79 Bohr mag/cell

     iteration # 38     ecut=    60.00 Ry     beta= 0.20
     Davidson diagonalization with overlap
     ethr =  2.76E-05,  avg # of iterations =  1.1

     negative rho (up, down):  3.896E-05 3.897E-05

     total cpu time spent up to now is     6706.8 secs

     total energy              =   -7077.42496976 Ry
     estimated scf accuracy    <       0.17209205 Ry

     total magnetization       =     5.60 Bohr mag/cell
     absolute magnetization    =     5.78 Bohr mag/cell

     iteration # 39     ecut=    60.00 Ry     beta= 0.20
     Davidson diagonalization with overlap
     ethr =  2.76E-05,  avg # of iterations =  1.1

     negative rho (up, down):  3.181E-05 3.185E-05

     total cpu time spent up to now is     6877.5 secs

     total energy              =   -7077.42690414 Ry
     estimated scf accuracy    <       0.15836931 Ry

     total magnetization       =     6.37 Bohr mag/cell
     absolute magnetization    =     6.60 Bohr mag/cell

     iteration # 40     ecut=    60.00 Ry     beta= 0.20
     Davidson diagonalization with overlap
     ethr =  2.76E-05,  avg # of iterations =  1.0

     negative rho (up, down):  4.225E-05 4.215E-05

     total cpu time spent up to now is     7049.9 secs

     total energy              =   -7077.42756256 Ry
     estimated scf accuracy    <       0.14603784 Ry

     total magnetization       =     6.54 Bohr mag/cell
     absolute magnetization    =     6.79 Bohr mag/cell

     iteration # 41     ecut=    60.00 Ry     beta= 0.20
     Davidson diagonalization with overlap
     ethr =  2.76E-05,  avg # of iterations =  1.0

     negative rho (up, down):  4.451E-04 4.431E-04

     total cpu time spent up to now is     7222.2 secs

     total energy              =   -7077.42812726 Ry
     estimated scf accuracy    <       0.24882811 Ry

     total magnetization       =     7.06 Bohr mag/cell
     absolute magnetization    =     7.34 Bohr mag/cell

     iteration # 42     ecut=    60.00 Ry     beta= 0.20
     Davidson diagonalization with overlap
     ethr =  2.76E-05,  avg # of iterations =  1.0

     negative rho (up, down):  3.741E-04 3.703E-04

     total cpu time spent up to now is     7391.8 secs

     total energy              =   -7077.42906624 Ry
     estimated scf accuracy    <       0.17616565 Ry

     total magnetization       =     7.48 Bohr mag/cell
     absolute magnetization    =     7.81 Bohr mag/cell

     iteration # 43     ecut=    60.00 Ry     beta= 0.20
     Davidson diagonalization with overlap
     ethr =  2.76E-05,  avg # of iterations =  1.0

     negative rho (up, down):  1.217E-03 1.210E-03

     total cpu time spent up to now is     7561.0 secs

     total energy              =   -7077.42905231 Ry
     estimated scf accuracy    <       0.03490190 Ry

     total magnetization       =     7.61 Bohr mag/cell
     absolute magnetization    =     7.95 Bohr mag/cell

     iteration # 44     ecut=    60.00 Ry     beta= 0.20
     Davidson diagonalization with overlap
     ethr =  1.45E-05,  avg # of iterations =  1.1

     negative rho (up, down):  6.222E-04 6.176E-04

     total cpu time spent up to now is     7732.4 secs

     total energy              =   -7077.43087271 Ry
     estimated scf accuracy    <       0.05682307 Ry

     total magnetization       =     7.59 Bohr mag/cell
     absolute magnetization    =     7.92 Bohr mag/cell

     iteration # 45     ecut=    60.00 Ry     beta= 0.20
     Davidson diagonalization with overlap
     ethr =  1.45E-05,  avg # of iterations =  1.0

     negative rho (up, down):  1.095E-03 1.088E-03

     total cpu time spent up to now is     7902.7 secs

     total energy              =   -7077.43312365 Ry
     estimated scf accuracy    <       0.08982508 Ry

     total magnetization       =     7.60 Bohr mag/cell
     absolute magnetization    =     7.95 Bohr mag/cell

     iteration # 46     ecut=    60.00 Ry     beta= 0.20
     Davidson diagonalization with overlap
     ethr =  1.45E-05,  avg # of iterations =  1.5

     negative rho (up, down):  5.163E-04 5.109E-04

     total cpu time spent up to now is     8075.1 secs

     total energy              =   -7077.43538829 Ry
     estimated scf accuracy    <       0.05246785 Ry

     total magnetization       =     8.01 Bohr mag/cell
     absolute magnetization    =     8.39 Bohr mag/cell

     iteration # 47     ecut=    60.00 Ry     beta= 0.20
     Davidson diagonalization with overlap
     ethr =  1.45E-05,  avg # of iterations =  1.0

     negative rho (up, down):  1.213E-04 1.195E-04

     total cpu time spent up to now is     8245.3 secs

     total energy              =   -7077.44030269 Ry
     estimated scf accuracy    <       0.03644549 Ry

     total magnetization       =     8.32 Bohr mag/cell
     absolute magnetization    =     8.71 Bohr mag/cell

     iteration # 48     ecut=    60.00 Ry     beta= 0.20
     Davidson diagonalization with overlap
     ethr =  1.45E-05,  avg # of iterations =  1.1

     negative rho (up, down):  2.982E-04 2.934E-04

     total cpu time spent up to now is     8417.0 secs

     total energy              =   -7077.44458897 Ry
     estimated scf accuracy    <       0.02078081 Ry

     total magnetization       =     8.65 Bohr mag/cell
     absolute magnetization    =     9.08 Bohr mag/cell

     iteration # 49     ecut=    60.00 Ry     beta= 0.20
     Davidson diagonalization with overlap
     ethr =  8.62E-06,  avg # of iterations =  1.7

     negative rho (up, down):  6.018E-05 5.915E-05

     total cpu time spent up to now is     8617.2 secs

     total energy              =   -7077.44940224 Ry
     estimated scf accuracy    <       0.02794471 Ry

     total magnetization       =     9.13 Bohr mag/cell
     absolute magnetization    =     9.68 Bohr mag/cell

     iteration # 50     ecut=    60.00 Ry     beta= 0.20
     Davidson diagonalization with overlap
     ethr =  8.62E-06,  avg # of iterations =  1.0

     negative rho (up, down):  2.457E-04 2.420E-04

     total cpu time spent up to now is     8787.7 secs

     total energy              =   -7077.45034589 Ry
     estimated scf accuracy    <       0.03613085 Ry

     total magnetization       =     9.26 Bohr mag/cell
     absolute magnetization    =     9.88 Bohr mag/cell

     iteration # 51     ecut=    60.00 Ry     beta= 0.20
     Davidson diagonalization with overlap
     ethr =  8.62E-06,  avg # of iterations =  1.0

     negative rho (up, down):  6.506E-07 5.358E-07

     total cpu time spent up to now is     8956.4 secs

     total energy              =   -7077.45077991 Ry
     estimated scf accuracy    <       0.02088074 Ry

     total magnetization       =     9.29 Bohr mag/cell
     absolute magnetization    =     9.93 Bohr mag/cell

     iteration # 52     ecut=    60.00 Ry     beta= 0.20
     Davidson diagonalization with overlap
     ethr =  8.62E-06,  avg # of iterations =  1.1

     negative rho (up, down):  7.261E-06 6.321E-06

     total cpu time spent up to now is     9125.5 secs

     total energy              =   -7077.45090673 Ry
     estimated scf accuracy    <       0.00969019 Ry

     total magnetization       =     9.44 Bohr mag/cell
     absolute magnetization    =    10.14 Bohr mag/cell

     iteration # 53     ecut=    60.00 Ry     beta= 0.20
     Davidson diagonalization with overlap
     ethr =  4.02E-06,  avg # of iterations =  2.2

     negative rho (up, down):  1.017E-06 8.577E-07

     total cpu time spent up to now is     9304.8 secs

     total energy              =   -7077.45121744 Ry
     estimated scf accuracy    <       0.00608409 Ry

     total magnetization       =     9.59 Bohr mag/cell
     absolute magnetization    =    10.33 Bohr mag/cell

     iteration # 54     ecut=    60.00 Ry     beta= 0.20
     Davidson diagonalization with overlap
     ethr =  2.52E-06,  avg # of iterations =  1.9

     negative rho (up, down):  8.390E-08 6.191E-08

     total cpu time spent up to now is     9477.8 secs

     total energy              =   -7077.45126580 Ry
     estimated scf accuracy    <       0.00390950 Ry

     total magnetization       =     9.56 Bohr mag/cell
     absolute magnetization    =    10.31 Bohr mag/cell

     iteration # 55     ecut=    60.00 Ry     beta= 0.20
     Davidson diagonalization with overlap
     ethr =  1.62E-06,  avg # of iterations =  2.5

     negative rho (up, down):  9.028E-06 8.605E-06

     total cpu time spent up to now is     9659.1 secs

     total energy              =   -7077.45123633 Ry
     estimated scf accuracy    <       0.00136484 Ry

     total magnetization       =     9.58 Bohr mag/cell
     absolute magnetization    =    10.36 Bohr mag/cell

     iteration # 56     ecut=    60.00 Ry     beta= 0.20
     Davidson diagonalization with overlap
     c_bands:  1 eigenvalues not converged
     ethr =  5.66E-07,  avg # of iterations =  1.8

     negative rho (up, down):  1.657E-05 1.617E-05

     total cpu time spent up to now is     9837.2 secs

     total energy              =   -7077.45122243 Ry
     estimated scf accuracy    <       0.00061975 Ry

     total magnetization       =     9.64 Bohr mag/cell
     absolute magnetization    =    10.44 Bohr mag/cell

     iteration # 57     ecut=    60.00 Ry     beta= 0.20
     Davidson diagonalization with overlap
     ethr =  2.57E-07,  avg # of iterations =  1.5

     negative rho (up, down):  4.225E-06 4.102E-06

     total cpu time spent up to now is    10014.4 secs

     total energy              =   -7077.45127465 Ry
     estimated scf accuracy    <       0.00100129 Ry

     total magnetization       =     9.65 Bohr mag/cell
     absolute magnetization    =    10.46 Bohr mag/cell

     iteration # 58     ecut=    60.00 Ry     beta= 0.20
     Davidson diagonalization with overlap
     ethr =  2.57E-07,  avg # of iterations =  1.1

     negative rho (up, down):  1.811E-06 1.731E-06

     total cpu time spent up to now is    10186.6 secs

     total energy              =   -7077.45127777 Ry
     estimated scf accuracy    <       0.00092110 Ry

     total magnetization       =     9.65 Bohr mag/cell
     absolute magnetization    =    10.47 Bohr mag/cell

     iteration # 59     ecut=    60.00 Ry     beta= 0.20
     Davidson diagonalization with overlap
     ethr =  2.57E-07,  avg # of iterations =  1.3

     negative rho (up, down):  2.650E-06 2.471E-06

     total cpu time spent up to now is    10361.1 secs

     total energy              =   -7077.45122647 Ry
     estimated scf accuracy    <       0.00035097 Ry

     total magnetization       =     9.68 Bohr mag/cell
     absolute magnetization    =    10.51 Bohr mag/cell

     iteration # 60     ecut=    60.00 Ry     beta= 0.20
     Davidson diagonalization with overlap
     c_bands:  1 eigenvalues not converged
     ethr =  1.46E-07,  avg # of iterations =  1.8

     negative rho (up, down):  7.391E-06 6.915E-06

     total cpu time spent up to now is    10543.2 secs

     total energy              =   -7077.45121604 Ry
     estimated scf accuracy    <       0.00029701 Ry

     total magnetization       =     9.73 Bohr mag/cell
     absolute magnetization    =    10.57 Bohr mag/cell

     iteration # 61     ecut=    60.00 Ry     beta= 0.20
     Davidson diagonalization with overlap
     ethr =  1.23E-07,  avg # of iterations =  1.1

     negative rho (up, down):  5.158E-05 4.950E-05

     total cpu time spent up to now is    10716.4 secs

     total energy              =   -7077.45117634 Ry
     estimated scf accuracy    <       0.00023335 Ry

     total magnetization       =     9.76 Bohr mag/cell
     absolute magnetization    =    10.61 Bohr mag/cell

     iteration # 62     ecut=    60.00 Ry     beta= 0.20
     Davidson diagonalization with overlap
     ethr =  9.68E-08,  avg # of iterations =  2.0

     negative rho (up, down):  3.599E-05 3.355E-05

     total cpu time spent up to now is    10901.4 secs

     total energy              =   -7077.45118843 Ry
     estimated scf accuracy    <       0.00020663 Ry

     total magnetization       =     9.80 Bohr mag/cell
     absolute magnetization    =    10.66 Bohr mag/cell

     iteration # 63     ecut=    60.00 Ry     beta= 0.20
     Davidson diagonalization with overlap
     ethr =  8.57E-08,  avg # of iterations =  1.1

     negative rho (up, down):  3.625E-05 3.294E-05

     total cpu time spent up to now is    11072.6 secs

     total energy              =   -7077.45119057 Ry
     estimated scf accuracy    <       0.00018264 Ry

     total magnetization       =     9.80 Bohr mag/cell
     absolute magnetization    =    10.65 Bohr mag/cell

     iteration # 64     ecut=    60.00 Ry     beta= 0.20
     Davidson diagonalization with overlap
     ethr =  7.58E-08,  avg # of iterations =  1.4

     negative rho (up, down):  1.342E-05 1.025E-05

     total cpu time spent up to now is    11248.3 secs

     total energy              =   -7077.45118646 Ry
     estimated scf accuracy    <       0.00013797 Ry

     total magnetization       =     9.80 Bohr mag/cell
     absolute magnetization    =    10.65 Bohr mag/cell

     iteration # 65     ecut=    60.00 Ry     beta= 0.20
     Davidson diagonalization with overlap
     ethr =  5.72E-08,  avg # of iterations =  1.3

     negative rho (up, down):  1.329E-04 1.146E-04

     total cpu time spent up to now is    11425.3 secs

     total energy              =   -7077.45118616 Ry
     estimated scf accuracy    <       0.00007591 Ry

     total magnetization       =     9.78 Bohr mag/cell
     absolute magnetization    =    10.63 Bohr mag/cell

     iteration # 66     ecut=    60.00 Ry     beta= 0.20
     Davidson diagonalization with overlap
     ethr =  3.15E-08,  avg # of iterations =  2.8

     negative rho (up, down):  1.081E-04 8.698E-05

     total cpu time spent up to now is    11615.0 secs

     total energy              =   -7077.45120013 Ry
     estimated scf accuracy    <       0.00005476 Ry

     total magnetization       =     9.78 Bohr mag/cell
     absolute magnetization    =    10.63 Bohr mag/cell

     iteration # 67     ecut=    60.00 Ry     beta= 0.20
     Davidson diagonalization with overlap
     ethr =  2.27E-08,  avg # of iterations =  1.6

     negative rho (up, down):  1.279E-04 1.029E-04

     total cpu time spent up to now is    11802.8 secs

     total energy              =   -7077.45120656 Ry
     estimated scf accuracy    <       0.00004072 Ry

     total magnetization       =     9.77 Bohr mag/cell
     absolute magnetization    =    10.63 Bohr mag/cell

     iteration # 68     ecut=    60.00 Ry     beta= 0.20
     Davidson diagonalization with overlap
     ethr =  1.69E-08,  avg # of iterations =  1.2

     negative rho (up, down):  2.848E-04 2.572E-04

     total cpu time spent up to now is    11975.7 secs

     total energy              =   -7077.45120852 Ry
     estimated scf accuracy    <       0.00003042 Ry

     total magnetization       =     9.77 Bohr mag/cell
     absolute magnetization    =    10.62 Bohr mag/cell

     iteration # 69     ecut=    60.00 Ry     beta= 0.20
     Davidson diagonalization with overlap
     ethr =  1.26E-08,  avg # of iterations =  1.5

     negative rho (up, down):  1.673E-04 1.353E-04

     total cpu time spent up to now is    12154.8 secs

     total energy              =   -7077.45120940 Ry
     estimated scf accuracy    <       0.00001580 Ry

     total magnetization       =     9.77 Bohr mag/cell
     absolute magnetization    =    10.62 Bohr mag/cell

     iteration # 70     ecut=    60.00 Ry     beta= 0.20
     Davidson diagonalization with overlap
     ethr =  6.56E-09,  avg # of iterations =  1.6

     negative rho (up, down):  1.281E-04 9.668E-05

     total cpu time spent up to now is    12335.3 secs

     total energy              =   -7077.45121046 Ry
     estimated scf accuracy    <       0.00000562 Ry

     total magnetization       =     9.76 Bohr mag/cell
     absolute magnetization    =    10.61 Bohr mag/cell

     iteration # 71     ecut=    60.00 Ry     beta= 0.20
     Davidson diagonalization with overlap
     ethr =  2.33E-09,  avg # of iterations =  2.1

     negative rho (up, down):  1.217E-04 8.937E-05

     total cpu time spent up to now is    12521.5 secs

     total energy              =   -7077.45121109 Ry
     estimated scf accuracy    <       0.00000083 Ry

     total magnetization       =     9.76 Bohr mag/cell
     absolute magnetization    =    10.61 Bohr mag/cell

     iteration # 72     ecut=    60.00 Ry     beta= 0.20
     Davidson diagonalization with overlap
     ethr =  3.44E-10,  avg # of iterations =  4.5

     negative rho (up, down):  1.275E-04 9.457E-05

     total cpu time spent up to now is    12737.8 secs

     total energy              =   -7077.45121132 Ry
     estimated scf accuracy    <       0.00000059 Ry

     total magnetization       =     9.76 Bohr mag/cell
     absolute magnetization    =    10.61 Bohr mag/cell

     iteration # 73     ecut=    60.00 Ry     beta= 0.20
     Davidson diagonalization with overlap
     ethr =  2.44E-10,  avg # of iterations =  1.5

     negative rho (up, down):  1.368E-04 1.029E-04

     total cpu time spent up to now is    12920.1 secs

     total energy              =   -7077.45121155 Ry
     estimated scf accuracy    <       0.00000043 Ry

     total magnetization       =     9.76 Bohr mag/cell
     absolute magnetization    =    10.60 Bohr mag/cell

     iteration # 74     ecut=    60.00 Ry     beta= 0.20
     Davidson diagonalization with overlap
     ethr =  1.80E-10,  avg # of iterations =  1.3

     negative rho (up, down):  1.411E-04 1.067E-04

     total cpu time spent up to now is    13095.9 secs

     total energy              =   -7077.45121165 Ry
     estimated scf accuracy    <       0.00000023 Ry

     total magnetization       =     9.75 Bohr mag/cell
     absolute magnetization    =    10.60 Bohr mag/cell

     iteration # 75     ecut=    60.00 Ry     beta= 0.20
     Davidson diagonalization with overlap
     ethr =  9.52E-11,  avg # of iterations =  1.7

     negative rho (up, down):  1.405E-04 1.059E-04

     total cpu time spent up to now is    13276.9 secs

     total energy              =   -7077.45121168 Ry
     estimated scf accuracy    <       0.00000012 Ry

     total magnetization       =     9.75 Bohr mag/cell
     absolute magnetization    =    10.60 Bohr mag/cell

     iteration # 76     ecut=    60.00 Ry     beta= 0.20
     Davidson diagonalization with overlap
     ethr =  5.00E-11,  avg # of iterations =  1.9

     negative rho (up, down):  1.498E-04 1.150E-04

     total cpu time spent up to now is    13461.8 secs

     total energy              =   -7077.45121174 Ry
     estimated scf accuracy    <       0.00000013 Ry

     total magnetization       =     9.75 Bohr mag/cell
     absolute magnetization    =    10.60 Bohr mag/cell

     iteration # 77     ecut=    60.00 Ry     beta= 0.20
     Davidson diagonalization with overlap
     ethr =  5.00E-11,  avg # of iterations =  1.4

     negative rho (up, down):  1.564E-04 1.216E-04

     total cpu time spent up to now is    13639.9 secs

     total energy              =   -7077.45121177 Ry
     estimated scf accuracy    <       0.00000007 Ry

     total magnetization       =     9.75 Bohr mag/cell
     absolute magnetization    =    10.60 Bohr mag/cell

     iteration # 78     ecut=    60.00 Ry     beta= 0.20
     Davidson diagonalization with overlap
     ethr =  2.81E-11,  avg # of iterations =  1.9

     negative rho (up, down):  1.603E-04 1.254E-04

     total cpu time spent up to now is    13826.4 secs

     total energy              =   -7077.45121179 Ry
     estimated scf accuracy    <       0.00000002 Ry

     total magnetization       =     9.75 Bohr mag/cell
     absolute magnetization    =    10.60 Bohr mag/cell

     iteration # 79     ecut=    60.00 Ry     beta= 0.20
     Davidson diagonalization with overlap
     ethr =  9.50E-12,  avg # of iterations =  3.5

     negative rho (up, down):  1.575E-04 1.226E-04

     total cpu time spent up to now is    14029.4 secs

     total energy              =   -7077.45121180 Ry
     estimated scf accuracy    <       0.00000002 Ry

     total magnetization       =     9.75 Bohr mag/cell
     absolute magnetization    =    10.60 Bohr mag/cell

     iteration # 80     ecut=    60.00 Ry     beta= 0.20
     Davidson diagonalization with overlap
     ethr =  7.30E-12,  avg # of iterations =  1.7

     negative rho (up, down):  1.552E-04 1.202E-04
 
     Magnetic moment per site  (integrated on atomic sphere of radius R)
     atom   1 (R=0.134)  charge=  6.9543  magn=  0.8767
     atom   2 (R=0.129)  charge=  4.9645  magn=  0.1811
     atom   3 (R=0.129)  charge=  4.9645  magn=  0.1842
     atom   4 (R=0.129)  charge=  4.9645  magn=  0.1803
     atom   5 (R=0.134)  charge=  6.9486  magn=  0.8459
     atom   6 (R=0.129)  charge=  4.9532  magn=  0.2287
     atom   7 (R=0.129)  charge=  4.9531  magn=  0.2253
     atom   8 (R=0.129)  charge=  4.9532  magn=  0.2260
     atom   9 (R=0.134)  charge=  6.9506  magn=  0.7965
     atom  10 (R=0.129)  charge=  4.9508  magn=  0.2159
     atom  11 (R=0.129)  charge=  4.9508  magn=  0.2236
     atom  12 (R=0.129)  charge=  4.9508  magn=  0.2119
     atom  13 (R=0.134)  charge=  6.9510  magn=  0.8016
     atom  14 (R=0.129)  charge=  4.9507  magn=  0.2067
     atom  15 (R=0.129)  charge=  4.9518  magn=  0.2111
     atom  16 (R=0.129)  charge=  4.9508  magn=  0.2134
     atom  17 (R=0.134)  charge=  6.9493  magn=  0.8434
     atom  18 (R=0.129)  charge=  4.9530  magn=  0.2116
     atom  19 (R=0.129)  charge=  4.9529  magn=  0.2186
     atom  20 (R=0.129)  charge=  4.9537  magn=  0.1870
     atom  21 (R=0.134)  charge=  6.9591  magn=  0.6618
     atom  22 (R=0.129)  charge=  4.9554  magn=  0.0947
     atom  23 (R=0.129)  charge=  4.9690  magn=  0.1584
     atom  24 (R=0.129)  charge=  4.9679  magn=  0.1540
     atom  25 (R=0.129)  charge=  0.8385  magn= -0.0066

     total cpu time spent up to now is    14210.5 secs

     End of self-consistent calculation

     Number of k-points >= 100: set verbosity='high' to print the bands.

     the Fermi energy is    -5.1672 ev

!    total energy              =   -7077.45121179 Ry
     total all-electron energy =   -199909.887782 Ry
     estimated scf accuracy    <          8.1E-09 Ry
     smearing contrib. (-TS)   =       0.00069191 Ry
     internal energy E=F+TS    =   -7077.45190369 Ry

     The total energy is F=E-TS. E is the sum of the following terms:
     one-electron contribution =  -61257.58695823 Ry
     hartree contribution      =   30816.20412840 Ry
     xc contribution           =    -835.54599821 Ry
     ewald contribution        =   29333.64232655 Ry
     DFT-D3 Dispersion         =      -2.53415845 Ry
     one-center paw contrib.   =   -5131.63124375 Ry

     total magnetization       =     9.75 Bohr mag/cell
     absolute magnetization    =    10.60 Bohr mag/cell

     convergence has been achieved in  80 iterations

     negative rho (up, down):  1.552E-04 1.202E-04

     Forces acting on atoms (cartesian axes, Ry/au):

     atom    1 type  1   force =    -0.00002879    0.00011690    0.01594624
     atom    2 type  2   force =     0.00004106   -0.01428180   -0.00931921
     atom    3 type  2   force =    -0.01243806    0.00720047   -0.00915613
     atom    4 type  2   force =     0.01223327    0.00712274   -0.00890579
     atom    5 type  1   force =    -0.00004290    0.00001608    0.00051033
     atom    6 type  2   force =    -0.00031230    0.00044030    0.00413049
     atom    7 type  2   force =     0.00011295   -0.00067476    0.00543111
     atom    8 type  2   force =     0.00047264    0.00023495    0.00473002
     atom    9 type  1   force =    -0.00002120   -0.00039334    0.00048173
     atom   10 type  2   force =    -0.00000380   -0.00053137    0.00053181
     atom   11 type  2   force =     0.00057477    0.00019299   -0.00136817
     atom   12 type  2   force =    -0.00011219    0.00024299    0.00061920
     atom   13 type  1   force =    -0.00076752   -0.00028438   -0.00244375
     atom   14 type  2   force =    -0.00007599   -0.00027977    0.00167895
     atom   15 type  2   force =     0.00073275   -0.00002666   -0.00341338
     atom   16 type  2   force =     0.00000549    0.00016591   -0.00012388
     atom   17 type  1   force =     0.00032067    0.00126806   -0.00332926
     atom   18 type  2   force =    -0.00083354   -0.00045132   -0.00436713
     atom   19 type  2   force =    -0.00088285    0.00034487   -0.00242311
     atom   20 type  2   force =     0.00054608    0.00017997    0.00351797
     atom   21 type  1   force =    -0.00029354   -0.00121556    0.00751261
     atom   22 type  2   force =     0.01775502   -0.00277288   -0.00162025
     atom   23 type  2   force =    -0.00053568   -0.00240062    0.00207488
     atom   24 type  2   force =     0.00043630    0.00414825   -0.00107055
     atom   25 type  3   force =    -0.01688264    0.00163797    0.00037528

     Total force =     0.027844     Total SCF correction =     0.000392


     Computing stress (Cartesian axis) and pressure


     negative rho (up, down):  1.552E-04 1.202E-04
          total   stress  (Ry/bohr**3)                   (kbar)     P=       -6.97
  -0.00007423  -0.00000024  -0.00000597          -10.92       -0.03       -0.88
  -0.00000024  -0.00007794   0.00000071           -0.03      -11.47        0.10
  -0.00000597   0.00000071   0.00001004           -0.88        0.10        1.48


     BFGS Geometry Optimization
     Energy error            =      0.0E+00 Ry
     Gradient error          =      1.8E-02 Ry/Bohr

     number of scf cycles    =   1
     number of bfgs steps    =   0

     energy             new  =   -7077.4512117854 Ry

     new trust radius        =       0.0180431382 bohr
     new conv_thr            =       0.0000000100 Ry


ATOMIC_POSITIONS (angstrom)
Ni               5.3171990772        3.0698863186       11.0000000000    0   0   0
Pd               2.6585995386        3.0698851333       11.0000764482    0   0   0
Pd               3.9878982814        0.7674721723       11.0000764482    0   0   0
Pd               1.3293007958        0.7674721723       11.0000764482    0   0   0
Ni               2.6585995386        1.5349431593       13.1707374333    0   0   0
Pd               3.9878982814        3.8373584909       13.1708138815    0   0   0
Pd               5.3171990772        1.5349419740       13.1708138815    0   0   0
Pd               6.6464998731        3.8373584909       13.1708138815    0   0   0
Ni              -0.0000111654       -0.0002082121       15.3359463917
Pd               5.3171970566        4.6049968965       15.3384318758
Pd               3.9878149012        2.3022925316       15.3374265011
Pd               6.6468278744        2.3023190543       15.3384782648
Ni               5.3167928792        3.0697357509       17.5093509126
Pd               3.9871833832        0.7677135241       17.5107534244
Pd               2.6589873208        3.0690917177       17.5080589010
Pd               1.3299785203        0.7679494095       17.5097995392
Ni               2.6587691329        1.5356142015       19.6883749460
Pd               3.9929917467        3.8339242949       19.6718730797
Pd               5.3167318020        1.5415153900       19.6729016057
Pd               6.6412540915        3.8342583949       19.6760456648
Ni              -0.0001555849       -0.0006428180       21.7730667998
Pd               5.3265943911        4.6151651562       21.8788022042
Pd               3.9773940153        2.2952431428       21.8807573748
Pd               6.6569511293        2.2987087175       21.8790929818
H                1.3210417093        0.0000004292       22.8798580809    1   0   1



     Writing config-only to output data dir /tmpu/isholek_g/isholek/MIGUEL/QE/Hydrogen/111_2x2/SAVE/Ni1Pd3_111-B2.save/ :
     XML data file
     NEW-OLD atomic charge density approx. for the potential

     Check: negative core charge=   -0.000002

     negative rho (up, down):  1.466E-04 1.357E-04
     Generating pointlists ...

     total cpu time spent up to now is    14509.9 secs

     Self-consistent Calculation

     iteration #  1     ecut=    60.00 Ry     beta= 0.20
     Davidson diagonalization with overlap
     ethr =  1.00E-06,  avg # of iterations =  5.3

     negative rho (up, down):  1.997E-04 1.789E-04

     total cpu time spent up to now is    14907.2 secs

     total energy              =   -7077.45174265 Ry
     estimated scf accuracy    <       0.00190915 Ry

     total magnetization       =     9.73 Bohr mag/cell
     absolute magnetization    =    10.58 Bohr mag/cell

     iteration #  2     ecut=    60.00 Ry     beta= 0.20
     Davidson diagonalization with overlap
     ethr =  7.92E-07,  avg # of iterations =  1.0

     negative rho (up, down):  1.885E-04 1.651E-04

     total cpu time spent up to now is    15079.7 secs

     total energy              =   -7077.45178388 Ry
     estimated scf accuracy    <       0.00044163 Ry

     total magnetization       =     9.75 Bohr mag/cell
     absolute magnetization    =    10.60 Bohr mag/cell

     iteration #  3     ecut=    60.00 Ry     beta= 0.20
     Davidson diagonalization with overlap
     ethr =  1.83E-07,  avg # of iterations =  1.0

     negative rho (up, down):  1.813E-04 1.557E-04

     total cpu time spent up to now is    15251.2 secs

     total energy              =   -7077.45181252 Ry
     estimated scf accuracy    <       0.00028764 Ry

     total magnetization       =     9.75 Bohr mag/cell
     absolute magnetization    =    10.59 Bohr mag/cell

     iteration #  4     ecut=    60.00 Ry     beta= 0.20
     Davidson diagonalization with overlap
     ethr =  1.19E-07,  avg # of iterations =  1.0

     negative rho (up, down):  1.754E-04 1.482E-04

     total cpu time spent up to now is    15422.1 secs

     total energy              =   -7077.45183024 Ry
     estimated scf accuracy    <       0.00005434 Ry

     total magnetization       =     9.74 Bohr mag/cell
     absolute magnetization    =    10.59 Bohr mag/cell

     iteration #  5     ecut=    60.00 Ry     beta= 0.20
     Davidson diagonalization with overlap
     ethr =  2.25E-08,  avg # of iterations =  1.3

     negative rho (up, down):  1.715E-04 1.426E-04

     total cpu time spent up to now is    15595.6 secs

     total energy              =   -7077.45184337 Ry
     estimated scf accuracy    <       0.00003217 Ry

     total magnetization       =     9.75 Bohr mag/cell
     absolute magnetization    =    10.59 Bohr mag/cell

     iteration #  6     ecut=    60.00 Ry     beta= 0.20
     Davidson diagonalization with overlap
     ethr =  1.34E-08,  avg # of iterations =  1.8

     negative rho (up, down):  1.686E-04 1.384E-04

     total cpu time spent up to now is    15775.3 secs

     total energy              =   -7077.45185356 Ry
     estimated scf accuracy    <       0.00002281 Ry

     total magnetization       =     9.75 Bohr mag/cell
     absolute magnetization    =    10.59 Bohr mag/cell

     iteration #  7     ecut=    60.00 Ry     beta= 0.20
     Davidson diagonalization with overlap
     ethr =  9.46E-09,  avg # of iterations =  2.0

     negative rho (up, down):  1.692E-04 1.362E-04

     total cpu time spent up to now is    15958.4 secs

     total energy              =   -7077.45186568 Ry
     estimated scf accuracy    <       0.00001626 Ry

     total magnetization       =     9.75 Bohr mag/cell
     absolute magnetization    =    10.59 Bohr mag/cell

     iteration #  8     ecut=    60.00 Ry     beta= 0.20
     Davidson diagonalization with overlap
     ethr =  6.75E-09,  avg # of iterations =  2.1

     negative rho (up, down):  1.673E-04 1.338E-04

     total cpu time spent up to now is    16155.8 secs

     total energy              =   -7077.45186783 Ry
     estimated scf accuracy    <       0.00000110 Ry

     total magnetization       =     9.75 Bohr mag/cell
     absolute magnetization    =    10.59 Bohr mag/cell

     iteration #  9     ecut=    60.00 Ry     beta= 0.20
     Davidson diagonalization with overlap
     ethr =  4.55E-10,  avg # of iterations =  4.5

     negative rho (up, down):  1.660E-04 1.319E-04

     total cpu time spent up to now is    16368.4 secs

     total energy              =   -7077.45186775 Ry
     estimated scf accuracy    <       0.00000104 Ry

     total magnetization       =     9.75 Bohr mag/cell
     absolute magnetization    =    10.59 Bohr mag/cell

     iteration # 10     ecut=    60.00 Ry     beta= 0.20
     Davidson diagonalization with overlap
     ethr =  4.31E-10,  avg # of iterations =  2.0

     negative rho (up, down):  1.643E-04 1.300E-04

     total cpu time spent up to now is    16554.3 secs

     total energy              =   -7077.45186791 Ry
     estimated scf accuracy    <       0.00000060 Ry

     total magnetization       =     9.75 Bohr mag/cell
     absolute magnetization    =    10.59 Bohr mag/cell

     iteration # 11     ecut=    60.00 Ry     beta= 0.20
     Davidson diagonalization with overlap
     ethr =  2.50E-10,  avg # of iterations =  2.0

     negative rho (up, down):  1.628E-04 1.285E-04

     total cpu time spent up to now is    16741.5 secs

     total energy              =   -7077.45186802 Ry
     estimated scf accuracy    <       0.00000044 Ry

     total magnetization       =     9.75 Bohr mag/cell
     absolute magnetization    =    10.59 Bohr mag/cell

     iteration # 12     ecut=    60.00 Ry     beta= 0.20
     Davidson diagonalization with overlap
     ethr =  1.83E-10,  avg # of iterations =  2.0

     negative rho (up, down):  1.621E-04 1.276E-04

     total cpu time spent up to now is    16928.5 secs

     total energy              =   -7077.45186805 Ry
     estimated scf accuracy    <       0.00000009 Ry

     total magnetization       =     9.74 Bohr mag/cell
     absolute magnetization    =    10.59 Bohr mag/cell

     iteration # 13     ecut=    60.00 Ry     beta= 0.20
     Davidson diagonalization with overlap
     ethr =  3.90E-11,  avg # of iterations =  1.8

     negative rho (up, down):  1.615E-04 1.269E-04

     total cpu time spent up to now is    17110.6 secs

     total energy              =   -7077.45186807 Ry
     estimated scf accuracy    <       0.00000005 Ry

     total magnetization       =     9.74 Bohr mag/cell
     absolute magnetization    =    10.59 Bohr mag/cell

     iteration # 14     ecut=    60.00 Ry     beta= 0.20
     Davidson diagonalization with overlap
     ethr =  2.19E-11,  avg # of iterations =  2.2

     negative rho (up, down):  1.609E-04 1.262E-04

     total cpu time spent up to now is    17297.7 secs

     total energy              =   -7077.45186807 Ry
     estimated scf accuracy    <       0.00000002 Ry

     total magnetization       =     9.74 Bohr mag/cell
     absolute magnetization    =    10.59 Bohr mag/cell

     iteration # 15     ecut=    60.00 Ry     beta= 0.20
     Davidson diagonalization with overlap
     ethr =  8.45E-12,  avg # of iterations =  3.4

     negative rho (up, down):  1.552E-04 1.202E-04
 
     Magnetic moment per site  (integrated on atomic sphere of radius R)
     atom   1 (R=0.134)  charge=  6.9544  magn=  0.8766
     atom   2 (R=0.129)  charge=  4.9645  magn=  0.1810
     atom   3 (R=0.129)  charge=  4.9645  magn=  0.1841
     atom   4 (R=0.129)  charge=  4.9645  magn=  0.1803
     atom   5 (R=0.134)  charge=  6.9487  magn=  0.8458
     atom   6 (R=0.129)  charge=  4.9532  magn=  0.2287
     atom   7 (R=0.129)  charge=  4.9531  magn=  0.2254
     atom   8 (R=0.129)  charge=  4.9532  magn=  0.2259
     atom   9 (R=0.134)  charge=  6.9506  magn=  0.7963
     atom  10 (R=0.129)  charge=  4.9508  magn=  0.2159
     atom  11 (R=0.129)  charge=  4.9508  magn=  0.2236
     atom  12 (R=0.129)  charge=  4.9508  magn=  0.2121
     atom  13 (R=0.134)  charge=  6.9511  magn=  0.8017
     atom  14 (R=0.129)  charge=  4.9507  magn=  0.2067
     atom  15 (R=0.129)  charge=  4.9518  magn=  0.2111
     atom  16 (R=0.129)  charge=  4.9508  magn=  0.2136
     atom  17 (R=0.134)  charge=  6.9492  magn=  0.8446
     atom  18 (R=0.129)  charge=  4.9530  magn=  0.2112
     atom  19 (R=0.129)  charge=  4.9529  magn=  0.2181
     atom  20 (R=0.129)  charge=  4.9536  magn=  0.1863
     atom  21 (R=0.134)  charge=  6.9591  magn=  0.6558
     atom  22 (R=0.129)  charge=  4.9554  magn=  0.0957
     atom  23 (R=0.129)  charge=  4.9690  magn=  0.1576
     atom  24 (R=0.129)  charge=  4.9677  magn=  0.1537
     atom  25 (R=0.129)  charge=  0.8332  magn= -0.0068

     total cpu time spent up to now is    17493.8 secs

     End of self-consistent calculation

     Number of k-points >= 100: set verbosity='high' to print the bands.

     the Fermi energy is    -5.1684 ev

!    total energy              =   -7077.45186806 Ry
     total all-electron energy =   -199909.888438 Ry
     estimated scf accuracy    <          7.2E-09 Ry
     smearing contrib. (-TS)   =       0.00069965 Ry
     internal energy E=F+TS    =   -7077.45256771 Ry

     The total energy is F=E-TS. E is the sum of the following terms:
     one-electron contribution =  -61256.38102929 Ry
     hartree contribution      =   30815.59068080 Ry
     xc contribution           =    -835.54182064 Ry
     ewald contribution        =   29333.04431261 Ry
     DFT-D3 Dispersion         =      -2.53405689 Ry
     one-center paw contrib.   =   -5131.63065430 Ry

     total magnetization       =     9.74 Bohr mag/cell
     absolute magnetization    =    10.59 Bohr mag/cell

     convergence has been achieved in  15 iterations

     negative rho (up, down):  1.552E-04 1.202E-04

     Forces acting on atoms (cartesian axes, Ry/au):

     atom    1 type  1   force =    -0.00002604    0.00011483    0.01593239
     atom    2 type  2   force =     0.00002870   -0.01427796   -0.00933625
     atom    3 type  2   force =    -0.01243901    0.00719209   -0.00917499
     atom    4 type  2   force =     0.01223116    0.00712446   -0.00890847
     atom    5 type  1   force =    -0.00007382   -0.00000657    0.00058915
     atom    6 type  2   force =    -0.00032069    0.00053104    0.00404227
     atom    7 type  2   force =     0.00021100   -0.00072457    0.00538064
     atom    8 type  2   force =     0.00046584    0.00023976    0.00478497
     atom    9 type  1   force =    -0.00003347   -0.00022790    0.00044856
     atom   10 type  2   force =     0.00008562   -0.00019648    0.00048253
     atom   11 type  2   force =     0.00036351   -0.00023083   -0.00115578
     atom   12 type  2   force =    -0.00006134    0.00000612    0.00024446
     atom   13 type  1   force =    -0.00048808   -0.00021545   -0.00209105
     atom   14 type  2   force =    -0.00020470   -0.00047109    0.00112868
     atom   15 type  2   force =     0.00018817    0.00017079   -0.00257286
     atom   16 type  2   force =     0.00002796    0.00031319   -0.00039509
     atom   17 type  1   force =     0.00008725    0.00099003   -0.00272229
     atom   18 type  2   force =    -0.00031769   -0.00015029   -0.00239105
     atom   19 type  2   force =    -0.00050507    0.00034003   -0.00131426
     atom   20 type  2   force =     0.00093928   -0.00007625    0.00152120
     atom   21 type  1   force =     0.00158334   -0.00086207    0.00663440
     atom   22 type  2   force =     0.01055454   -0.00166386    0.00044153
     atom   23 type  2   force =     0.00044527   -0.00067031    0.00135863
     atom   24 type  2   force =     0.00126590    0.00105051   -0.00087449
     atom   25 type  3   force =    -0.01400763    0.00170078   -0.00205283

     Total force =     0.020070     Total SCF correction =     0.000401


     Computing stress (Cartesian axis) and pressure


     negative rho (up, down):  1.552E-04 1.202E-04
          total   stress  (Ry/bohr**3)                   (kbar)     P=       -7.27
  -0.00007667  -0.00000031  -0.00000532          -11.28       -0.05       -0.78
  -0.00000031  -0.00007941   0.00000084           -0.05      -11.68        0.12
  -0.00000532   0.00000084   0.00000780           -0.78        0.12        1.15

     Energy error            =      6.6E-04 Ry
     Gradient error          =      1.4E-02 Ry/Bohr

     number of scf cycles    =   2
     number of bfgs steps    =   1

     energy             old  =   -7077.4512117854 Ry
     energy             new  =   -7077.4518680633 Ry

     CASE: energy            _new < energy            _old

     new trust radius        =       0.0198474521 bohr
     new conv_thr            =       0.0000000018 Ry


ATOMIC_POSITIONS (angstrom)
Ni               5.3171990772        3.0698863186       11.0000000000    0   0   0
Pd               2.6585995386        3.0698851333       11.0000764482    0   0   0
Pd               3.9878982814        0.7674721723       11.0000764482    0   0   0
Pd               1.3293007958        0.7674721723       11.0000764482    0   0   0
Ni               2.6585995386        1.5349431593       13.1707374333    0   0   0
Pd               3.9878982814        3.8373584909       13.1708138815    0   0   0
Pd               5.3171990772        1.5349419740       13.1708138815    0   0   0
Pd               6.6464998731        3.8373584909       13.1708138815    0   0   0
Ni              -0.0000344969       -0.0003875511       15.3362753130
Pd               5.3172519641        4.6048264655       15.3387868246
Pd               3.9880966250        2.3021595396       15.3365685407
Pd               6.6467790852        2.3023429895       15.3386868689
Ni               5.3164149580        3.0695734065       17.5078012771
Pd               3.9870451153        0.7673866883       17.5116194773
Pd               2.6591689596        3.0691996694       17.5061187602
Pd               1.3299970041        0.7681650461       17.5095345435
Ni               2.6588517829        1.5363570279       19.6863453540
Pd               3.9927182834        3.8337902364       19.6699717294
Pd               5.3163334339        1.5417630607       19.6718546472
Pd               6.6419047913        3.8342240262       19.6773161565
Ni               0.0008414173       -0.0012988018       21.7779636055
Pd               5.3348620673        4.6138639548       21.8789536669
Pd               3.9776371139        2.2946133401       21.8818042999
Pd               6.6578034427        2.2997275006       21.8784409211
H                1.3106187921        0.0000004292       22.8785650179    1   0   1



     Writing config-only to output data dir /tmpu/isholek_g/isholek/MIGUEL/QE/Hydrogen/111_2x2/SAVE/Ni1Pd3_111-B2.save/ :
     XML data file
     NEW-OLD atomic charge density approx. for the potential

     Check: negative core charge=   -0.000002

     negative rho (up, down):  1.472E-04 1.310E-04
     Generating pointlists ...
     new r_m :   0.1327 (alat units)  1.3336 (a.u.) for type    1

     total cpu time spent up to now is    17785.2 secs

     Self-consistent Calculation

     iteration #  1     ecut=    60.00 Ry     beta= 0.20
     Davidson diagonalization with overlap
     ethr =  1.00E-06,  avg # of iterations =  5.0

     negative rho (up, down):  1.565E-04 1.310E-04

     total cpu time spent up to now is    18169.2 secs

     total energy              =   -7077.45226564 Ry
     estimated scf accuracy    <       0.00045938 Ry

     total magnetization       =     9.73 Bohr mag/cell
     absolute magnetization    =    10.57 Bohr mag/cell

     iteration #  2     ecut=    60.00 Ry     beta= 0.20
     Davidson diagonalization with overlap
     ethr =  1.91E-07,  avg # of iterations =  1.8

     negative rho (up, down):  1.561E-04 1.288E-04

     total cpu time spent up to now is    18351.0 secs

     total energy              =   -7077.45230040 Ry
     estimated scf accuracy    <       0.00053718 Ry

     total magnetization       =     9.74 Bohr mag/cell
     absolute magnetization    =    10.59 Bohr mag/cell

     iteration #  3     ecut=    60.00 Ry     beta= 0.20
     Davidson diagonalization with overlap
     ethr =  1.91E-07,  avg # of iterations =  1.0

     negative rho (up, down):  1.562E-04 1.274E-04

     total cpu time spent up to now is    18520.3 secs

     total energy              =   -7077.45232214 Ry
     estimated scf accuracy    <       0.00008867 Ry

     total magnetization       =     9.74 Bohr mag/cell
     absolute magnetization    =    10.59 Bohr mag/cell

     iteration #  4     ecut=    60.00 Ry     beta= 0.20
     Davidson diagonalization with overlap
     ethr =  3.68E-08,  avg # of iterations =  1.8

     negative rho (up, down):  1.563E-04 1.263E-04

     total cpu time spent up to now is    18704.1 secs

     total energy              =   -7077.45233206 Ry
     estimated scf accuracy    <       0.00014825 Ry

     total magnetization       =     9.74 Bohr mag/cell
     absolute magnetization    =    10.58 Bohr mag/cell

     iteration #  5     ecut=    60.00 Ry     beta= 0.20
     Davidson diagonalization with overlap
     ethr =  3.68E-08,  avg # of iterations =  1.0

     negative rho (up, down):  1.564E-04 1.254E-04

     total cpu time spent up to now is    18875.5 secs

     total energy              =   -7077.45234264 Ry
     estimated scf accuracy    <       0.00013479 Ry

     total magnetization       =     9.74 Bohr mag/cell
     absolute magnetization    =    10.58 Bohr mag/cell

     iteration #  6     ecut=    60.00 Ry     beta= 0.20
     Davidson diagonalization with overlap
     ethr =  3.68E-08,  avg # of iterations =  1.2

     negative rho (up, down):  1.568E-04 1.247E-04

     total cpu time spent up to now is    19046.4 secs

     total energy              =   -7077.45235288 Ry
     estimated scf accuracy    <       0.00005640 Ry

     total magnetization       =     9.74 Bohr mag/cell
     absolute magnetization    =    10.58 Bohr mag/cell

     iteration #  7     ecut=    60.00 Ry     beta= 0.20
     Davidson diagonalization with overlap
     ethr =  2.34E-08,  avg # of iterations =  2.0

     negative rho (up, down):  1.570E-04 1.241E-04

     total cpu time spent up to now is    19230.3 secs

     total energy              =   -7077.45235659 Ry
     estimated scf accuracy    <       0.00000530 Ry

     total magnetization       =     9.74 Bohr mag/cell
     absolute magnetization    =    10.58 Bohr mag/cell

     iteration #  8     ecut=    60.00 Ry     beta= 0.20
     Davidson diagonalization with overlap
     ethr =  2.20E-09,  avg # of iterations =  4.3

     negative rho (up, down):  1.569E-04 1.235E-04

     total cpu time spent up to now is    19458.7 secs

     total energy              =   -7077.45235764 Ry
     estimated scf accuracy    <       0.00000193 Ry

     total magnetization       =     9.74 Bohr mag/cell
     absolute magnetization    =    10.58 Bohr mag/cell

     iteration #  9     ecut=    60.00 Ry     beta= 0.20
     Davidson diagonalization with overlap
     ethr =  8.00E-10,  avg # of iterations =  2.0

     negative rho (up, down):  1.565E-04 1.228E-04

     total cpu time spent up to now is    19644.3 secs

     total energy              =   -7077.45235780 Ry
     estimated scf accuracy    <       0.00000060 Ry

     total magnetization       =     9.74 Bohr mag/cell
     absolute magnetization    =    10.58 Bohr mag/cell

     iteration # 10     ecut=    60.00 Ry     beta= 0.20
     Davidson diagonalization with overlap
     ethr =  2.49E-10,  avg # of iterations =  2.1

     negative rho (up, down):  1.563E-04 1.223E-04

     total cpu time spent up to now is    19835.8 secs

     total energy              =   -7077.45235787 Ry
     estimated scf accuracy    <       0.00000089 Ry

     total magnetization       =     9.74 Bohr mag/cell
     absolute magnetization    =    10.58 Bohr mag/cell

     iteration # 11     ecut=    60.00 Ry     beta= 0.20
     Davidson diagonalization with overlap
     ethr =  2.49E-10,  avg # of iterations =  1.3

     negative rho (up, down):  1.560E-04 1.219E-04

     total cpu time spent up to now is    20005.4 secs

     total energy              =   -7077.45235789 Ry
     estimated scf accuracy    <       0.00000087 Ry

     total magnetization       =     9.74 Bohr mag/cell
     absolute magnetization    =    10.58 Bohr mag/cell

     iteration # 12     ecut=    60.00 Ry     beta= 0.20
     Davidson diagonalization with overlap
     ethr =  2.49E-10,  avg # of iterations =  1.4

     negative rho (up, down):  1.557E-04 1.214E-04

     total cpu time spent up to now is    20176.9 secs

     total energy              =   -7077.45235789 Ry
     estimated scf accuracy    <       0.00000040 Ry

     total magnetization       =     9.74 Bohr mag/cell
     absolute magnetization    =    10.58 Bohr mag/cell

     iteration # 13     ecut=    60.00 Ry     beta= 0.20
     Davidson diagonalization with overlap
     ethr =  1.67E-10,  avg # of iterations =  1.3

     negative rho (up, down):  1.555E-04 1.212E-04

     total cpu time spent up to now is    20347.3 secs

     total energy              =   -7077.45235790 Ry
     estimated scf accuracy    <       0.00000009 Ry

     total magnetization       =     9.74 Bohr mag/cell
     absolute magnetization    =    10.58 Bohr mag/cell

     iteration # 14     ecut=    60.00 Ry     beta= 0.20
     Davidson diagonalization with overlap
     ethr =  3.77E-11,  avg # of iterations =  2.4

     negative rho (up, down):  1.554E-04 1.209E-04

     total cpu time spent up to now is    20537.6 secs

     total energy              =   -7077.45235790 Ry
     estimated scf accuracy    <       0.00000022 Ry

     total magnetization       =     9.74 Bohr mag/cell
     absolute magnetization    =    10.58 Bohr mag/cell

     iteration # 15     ecut=    60.00 Ry     beta= 0.20
     Davidson diagonalization with overlap
     ethr =  3.77E-11,  avg # of iterations =  1.3

     negative rho (up, down):  1.552E-04 1.206E-04

     total cpu time spent up to now is    20711.7 secs

     total energy              =   -7077.45235790 Ry
     estimated scf accuracy    <       0.00000006 Ry

     total magnetization       =     9.74 Bohr mag/cell
     absolute magnetization    =    10.58 Bohr mag/cell

     iteration # 16     ecut=    60.00 Ry     beta= 0.20
     Davidson diagonalization with overlap
     ethr =  2.59E-11,  avg # of iterations =  1.2

     negative rho (up, down):  1.551E-04 1.205E-04

     total cpu time spent up to now is    20884.3 secs

     total energy              =   -7077.45235790 Ry
     estimated scf accuracy    <       0.00000002 Ry

     total magnetization       =     9.74 Bohr mag/cell
     absolute magnetization    =    10.58 Bohr mag/cell

     iteration # 17     ecut=    60.00 Ry     beta= 0.20
     Davidson diagonalization with overlap
     ethr =  9.38E-12,  avg # of iterations =  2.0

     negative rho (up, down):  1.550E-04 1.203E-04

     total cpu time spent up to now is    21068.8 secs

     total energy              =   -7077.45235791 Ry
     estimated scf accuracy    <       0.00000002 Ry

     total magnetization       =     9.74 Bohr mag/cell
     absolute magnetization    =    10.58 Bohr mag/cell

     iteration # 18     ecut=    60.00 Ry     beta= 0.20
     Davidson diagonalization with overlap
     ethr =  6.60E-12,  avg # of iterations =  2.0

     negative rho (up, down):  1.548E-04 1.201E-04

     total cpu time spent up to now is    21254.7 secs

     total energy              =   -7077.45235791 Ry
     estimated scf accuracy    <       0.00000001 Ry

     total magnetization       =     9.74 Bohr mag/cell
     absolute magnetization    =    10.58 Bohr mag/cell

     iteration # 19     ecut=    60.00 Ry     beta= 0.20
     Davidson diagonalization with overlap
     ethr =  5.86E-12,  avg # of iterations =  1.3

     negative rho (up, down):  1.551E-04 1.202E-04
 
     Magnetic moment per site  (integrated on atomic sphere of radius R)
     atom   1 (R=0.133)  charge=  6.8962  magn=  0.8713
     atom   2 (R=0.129)  charge=  4.9645  magn=  0.1809
     atom   3 (R=0.129)  charge=  4.9645  magn=  0.1840
     atom   4 (R=0.129)  charge=  4.9645  magn=  0.1803
     atom   5 (R=0.133)  charge=  6.8902  magn=  0.8407
     atom   6 (R=0.129)  charge=  4.9532  magn=  0.2286
     atom   7 (R=0.129)  charge=  4.9531  magn=  0.2254
     atom   8 (R=0.129)  charge=  4.9532  magn=  0.2259
     atom   9 (R=0.133)  charge=  6.8924  magn=  0.7916
     atom  10 (R=0.129)  charge=  4.9508  magn=  0.2159
     atom  11 (R=0.129)  charge=  4.9508  magn=  0.2236
     atom  12 (R=0.129)  charge=  4.9508  magn=  0.2123
     atom  13 (R=0.133)  charge=  6.8921  magn=  0.7973
     atom  14 (R=0.129)  charge=  4.9507  magn=  0.2067
     atom  15 (R=0.129)  charge=  4.9517  magn=  0.2111
     atom  16 (R=0.129)  charge=  4.9508  magn=  0.2136
     atom  17 (R=0.133)  charge=  6.8906  magn=  0.8408
     atom  18 (R=0.129)  charge=  4.9530  magn=  0.2108
     atom  19 (R=0.129)  charge=  4.9528  magn=  0.2174
     atom  20 (R=0.129)  charge=  4.9536  magn=  0.1856
     atom  21 (R=0.133)  charge=  6.8999  magn=  0.6445
     atom  22 (R=0.129)  charge=  4.9557  magn=  0.0966
     atom  23 (R=0.129)  charge=  4.9690  magn=  0.1568
     atom  24 (R=0.129)  charge=  4.9676  magn=  0.1534
     atom  25 (R=0.129)  charge=  0.8302  magn= -0.0070

     total cpu time spent up to now is    21427.0 secs

     End of self-consistent calculation

     Number of k-points >= 100: set verbosity='high' to print the bands.

     the Fermi energy is    -5.1697 ev

!    total energy              =   -7077.45235791 Ry
     total all-electron energy =   -199909.888928 Ry
     estimated scf accuracy    <          3.8E-10 Ry
     smearing contrib. (-TS)   =       0.00071444 Ry
     internal energy E=F+TS    =   -7077.45307235 Ry

     The total energy is F=E-TS. E is the sum of the following terms:
     one-electron contribution =  -61253.72289568 Ry
     hartree contribution      =   30814.26310640 Ry
     xc contribution           =    -835.53845494 Ry
     ewald contribution        =   29331.70923168 Ry
     DFT-D3 Dispersion         =      -2.53387434 Ry
     one-center paw contrib.   =   -5131.63018547 Ry

     total magnetization       =     9.74 Bohr mag/cell
     absolute magnetization    =    10.58 Bohr mag/cell

     convergence has been achieved in  19 iterations

     negative rho (up, down):  1.551E-04 1.202E-04

     Forces acting on atoms (cartesian axes, Ry/au):

     atom    1 type  1   force =    -0.00002174    0.00011515    0.01589213
     atom    2 type  2   force =     0.00001847   -0.01426993   -0.00934958
     atom    3 type  2   force =    -0.01243689    0.00718528   -0.00918635
     atom    4 type  2   force =     0.01223024    0.00712771   -0.00890554
     atom    5 type  1   force =    -0.00010299   -0.00003318    0.00057593
     atom    6 type  2   force =    -0.00031463    0.00062632    0.00397205
     atom    7 type  2   force =     0.00031693   -0.00078392    0.00528224
     atom    8 type  2   force =     0.00045553    0.00025084    0.00483787
     atom    9 type  1   force =    -0.00002059   -0.00011218    0.00024619
     atom   10 type  2   force =     0.00012202   -0.00004467    0.00029952
     atom   11 type  2   force =     0.00018802   -0.00049756   -0.00091903
     atom   12 type  2   force =    -0.00004007   -0.00014663   -0.00018671
     atom   13 type  1   force =    -0.00032678   -0.00017469   -0.00175265
     atom   14 type  2   force =    -0.00027670   -0.00044920    0.00060263
     atom   15 type  2   force =    -0.00009031    0.00030568   -0.00180294
     atom   16 type  2   force =    -0.00005814    0.00035825   -0.00050818
     atom   17 type  1   force =    -0.00000434    0.00063969   -0.00204176
     atom   18 type  2   force =     0.00019888    0.00019365   -0.00074609
     atom   19 type  2   force =    -0.00019465    0.00025010   -0.00034636
     atom   20 type  2   force =     0.00111351   -0.00020879    0.00028805
     atom   21 type  1   force =     0.00240339   -0.00060110    0.00541475
     atom   22 type  2   force =     0.00514594   -0.00081431    0.00181706
     atom   23 type  2   force =     0.00126767    0.00046331    0.00077738
     atom   24 type  2   force =     0.00181794   -0.00110761   -0.00073204
     atom   25 type  3   force =    -0.01139072    0.00172778   -0.00352858

     Total force =     0.015210     Total SCF correction =     0.000076


     Computing stress (Cartesian axis) and pressure


     negative rho (up, down):  1.551E-04 1.202E-04
          total   stress  (Ry/bohr**3)                   (kbar)     P=       -7.18
  -0.00007625  -0.00000042  -0.00000470          -11.22       -0.06       -0.69
  -0.00000042  -0.00007835   0.00000094           -0.06      -11.53        0.14
  -0.00000470   0.00000094   0.00000812           -0.69        0.14        1.19

     Energy error            =      4.9E-04 Ry
     Gradient error          =      1.1E-02 Ry/Bohr

     number of scf cycles    =   3
     number of bfgs steps    =   2

     energy             old  =   -7077.4518680633 Ry
     energy             new  =   -7077.4523579099 Ry

     CASE: energy            _new < energy            _old

     new trust radius        =       0.0297711781 bohr
     new conv_thr            =       0.0000000015 Ry


ATOMIC_POSITIONS (angstrom)
Ni               5.3171990772        3.0698863186       11.0000000000    0   0   0
Pd               2.6585995386        3.0698851333       11.0000764482    0   0   0
Pd               3.9878982814        0.7674721723       11.0000764482    0   0   0
Pd               1.3293007958        0.7674721723       11.0000764482    0   0   0
Ni               2.6585995386        1.5349431593       13.1707374333    0   0   0
Pd               3.9878982814        3.8373584909       13.1708138815    0   0   0
Pd               5.3171990772        1.5349419740       13.1708138815    0   0   0
Pd               6.6464998731        3.8373584909       13.1708138815    0   0   0
Ni              -0.0000617436       -0.0005974891       15.3366532812
Pd               5.3173708634        4.6046531903       15.3392263932
Pd               3.9884291007        2.3017275452       15.3353209501
Pd               6.6467127083        2.3022635084       15.3386824989
Ni               5.3159044229        3.0693321329       17.5054717314
Pd               3.9867572631        0.7668675609       17.5126474939
Pd               2.6592625731        3.0694875241       17.5034815584
Pd               1.3299515251        0.7685583235       17.5090060512
Ni               2.6589242420        1.5373156426       19.6834932549
Pd               3.9926800531        3.8338479574       19.6680983951
Pd               5.3159131333        1.5421010574       19.6708761919
Pd               6.6431279371        3.8340653217       19.6784901663
Ni               0.0031247847       -0.0021939268       21.7851798118
Pd               5.3444512150        4.6123547161       21.8802904418
Pd               3.9787073879        2.2944447771       21.8830977624
Pd               6.6596702747        2.2997341037       21.8774579722
H                1.2952187832        0.0000004292       22.8752430522    1   0   1



     Writing config-only to output data dir /tmpu/isholek_g/isholek/MIGUEL/QE/Hydrogen/111_2x2/SAVE/Ni1Pd3_111-B2.save/ :
     XML data file
     NEW-OLD atomic charge density approx. for the potential

     Check: negative core charge=   -0.000002

     negative rho (up, down):  1.472E-04 1.318E-04
     Generating pointlists ...
     new r_m :   0.1311 (alat units)  1.3178 (a.u.) for type    1

     total cpu time spent up to now is    21724.0 secs

     Self-consistent Calculation

     iteration #  1     ecut=    60.00 Ry     beta= 0.20
     Davidson diagonalization with overlap
     ethr =  1.00E-06,  avg # of iterations =  5.2

     negative rho (up, down):  1.637E-04 1.388E-04

     total cpu time spent up to now is    22128.8 secs

     total energy              =   -7077.45268296 Ry
     estimated scf accuracy    <       0.00086857 Ry

     total magnetization       =     9.70 Bohr mag/cell
     absolute magnetization    =    10.55 Bohr mag/cell

     iteration #  2     ecut=    60.00 Ry     beta= 0.20
     Davidson diagonalization with overlap
     ethr =  3.60E-07,  avg # of iterations =  1.1

     negative rho (up, down):  1.613E-04 1.347E-04

     total cpu time spent up to now is    22300.8 secs

     total energy              =   -7077.45273905 Ry
     estimated scf accuracy    <       0.00116948 Ry

     total magnetization       =     9.74 Bohr mag/cell
     absolute magnetization    =    10.58 Bohr mag/cell

     iteration #  3     ecut=    60.00 Ry     beta= 0.20
     Davidson diagonalization with overlap
     ethr =  3.60E-07,  avg # of iterations =  1.0

     negative rho (up, down):  1.606E-04 1.323E-04

     total cpu time spent up to now is    22470.0 secs

     total energy              =   -7077.45277773 Ry
     estimated scf accuracy    <       0.00010105 Ry

     total magnetization       =     9.73 Bohr mag/cell
     absolute magnetization    =    10.57 Bohr mag/cell

     iteration #  4     ecut=    60.00 Ry     beta= 0.20
     Davidson diagonalization with overlap
     ethr =  4.19E-08,  avg # of iterations =  1.8

     negative rho (up, down):  1.599E-04 1.304E-04

     total cpu time spent up to now is    22653.3 secs

     total energy              =   -7077.45279248 Ry
     estimated scf accuracy    <       0.00014127 Ry

     total magnetization       =     9.72 Bohr mag/cell
     absolute magnetization    =    10.57 Bohr mag/cell

     iteration #  5     ecut=    60.00 Ry     beta= 0.20
     Davidson diagonalization with overlap
     ethr =  4.19E-08,  avg # of iterations =  1.0

     negative rho (up, down):  1.601E-04 1.295E-04

     total cpu time spent up to now is    22824.7 secs

     total energy              =   -7077.45280862 Ry
     estimated scf accuracy    <       0.00012037 Ry

     total magnetization       =     9.73 Bohr mag/cell
     absolute magnetization    =    10.57 Bohr mag/cell

     iteration #  6     ecut=    60.00 Ry     beta= 0.20
     Davidson diagonalization with overlap
     ethr =  4.19E-08,  avg # of iterations =  1.5

     negative rho (up, down):  1.601E-04 1.284E-04

     total cpu time spent up to now is    22999.4 secs

     total energy              =   -7077.45282107 Ry
     estimated scf accuracy    <       0.00007219 Ry

     total magnetization       =     9.73 Bohr mag/cell
     absolute magnetization    =    10.57 Bohr mag/cell

     iteration #  7     ecut=    60.00 Ry     beta= 0.20
     Davidson diagonalization with overlap
     ethr =  3.00E-08,  avg # of iterations =  2.0

     negative rho (up, down):  1.610E-04 1.281E-04

     total cpu time spent up to now is    23182.0 secs

     total energy              =   -7077.45282726 Ry
     estimated scf accuracy    <       0.00002129 Ry

     total magnetization       =     9.72 Bohr mag/cell
     absolute magnetization    =    10.57 Bohr mag/cell

     iteration #  8     ecut=    60.00 Ry     beta= 0.20
     Davidson diagonalization with overlap
     ethr =  8.84E-09,  avg # of iterations =  2.8

     negative rho (up, down):  1.607E-04 1.273E-04

     total cpu time spent up to now is    23370.7 secs

     total energy              =   -7077.45282881 Ry
     estimated scf accuracy    <       0.00001041 Ry

     total magnetization       =     9.72 Bohr mag/cell
     absolute magnetization    =    10.57 Bohr mag/cell

     iteration #  9     ecut=    60.00 Ry     beta= 0.20
     Davidson diagonalization with overlap
     ethr =  4.32E-09,  avg # of iterations =  2.0

     negative rho (up, down):  1.598E-04 1.261E-04

     total cpu time spent up to now is    23555.6 secs

     total energy              =   -7077.45282928 Ry
     estimated scf accuracy    <       0.00000116 Ry

     total magnetization       =     9.72 Bohr mag/cell
     absolute magnetization    =    10.57 Bohr mag/cell

     iteration # 10     ecut=    60.00 Ry     beta= 0.20
     Davidson diagonalization with overlap
     ethr =  4.82E-10,  avg # of iterations =  4.8

     negative rho (up, down):  1.592E-04 1.253E-04

     total cpu time spent up to now is    23782.7 secs

     total energy              =   -7077.45282962 Ry
     estimated scf accuracy    <       0.00000128 Ry

     total magnetization       =     9.72 Bohr mag/cell
     absolute magnetization    =    10.57 Bohr mag/cell

     iteration # 11     ecut=    60.00 Ry     beta= 0.20
     Davidson diagonalization with overlap
     ethr =  4.82E-10,  avg # of iterations =  1.4

     negative rho (up, down):  1.586E-04 1.245E-04

     total cpu time spent up to now is    23953.2 secs

     total energy              =   -7077.45282971 Ry
     estimated scf accuracy    <       0.00000069 Ry

     total magnetization       =     9.72 Bohr mag/cell
     absolute magnetization    =    10.57 Bohr mag/cell

     iteration # 12     ecut=    60.00 Ry     beta= 0.20
     Davidson diagonalization with overlap
     ethr =  2.84E-10,  avg # of iterations =  1.7

     negative rho (up, down):  1.581E-04 1.239E-04

     total cpu time spent up to now is    24128.2 secs

     total energy              =   -7077.45282973 Ry
     estimated scf accuracy    <       0.00000042 Ry

     total magnetization       =     9.72 Bohr mag/cell
     absolute magnetization    =    10.57 Bohr mag/cell

     iteration # 13     ecut=    60.00 Ry     beta= 0.20
     Davidson diagonalization with overlap
     ethr =  1.73E-10,  avg # of iterations =  1.3

     negative rho (up, down):  1.579E-04 1.236E-04

     total cpu time spent up to now is    24300.7 secs

     total energy              =   -7077.45282975 Ry
     estimated scf accuracy    <       0.00000021 Ry

     total magnetization       =     9.72 Bohr mag/cell
     absolute magnetization    =    10.57 Bohr mag/cell

     iteration # 14     ecut=    60.00 Ry     beta= 0.20
     Davidson diagonalization with overlap
     ethr =  8.54E-11,  avg # of iterations =  1.1

     negative rho (up, down):  1.575E-04 1.231E-04

     total cpu time spent up to now is    24471.2 secs

     total energy              =   -7077.45282975 Ry
     estimated scf accuracy    <       0.00000007 Ry

     total magnetization       =     9.72 Bohr mag/cell
     absolute magnetization    =    10.57 Bohr mag/cell

     iteration # 15     ecut=    60.00 Ry     beta= 0.20
     Davidson diagonalization with overlap
     ethr =  3.09E-11,  avg # of iterations =  1.6

     negative rho (up, down):  1.573E-04 1.228E-04

     total cpu time spent up to now is    24642.7 secs

     total energy              =   -7077.45282975 Ry
     estimated scf accuracy    <       0.00000002 Ry

     total magnetization       =     9.72 Bohr mag/cell
     absolute magnetization    =    10.56 Bohr mag/cell

     iteration # 16     ecut=    60.00 Ry     beta= 0.20
     Davidson diagonalization with overlap
     ethr =  8.22E-12,  avg # of iterations =  3.0

     negative rho (up, down):  1.571E-04 1.225E-04

     total cpu time spent up to now is    24836.6 secs

     total energy              =   -7077.45282975 Ry
     estimated scf accuracy    <          1.0E-08 Ry

     total magnetization       =     9.72 Bohr mag/cell
     absolute magnetization    =    10.56 Bohr mag/cell

     iteration # 17     ecut=    60.00 Ry     beta= 0.20
     Davidson diagonalization with overlap
     ethr =  4.14E-12,  avg # of iterations =  1.8

     negative rho (up, down):  1.568E-04 1.222E-04

     total cpu time spent up to now is    25018.1 secs

     total energy              =   -7077.45282976 Ry
     estimated scf accuracy    <          5.8E-09 Ry

     total magnetization       =     9.72 Bohr mag/cell
     absolute magnetization    =    10.56 Bohr mag/cell

     iteration # 18     ecut=    60.00 Ry     beta= 0.20
     Davidson diagonalization with overlap
     ethr =  2.41E-12,  avg # of iterations =  2.1

     negative rho (up, down):  1.562E-04 1.216E-04

     total cpu time spent up to now is    25203.8 secs

     total energy              =   -7077.45282976 Ry
     estimated scf accuracy    <          2.7E-09 Ry

     total magnetization       =     9.72 Bohr mag/cell
     absolute magnetization    =    10.56 Bohr mag/cell

     iteration # 19     ecut=    60.00 Ry     beta= 0.20
     Davidson diagonalization with overlap
     ethr =  1.11E-12,  avg # of iterations =  3.0

     negative rho (up, down):  1.550E-04 1.202E-04
 
     Magnetic moment per site  (integrated on atomic sphere of radius R)
     atom   1 (R=0.131)  charge=  6.8411  magn=  0.8662
     atom   2 (R=0.129)  charge=  4.9645  magn=  0.1808
     atom   3 (R=0.129)  charge=  4.9645  magn=  0.1839
     atom   4 (R=0.129)  charge=  4.9645  magn=  0.1803
     atom   5 (R=0.131)  charge=  6.8345  magn=  0.8357
     atom   6 (R=0.129)  charge=  4.9533  magn=  0.2285
     atom   7 (R=0.129)  charge=  4.9531  magn=  0.2255
     atom   8 (R=0.129)  charge=  4.9532  magn=  0.2258
     atom   9 (R=0.131)  charge=  6.8364  magn=  0.7869
     atom  10 (R=0.129)  charge=  4.9508  magn=  0.2161
     atom  11 (R=0.129)  charge=  4.9508  magn=  0.2236
     atom  12 (R=0.129)  charge=  4.9508  magn=  0.2126
     atom  13 (R=0.131)  charge=  6.8368  magn=  0.7930
     atom  14 (R=0.129)  charge=  4.9507  magn=  0.2068
     atom  15 (R=0.129)  charge=  4.9516  magn=  0.2111
     atom  16 (R=0.129)  charge=  4.9508  magn=  0.2137
     atom  17 (R=0.131)  charge=  6.8350  magn=  0.8375
     atom  18 (R=0.129)  charge=  4.9529  magn=  0.2101
     atom  19 (R=0.129)  charge=  4.9528  magn=  0.2165
     atom  20 (R=0.129)  charge=  4.9536  magn=  0.1846
     atom  21 (R=0.131)  charge=  6.8444  magn=  0.6295
     atom  22 (R=0.129)  charge=  4.9562  magn=  0.0977
     atom  23 (R=0.129)  charge=  4.9689  magn=  0.1557
     atom  24 (R=0.129)  charge=  4.9675  magn=  0.1529
     atom  25 (R=0.129)  charge=  0.8289  magn= -0.0072

     total cpu time spent up to now is    25407.1 secs

     End of self-consistent calculation

     Number of k-points >= 100: set verbosity='high' to print the bands.

     the Fermi energy is    -5.1708 ev

!    total energy              =   -7077.45282975 Ry
     total all-electron energy =   -199909.889400 Ry
     estimated scf accuracy    <          1.2E-09 Ry
     smearing contrib. (-TS)   =       0.00074064 Ry
     internal energy E=F+TS    =   -7077.45357039 Ry

     The total energy is F=E-TS. E is the sum of the following terms:
     one-electron contribution =  -61248.41876700 Ry
     hartree contribution      =   30811.61065218 Ry
     xc contribution           =    -835.53488496 Ry
     ewald contribution        =   29329.05258818 Ry
     DFT-D3 Dispersion         =      -2.53355284 Ry
     one-center paw contrib.   =   -5131.62960596 Ry

     total magnetization       =     9.72 Bohr mag/cell
     absolute magnetization    =    10.56 Bohr mag/cell

     convergence has been achieved in  19 iterations

     negative rho (up, down):  1.550E-04 1.202E-04

     Forces acting on atoms (cartesian axes, Ry/au):

     atom    1 type  1   force =    -0.00001839    0.00011624    0.01587034
     atom    2 type  2   force =     0.00000646   -0.01425776   -0.00936452
     atom    3 type  2   force =    -0.01243342    0.00717675   -0.00919438
     atom    4 type  2   force =     0.01222693    0.00712835   -0.00890164
     atom    5 type  1   force =    -0.00014346   -0.00008003    0.00056844
     atom    6 type  2   force =    -0.00030449    0.00074499    0.00389697
     atom    7 type  2   force =     0.00044760   -0.00088195    0.00509580
     atom    8 type  2   force =     0.00044545    0.00027809    0.00488587
     atom    9 type  1   force =     0.00000656   -0.00000101    0.00001086
     atom   10 type  2   force =     0.00011007    0.00001827    0.00003012
     atom   11 type  2   force =    -0.00002138   -0.00069427   -0.00054054
     atom   12 type  2   force =    -0.00000936   -0.00028820   -0.00067331
     atom   13 type  1   force =    -0.00018419   -0.00012909   -0.00119810
     atom   14 type  2   force =    -0.00033352   -0.00027189   -0.00000138
     atom   15 type  2   force =    -0.00025365    0.00040655   -0.00079651
     atom   16 type  2   force =    -0.00021830    0.00034655   -0.00050523
     atom   17 type  1   force =    -0.00000506    0.00015591   -0.00109300
     atom   18 type  2   force =     0.00081776    0.00060817    0.00098225
     atom   19 type  2   force =     0.00013695    0.00009782    0.00065697
     atom   20 type  2   force =     0.00112890   -0.00029187   -0.00070319
     atom   21 type  1   force =     0.00254346   -0.00032901    0.00314364
     atom   22 type  2   force =    -0.00018018    0.00002218    0.00279749
     atom   23 type  2   force =     0.00210044    0.00135451    0.00009600
     atom   24 type  2   force =     0.00226299   -0.00295493   -0.00064002
     atom   25 type  3   force =    -0.00812818    0.00172563   -0.00442291

     Total force =     0.011844     Total SCF correction =     0.000128


     Computing stress (Cartesian axis) and pressure


     negative rho (up, down):  1.550E-04 1.202E-04
          total   stress  (Ry/bohr**3)                   (kbar)     P=       -7.34
  -0.00007727  -0.00000061  -0.00000389          -11.37       -0.09       -0.57
  -0.00000061  -0.00007894   0.00000102           -0.09      -11.61        0.15
  -0.00000389   0.00000102   0.00000662           -0.57        0.15        0.97

     Energy error            =      4.7E-04 Ry
     Gradient error          =      8.1E-03 Ry/Bohr

     number of scf cycles    =   4
     number of bfgs steps    =   3

     energy             old  =   -7077.4523579099 Ry
     energy             new  =   -7077.4528297540 Ry

     CASE: energy            _new < energy            _old

     new trust radius        =       0.0446567671 bohr
     new conv_thr            =       0.0000000010 Ry


ATOMIC_POSITIONS (angstrom)
Ni               5.3171990772        3.0698863186       11.0000000000    0   0   0
Pd               2.6585995386        3.0698851333       11.0000764482    0   0   0
Pd               3.9878982814        0.7674721723       11.0000764482    0   0   0
Pd               1.3293007958        0.7674721723       11.0000764482    0   0   0
Ni               2.6585995386        1.5349431593       13.1707374333    0   0   0
Pd               3.9878982814        3.8373584909       13.1708138815    0   0   0
Pd               5.3171990772        1.5349419740       13.1708138815    0   0   0
Pd               6.6464998731        3.8373584909       13.1708138815    0   0   0
Ni              -0.0000781765       -0.0008395233       15.3370406319
Pd               5.3175567795        4.6044153531       15.3396827353
Pd               3.9887747227        2.3007966026       15.3336044547
Pd               6.6466312433        2.3019841068       15.3381619632
Ni               5.3151820185        3.0689693802       17.5021036718
Pd               3.9862119515        0.7661847335       17.5137588096
Pd               2.6592641406        3.0700782533       17.5000626865
Pd               1.3297004055        0.7692079260       17.5081215626
Ni               2.6590544964        1.5384297336       19.6796559663
Pd               3.9932656871        3.8343834027       19.6667172673
Pd               5.3155447938        1.5425102266       19.6702612526
Pd               6.6452069712        3.8337152705       19.6794818809
Ni               0.0070865610       -0.0034316542       21.7950085331
Pd               5.3552236294        4.6106582843       21.8835477707
Pd               3.9813894057        2.2950614319       21.8845825097
Pd               6.6632904353        2.2978572334       21.8758827199
H                1.2725049075        0.0000004292       22.8687222973    1   0   1



     Writing config-only to output data dir /tmpu/isholek_g/isholek/MIGUEL/QE/Hydrogen/111_2x2/SAVE/Ni1Pd3_111-B2.save/ :
     XML data file
     NEW-OLD atomic charge density approx. for the potential

     Check: negative core charge=   -0.000002

     negative rho (up, down):  1.482E-04 1.309E-04
     Generating pointlists ...
     new r_m :   0.1287 (alat units)  1.2937 (a.u.) for type    1

     total cpu time spent up to now is    25698.0 secs

     Self-consistent Calculation

     iteration #  1     ecut=    60.00 Ry     beta= 0.20
     Davidson diagonalization with overlap
     ethr =  1.00E-06,  avg # of iterations =  5.3

     negative rho (up, down):  1.595E-04 1.335E-04

     total cpu time spent up to now is    26135.6 secs

     total energy              =   -7077.45289520 Ry
     estimated scf accuracy    <       0.00214872 Ry

     total magnetization       =     9.67 Bohr mag/cell
     absolute magnetization    =    10.52 Bohr mag/cell

     iteration #  2     ecut=    60.00 Ry     beta= 0.20
     Davidson diagonalization with overlap
     ethr =  8.92E-07,  avg # of iterations =  1.2

     negative rho (up, down):  1.583E-04 1.306E-04

     total cpu time spent up to now is    26310.1 secs

     total energy              =   -7077.45303512 Ry
     estimated scf accuracy    <       0.00348518 Ry

     total magnetization       =     9.72 Bohr mag/cell
     absolute magnetization    =    10.56 Bohr mag/cell

     iteration #  3     ecut=    60.00 Ry     beta= 0.20
     Davidson diagonalization with overlap
     ethr =  8.92E-07,  avg # of iterations =  1.0

     negative rho (up, down):  1.585E-04 1.294E-04

     total cpu time spent up to now is    26480.6 secs

     total energy              =   -7077.45311473 Ry
     estimated scf accuracy    <       0.00017904 Ry

     total magnetization       =     9.71 Bohr mag/cell
     absolute magnetization    =    10.55 Bohr mag/cell

     iteration #  4     ecut=    60.00 Ry     beta= 0.20
     Davidson diagonalization with overlap
     ethr =  7.43E-08,  avg # of iterations =  1.9

     negative rho (up, down):  1.586E-04 1.283E-04

     total cpu time spent up to now is    26663.4 secs

     total energy              =   -7077.45314033 Ry
     estimated scf accuracy    <       0.00028135 Ry

     total magnetization       =     9.70 Bohr mag/cell
     absolute magnetization    =    10.54 Bohr mag/cell

     iteration #  5     ecut=    60.00 Ry     beta= 0.20
     Davidson diagonalization with overlap
     ethr =  7.43E-08,  avg # of iterations =  1.0

     negative rho (up, down):  1.590E-04 1.278E-04

     total cpu time spent up to now is    26832.3 secs

     total energy              =   -7077.45316734 Ry
     estimated scf accuracy    <       0.00025010 Ry

     total magnetization       =     9.71 Bohr mag/cell
     absolute magnetization    =    10.55 Bohr mag/cell

     iteration #  6     ecut=    60.00 Ry     beta= 0.20
     Davidson diagonalization with overlap
     ethr =  7.43E-08,  avg # of iterations =  1.5

     negative rho (up, down):  1.596E-04 1.274E-04

     total cpu time spent up to now is    27006.8 secs

     total energy              =   -7077.45318843 Ry
     estimated scf accuracy    <       0.00015696 Ry

     total magnetization       =     9.71 Bohr mag/cell
     absolute magnetization    =    10.55 Bohr mag/cell

     iteration #  7     ecut=    60.00 Ry     beta= 0.20
     Davidson diagonalization with overlap
     ethr =  6.51E-08,  avg # of iterations =  2.0

     negative rho (up, down):  1.597E-04 1.268E-04

     total cpu time spent up to now is    27190.9 secs

     total energy              =   -7077.45319685 Ry
     estimated scf accuracy    <       0.00003414 Ry

     total magnetization       =     9.70 Bohr mag/cell
     absolute magnetization    =    10.55 Bohr mag/cell

     iteration #  8     ecut=    60.00 Ry     beta= 0.20
     Davidson diagonalization with overlap
     ethr =  1.42E-08,  avg # of iterations =  3.1

     negative rho (up, down):  1.591E-04 1.258E-04

     total cpu time spent up to now is    27382.9 secs

     total energy              =   -7077.45319963 Ry
     estimated scf accuracy    <       0.00001426 Ry

     total magnetization       =     9.70 Bohr mag/cell
     absolute magnetization    =    10.54 Bohr mag/cell

     iteration #  9     ecut=    60.00 Ry     beta= 0.20
     Davidson diagonalization with overlap
     ethr =  5.92E-09,  avg # of iterations =  2.5

     negative rho (up, down):  1.580E-04 1.245E-04

     total cpu time spent up to now is    27567.4 secs

     total energy              =   -7077.45320031 Ry
     estimated scf accuracy    <       0.00000252 Ry

     total magnetization       =     9.70 Bohr mag/cell
     absolute magnetization    =    10.54 Bohr mag/cell

     iteration # 10     ecut=    60.00 Ry     beta= 0.20
     Davidson diagonalization with overlap
     ethr =  1.05E-09,  avg # of iterations =  3.6

     negative rho (up, down):  1.574E-04 1.237E-04

     total cpu time spent up to now is    27775.7 secs

     total energy              =   -7077.45320068 Ry
     estimated scf accuracy    <       0.00000198 Ry

     total magnetization       =     9.70 Bohr mag/cell
     absolute magnetization    =    10.54 Bohr mag/cell

     iteration # 11     ecut=    60.00 Ry     beta= 0.20
     Davidson diagonalization with overlap
     ethr =  8.21E-10,  avg # of iterations =  1.3

     negative rho (up, down):  1.567E-04 1.228E-04

     total cpu time spent up to now is    27949.5 secs

     total energy              =   -7077.45320078 Ry
     estimated scf accuracy    <       0.00000071 Ry

     total magnetization       =     9.70 Bohr mag/cell
     absolute magnetization    =    10.54 Bohr mag/cell

     iteration # 12     ecut=    60.00 Ry     beta= 0.20
     Davidson diagonalization with overlap
     ethr =  2.95E-10,  avg # of iterations =  2.3

     negative rho (up, down):  1.560E-04 1.220E-04

     total cpu time spent up to now is    28130.3 secs

     total energy              =   -7077.45320083 Ry
     estimated scf accuracy    <       0.00000044 Ry

     total magnetization       =     9.70 Bohr mag/cell
     absolute magnetization    =    10.54 Bohr mag/cell

     iteration # 13     ecut=    60.00 Ry     beta= 0.20
     Davidson diagonalization with overlap
     ethr =  1.83E-10,  avg # of iterations =  2.0

     negative rho (up, down):  1.558E-04 1.217E-04

     total cpu time spent up to now is    28313.0 secs

     total energy              =   -7077.45320086 Ry
     estimated scf accuracy    <       0.00000012 Ry

     total magnetization       =     9.70 Bohr mag/cell
     absolute magnetization    =    10.54 Bohr mag/cell

     iteration # 14     ecut=    60.00 Ry     beta= 0.20
     Davidson diagonalization with overlap
     ethr =  4.78E-11,  avg # of iterations =  3.5

     negative rho (up, down):  1.554E-04 1.212E-04

     total cpu time spent up to now is    28502.9 secs

     total energy              =   -7077.45320087 Ry
     estimated scf accuracy    <       0.00000004 Ry

     total magnetization       =     9.70 Bohr mag/cell
     absolute magnetization    =    10.54 Bohr mag/cell

     iteration # 15     ecut=    60.00 Ry     beta= 0.20
     Davidson diagonalization with overlap
     ethr =  1.56E-11,  avg # of iterations =  3.4

     negative rho (up, down):  1.552E-04 1.210E-04

     total cpu time spent up to now is    28705.7 secs

     total energy              =   -7077.45320088 Ry
     estimated scf accuracy    <       0.00000002 Ry

     total magnetization       =     9.70 Bohr mag/cell
     absolute magnetization    =    10.54 Bohr mag/cell

     iteration # 16     ecut=    60.00 Ry     beta= 0.20
     Davidson diagonalization with overlap
     ethr =  6.80E-12,  avg # of iterations =  2.3

     negative rho (up, down):  1.549E-04 1.206E-04

     total cpu time spent up to now is    28901.9 secs

     total energy              =   -7077.45320088 Ry
     estimated scf accuracy    <       0.00000001 Ry

     total magnetization       =     9.70 Bohr mag/cell
     absolute magnetization    =    10.54 Bohr mag/cell

     iteration # 17     ecut=    60.00 Ry     beta= 0.20
     Davidson diagonalization with overlap
     ethr =  4.17E-12,  avg # of iterations =  1.9

     negative rho (up, down):  1.546E-04 1.203E-04

     total cpu time spent up to now is    29095.6 secs

     total energy              =   -7077.45320089 Ry
     estimated scf accuracy    <          7.7E-09 Ry

     total magnetization       =     9.70 Bohr mag/cell
     absolute magnetization    =    10.54 Bohr mag/cell

     iteration # 18     ecut=    60.00 Ry     beta= 0.20
     Davidson diagonalization with overlap
     ethr =  3.18E-12,  avg # of iterations =  2.0

     negative rho (up, down):  1.544E-04 1.200E-04

     total cpu time spent up to now is    29281.2 secs

     total energy              =   -7077.45320089 Ry
     estimated scf accuracy    <          3.8E-09 Ry

     total magnetization       =     9.70 Bohr mag/cell
     absolute magnetization    =    10.54 Bohr mag/cell

     iteration # 19     ecut=    60.00 Ry     beta= 0.20
     Davidson diagonalization with overlap
     ethr =  1.58E-12,  avg # of iterations =  2.5

     negative rho (up, down):  1.542E-04 1.198E-04

     total cpu time spent up to now is    29478.6 secs

     total energy              =   -7077.45320089 Ry
     estimated scf accuracy    <          1.2E-09 Ry

     total magnetization       =     9.70 Bohr mag/cell
     absolute magnetization    =    10.54 Bohr mag/cell

     iteration # 20     ecut=    60.00 Ry     beta= 0.20
     Davidson diagonalization with overlap
     ethr =  5.15E-13,  avg # of iterations =  4.0

     negative rho (up, down):  1.548E-04 1.203E-04
 
     Magnetic moment per site  (integrated on atomic sphere of radius R)
     atom   1 (R=0.129)  charge=  6.7559  magn=  0.8580
     atom   2 (R=0.129)  charge=  4.9646  magn=  0.1807
     atom   3 (R=0.129)  charge=  4.9646  magn=  0.1838
     atom   4 (R=0.129)  charge=  4.9645  magn=  0.1803
     atom   5 (R=0.129)  charge=  6.7490  magn=  0.8278
     atom   6 (R=0.129)  charge=  4.9533  magn=  0.2283
     atom   7 (R=0.129)  charge=  4.9531  magn=  0.2256
     atom   8 (R=0.129)  charge=  4.9532  magn=  0.2257
     atom   9 (R=0.129)  charge=  6.7514  magn=  0.7797
     atom  10 (R=0.129)  charge=  4.9508  magn=  0.2162
     atom  11 (R=0.129)  charge=  4.9508  magn=  0.2237
     atom  12 (R=0.129)  charge=  4.9508  magn=  0.2130
     atom  13 (R=0.129)  charge=  6.7510  magn=  0.7862
     atom  14 (R=0.129)  charge=  4.9507  magn=  0.2071
     atom  15 (R=0.129)  charge=  4.9515  magn=  0.2111
     atom  16 (R=0.129)  charge=  4.9507  magn=  0.2137
     atom  17 (R=0.129)  charge=  6.7493  magn=  0.8319
     atom  18 (R=0.129)  charge=  4.9529  magn=  0.2091
     atom  19 (R=0.129)  charge=  4.9527  magn=  0.2150
     atom  20 (R=0.129)  charge=  4.9535  magn=  0.1832
     atom  21 (R=0.129)  charge=  6.7584  magn=  0.6070
     atom  22 (R=0.129)  charge=  4.9571  magn=  0.0988
     atom  23 (R=0.129)  charge=  4.9688  magn=  0.1541
     atom  24 (R=0.129)  charge=  4.9673  magn=  0.1522
     atom  25 (R=0.129)  charge=  0.8308  magn= -0.0075

     total cpu time spent up to now is    29681.0 secs

     End of self-consistent calculation

     Number of k-points >= 100: set verbosity='high' to print the bands.

     the Fermi energy is    -5.1719 ev

!    total energy              =   -7077.45320089 Ry
     total all-electron energy =   -199909.889771 Ry
     estimated scf accuracy    <          7.3E-10 Ry
     smearing contrib. (-TS)   =       0.00078589 Ry
     internal energy E=F+TS    =   -7077.45398678 Ry

     The total energy is F=E-TS. E is the sum of the following terms:
     one-electron contribution =  -61239.52719230 Ry
     hartree contribution      =   30807.16606261 Ry
     xc contribution           =    -835.53159319 Ry
     ewald contribution        =   29324.60075413 Ry
     DFT-D3 Dispersion         =      -2.53305603 Ry
     one-center paw contrib.   =   -5131.62896200 Ry

     total magnetization       =     9.70 Bohr mag/cell
     absolute magnetization    =    10.54 Bohr mag/cell

     convergence has been achieved in  20 iterations

     negative rho (up, down):  1.548E-04 1.203E-04

     Forces acting on atoms (cartesian axes, Ry/au):

     atom    1 type  1   force =    -0.00001492    0.00011914    0.01585582
     atom    2 type  2   force =    -0.00000333   -0.01424026   -0.00937833
     atom    3 type  2   force =    -0.01242670    0.00716837   -0.00919221
     atom    4 type  2   force =     0.01222345    0.00712892   -0.00889443
     atom    5 type  1   force =    -0.00018717   -0.00015533    0.00054893
     atom    6 type  2   force =    -0.00029336    0.00087805    0.00381787
     atom    7 type  2   force =     0.00059004   -0.00103610    0.00476570
     atom    8 type  2   force =     0.00044621    0.00033952    0.00489470
     atom    9 type  1   force =     0.00004929    0.00007446   -0.00027457
     atom   10 type  2   force =     0.00001836   -0.00004855   -0.00030942
     atom   11 type  2   force =    -0.00025206   -0.00072930   -0.00001256
     atom   12 type  2   force =     0.00005179   -0.00039305   -0.00110146
     atom   13 type  1   force =    -0.00006675   -0.00006809   -0.00039064
     atom   14 type  2   force =    -0.00035371    0.00007072   -0.00060870
     atom   15 type  2   force =    -0.00026358    0.00043737    0.00048215
     atom   16 type  2   force =    -0.00043011    0.00027231   -0.00034021
     atom   17 type  1   force =     0.00017738   -0.00043356    0.00012661
     atom   18 type  2   force =     0.00145118    0.00101867    0.00251376
     atom   19 type  2   force =     0.00045937   -0.00009654    0.00144861
     atom   20 type  2   force =     0.00089207   -0.00029532   -0.00126637
     atom   21 type  1   force =     0.00127272   -0.00010516   -0.00057956
     atom   22 type  2   force =    -0.00477289    0.00070002    0.00312004
     atom   23 type  2   force =     0.00275980    0.00171960   -0.00060002
     atom   24 type  2   force =     0.00245270   -0.00401043   -0.00057499
     atom   25 type  3   force =    -0.00377977    0.00168454   -0.00405074

     Total force =     0.010826     Total SCF correction =     0.000175


     Computing stress (Cartesian axis) and pressure


     negative rho (up, down):  1.548E-04 1.203E-04
          total   stress  (Ry/bohr**3)                   (kbar)     P=       -7.53
  -0.00007830  -0.00000089  -0.00000271          -11.52       -0.13       -0.40
  -0.00000089  -0.00008005   0.00000108           -0.13      -11.78        0.16
  -0.00000271   0.00000108   0.00000470           -0.40        0.16        0.69

     Energy error            =      3.7E-04 Ry
     Gradient error          =      4.8E-03 Ry/Bohr

     number of scf cycles    =   5
     number of bfgs steps    =   4

     energy             old  =   -7077.4528297540 Ry
     energy             new  =   -7077.4532008903 Ry

     CASE: energy            _new < energy            _old

     new trust radius        =       0.0270302598 bohr
     new conv_thr            =       0.0000000006 Ry


ATOMIC_POSITIONS (angstrom)
Ni               5.3171990772        3.0698863186       11.0000000000    0   0   0
Pd               2.6585995386        3.0698851333       11.0000764482    0   0   0
Pd               3.9878982814        0.7674721723       11.0000764482    0   0   0
Pd               1.3293007958        0.7674721723       11.0000764482    0   0   0
Ni               2.6585995386        1.5349431593       13.1707374333    0   0   0
Pd               3.9878982814        3.8373584909       13.1708138815    0   0   0
Pd               5.3171990772        1.5349419740       13.1708138815    0   0   0
Pd               6.6464998731        3.8373584909       13.1708138815    0   0   0
Ni              -0.0000517183       -0.0009373391       15.3370593391
Pd               5.3176307596        4.6042049164       15.3397072956
Pd               3.9888091610        2.2999885703       15.3327762584
Pd               6.6466230841        2.3016467765       15.3372993165
Ni               5.3147546971        3.0687479228       17.5002556465
Pd               3.9857572323        0.7659563005       17.5139901491
Pd               2.6592026504        3.0705899191       17.4986612906
Pd               1.3293048107        0.7696549947       17.5075553445
Ni               2.6592875968        1.5387149096       19.6778665081
Pd               3.9943698876        3.8352229122       19.6673005518
Pd               5.3155982352        1.5426402275       19.6706705820
Pd               6.6466510958        3.8334143895       19.6795199839
Ni               0.0092723556       -0.0041422108       21.7992040408
Pd               5.3585386263        4.6101007806       21.8866207585
Pd               3.9842028843        2.2960876006       21.8850141845
Pd               6.6663706565        2.2950531543       21.8747429252
H                1.2591250164        0.0000004292       22.8636649128    1   0   1



     Writing config-only to output data dir /tmpu/isholek_g/isholek/MIGUEL/QE/Hydrogen/111_2x2/SAVE/Ni1Pd3_111-B2.save/ :
     XML data file
     NEW-OLD atomic charge density approx. for the potential

     Check: negative core charge=   -0.000002

     negative rho (up, down):  1.457E-04 1.310E-04
     Generating pointlists ...
     new r_m :   0.1274 (alat units)  1.2797 (a.u.) for type    1
     new r_m :   0.1274 (alat units)  1.2797 (a.u.) for type    3

     total cpu time spent up to now is    29976.4 secs

     Self-consistent Calculation

     iteration #  1     ecut=    60.00 Ry     beta= 0.20
     Davidson diagonalization with overlap
     ethr =  1.00E-06,  avg # of iterations =  4.5

     negative rho (up, down):  1.542E-04 1.296E-04

     total cpu time spent up to now is    30356.4 secs

     total energy              =   -7077.45325332 Ry
     estimated scf accuracy    <       0.00038339 Ry

     total magnetization       =     9.68 Bohr mag/cell
     absolute magnetization    =    10.52 Bohr mag/cell

     iteration #  2     ecut=    60.00 Ry     beta= 0.20
     Davidson diagonalization with overlap
     ethr =  1.59E-07,  avg # of iterations =  2.0

     negative rho (up, down):  1.538E-04 1.276E-04

     total cpu time spent up to now is    30552.2 secs

     total energy              =   -7077.45329894 Ry
     estimated scf accuracy    <       0.00051622 Ry

     total magnetization       =     9.70 Bohr mag/cell
     absolute magnetization    =    10.54 Bohr mag/cell

     iteration #  3     ecut=    60.00 Ry     beta= 0.20
     Davidson diagonalization with overlap
     ethr =  1.59E-07,  avg # of iterations =  1.0

     negative rho (up, down):  1.539E-04 1.261E-04

     total cpu time spent up to now is    30722.7 secs

     total energy              =   -7077.45331702 Ry
     estimated scf accuracy    <       0.00007058 Ry

     total magnetization       =     9.69 Bohr mag/cell
     absolute magnetization    =    10.53 Bohr mag/cell

     iteration #  4     ecut=    60.00 Ry     beta= 0.20
     Davidson diagonalization with overlap
     ethr =  2.93E-08,  avg # of iterations =  1.8

     negative rho (up, down):  1.540E-04 1.248E-04

     total cpu time spent up to now is    30906.9 secs

     total energy              =   -7077.45332559 Ry
     estimated scf accuracy    <       0.00010300 Ry

     total magnetization       =     9.69 Bohr mag/cell
     absolute magnetization    =    10.53 Bohr mag/cell

     iteration #  5     ecut=    60.00 Ry     beta= 0.20
     Davidson diagonalization with overlap
     ethr =  2.93E-08,  avg # of iterations =  1.0

     negative rho (up, down):  1.544E-04 1.236E-04

     total cpu time spent up to now is    31075.9 secs

     total energy              =   -7077.45333206 Ry
     estimated scf accuracy    <       0.00008634 Ry

     total magnetization       =     9.69 Bohr mag/cell
     absolute magnetization    =    10.53 Bohr mag/cell

     iteration #  6     ecut=    60.00 Ry     beta= 0.20
     Davidson diagonalization with overlap
     ethr =  2.93E-08,  avg # of iterations =  2.0

     negative rho (up, down):  1.546E-04 1.226E-04

     total cpu time spent up to now is    31262.1 secs

     total energy              =   -7077.45333545 Ry
     estimated scf accuracy    <       0.00002306 Ry

     total magnetization       =     9.69 Bohr mag/cell
     absolute magnetization    =    10.53 Bohr mag/cell

     iteration #  7     ecut=    60.00 Ry     beta= 0.20
     Davidson diagonalization with overlap
     ethr =  9.57E-09,  avg # of iterations =  2.0

     negative rho (up, down):  1.544E-04 1.217E-04

     total cpu time spent up to now is    31447.4 secs

     total energy              =   -7077.45333665 Ry
     estimated scf accuracy    <       0.00000197 Ry

     total magnetization       =     9.69 Bohr mag/cell
     absolute magnetization    =    10.53 Bohr mag/cell

     iteration #  8     ecut=    60.00 Ry     beta= 0.20
     Davidson diagonalization with overlap
     ethr =  8.16E-10,  avg # of iterations =  5.0

     negative rho (up, down):  1.539E-04 1.209E-04

     total cpu time spent up to now is    31691.7 secs

     total energy              =   -7077.45333720 Ry
     estimated scf accuracy    <       0.00000212 Ry

     total magnetization       =     9.69 Bohr mag/cell
     absolute magnetization    =    10.53 Bohr mag/cell

     iteration #  9     ecut=    60.00 Ry     beta= 0.20
     Davidson diagonalization with overlap
     ethr =  8.16E-10,  avg # of iterations =  1.0

     negative rho (up, down):  1.534E-04 1.202E-04

     total cpu time spent up to now is    31862.5 secs

     total energy              =   -7077.45333716 Ry
     estimated scf accuracy    <       0.00000051 Ry

     total magnetization       =     9.69 Bohr mag/cell
     absolute magnetization    =    10.53 Bohr mag/cell

     iteration # 10     ecut=    60.00 Ry     beta= 0.20
     Davidson diagonalization with overlap
     ethr =  2.13E-10,  avg # of iterations =  2.0

     negative rho (up, down):  1.532E-04 1.198E-04

     total cpu time spent up to now is    32045.8 secs

     total energy              =   -7077.45333720 Ry
     estimated scf accuracy    <       0.00000045 Ry

     total magnetization       =     9.69 Bohr mag/cell
     absolute magnetization    =    10.53 Bohr mag/cell

     iteration # 11     ecut=    60.00 Ry     beta= 0.20
     Davidson diagonalization with overlap
     ethr =  1.88E-10,  avg # of iterations =  1.0

     negative rho (up, down):  1.531E-04 1.194E-04

     total cpu time spent up to now is    32215.4 secs

     total energy              =   -7077.45333722 Ry
     estimated scf accuracy    <       0.00000023 Ry

     total magnetization       =     9.69 Bohr mag/cell
     absolute magnetization    =    10.53 Bohr mag/cell

     iteration # 12     ecut=    60.00 Ry     beta= 0.20
     Davidson diagonalization with overlap
     ethr =  9.63E-11,  avg # of iterations =  2.0

     negative rho (up, down):  1.530E-04 1.192E-04

     total cpu time spent up to now is    32399.2 secs

     total energy              =   -7077.45333723 Ry
     estimated scf accuracy    <       0.00000016 Ry

     total magnetization       =     9.69 Bohr mag/cell
     absolute magnetization    =    10.53 Bohr mag/cell

     iteration # 13     ecut=    60.00 Ry     beta= 0.20
     Davidson diagonalization with overlap
     ethr =  6.75E-11,  avg # of iterations =  1.0

     negative rho (up, down):  1.530E-04 1.191E-04

     total cpu time spent up to now is    32569.3 secs

     total energy              =   -7077.45333723 Ry
     estimated scf accuracy    <       0.00000004 Ry

     total magnetization       =     9.69 Bohr mag/cell
     absolute magnetization    =    10.53 Bohr mag/cell

     iteration # 14     ecut=    60.00 Ry     beta= 0.20
     Davidson diagonalization with overlap
     ethr =  1.60E-11,  avg # of iterations =  2.0

     negative rho (up, down):  1.530E-04 1.190E-04

     total cpu time spent up to now is    32754.0 secs

     total energy              =   -7077.45333723 Ry
     estimated scf accuracy    <       0.00000002 Ry

     total magnetization       =     9.69 Bohr mag/cell
     absolute magnetization    =    10.53 Bohr mag/cell

     iteration # 15     ecut=    60.00 Ry     beta= 0.20
     Davidson diagonalization with overlap
     ethr =  6.95E-12,  avg # of iterations =  2.3

     negative rho (up, down):  1.531E-04 1.190E-04

     total cpu time spent up to now is    32938.5 secs

     total energy              =   -7077.45333723 Ry
     estimated scf accuracy    <          9.7E-09 Ry

     total magnetization       =     9.69 Bohr mag/cell
     absolute magnetization    =    10.53 Bohr mag/cell

     iteration # 16     ecut=    60.00 Ry     beta= 0.20
     Davidson diagonalization with overlap
     ethr =  4.04E-12,  avg # of iterations =  2.8

     negative rho (up, down):  1.532E-04 1.190E-04

     total cpu time spent up to now is    33130.3 secs

     total energy              =   -7077.45333724 Ry
     estimated scf accuracy    <       0.00000001 Ry

     total magnetization       =     9.69 Bohr mag/cell
     absolute magnetization    =    10.53 Bohr mag/cell

     iteration # 17     ecut=    60.00 Ry     beta= 0.20
     Davidson diagonalization with overlap
     ethr =  4.04E-12,  avg # of iterations =  1.2

     negative rho (up, down):  1.533E-04 1.191E-04

     total cpu time spent up to now is    33301.5 secs

     total energy              =   -7077.45333724 Ry
     estimated scf accuracy    <          3.0E-09 Ry

     total magnetization       =     9.69 Bohr mag/cell
     absolute magnetization    =    10.53 Bohr mag/cell

     iteration # 18     ecut=    60.00 Ry     beta= 0.20
     Davidson diagonalization with overlap
     ethr =  1.24E-12,  avg # of iterations =  3.7

     negative rho (up, down):  1.534E-04 1.192E-04

     total cpu time spent up to now is    33509.4 secs

     total energy              =   -7077.45333724 Ry
     estimated scf accuracy    <          1.8E-09 Ry

     total magnetization       =     9.69 Bohr mag/cell
     absolute magnetization    =    10.53 Bohr mag/cell

     iteration # 19     ecut=    60.00 Ry     beta= 0.20
     Davidson diagonalization with overlap
     ethr =  7.44E-13,  avg # of iterations =  1.6

     negative rho (up, down):  1.535E-04 1.192E-04

     total cpu time spent up to now is    33686.8 secs

     total energy              =   -7077.45333724 Ry
     estimated scf accuracy    <          7.9E-10 Ry

     total magnetization       =     9.69 Bohr mag/cell
     absolute magnetization    =    10.53 Bohr mag/cell

     iteration # 20     ecut=    60.00 Ry     beta= 0.20
     Davidson diagonalization with overlap
     ethr =  3.28E-13,  avg # of iterations =  2.0

     negative rho (up, down):  1.535E-04 1.192E-04

     total cpu time spent up to now is    33866.9 secs

     total energy              =   -7077.45333724 Ry
     estimated scf accuracy    <          6.9E-10 Ry

     total magnetization       =     9.69 Bohr mag/cell
     absolute magnetization    =    10.53 Bohr mag/cell

     iteration # 21     ecut=    60.00 Ry     beta= 0.20
     Davidson diagonalization with overlap
     ethr =  2.84E-13,  avg # of iterations =  1.4

     negative rho (up, down):  1.547E-04 1.203E-04
 
     Magnetic moment per site  (integrated on atomic sphere of radius R)
     atom   1 (R=0.127)  charge=  6.7057  magn=  0.8531
     atom   2 (R=0.129)  charge=  4.9646  magn=  0.1806
     atom   3 (R=0.129)  charge=  4.9645  magn=  0.1838
     atom   4 (R=0.129)  charge=  4.9645  magn=  0.1802
     atom   5 (R=0.127)  charge=  6.6985  magn=  0.8231
     atom   6 (R=0.129)  charge=  4.9533  magn=  0.2283
     atom   7 (R=0.129)  charge=  4.9531  magn=  0.2257
     atom   8 (R=0.129)  charge=  4.9532  magn=  0.2257
     atom   9 (R=0.127)  charge=  6.7015  magn=  0.7753
     atom  10 (R=0.129)  charge=  4.9508  magn=  0.2164
     atom  11 (R=0.129)  charge=  4.9509  magn=  0.2238
     atom  12 (R=0.129)  charge=  4.9507  magn=  0.2132
     atom  13 (R=0.127)  charge=  6.7005  magn=  0.7821
     atom  14 (R=0.129)  charge=  4.9506  magn=  0.2073
     atom  15 (R=0.129)  charge=  4.9514  magn=  0.2110
     atom  16 (R=0.129)  charge=  4.9507  magn=  0.2136
     atom  17 (R=0.127)  charge=  6.6988  magn=  0.8283
     atom  18 (R=0.129)  charge=  4.9529  magn=  0.2086
     atom  19 (R=0.129)  charge=  4.9527  magn=  0.2142
     atom  20 (R=0.129)  charge=  4.9535  magn=  0.1826
     atom  21 (R=0.127)  charge=  6.7078  magn=  0.5942
     atom  22 (R=0.129)  charge=  4.9575  magn=  0.0992
     atom  23 (R=0.129)  charge=  4.9686  magn=  0.1535
     atom  24 (R=0.129)  charge=  4.9672  magn=  0.1519
     atom  25 (R=0.127)  charge=  0.8146  magn= -0.0076

     total cpu time spent up to now is    34040.9 secs

     End of self-consistent calculation

     Number of k-points >= 100: set verbosity='high' to print the bands.

     the Fermi energy is    -5.1721 ev

!    total energy              =   -7077.45333724 Ry
     total all-electron energy =   -199909.889907 Ry
     estimated scf accuracy    <          5.8E-10 Ry
     smearing contrib. (-TS)   =       0.00081473 Ry
     internal energy E=F+TS    =   -7077.45415198 Ry

     The total energy is F=E-TS. E is the sum of the following terms:
     one-electron contribution =  -61234.01817980 Ry
     hartree contribution      =   30804.41181741 Ry
     xc contribution           =    -835.53112283 Ry
     ewald contribution        =   29321.84483341 Ry
     DFT-D3 Dispersion         =      -2.53277411 Ry
     one-center paw contrib.   =   -5131.62872605 Ry

     total magnetization       =     9.69 Bohr mag/cell
     absolute magnetization    =    10.53 Bohr mag/cell

     convergence has been achieved in  21 iterations

     negative rho (up, down):  1.547E-04 1.203E-04

     Forces acting on atoms (cartesian axes, Ry/au):

     atom    1 type  1   force =    -0.00001552    0.00012190    0.01586657
     atom    2 type  2   force =    -0.00000430   -0.01422982   -0.00937406
     atom    3 type  2   force =    -0.01242280    0.00716837   -0.00917415
     atom    4 type  2   force =     0.01222195    0.00712756   -0.00888687
     atom    5 type  1   force =    -0.00019236   -0.00020656    0.00052072
     atom    6 type  2   force =    -0.00029712    0.00090398    0.00378949
     atom    7 type  2   force =     0.00061075   -0.00113159    0.00451898
     atom    8 type  2   force =     0.00046026    0.00039848    0.00482356
     atom    9 type  1   force =     0.00005993    0.00003614   -0.00035728
     atom   10 type  2   force =    -0.00008324   -0.00018706   -0.00038967
     atom   11 type  2   force =    -0.00030700   -0.00053529    0.00023556
     atom   12 type  2   force =     0.00010618   -0.00035805   -0.00099787
     atom   13 type  1   force =    -0.00004866   -0.00001733    0.00006516
     atom   14 type  2   force =    -0.00031846    0.00026293   -0.00066143
     atom   15 type  2   force =    -0.00013013    0.00035191    0.00100411
     atom   16 type  2   force =    -0.00047486    0.00019976   -0.00013663
     atom   17 type  1   force =     0.00043131   -0.00062748    0.00064445
     atom   18 type  2   force =     0.00149769    0.00103980    0.00246025
     atom   19 type  2   force =     0.00049703   -0.00015739    0.00122904
     atom   20 type  2   force =     0.00057109   -0.00022025   -0.00091949
     atom   21 type  1   force =    -0.00038402   -0.00012310   -0.00276724
     atom   22 type  2   force =    -0.00497326    0.00058368    0.00261822
     atom   23 type  2   force =     0.00256723    0.00113858   -0.00068991
     atom   24 type  2   force =     0.00213163   -0.00318299   -0.00056552
     atom   25 type  3   force =    -0.00150335    0.00164384   -0.00285599

     Total force =     0.009531     Total SCF correction =     0.000114


     Computing stress (Cartesian axis) and pressure


     negative rho (up, down):  1.547E-04 1.203E-04
          total   stress  (Ry/bohr**3)                   (kbar)     P=       -7.73
  -0.00007923  -0.00000106  -0.00000201          -11.66       -0.16       -0.30
  -0.00000106  -0.00008148   0.00000106           -0.16      -11.99        0.16
  -0.00000201   0.00000106   0.00000315           -0.30        0.16        0.46

     Energy error            =      1.4E-04 Ry
     Gradient error          =      5.0E-03 Ry/Bohr

     number of scf cycles    =   6
     number of bfgs steps    =   5

     energy             old  =   -7077.4532008903 Ry
     energy             new  =   -7077.4533372413 Ry

     CASE: energy            _new < energy            _old

     new trust radius        =       0.0218923497 bohr
     new conv_thr            =       0.0000000006 Ry


ATOMIC_POSITIONS (angstrom)
Ni               5.3171990772        3.0698863186       11.0000000000    0   0   0
Pd               2.6585995386        3.0698851333       11.0000764482    0   0   0
Pd               3.9878982814        0.7674721723       11.0000764482    0   0   0
Pd               1.3293007958        0.7674721723       11.0000764482    0   0   0
Ni               2.6585995386        1.5349431593       13.1707374333    0   0   0
Pd               3.9878982814        3.8373584909       13.1708138815    0   0   0
Pd               5.3171990772        1.5349419740       13.1708138815    0   0   0
Pd               6.6464998731        3.8373584909       13.1708138815    0   0   0
Ni               0.0000133349       -0.0010043770       15.3368073640
Pd               5.3175935675        4.6038610532       15.3394350462
Pd               3.9886221908        2.2991127391       15.3323897144
Pd               6.6467003163        2.3011802963       15.3360312149
Ni               5.3143939151        3.0685822171       17.4990540723
Pd               3.9852258591        0.7660406940       17.5137232452
Pd               2.6591456764        3.0711680364       17.4984149024
Pd               1.3286728807        0.7700864600       17.5071243814
Ni               2.6598364073        1.5384550503       19.6771066673
Pd               3.9961861127        3.8365376102       19.6692735044
Pd               5.3159632970        1.5426083615       19.6716876922
Pd               6.6479800095        3.8330830930       19.6791517611
Ni               0.0100215447       -0.0047719568       21.7998187677
Pd               5.3579906849        4.6099922467       21.8903642893
Pd               3.9879032137        2.2973437483       21.8848746264
Pd               6.6699373463        2.2912546569       21.8735102541
H                1.2487433885        0.0000004292       22.8585236616    1   0   1



     Writing config-only to output data dir /tmpu/isholek_g/isholek/MIGUEL/QE/Hydrogen/111_2x2/SAVE/Ni1Pd3_111-B2.save/ :
     XML data file
     NEW-OLD atomic charge density approx. for the potential

     Check: negative core charge=   -0.000002

     negative rho (up, down):  1.470E-04 1.307E-04
     Generating pointlists ...

     total cpu time spent up to now is    34332.9 secs

     Self-consistent Calculation

     iteration #  1     ecut=    60.00 Ry     beta= 0.20
     Davidson diagonalization with overlap
     ethr =  1.00E-06,  avg # of iterations =  5.1

     Threshold (ethr) on eigenvalues was too large:
     Diagonalizing with lowered threshold

     Davidson diagonalization with overlap
     ethr =  8.58E-08,  avg # of iterations =  3.1

     negative rho (up, down):  1.638E-04 1.384E-04

     total cpu time spent up to now is    34928.1 secs

     total energy              =   -7077.45339931 Ry
     estimated scf accuracy    <       0.00020103 Ry

     total magnetization       =     9.68 Bohr mag/cell
     absolute magnetization    =    10.51 Bohr mag/cell

     iteration #  2     ecut=    60.00 Ry     beta= 0.20
     Davidson diagonalization with overlap
     ethr =  8.34E-08,  avg # of iterations =  1.1

     negative rho (up, down):  1.610E-04 1.338E-04

     total cpu time spent up to now is    35100.2 secs

     total energy              =   -7077.45341735 Ry
     estimated scf accuracy    <       0.00007687 Ry

     total magnetization       =     9.69 Bohr mag/cell
     absolute magnetization    =    10.53 Bohr mag/cell

     iteration #  3     ecut=    60.00 Ry     beta= 0.20
     Davidson diagonalization with overlap
     ethr =  3.19E-08,  avg # of iterations =  1.2

     negative rho (up, down):  1.590E-04 1.304E-04

     total cpu time spent up to now is    35275.1 secs

     total energy              =   -7077.45342662 Ry
     estimated scf accuracy    <       0.00012164 Ry

     total magnetization       =     9.69 Bohr mag/cell
     absolute magnetization    =    10.52 Bohr mag/cell

     iteration #  4     ecut=    60.00 Ry     beta= 0.20
     Davidson diagonalization with overlap
     ethr =  3.19E-08,  avg # of iterations =  1.0

     negative rho (up, down):  1.574E-04 1.276E-04

     total cpu time spent up to now is    35445.8 secs

     total energy              =   -7077.45343659 Ry
     estimated scf accuracy    <       0.00006223 Ry

     total magnetization       =     9.68 Bohr mag/cell
     absolute magnetization    =    10.52 Bohr mag/cell

     iteration #  5     ecut=    60.00 Ry     beta= 0.20
     Davidson diagonalization with overlap
     ethr =  2.58E-08,  avg # of iterations =  1.0

     negative rho (up, down):  1.559E-04 1.250E-04

     total cpu time spent up to now is    35614.8 secs

     total energy              =   -7077.45344749 Ry
     estimated scf accuracy    <       0.00005397 Ry

     total magnetization       =     9.69 Bohr mag/cell
     absolute magnetization    =    10.53 Bohr mag/cell

     iteration #  6     ecut=    60.00 Ry     beta= 0.20
     Davidson diagonalization with overlap
     ethr =  2.24E-08,  avg # of iterations =  2.0

     negative rho (up, down):  1.549E-04 1.231E-04

     total cpu time spent up to now is    35797.9 secs

     total energy              =   -7077.45345194 Ry
     estimated scf accuracy    <       0.00001451 Ry

     total magnetization       =     9.69 Bohr mag/cell
     absolute magnetization    =    10.52 Bohr mag/cell

     iteration #  7     ecut=    60.00 Ry     beta= 0.20
     Davidson diagonalization with overlap
     ethr =  6.02E-09,  avg # of iterations =  2.0

     negative rho (up, down):  1.537E-04 1.213E-04

     total cpu time spent up to now is    35982.6 secs

     total energy              =   -7077.45345399 Ry
     estimated scf accuracy    <       0.00000311 Ry

     total magnetization       =     9.68 Bohr mag/cell
     absolute magnetization    =    10.52 Bohr mag/cell

     iteration #  8     ecut=    60.00 Ry     beta= 0.20
     Davidson diagonalization with overlap
     ethr =  1.29E-09,  avg # of iterations =  4.7

     negative rho (up, down):  1.527E-04 1.199E-04

     total cpu time spent up to now is    36206.3 secs

     total energy              =   -7077.45345458 Ry
     estimated scf accuracy    <       0.00000192 Ry

     total magnetization       =     9.68 Bohr mag/cell
     absolute magnetization    =    10.52 Bohr mag/cell

     iteration #  9     ecut=    60.00 Ry     beta= 0.20
     Davidson diagonalization with overlap
     ethr =  7.98E-10,  avg # of iterations =  1.1

     negative rho (up, down):  1.514E-04 1.184E-04

     total cpu time spent up to now is    36378.1 secs

     total energy              =   -7077.45345457 Ry
     estimated scf accuracy    <       0.00000076 Ry

     total magnetization       =     9.68 Bohr mag/cell
     absolute magnetization    =    10.52 Bohr mag/cell

     iteration # 10     ecut=    60.00 Ry     beta= 0.20
     Davidson diagonalization with overlap
     ethr =  3.17E-10,  avg # of iterations =  1.7

     negative rho (up, down):  1.509E-04 1.176E-04

     total cpu time spent up to now is    36556.8 secs

     total energy              =   -7077.45345463 Ry
     estimated scf accuracy    <       0.00000038 Ry

     total magnetization       =     9.68 Bohr mag/cell
     absolute magnetization    =    10.52 Bohr mag/cell

     iteration # 11     ecut=    60.00 Ry     beta= 0.20
     Davidson diagonalization with overlap
     ethr =  1.60E-10,  avg # of iterations =  1.4

     negative rho (up, down):  1.502E-04 1.167E-04

     total cpu time spent up to now is    36734.2 secs

     total energy              =   -7077.45345465 Ry
     estimated scf accuracy    <       0.00000019 Ry

     total magnetization       =     9.68 Bohr mag/cell
     absolute magnetization    =    10.52 Bohr mag/cell

     iteration # 12     ecut=    60.00 Ry     beta= 0.20
     Davidson diagonalization with overlap
     ethr =  8.00E-11,  avg # of iterations =  2.7

     negative rho (up, down):  1.498E-04 1.161E-04

     total cpu time spent up to now is    36924.8 secs

     total energy              =   -7077.45345466 Ry
     estimated scf accuracy    <       0.00000010 Ry

     total magnetization       =     9.68 Bohr mag/cell
     absolute magnetization    =    10.52 Bohr mag/cell

     iteration # 13     ecut=    60.00 Ry     beta= 0.20
     Davidson diagonalization with overlap
     ethr =  4.13E-11,  avg # of iterations =  2.2

     negative rho (up, down):  1.496E-04 1.158E-04

     total cpu time spent up to now is    37113.6 secs

     total energy              =   -7077.45345467 Ry
     estimated scf accuracy    <       0.00000002 Ry

     total magnetization       =     9.68 Bohr mag/cell
     absolute magnetization    =    10.52 Bohr mag/cell

     iteration # 14     ecut=    60.00 Ry     beta= 0.20
     Davidson diagonalization with overlap
     ethr =  1.01E-11,  avg # of iterations =  3.5

     negative rho (up, down):  1.494E-04 1.155E-04

     total cpu time spent up to now is    37312.6 secs

     total energy              =   -7077.45345467 Ry
     estimated scf accuracy    <       0.00000001 Ry

     total magnetization       =     9.68 Bohr mag/cell
     absolute magnetization    =    10.52 Bohr mag/cell

     iteration # 15     ecut=    60.00 Ry     beta= 0.20
     Davidson diagonalization with overlap
     ethr =  5.80E-12,  avg # of iterations =  1.7

     negative rho (up, down):  1.494E-04 1.154E-04

     total cpu time spent up to now is    37494.3 secs

     total energy              =   -7077.45345467 Ry
     estimated scf accuracy    <          9.3E-09 Ry

     total magnetization       =     9.68 Bohr mag/cell
     absolute magnetization    =    10.52 Bohr mag/cell

     iteration # 16     ecut=    60.00 Ry     beta= 0.20
     Davidson diagonalization with overlap
     ethr =  3.87E-12,  avg # of iterations =  2.2

     negative rho (up, down):  1.495E-04 1.154E-04

     total cpu time spent up to now is    37686.0 secs

     total energy              =   -7077.45345468 Ry
     estimated scf accuracy    <          2.9E-09 Ry

     total magnetization       =     9.68 Bohr mag/cell
     absolute magnetization    =    10.52 Bohr mag/cell

     iteration # 17     ecut=    60.00 Ry     beta= 0.20
     Davidson diagonalization with overlap
     ethr =  1.20E-12,  avg # of iterations =  2.4

     negative rho (up, down):  1.499E-04 1.158E-04

     total cpu time spent up to now is    37880.2 secs

     total energy              =   -7077.45345468 Ry
     estimated scf accuracy    <          2.7E-09 Ry

     total magnetization       =     9.68 Bohr mag/cell
     absolute magnetization    =    10.52 Bohr mag/cell

     iteration # 18     ecut=    60.00 Ry     beta= 0.20
     Davidson diagonalization with overlap
     ethr =  1.12E-12,  avg # of iterations =  2.0

     negative rho (up, down):  1.501E-04 1.160E-04

     total cpu time spent up to now is    38064.3 secs

     total energy              =   -7077.45345468 Ry
     estimated scf accuracy    <          8.7E-10 Ry

     total magnetization       =     9.68 Bohr mag/cell
     absolute magnetization    =    10.52 Bohr mag/cell

     iteration # 19     ecut=    60.00 Ry     beta= 0.20
     Davidson diagonalization with overlap
     ethr =  3.63E-13,  avg # of iterations =  2.8

     negative rho (up, down):  1.502E-04 1.160E-04

     total cpu time spent up to now is    38247.0 secs

     total energy              =   -7077.45345468 Ry
     estimated scf accuracy    <          1.3E-09 Ry

     total magnetization       =     9.68 Bohr mag/cell
     absolute magnetization    =    10.52 Bohr mag/cell

     iteration # 20     ecut=    60.00 Ry     beta= 0.20
     Davidson diagonalization with overlap
     ethr =  3.63E-13,  avg # of iterations =  1.1

     negative rho (up, down):  1.505E-04 1.163E-04

     total cpu time spent up to now is    38415.9 secs

     total energy              =   -7077.45345468 Ry
     estimated scf accuracy    <          9.3E-10 Ry

     total magnetization       =     9.68 Bohr mag/cell
     absolute magnetization    =    10.52 Bohr mag/cell

     iteration # 21     ecut=    60.00 Ry     beta= 0.20
     Davidson diagonalization with overlap
     ethr =  3.63E-13,  avg # of iterations =  1.1

     negative rho (up, down):  1.502E-04 1.160E-04

     total cpu time spent up to now is    38584.4 secs

     total energy              =   -7077.45345468 Ry
     estimated scf accuracy    <          1.7E-09 Ry

     total magnetization       =     9.68 Bohr mag/cell
     absolute magnetization    =    10.52 Bohr mag/cell

     iteration # 22     ecut=    60.00 Ry     beta= 0.20
     Davidson diagonalization with overlap
     ethr =  3.63E-13,  avg # of iterations =  1.0

     negative rho (up, down):  1.502E-04 1.160E-04

     total cpu time spent up to now is    38752.3 secs

     total energy              =   -7077.45345468 Ry
     estimated scf accuracy    <          1.1E-09 Ry

     total magnetization       =     9.68 Bohr mag/cell
     absolute magnetization    =    10.52 Bohr mag/cell

     iteration # 23     ecut=    60.00 Ry     beta= 0.20
     Davidson diagonalization with overlap
     ethr =  3.63E-13,  avg # of iterations =  1.0

     negative rho (up, down):  1.507E-04 1.164E-04

     total cpu time spent up to now is    38922.8 secs

     total energy              =   -7077.45345468 Ry
     estimated scf accuracy    <          1.5E-09 Ry

     total magnetization       =     9.68 Bohr mag/cell
     absolute magnetization    =    10.52 Bohr mag/cell

     iteration # 24     ecut=    60.00 Ry     beta= 0.20
     Davidson diagonalization with overlap
     ethr =  3.63E-13,  avg # of iterations =  1.0

     negative rho (up, down):  1.512E-04 1.169E-04

     total cpu time spent up to now is    39091.2 secs

     total energy              =   -7077.45345468 Ry
     estimated scf accuracy    <          1.7E-09 Ry

     total magnetization       =     9.68 Bohr mag/cell
     absolute magnetization    =    10.52 Bohr mag/cell

     iteration # 25     ecut=    60.00 Ry     beta= 0.20
     Davidson diagonalization with overlap
     ethr =  3.63E-13,  avg # of iterations =  1.0

     negative rho (up, down):  1.515E-04 1.172E-04

     total cpu time spent up to now is    39260.2 secs

     total energy              =   -7077.45345468 Ry
     estimated scf accuracy    <          1.1E-09 Ry

     total magnetization       =     9.68 Bohr mag/cell
     absolute magnetization    =    10.52 Bohr mag/cell

     iteration # 26     ecut=    60.00 Ry     beta= 0.20
     Davidson diagonalization with overlap
     ethr =  3.63E-13,  avg # of iterations =  1.0

     negative rho (up, down):  1.518E-04 1.175E-04

     total cpu time spent up to now is    39429.3 secs

     total energy              =   -7077.45345469 Ry
     estimated scf accuracy    <          1.0E-09 Ry

     total magnetization       =     9.68 Bohr mag/cell
     absolute magnetization    =    10.52 Bohr mag/cell

     iteration # 27     ecut=    60.00 Ry     beta= 0.20
     Davidson diagonalization with overlap
     ethr =  3.63E-13,  avg # of iterations =  1.0

     negative rho (up, down):  1.525E-04 1.182E-04

     total cpu time spent up to now is    39599.4 secs

     total energy              =   -7077.45345469 Ry
     estimated scf accuracy    <          9.5E-10 Ry

     total magnetization       =     9.68 Bohr mag/cell
     absolute magnetization    =    10.52 Bohr mag/cell

     iteration # 28     ecut=    60.00 Ry     beta= 0.20
     Davidson diagonalization with overlap
     ethr =  3.63E-13,  avg # of iterations =  1.0

     negative rho (up, down):  1.546E-04 1.203E-04
 
     Magnetic moment per site  (integrated on atomic sphere of radius R)
     atom   1 (R=0.127)  charge=  6.7057  magn=  0.8531
     atom   2 (R=0.129)  charge=  4.9646  magn=  0.1806
     atom   3 (R=0.129)  charge=  4.9645  magn=  0.1839
     atom   4 (R=0.129)  charge=  4.9645  magn=  0.1802
     atom   5 (R=0.127)  charge=  6.6985  magn=  0.8230
     atom   6 (R=0.129)  charge=  4.9533  magn=  0.2283
     atom   7 (R=0.129)  charge=  4.9531  magn=  0.2259
     atom   8 (R=0.129)  charge=  4.9532  magn=  0.2258
     atom   9 (R=0.127)  charge=  6.7015  magn=  0.7753
     atom  10 (R=0.129)  charge=  4.9508  magn=  0.2165
     atom  11 (R=0.129)  charge=  4.9509  magn=  0.2239
     atom  12 (R=0.129)  charge=  4.9507  magn=  0.2133
     atom  13 (R=0.127)  charge=  6.7005  magn=  0.7822
     atom  14 (R=0.129)  charge=  4.9506  magn=  0.2075
     atom  15 (R=0.129)  charge=  4.9514  magn=  0.2110
     atom  16 (R=0.129)  charge=  4.9506  magn=  0.2135
     atom  17 (R=0.127)  charge=  6.6987  magn=  0.8290
     atom  18 (R=0.129)  charge=  4.9529  magn=  0.2083
     atom  19 (R=0.129)  charge=  4.9527  magn=  0.2138
     atom  20 (R=0.129)  charge=  4.9535  magn=  0.1823
     atom  21 (R=0.127)  charge=  6.7081  magn=  0.5883
     atom  22 (R=0.129)  charge=  4.9579  magn=  0.0992
     atom  23 (R=0.129)  charge=  4.9685  magn=  0.1533
     atom  24 (R=0.129)  charge=  4.9673  magn=  0.1520
     atom  25 (R=0.127)  charge=  0.8185  magn= -0.0076

     total cpu time spent up to now is    39767.6 secs

     End of self-consistent calculation

     Number of k-points >= 100: set verbosity='high' to print the bands.

     the Fermi energy is    -5.1720 ev

!    total energy              =   -7077.45345469 Ry
     total all-electron energy =   -199909.890025 Ry
     estimated scf accuracy    <          4.9E-10 Ry
     smearing contrib. (-TS)   =       0.00083798 Ry
     internal energy E=F+TS    =   -7077.45429267 Ry

     The total energy is F=E-TS. E is the sum of the following terms:
     one-electron contribution =  -61230.24015766 Ry
     hartree contribution      =   30802.52930770 Ry
     xc contribution           =    -835.53202838 Ry
     ewald contribution        =   29319.94988190 Ry
     DFT-D3 Dispersion         =      -2.53258800 Ry
     one-center paw contrib.   =   -5131.62870824 Ry

     total magnetization       =     9.68 Bohr mag/cell
     absolute magnetization    =    10.52 Bohr mag/cell

     convergence has been achieved in  28 iterations

     negative rho (up, down):  1.546E-04 1.203E-04

     Forces acting on atoms (cartesian axes, Ry/au):

     atom    1 type  1   force =    -0.00001824    0.00012565    0.01585286
     atom    2 type  2   force =    -0.00000017   -0.01422164   -0.00937592
     atom    3 type  2   force =    -0.01242052    0.00717427   -0.00915897
     atom    4 type  2   force =     0.01222235    0.00712519   -0.00889581
     atom    5 type  1   force =    -0.00016943   -0.00025553    0.00041465
     atom    6 type  2   force =    -0.00031584    0.00085905    0.00374505
     atom    7 type  2   force =     0.00055212   -0.00120449    0.00425265
     atom    8 type  2   force =     0.00048569    0.00046685    0.00465140
     atom    9 type  1   force =     0.00003682   -0.00007223   -0.00033629
     atom   10 type  2   force =    -0.00018137   -0.00033953   -0.00029294
     atom   11 type  2   force =    -0.00025395   -0.00019590    0.00032317
     atom   12 type  2   force =     0.00015681   -0.00022891   -0.00051282
     atom   13 type  1   force =    -0.00005885    0.00005454    0.00040008
     atom   14 type  2   force =    -0.00024848    0.00032038   -0.00037092
     atom   15 type  2   force =     0.00005797    0.00018485    0.00112860
     atom   16 type  2   force =    -0.00037372    0.00012682    0.00009069
     atom   17 type  1   force =     0.00075085   -0.00058392    0.00087366
     atom   18 type  2   force =     0.00114538    0.00078271    0.00146235
     atom   19 type  2   force =     0.00038500   -0.00010683    0.00037501
     atom   20 type  2   force =     0.00017618   -0.00010177   -0.00010235
     atom   21 type  1   force =    -0.00209563   -0.00026746   -0.00397212
     atom   22 type  2   force =    -0.00286732    0.00000695    0.00173852
     atom   23 type  2   force =     0.00175663   -0.00005525   -0.00039333
     atom   24 type  2   force =     0.00142384   -0.00119903   -0.00051878
     atom   25 type  3   force =    -0.00014611    0.00160522   -0.00137844

     Total force =     0.007022     Total SCF correction =     0.000101


     Computing stress (Cartesian axis) and pressure


     negative rho (up, down):  1.546E-04 1.203E-04
          total   stress  (Ry/bohr**3)                   (kbar)     P=       -7.68
  -0.00007854  -0.00000120  -0.00000150          -11.55       -0.18       -0.22
  -0.00000120  -0.00008145   0.00000101           -0.18      -11.98        0.15
  -0.00000150   0.00000101   0.00000338           -0.22        0.15        0.50

     Energy error            =      1.2E-04 Ry
     Gradient error          =      4.0E-03 Ry/Bohr

     number of scf cycles    =   7
     number of bfgs steps    =   6

     energy             old  =   -7077.4533372413 Ry
     energy             new  =   -7077.4534546907 Ry

     CASE: energy            _new < energy            _old

     new trust radius        =       0.0137283995 bohr
     new conv_thr            =       0.0000000005 Ry


ATOMIC_POSITIONS (angstrom)
Ni               5.3171990772        3.0698863186       11.0000000000    0   0   0
Pd               2.6585995386        3.0698851333       11.0000764482    0   0   0
Pd               3.9878982814        0.7674721723       11.0000764482    0   0   0
Pd               1.3293007958        0.7674721723       11.0000764482    0   0   0
Ni               2.6585995386        1.5349431593       13.1707374333    0   0   0
Pd               3.9878982814        3.8373584909       13.1708138815    0   0   0
Pd               5.3171990772        1.5349419740       13.1708138815    0   0   0
Pd               6.6464998731        3.8373584909       13.1708138815    0   0   0
Ni               0.0000888041       -0.0010996898       15.3363279463
Pd               5.3174036661        4.6033502353       15.3389772871
Pd               3.9882647751        2.2984146064       15.3324969232
Pd               6.6468882669        2.3006918514       15.3347762501
Ni               5.3141378073        3.0685373248       17.4987723176
Pd               3.9846895038        0.7664098897       17.5131735595
Pd               2.6591649045        3.0716779037       17.4993875853
Pd               1.3279446730        0.7704450707       17.5069653149
Ni               2.6608408504        1.5377245572       19.6775524143
Pd               3.9983411840        3.8380527777       19.6718958862
Pd               5.3165526179        1.5424742695       19.6727125292
Pd               6.6489008898        3.8327974870       19.6787907912
Ni               0.0085161800       -0.0053577944       21.7963361605
Pd               5.3546792416        4.6100052055       21.8941544096
Pd               3.9917187842        2.2980794426       21.8843754842
Pd               6.6733297065        2.2878290508       21.8723280625
H                1.2428533298        0.0000004292       22.8542711459    1   0   1



     Writing config-only to output data dir /tmpu/isholek_g/isholek/MIGUEL/QE/Hydrogen/111_2x2/SAVE/Ni1Pd3_111-B2.save/ :
     XML data file
     NEW-OLD atomic charge density approx. for the potential

     Check: negative core charge=   -0.000002

     negative rho (up, down):  1.458E-04 1.313E-04
     Generating pointlists ...

     total cpu time spent up to now is    40062.9 secs

     Self-consistent Calculation

     iteration #  1     ecut=    60.00 Ry     beta= 0.20
     Davidson diagonalization with overlap
     ethr =  1.00E-06,  avg # of iterations =  5.0

     negative rho (up, down):  1.533E-04 1.288E-04

     total cpu time spent up to now is    40456.9 secs

     total energy              =   -7077.45345004 Ry
     estimated scf accuracy    <       0.00030040 Ry

     total magnetization       =     9.67 Bohr mag/cell
     absolute magnetization    =    10.51 Bohr mag/cell

     iteration #  2     ecut=    60.00 Ry     beta= 0.20
     Davidson diagonalization with overlap
     ethr =  1.25E-07,  avg # of iterations =  2.0

     negative rho (up, down):  1.534E-04 1.270E-04

     total cpu time spent up to now is    40651.3 secs

     total energy              =   -7077.45349993 Ry
     estimated scf accuracy    <       0.00004426 Ry

     total magnetization       =     9.69 Bohr mag/cell
     absolute magnetization    =    10.53 Bohr mag/cell

     iteration #  3     ecut=    60.00 Ry     beta= 0.20
     Davidson diagonalization with overlap
     ethr =  1.84E-08,  avg # of iterations =  2.7

     negative rho (up, down):  1.534E-04 1.257E-04

     total cpu time spent up to now is    40852.2 secs

     total energy              =   -7077.45351208 Ry
     estimated scf accuracy    <       0.00004000 Ry

     total magnetization       =     9.68 Bohr mag/cell
     absolute magnetization    =    10.52 Bohr mag/cell

     iteration #  4     ecut=    60.00 Ry     beta= 0.20
     Davidson diagonalization with overlap
     ethr =  1.66E-08,  avg # of iterations =  1.1

     negative rho (up, down):  1.534E-04 1.246E-04

     total cpu time spent up to now is    41026.4 secs

     total energy              =   -7077.45351848 Ry
     estimated scf accuracy    <       0.00003237 Ry

     total magnetization       =     9.68 Bohr mag/cell
     absolute magnetization    =    10.52 Bohr mag/cell

     iteration #  5     ecut=    60.00 Ry     beta= 0.20
     Davidson diagonalization with overlap
     ethr =  1.34E-08,  avg # of iterations =  1.1

     negative rho (up, down):  1.533E-04 1.229E-04

     total cpu time spent up to now is    41196.2 secs

     total energy              =   -7077.45353395 Ry
     estimated scf accuracy    <       0.00001649 Ry

     total magnetization       =     9.69 Bohr mag/cell
     absolute magnetization    =    10.52 Bohr mag/cell

     iteration #  6     ecut=    60.00 Ry     beta= 0.20
     Davidson diagonalization with overlap
     ethr =  6.84E-09,  avg # of iterations =  2.0

     negative rho (up, down):  1.530E-04 1.214E-04

     total cpu time spent up to now is    41382.7 secs

     total energy              =   -7077.45354075 Ry
     estimated scf accuracy    <       0.00001438 Ry

     total magnetization       =     9.68 Bohr mag/cell
     absolute magnetization    =    10.52 Bohr mag/cell

     iteration #  7     ecut=    60.00 Ry     beta= 0.20
     Davidson diagonalization with overlap
     ethr =  5.97E-09,  avg # of iterations =  2.0

     negative rho (up, down):  1.523E-04 1.197E-04

     total cpu time spent up to now is    41567.1 secs

     total energy              =   -7077.45354330 Ry
     estimated scf accuracy    <       0.00000156 Ry

     total magnetization       =     9.68 Bohr mag/cell
     absolute magnetization    =    10.52 Bohr mag/cell

     iteration #  8     ecut=    60.00 Ry     beta= 0.20
     Davidson diagonalization with overlap
     ethr =  6.49E-10,  avg # of iterations =  4.2

     negative rho (up, down):  1.517E-04 1.188E-04

     total cpu time spent up to now is    41829.7 secs

     total energy              =   -7077.45354390 Ry
     estimated scf accuracy    <       0.00000063 Ry

     total magnetization       =     9.68 Bohr mag/cell
     absolute magnetization    =    10.52 Bohr mag/cell

     iteration #  9     ecut=    60.00 Ry     beta= 0.20
     Davidson diagonalization with overlap
     ethr =  2.61E-10,  avg # of iterations =  2.0

     negative rho (up, down):  1.512E-04 1.181E-04

     total cpu time spent up to now is    42005.2 secs

     total energy              =   -7077.45354387 Ry
     estimated scf accuracy    <       0.00000075 Ry

     total magnetization       =     9.68 Bohr mag/cell
     absolute magnetization    =    10.52 Bohr mag/cell

     iteration # 10     ecut=    60.00 Ry     beta= 0.20
     Davidson diagonalization with overlap
     ethr =  2.61E-10,  avg # of iterations =  1.1

     negative rho (up, down):  1.507E-04 1.173E-04

     total cpu time spent up to now is    42174.1 secs

     total energy              =   -7077.45354396 Ry
     estimated scf accuracy    <       0.00000021 Ry

     total magnetization       =     9.68 Bohr mag/cell
     absolute magnetization    =    10.52 Bohr mag/cell

     iteration # 11     ecut=    60.00 Ry     beta= 0.20
     Davidson diagonalization with overlap
     ethr =  8.88E-11,  avg # of iterations =  2.1

     negative rho (up, down):  1.505E-04 1.169E-04

     total cpu time spent up to now is    42364.4 secs

     total energy              =   -7077.45354396 Ry
     estimated scf accuracy    <       0.00000016 Ry

     total magnetization       =     9.68 Bohr mag/cell
     absolute magnetization    =    10.52 Bohr mag/cell

     iteration # 12     ecut=    60.00 Ry     beta= 0.20
     Davidson diagonalization with overlap
     ethr =  6.61E-11,  avg # of iterations =  1.1

     negative rho (up, down):  1.502E-04 1.165E-04

     total cpu time spent up to now is    42537.5 secs

     total energy              =   -7077.45354397 Ry
     estimated scf accuracy    <       0.00000009 Ry

     total magnetization       =     9.68 Bohr mag/cell
     absolute magnetization    =    10.52 Bohr mag/cell

     iteration # 13     ecut=    60.00 Ry     beta= 0.20
     Davidson diagonalization with overlap
     ethr =  3.61E-11,  avg # of iterations =  1.6

     negative rho (up, down):  1.501E-04 1.163E-04

     total cpu time spent up to now is    42718.0 secs

     total energy              =   -7077.45354397 Ry
     estimated scf accuracy    <       0.00000002 Ry

     total magnetization       =     9.68 Bohr mag/cell
     absolute magnetization    =    10.52 Bohr mag/cell

     iteration # 14     ecut=    60.00 Ry     beta= 0.20
     Davidson diagonalization with overlap
     ethr =  9.98E-12,  avg # of iterations =  1.4

     negative rho (up, down):  1.500E-04 1.161E-04

     total cpu time spent up to now is    42895.7 secs

     total energy              =   -7077.45354396 Ry
     estimated scf accuracy    <       0.00000002 Ry

     total magnetization       =     9.68 Bohr mag/cell
     absolute magnetization    =    10.52 Bohr mag/cell

     iteration # 15     ecut=    60.00 Ry     beta= 0.20
     Davidson diagonalization with overlap
     ethr =  9.87E-12,  avg # of iterations =  2.0

     negative rho (up, down):  1.501E-04 1.161E-04

     total cpu time spent up to now is    43082.0 secs

     total energy              =   -7077.45354396 Ry
     estimated scf accuracy    <          8.9E-09 Ry

     total magnetization       =     9.68 Bohr mag/cell
     absolute magnetization    =    10.52 Bohr mag/cell

     iteration # 16     ecut=    60.00 Ry     beta= 0.20
     Davidson diagonalization with overlap
     ethr =  3.70E-12,  avg # of iterations =  2.1

     negative rho (up, down):  1.502E-04 1.162E-04

     total cpu time spent up to now is    43274.9 secs

     total energy              =   -7077.45354397 Ry
     estimated scf accuracy    <          3.1E-09 Ry

     total magnetization       =     9.68 Bohr mag/cell
     absolute magnetization    =    10.52 Bohr mag/cell

     iteration # 17     ecut=    60.00 Ry     beta= 0.20
     Davidson diagonalization with overlap
     ethr =  1.29E-12,  avg # of iterations =  1.7

     negative rho (up, down):  1.506E-04 1.164E-04

     total cpu time spent up to now is    43457.0 secs

     total energy              =   -7077.45354397 Ry
     estimated scf accuracy    <          2.0E-09 Ry

     total magnetization       =     9.68 Bohr mag/cell
     absolute magnetization    =    10.52 Bohr mag/cell

     iteration # 18     ecut=    60.00 Ry     beta= 0.20
     Davidson diagonalization with overlap
     ethr =  8.30E-13,  avg # of iterations =  1.8

     negative rho (up, down):  1.507E-04 1.166E-04

     total cpu time spent up to now is    43641.7 secs

     total energy              =   -7077.45354397 Ry
     estimated scf accuracy    <          5.3E-10 Ry

     total magnetization       =     9.68 Bohr mag/cell
     absolute magnetization    =    10.52 Bohr mag/cell

     iteration # 19     ecut=    60.00 Ry     beta= 0.20
     Davidson diagonalization with overlap
     ethr =  2.20E-13,  avg # of iterations =  3.5

     negative rho (up, down):  1.509E-04 1.167E-04

     total cpu time spent up to now is    43855.8 secs

     total energy              =   -7077.45354397 Ry
     estimated scf accuracy    <          1.1E-09 Ry

     total magnetization       =     9.68 Bohr mag/cell
     absolute magnetization    =    10.52 Bohr mag/cell

     iteration # 20     ecut=    60.00 Ry     beta= 0.20
     Davidson diagonalization with overlap
     ethr =  2.20E-13,  avg # of iterations =  1.8

     negative rho (up, down):  1.515E-04 1.173E-04

     total cpu time spent up to now is    44035.3 secs

     total energy              =   -7077.45354397 Ry
     estimated scf accuracy    <          9.9E-10 Ry

     total magnetization       =     9.68 Bohr mag/cell
     absolute magnetization    =    10.52 Bohr mag/cell

     iteration # 21     ecut=    60.00 Ry     beta= 0.20
     Davidson diagonalization with overlap
     ethr =  2.20E-13,  avg # of iterations =  1.4

     negative rho (up, down):  1.516E-04 1.174E-04

     total cpu time spent up to now is    44209.5 secs

     total energy              =   -7077.45354397 Ry
     estimated scf accuracy    <          1.2E-09 Ry

     total magnetization       =     9.68 Bohr mag/cell
     absolute magnetization    =    10.52 Bohr mag/cell

     iteration # 22     ecut=    60.00 Ry     beta= 0.20
     Davidson diagonalization with overlap
     ethr =  2.20E-13,  avg # of iterations =  1.0

     negative rho (up, down):  1.517E-04 1.175E-04

     total cpu time spent up to now is    44379.9 secs

     total energy              =   -7077.45354397 Ry
     estimated scf accuracy    <          1.0E-09 Ry

     total magnetization       =     9.68 Bohr mag/cell
     absolute magnetization    =    10.52 Bohr mag/cell

     iteration # 23     ecut=    60.00 Ry     beta= 0.20
     Davidson diagonalization with overlap
     ethr =  2.20E-13,  avg # of iterations =  1.0

     negative rho (up, down):  1.519E-04 1.176E-04

     total cpu time spent up to now is    44549.9 secs

     total energy              =   -7077.45354397 Ry
     estimated scf accuracy    <          9.6E-10 Ry

     total magnetization       =     9.68 Bohr mag/cell
     absolute magnetization    =    10.52 Bohr mag/cell

     iteration # 24     ecut=    60.00 Ry     beta= 0.20
     Davidson diagonalization with overlap
     ethr =  2.20E-13,  avg # of iterations =  1.0

     negative rho (up, down):  1.519E-04 1.176E-04

     total cpu time spent up to now is    44719.5 secs

     total energy              =   -7077.45354397 Ry
     estimated scf accuracy    <          1.1E-09 Ry

     total magnetization       =     9.68 Bohr mag/cell
     absolute magnetization    =    10.52 Bohr mag/cell

     iteration # 25     ecut=    60.00 Ry     beta= 0.20
     Davidson diagonalization with overlap
     ethr =  2.20E-13,  avg # of iterations =  1.0

     negative rho (up, down):  1.546E-04 1.203E-04
 
     Magnetic moment per site  (integrated on atomic sphere of radius R)
     atom   1 (R=0.127)  charge=  6.7057  magn=  0.8531
     atom   2 (R=0.129)  charge=  4.9646  magn=  0.1806
     atom   3 (R=0.129)  charge=  4.9645  magn=  0.1840
     atom   4 (R=0.129)  charge=  4.9645  magn=  0.1802
     atom   5 (R=0.127)  charge=  6.6985  magn=  0.8230
     atom   6 (R=0.129)  charge=  4.9533  magn=  0.2284
     atom   7 (R=0.129)  charge=  4.9531  magn=  0.2260
     atom   8 (R=0.129)  charge=  4.9532  magn=  0.2260
     atom   9 (R=0.127)  charge=  6.7015  magn=  0.7754
     atom  10 (R=0.129)  charge=  4.9508  magn=  0.2166
     atom  11 (R=0.129)  charge=  4.9509  magn=  0.2240
     atom  12 (R=0.129)  charge=  4.9507  magn=  0.2133
     atom  13 (R=0.127)  charge=  6.7005  magn=  0.7823
     atom  14 (R=0.129)  charge=  4.9506  magn=  0.2077
     atom  15 (R=0.129)  charge=  4.9514  magn=  0.2109
     atom  16 (R=0.129)  charge=  4.9506  magn=  0.2134
     atom  17 (R=0.127)  charge=  6.6987  magn=  0.8292
     atom  18 (R=0.129)  charge=  4.9528  magn=  0.2083
     atom  19 (R=0.129)  charge=  4.9526  magn=  0.2139
     atom  20 (R=0.129)  charge=  4.9535  magn=  0.1824
     atom  21 (R=0.127)  charge=  6.7082  magn=  0.5869
     atom  22 (R=0.129)  charge=  4.9581  magn=  0.0990
     atom  23 (R=0.129)  charge=  4.9686  magn=  0.1535
     atom  24 (R=0.129)  charge=  4.9674  magn=  0.1523
     atom  25 (R=0.127)  charge=  0.8210  magn= -0.0076

     total cpu time spent up to now is    44887.3 secs

     End of self-consistent calculation

     Number of k-points >= 100: set verbosity='high' to print the bands.

     the Fermi energy is    -5.1715 ev

!    total energy              =   -7077.45354398 Ry
     total all-electron energy =   -199909.890114 Ry
     estimated scf accuracy    <          5.1E-10 Ry
     smearing contrib. (-TS)   =       0.00085329 Ry
     internal energy E=F+TS    =   -7077.45439727 Ry

     The total energy is F=E-TS. E is the sum of the following terms:
     one-electron contribution =  -61229.36278627 Ry
     hartree contribution      =   30802.09484130 Ry
     xc contribution           =    -835.53376916 Ry
     ewald contribution        =   29319.50873247 Ry
     DFT-D3 Dispersion         =      -2.53253308 Ry
     one-center paw contrib.   =   -5131.62888253 Ry

     total magnetization       =     9.68 Bohr mag/cell
     absolute magnetization    =    10.52 Bohr mag/cell

     convergence has been achieved in  25 iterations

     negative rho (up, down):  1.546E-04 1.203E-04

     Forces acting on atoms (cartesian axes, Ry/au):

     atom    1 type  1   force =    -0.00002279    0.00012933    0.01585403
     atom    2 type  2   force =     0.00000697   -0.01421637   -0.00937025
     atom    3 type  2   force =    -0.01242206    0.00718327   -0.00913855
     atom    4 type  2   force =     0.01222325    0.00712198   -0.00890422
     atom    5 type  1   force =    -0.00012792   -0.00029428    0.00032075
     atom    6 type  2   force =    -0.00034793    0.00075944    0.00370517
     atom    7 type  2   force =     0.00043940   -0.00123504    0.00407086
     atom    8 type  2   force =     0.00051242    0.00051923    0.00446319
     atom    9 type  1   force =    -0.00002401   -0.00018877   -0.00017651
     atom   10 type  2   force =    -0.00021643   -0.00039411   -0.00001986
     atom   11 type  2   force =    -0.00011664    0.00012428    0.00027103
     atom   12 type  2   force =     0.00016329   -0.00005770    0.00018982
     atom   13 type  1   force =    -0.00005995    0.00013387    0.00049588
     atom   14 type  2   force =    -0.00016533    0.00017895    0.00007388
     atom   15 type  2   force =     0.00018926   -0.00000059    0.00083581
     atom   16 type  2   force =    -0.00013897    0.00007612    0.00020186
     atom   17 type  1   force =     0.00097389   -0.00033559    0.00076256
     atom   18 type  2   force =     0.00052657    0.00032043   -0.00000458
     atom   19 type  2   force =     0.00021907    0.00007132   -0.00074416
     atom   20 type  2   force =    -0.00015274    0.00001104    0.00063050
     atom   21 type  1   force =    -0.00281209   -0.00042716   -0.00367351
     atom   22 type  2   force =     0.00020908   -0.00070468    0.00079758
     atom   23 type  2   force =     0.00061549   -0.00130514    0.00010195
     atom   24 type  2   force =     0.00054649    0.00094666   -0.00041238
     atom   25 type  3   force =    -0.00001833    0.00158351   -0.00033084

     Total force =     0.005563     Total SCF correction =     0.000062


     Computing stress (Cartesian axis) and pressure


     negative rho (up, down):  1.546E-04 1.203E-04
          total   stress  (Ry/bohr**3)                   (kbar)     P=       -7.65
  -0.00007811  -0.00000130  -0.00000134          -11.49       -0.19       -0.20
  -0.00000130  -0.00008153   0.00000096           -0.19      -11.99        0.14
  -0.00000134   0.00000096   0.00000369           -0.20        0.14        0.54

     Energy error            =      8.9E-05 Ry
     Gradient error          =      3.7E-03 Ry/Bohr

     number of scf cycles    =   8
     number of bfgs steps    =   7

     energy             old  =   -7077.4534546907 Ry
     energy             new  =   -7077.4535439765 Ry

     CASE: energy            _new < energy            _old

     new trust radius        =       0.0105456198 bohr
     new conv_thr            =       0.0000000005 Ry


ATOMIC_POSITIONS (angstrom)
Ni               5.3171990772        3.0698863186       11.0000000000    0   0   0
Pd               2.6585995386        3.0698851333       11.0000764482    0   0   0
Pd               3.9878982814        0.7674721723       11.0000764482    0   0   0
Pd               1.3293007958        0.7674721723       11.0000764482    0   0   0
Ni               2.6585995386        1.5349431593       13.1707374333    0   0   0
Pd               3.9878982814        3.8373584909       13.1708138815    0   0   0
Pd               5.3171990772        1.5349419740       13.1708138815    0   0   0
Pd               6.6464998731        3.8373584909       13.1708138815    0   0   0
Ni               0.0001099192       -0.0012636117       15.3359290883
Pd               5.3171517243        4.6028330319       15.3387012757
Pd               3.9879667096        2.2981314398       15.3328236204
Pd               6.6471060919        2.3003864199       15.3342350920
Ni               5.3140040927        3.0686273556       17.4991141067
Pd               3.9842977667        0.7667410664       17.5128493101
Pd               2.6592727173        3.0719413494       17.5006715695
Pd               1.3274703168        0.7706748289       17.5070318478
Ni               2.6620453738        1.5370369416       19.6785151341
Pd               3.9998772238        3.8390874210       19.6734793255
Pd               5.3170662744        1.5424427268       19.6728331959
Pd               6.6492344394        3.8326497362       19.6788625470
Ni               0.0057649977       -0.0059015029       21.7915114972
Pd               5.3521701208        4.6096535051       21.8967671400
Pd               3.9941560701        2.2976412336       21.8840802313
Pd               6.6754449485        2.2865158912       21.8714797894
H                1.2406722120        0.0000004292       22.8517957588    1   0   1



     Writing config-only to output data dir /tmpu/isholek_g/isholek/MIGUEL/QE/Hydrogen/111_2x2/SAVE/Ni1Pd3_111-B2.save/ :
     XML data file
     NEW-OLD atomic charge density approx. for the potential

     Check: negative core charge=   -0.000002

     negative rho (up, down):  1.484E-04 1.305E-04
     Generating pointlists ...

     total cpu time spent up to now is    45180.0 secs

     Self-consistent Calculation

     iteration #  1     ecut=    60.00 Ry     beta= 0.20
     Davidson diagonalization with overlap
     ethr =  1.00E-06,  avg # of iterations =  4.0

     Threshold (ethr) on eigenvalues was too large:
     Diagonalizing with lowered threshold

     Davidson diagonalization with overlap
     ethr =  2.52E-08,  avg # of iterations =  3.7

     negative rho (up, down):  1.881E-04 1.633E-04

     total cpu time spent up to now is    45804.8 secs

     total energy              =   -7077.45357170 Ry
     estimated scf accuracy    <       0.00005577 Ry

     total magnetization       =     9.68 Bohr mag/cell
     absolute magnetization    =    10.52 Bohr mag/cell

     iteration #  2     ecut=    60.00 Ry     beta= 0.20
     Davidson diagonalization with overlap
     ethr =  2.31E-08,  avg # of iterations =  1.4

     negative rho (up, down):  1.787E-04 1.520E-04

     total cpu time spent up to now is    45971.4 secs

     total energy              =   -7077.45357784 Ry
     estimated scf accuracy    <       0.00004375 Ry

     total magnetization       =     9.69 Bohr mag/cell
     absolute magnetization    =    10.53 Bohr mag/cell

     iteration #  3     ecut=    60.00 Ry     beta= 0.20
     Davidson diagonalization with overlap
     ethr =  1.82E-08,  avg # of iterations =  1.0

     negative rho (up, down):  1.720E-04 1.436E-04

     total cpu time spent up to now is    46144.0 secs

     total energy              =   -7077.45358234 Ry
     estimated scf accuracy    <       0.00001444 Ry

     total magnetization       =     9.69 Bohr mag/cell
     absolute magnetization    =    10.53 Bohr mag/cell

     iteration #  4     ecut=    60.00 Ry     beta= 0.20
     Davidson diagonalization with overlap
     ethr =  5.99E-09,  avg # of iterations =  1.4

     negative rho (up, down):  1.668E-04 1.372E-04

     total cpu time spent up to now is    46320.6 secs

     total energy              =   -7077.45358713 Ry
     estimated scf accuracy    <       0.00000740 Ry

     total magnetization       =     9.69 Bohr mag/cell
     absolute magnetization    =    10.52 Bohr mag/cell

     iteration #  5     ecut=    60.00 Ry     beta= 0.20
     Davidson diagonalization with overlap
     ethr =  3.07E-09,  avg # of iterations =  2.0

     negative rho (up, down):  1.640E-04 1.335E-04

     total cpu time spent up to now is    46504.4 secs

     total energy              =   -7077.45359134 Ry
     estimated scf accuracy    <       0.00000622 Ry

     total magnetization       =     9.69 Bohr mag/cell
     absolute magnetization    =    10.53 Bohr mag/cell

     iteration #  6     ecut=    60.00 Ry     beta= 0.20
     Davidson diagonalization with overlap
     ethr =  2.58E-09,  avg # of iterations =  2.0

     negative rho (up, down):  1.621E-04 1.308E-04

     total cpu time spent up to now is    46691.7 secs

     total energy              =   -7077.45359247 Ry
     estimated scf accuracy    <       0.00000281 Ry

     total magnetization       =     9.69 Bohr mag/cell
     absolute magnetization    =    10.53 Bohr mag/cell

     iteration #  7     ecut=    60.00 Ry     beta= 0.20
     Davidson diagonalization with overlap
     ethr =  1.17E-09,  avg # of iterations =  2.0

     negative rho (up, down):  1.603E-04 1.285E-04

     total cpu time spent up to now is    46878.1 secs

     total energy              =   -7077.45359266 Ry
     estimated scf accuracy    <       0.00000057 Ry

     total magnetization       =     9.69 Bohr mag/cell
     absolute magnetization    =    10.53 Bohr mag/cell

     iteration #  8     ecut=    60.00 Ry     beta= 0.20
     Davidson diagonalization with overlap
     ethr =  2.38E-10,  avg # of iterations =  4.5

     negative rho (up, down):  1.580E-04 1.256E-04

     total cpu time spent up to now is    47118.9 secs

     total energy              =   -7077.45359281 Ry
     estimated scf accuracy    <       0.00000025 Ry

     total magnetization       =     9.69 Bohr mag/cell
     absolute magnetization    =    10.53 Bohr mag/cell

     iteration #  9     ecut=    60.00 Ry     beta= 0.20
     Davidson diagonalization with overlap
     ethr =  1.03E-10,  avg # of iterations =  1.4

     negative rho (up, down):  1.559E-04 1.230E-04

     total cpu time spent up to now is    47295.7 secs

     total energy              =   -7077.45359282 Ry
     estimated scf accuracy    <       0.00000015 Ry

     total magnetization       =     9.69 Bohr mag/cell
     absolute magnetization    =    10.53 Bohr mag/cell

     iteration # 10     ecut=    60.00 Ry     beta= 0.20
     Davidson diagonalization with overlap
     ethr =  6.42E-11,  avg # of iterations =  2.0

     negative rho (up, down):  1.548E-04 1.216E-04

     total cpu time spent up to now is    47482.9 secs

     total energy              =   -7077.45359284 Ry
     estimated scf accuracy    <       0.00000012 Ry

     total magnetization       =     9.69 Bohr mag/cell
     absolute magnetization    =    10.53 Bohr mag/cell

     iteration # 11     ecut=    60.00 Ry     beta= 0.20
     Davidson diagonalization with overlap
     ethr =  4.87E-11,  avg # of iterations =  1.0

     negative rho (up, down):  1.541E-04 1.207E-04

     total cpu time spent up to now is    47653.5 secs

     total energy              =   -7077.45359285 Ry
     estimated scf accuracy    <       0.00000002 Ry

     total magnetization       =     9.69 Bohr mag/cell
     absolute magnetization    =    10.53 Bohr mag/cell

     iteration # 12     ecut=    60.00 Ry     beta= 0.20
     Davidson diagonalization with overlap
     ethr =  1.03E-11,  avg # of iterations =  2.3

     negative rho (up, down):  1.535E-04 1.199E-04

     total cpu time spent up to now is    47844.5 secs

     total energy              =   -7077.45359285 Ry
     estimated scf accuracy    <          7.6E-09 Ry

     total magnetization       =     9.69 Bohr mag/cell
     absolute magnetization    =    10.53 Bohr mag/cell

     iteration # 13     ecut=    60.00 Ry     beta= 0.20
     Davidson diagonalization with overlap
     ethr =  3.13E-12,  avg # of iterations =  2.4

     negative rho (up, down):  1.532E-04 1.194E-04

     total cpu time spent up to now is    48037.1 secs

     total energy              =   -7077.45359286 Ry
     estimated scf accuracy    <       0.00000001 Ry

     total magnetization       =     9.69 Bohr mag/cell
     absolute magnetization    =    10.53 Bohr mag/cell

     iteration # 14     ecut=    60.00 Ry     beta= 0.20
     Davidson diagonalization with overlap
     ethr =  3.13E-12,  avg # of iterations =  1.1

     negative rho (up, down):  1.529E-04 1.190E-04

     total cpu time spent up to now is    48210.0 secs

     total energy              =   -7077.45359286 Ry
     estimated scf accuracy    <          7.4E-09 Ry

     total magnetization       =     9.69 Bohr mag/cell
     absolute magnetization    =    10.53 Bohr mag/cell

     iteration # 15     ecut=    60.00 Ry     beta= 0.20
     Davidson diagonalization with overlap
     ethr =  3.07E-12,  avg # of iterations =  2.0

     negative rho (up, down):  1.528E-04 1.188E-04

     total cpu time spent up to now is    48396.7 secs

     total energy              =   -7077.45359286 Ry
     estimated scf accuracy    <          4.6E-09 Ry

     total magnetization       =     9.69 Bohr mag/cell
     absolute magnetization    =    10.53 Bohr mag/cell

     iteration # 16     ecut=    60.00 Ry     beta= 0.20
     Davidson diagonalization with overlap
     ethr =  1.89E-12,  avg # of iterations =  1.1

     negative rho (up, down):  1.528E-04 1.187E-04

     total cpu time spent up to now is    48566.9 secs

     total energy              =   -7077.45359286 Ry
     estimated scf accuracy    <          2.5E-09 Ry

     total magnetization       =     9.69 Bohr mag/cell
     absolute magnetization    =    10.53 Bohr mag/cell

     iteration # 17     ecut=    60.00 Ry     beta= 0.20
     Davidson diagonalization with overlap
     ethr =  1.05E-12,  avg # of iterations =  1.6

     negative rho (up, down):  1.529E-04 1.188E-04

     total cpu time spent up to now is    48744.4 secs

     total energy              =   -7077.45359286 Ry
     estimated scf accuracy    <          2.3E-09 Ry

     total magnetization       =     9.69 Bohr mag/cell
     absolute magnetization    =    10.53 Bohr mag/cell

     iteration # 18     ecut=    60.00 Ry     beta= 0.20
     Davidson diagonalization with overlap
     ethr =  9.45E-13,  avg # of iterations =  1.0

     negative rho (up, down):  1.546E-04 1.203E-04
 
     Magnetic moment per site  (integrated on atomic sphere of radius R)
     atom   1 (R=0.127)  charge=  6.7057  magn=  0.8530
     atom   2 (R=0.129)  charge=  4.9646  magn=  0.1806
     atom   3 (R=0.129)  charge=  4.9645  magn=  0.1840
     atom   4 (R=0.129)  charge=  4.9645  magn=  0.1802
     atom   5 (R=0.127)  charge=  6.6985  magn=  0.8230
     atom   6 (R=0.129)  charge=  4.9533  magn=  0.2284
     atom   7 (R=0.129)  charge=  4.9531  magn=  0.2261
     atom   8 (R=0.129)  charge=  4.9532  magn=  0.2261
     atom   9 (R=0.127)  charge=  6.7015  magn=  0.7755
     atom  10 (R=0.129)  charge=  4.9508  magn=  0.2166
     atom  11 (R=0.129)  charge=  4.9509  magn=  0.2240
     atom  12 (R=0.129)  charge=  4.9507  magn=  0.2133
     atom  13 (R=0.127)  charge=  6.7005  magn=  0.7824
     atom  14 (R=0.129)  charge=  4.9506  magn=  0.2078
     atom  15 (R=0.129)  charge=  4.9514  magn=  0.2109
     atom  16 (R=0.129)  charge=  4.9506  magn=  0.2133
     atom  17 (R=0.127)  charge=  6.6988  magn=  0.8292
     atom  18 (R=0.129)  charge=  4.9528  magn=  0.2084
     atom  19 (R=0.129)  charge=  4.9526  magn=  0.2142
     atom  20 (R=0.129)  charge=  4.9535  magn=  0.1827
     atom  21 (R=0.127)  charge=  6.7081  magn=  0.5882
     atom  22 (R=0.129)  charge=  4.9582  magn=  0.0988
     atom  23 (R=0.129)  charge=  4.9687  magn=  0.1538
     atom  24 (R=0.129)  charge=  4.9674  magn=  0.1527
     atom  25 (R=0.127)  charge=  0.8215  magn= -0.0076

     total cpu time spent up to now is    48911.7 secs

     End of self-consistent calculation

     Number of k-points >= 100: set verbosity='high' to print the bands.

     the Fermi energy is    -5.1712 ev

!    total energy              =   -7077.45359287 Ry
     total all-electron energy =   -199909.890163 Ry
     estimated scf accuracy    <          1.1E-10 Ry
     smearing contrib. (-TS)   =       0.00086259 Ry
     internal energy E=F+TS    =   -7077.45445546 Ry

     The total energy is F=E-TS. E is the sum of the following terms:
     one-electron contribution =  -61230.97934325 Ry
     hartree contribution      =   30802.90571478 Ry
     xc contribution           =    -835.53514129 Ry
     ewald contribution        =   29320.31601476 Ry
     DFT-D3 Dispersion         =      -2.53257111 Ry
     one-center paw contrib.   =   -5131.62912936 Ry

     total magnetization       =     9.69 Bohr mag/cell
     absolute magnetization    =    10.53 Bohr mag/cell

     convergence has been achieved in  18 iterations

     negative rho (up, down):  1.546E-04 1.203E-04

     Forces acting on atoms (cartesian axes, Ry/au):

     atom    1 type  1   force =    -0.00002512    0.00013176    0.01585714
     atom    2 type  2   force =     0.00001311   -0.01421473   -0.00936780
     atom    3 type  2   force =    -0.01242575    0.00718995   -0.00912819
     atom    4 type  2   force =     0.01222625    0.00712065   -0.00891152
     atom    5 type  1   force =    -0.00009847   -0.00031561    0.00027314
     atom    6 type  2   force =    -0.00037111    0.00067546    0.00366686
     atom    7 type  2   force =     0.00036168   -0.00122295    0.00402542
     atom    8 type  2   force =     0.00052138    0.00052796    0.00436311
     atom    9 type  1   force =    -0.00008267   -0.00022042   -0.00000890
     atom   10 type  2   force =    -0.00016523   -0.00030018    0.00020241
     atom   11 type  2   force =    -0.00000078    0.00021551    0.00017655
     atom   12 type  2   force =     0.00011085    0.00004670    0.00060626
     atom   13 type  1   force =    -0.00002753    0.00017835    0.00041676
     atom   14 type  2   force =    -0.00010126   -0.00004176    0.00030977
     atom   15 type  2   force =     0.00018302   -0.00010021    0.00046434
     atom   16 type  2   force =     0.00007323    0.00005316    0.00015334
     atom   17 type  1   force =     0.00094424   -0.00010001    0.00058512
     atom   18 type  2   force =     0.00006610   -0.00003961   -0.00081930
     atom   19 type  2   force =     0.00016687    0.00025270   -0.00130053
     atom   20 type  2   force =    -0.00026252    0.00007065    0.00071610
     atom   21 type  1   force =    -0.00223444   -0.00044327   -0.00252411
     atom   22 type  2   force =     0.00174302   -0.00100495    0.00027213
     atom   23 type  2   force =    -0.00012122   -0.00177563    0.00037106
     atom   24 type  2   force =    -0.00000154    0.00172897   -0.00028313
     atom   25 type  3   force =    -0.00049208    0.00158750   -0.00011605

     Total force =     0.005280     Total SCF correction =     0.000043


     Computing stress (Cartesian axis) and pressure


     negative rho (up, down):  1.546E-04 1.203E-04
          total   stress  (Ry/bohr**3)                   (kbar)     P=       -7.58
  -0.00007766  -0.00000134  -0.00000142          -11.42       -0.20       -0.21
  -0.00000134  -0.00008125   0.00000096           -0.20      -11.95        0.14
  -0.00000142   0.00000096   0.00000433           -0.21        0.14        0.64

     Energy error            =      4.9E-05 Ry
     Gradient error          =      2.5E-03 Ry/Bohr

     number of scf cycles    =   9
     number of bfgs steps    =   8

     energy             old  =   -7077.4535439765 Ry
     energy             new  =   -7077.4535928702 Ry

     CASE: energy            _new < energy            _old

     new trust radius        =       0.0128583176 bohr
     new conv_thr            =       0.0000000003 Ry


ATOMIC_POSITIONS (angstrom)
Ni               5.3171990772        3.0698863186       11.0000000000    0   0   0
Pd               2.6585995386        3.0698851333       11.0000764482    0   0   0
Pd               3.9878982814        0.7674721723       11.0000764482    0   0   0
Pd               1.3293007958        0.7674721723       11.0000764482    0   0   0
Ni               2.6585995386        1.5349431593       13.1707374333    0   0   0
Pd               3.9878982814        3.8373584909       13.1708138815    0   0   0
Pd               5.3171990772        1.5349419740       13.1708138815    0   0   0
Pd               6.6464998731        3.8373584909       13.1708138815    0   0   0
Ni               0.0000619824       -0.0015604650       15.3355882280
Pd               5.3168329001        4.6021908822       15.3386247689
Pd               3.9877049480        2.2979590493       15.3331932066
Pd               6.6473686544        2.3001257175       15.3341526065
Ni               5.3138656944        3.0688309915       17.4996122729
Pd               3.9838523408        0.7669457278       17.5127760135
Pd               2.6594536498        3.0721361195       17.5020630884
Pd               1.3271077629        0.7709481849       17.5071343443
Ni               2.6637690768        1.5363823243       19.6797039234
Pd               4.0013315130        3.8400019393       19.6743918117
Pd               5.3176720467        1.5426281840       19.6720660760
Pd               6.6494453156        3.8325426259       19.6792826820
Ni               0.0021331696       -0.0067106345       21.7858146543
Pd               5.3510224699        4.6086480515       21.8995349164
Pd               3.9963786613        2.2961321461       21.8840829662
Pd               6.6774896770        2.2862479165       21.8704927119
H                1.2377119836        0.0000004292       22.8490519153    1   0   1



     Writing config-only to output data dir /tmpu/isholek_g/isholek/MIGUEL/QE/Hydrogen/111_2x2/SAVE/Ni1Pd3_111-B2.save/ :
     XML data file
     NEW-OLD atomic charge density approx. for the potential

     Check: negative core charge=   -0.000002

     negative rho (up, down):  1.504E-04 1.306E-04
     Generating pointlists ...

     total cpu time spent up to now is    49202.4 secs

     Self-consistent Calculation

     iteration #  1     ecut=    60.00 Ry     beta= 0.20
     Davidson diagonalization with overlap
     ethr =  1.00E-06,  avg # of iterations =  4.0

     Threshold (ethr) on eigenvalues was too large:
     Diagonalizing with lowered threshold

     Davidson diagonalization with overlap
     ethr =  2.15E-08,  avg # of iterations =  3.5

     negative rho (up, down):  1.769E-04 1.492E-04

     total cpu time spent up to now is    49817.5 secs

     total energy              =   -7077.45361442 Ry
     estimated scf accuracy    <       0.00005200 Ry

     total magnetization       =     9.69 Bohr mag/cell
     absolute magnetization    =    10.52 Bohr mag/cell

     iteration #  2     ecut=    60.00 Ry     beta= 0.20
     Davidson diagonalization with overlap
     ethr =  2.16E-08,  avg # of iterations =  1.4

     negative rho (up, down):  1.698E-04 1.406E-04

     total cpu time spent up to now is    49994.6 secs

     total energy              =   -7077.45362021 Ry
     estimated scf accuracy    <       0.00014749 Ry

     total magnetization       =     9.69 Bohr mag/cell
     absolute magnetization    =    10.53 Bohr mag/cell

     iteration #  3     ecut=    60.00 Ry     beta= 0.20
     Davidson diagonalization with overlap
     ethr =  2.16E-08,  avg # of iterations =  1.0

     negative rho (up, down):  1.646E-04 1.343E-04

     total cpu time spent up to now is    50165.5 secs

     total energy              =   -7077.45362542 Ry
     estimated scf accuracy    <       0.00002488 Ry

     total magnetization       =     9.69 Bohr mag/cell
     absolute magnetization    =    10.53 Bohr mag/cell

     iteration #  4     ecut=    60.00 Ry     beta= 0.20
     Davidson diagonalization with overlap
     ethr =  1.03E-08,  avg # of iterations =  1.0

     negative rho (up, down):  1.608E-04 1.298E-04

     total cpu time spent up to now is    50336.9 secs

     total energy              =   -7077.45362971 Ry
     estimated scf accuracy    <       0.00000857 Ry

     total magnetization       =     9.69 Bohr mag/cell
     absolute magnetization    =    10.53 Bohr mag/cell

     iteration #  5     ecut=    60.00 Ry     beta= 0.20
     Davidson diagonalization with overlap
     ethr =  3.55E-09,  avg # of iterations =  2.0

     negative rho (up, down):  1.589E-04 1.271E-04

     total cpu time spent up to now is    50523.3 secs

     total energy              =   -7077.45363268 Ry
     estimated scf accuracy    <       0.00000923 Ry

     total magnetization       =     9.69 Bohr mag/cell
     absolute magnetization    =    10.53 Bohr mag/cell

     iteration #  6     ecut=    60.00 Ry     beta= 0.20
     Davidson diagonalization with overlap
     ethr =  3.55E-09,  avg # of iterations =  2.0

     negative rho (up, down):  1.578E-04 1.257E-04

     total cpu time spent up to now is    50709.1 secs

     total energy              =   -7077.45363385 Ry
     estimated scf accuracy    <       0.00000361 Ry

     total magnetization       =     9.69 Bohr mag/cell
     absolute magnetization    =    10.53 Bohr mag/cell

     iteration #  7     ecut=    60.00 Ry     beta= 0.20
     Davidson diagonalization with overlap
     ethr =  1.50E-09,  avg # of iterations =  2.0

     negative rho (up, down):  1.565E-04 1.239E-04

     total cpu time spent up to now is    50894.2 secs

     total energy              =   -7077.45363423 Ry
     estimated scf accuracy    <       0.00000042 Ry

     total magnetization       =     9.69 Bohr mag/cell
     absolute magnetization    =    10.53 Bohr mag/cell

     iteration #  8     ecut=    60.00 Ry     beta= 0.20
     Davidson diagonalization with overlap
     ethr =  1.75E-10,  avg # of iterations =  4.9

     negative rho (up, down):  1.555E-04 1.225E-04

     total cpu time spent up to now is    51156.8 secs

     total energy              =   -7077.45363440 Ry
     estimated scf accuracy    <       0.00000025 Ry

     total magnetization       =     9.69 Bohr mag/cell
     absolute magnetization    =    10.53 Bohr mag/cell

     iteration #  9     ecut=    60.00 Ry     beta= 0.20
     Davidson diagonalization with overlap
     ethr =  1.04E-10,  avg # of iterations =  1.0

     negative rho (up, down):  1.548E-04 1.215E-04

     total cpu time spent up to now is    51328.9 secs

     total energy              =   -7077.45363442 Ry
     estimated scf accuracy    <       0.00000014 Ry

     total magnetization       =     9.69 Bohr mag/cell
     absolute magnetization    =    10.53 Bohr mag/cell

     iteration # 10     ecut=    60.00 Ry     beta= 0.20
     Davidson diagonalization with overlap
     ethr =  6.00E-11,  avg # of iterations =  1.8

     negative rho (up, down):  1.545E-04 1.209E-04

     total cpu time spent up to now is    51509.1 secs

     total energy              =   -7077.45363445 Ry
     estimated scf accuracy    <       0.00000009 Ry

     total magnetization       =     9.69 Bohr mag/cell
     absolute magnetization    =    10.53 Bohr mag/cell

     iteration # 11     ecut=    60.00 Ry     beta= 0.20
     Davidson diagonalization with overlap
     ethr =  3.82E-11,  avg # of iterations =  1.0

     negative rho (up, down):  1.543E-04 1.206E-04

     total cpu time spent up to now is    51679.3 secs

     total energy              =   -7077.45363448 Ry
     estimated scf accuracy    <       0.00000006 Ry

     total magnetization       =     9.69 Bohr mag/cell
     absolute magnetization    =    10.53 Bohr mag/cell

     iteration # 12     ecut=    60.00 Ry     beta= 0.20
     Davidson diagonalization with overlap
     ethr =  2.57E-11,  avg # of iterations =  2.0

     negative rho (up, down):  1.542E-04 1.204E-04

     total cpu time spent up to now is    51866.0 secs

     total energy              =   -7077.45363449 Ry
     estimated scf accuracy    <          8.0E-09 Ry

     total magnetization       =     9.69 Bohr mag/cell
     absolute magnetization    =    10.53 Bohr mag/cell

     iteration # 13     ecut=    60.00 Ry     beta= 0.20
     Davidson diagonalization with overlap
     ethr =  3.30E-12,  avg # of iterations =  2.9

     negative rho (up, down):  1.542E-04 1.202E-04

     total cpu time spent up to now is    52063.4 secs

     total energy              =   -7077.45363450 Ry
     estimated scf accuracy    <          5.8E-09 Ry

     total magnetization       =     9.69 Bohr mag/cell
     absolute magnetization    =    10.53 Bohr mag/cell

     iteration # 14     ecut=    60.00 Ry     beta= 0.20
     Davidson diagonalization with overlap
     ethr =  2.41E-12,  avg # of iterations =  1.2

     negative rho (up, down):  1.542E-04 1.201E-04

     total cpu time spent up to now is    52239.3 secs

     total energy              =   -7077.45363451 Ry
     estimated scf accuracy    <          2.6E-09 Ry

     total magnetization       =     9.69 Bohr mag/cell
     absolute magnetization    =    10.53 Bohr mag/cell

     iteration # 15     ecut=    60.00 Ry     beta= 0.20
     Davidson diagonalization with overlap
     ethr =  1.06E-12,  avg # of iterations =  3.1

     negative rho (up, down):  1.542E-04 1.201E-04

     total cpu time spent up to now is    52440.0 secs

     total energy              =   -7077.45363452 Ry
     estimated scf accuracy    <          2.0E-09 Ry

     total magnetization       =     9.69 Bohr mag/cell
     absolute magnetization    =    10.53 Bohr mag/cell

     iteration # 16     ecut=    60.00 Ry     beta= 0.20
     Davidson diagonalization with overlap
     ethr =  8.49E-13,  avg # of iterations =  1.4

     negative rho (up, down):  1.543E-04 1.201E-04

     total cpu time spent up to now is    52614.7 secs

     total energy              =   -7077.45363452 Ry
     estimated scf accuracy    <          1.7E-09 Ry

     total magnetization       =     9.69 Bohr mag/cell
     absolute magnetization    =    10.53 Bohr mag/cell

     iteration # 17     ecut=    60.00 Ry     beta= 0.20
     Davidson diagonalization with overlap
     ethr =  7.03E-13,  avg # of iterations =  1.4

     negative rho (up, down):  1.547E-04 1.203E-04
 
     Magnetic moment per site  (integrated on atomic sphere of radius R)
     atom   1 (R=0.127)  charge=  6.7057  magn=  0.8530
     atom   2 (R=0.129)  charge=  4.9646  magn=  0.1807
     atom   3 (R=0.129)  charge=  4.9645  magn=  0.1841
     atom   4 (R=0.129)  charge=  4.9645  magn=  0.1803
     atom   5 (R=0.127)  charge=  6.6985  magn=  0.8230
     atom   6 (R=0.129)  charge=  4.9533  magn=  0.2285
     atom   7 (R=0.129)  charge=  4.9531  magn=  0.2261
     atom   8 (R=0.129)  charge=  4.9532  magn=  0.2261
     atom   9 (R=0.127)  charge=  6.7015  magn=  0.7755
     atom  10 (R=0.129)  charge=  4.9508  magn=  0.2166
     atom  11 (R=0.129)  charge=  4.9509  magn=  0.2240
     atom  12 (R=0.129)  charge=  4.9508  magn=  0.2133
     atom  13 (R=0.127)  charge=  6.7005  magn=  0.7824
     atom  14 (R=0.129)  charge=  4.9506  magn=  0.2079
     atom  15 (R=0.129)  charge=  4.9514  magn=  0.2108
     atom  16 (R=0.129)  charge=  4.9506  magn=  0.2133
     atom  17 (R=0.127)  charge=  6.6988  magn=  0.8293
     atom  18 (R=0.129)  charge=  4.9528  magn=  0.2086
     atom  19 (R=0.129)  charge=  4.9526  magn=  0.2145
     atom  20 (R=0.129)  charge=  4.9535  magn=  0.1831
     atom  21 (R=0.127)  charge=  6.7081  magn=  0.5892
     atom  22 (R=0.129)  charge=  4.9583  magn=  0.0986
     atom  23 (R=0.129)  charge=  4.9688  magn=  0.1540
     atom  24 (R=0.129)  charge=  4.9676  magn=  0.1530
     atom  25 (R=0.127)  charge=  0.8211  magn= -0.0076

     total cpu time spent up to now is    52784.8 secs

     End of self-consistent calculation

     Number of k-points >= 100: set verbosity='high' to print the bands.

     the Fermi energy is    -5.1710 ev

!    total energy              =   -7077.45363453 Ry
     total all-electron energy =   -199909.890205 Ry
     estimated scf accuracy    <          1.6E-10 Ry
     smearing contrib. (-TS)   =       0.00087683 Ry
     internal energy E=F+TS    =   -7077.45451135 Ry

     The total energy is F=E-TS. E is the sum of the following terms:
     one-electron contribution =  -61233.88473140 Ry
     hartree contribution      =   30804.35768192 Ry
     xc contribution           =    -835.53631784 Ry
     ewald contribution        =   29321.77089658 Ry
     DFT-D3 Dispersion         =      -2.53262918 Ry
     one-center paw contrib.   =   -5131.62941144 Ry

     total magnetization       =     9.69 Bohr mag/cell
     absolute magnetization    =    10.53 Bohr mag/cell

     convergence has been achieved in  17 iterations

     negative rho (up, down):  1.547E-04 1.203E-04

     Forces acting on atoms (cartesian axes, Ry/au):

     atom    1 type  1   force =    -0.00002542    0.00013395    0.01586769
     atom    2 type  2   force =     0.00001711   -0.01421289   -0.00937009
     atom    3 type  2   force =    -0.01243098    0.00719487   -0.00912505
     atom    4 type  2   force =     0.01223013    0.00712109   -0.00891829
     atom    5 type  1   force =    -0.00007929   -0.00033792    0.00028283
     atom    6 type  2   force =    -0.00038916    0.00060369    0.00364503
     atom    7 type  2   force =     0.00031763   -0.00119306    0.00406119
     atom    8 type  2   force =     0.00051446    0.00050751    0.00434448
     atom    9 type  1   force =    -0.00013528   -0.00019096    0.00018079
     atom   10 type  2   force =    -0.00006185   -0.00010377    0.00035900
     atom   11 type  2   force =     0.00009220    0.00017191    0.00010875
     atom   12 type  2   force =     0.00000612    0.00012141    0.00081007
     atom   13 type  1   force =     0.00002752    0.00019832    0.00025244
     atom   14 type  2   force =    -0.00001683   -0.00027116    0.00035091
     atom   15 type  2   force =     0.00011079   -0.00016538    0.00008745
     atom   16 type  2   force =     0.00026227    0.00001054    0.00001919
     atom   17 type  1   force =     0.00073744    0.00009713    0.00041860
     atom   18 type  2   force =    -0.00029789   -0.00032788   -0.00111756
     atom   19 type  2   force =     0.00020428    0.00039570   -0.00141739
     atom   20 type  2   force =    -0.00026608    0.00013512    0.00034771
     atom   21 type  1   force =    -0.00093380   -0.00034360   -0.00115258
     atom   22 type  2   force =     0.00195956   -0.00100018   -0.00012370
     atom   23 type  2   force =    -0.00061107   -0.00169495    0.00040505
     atom   24 type  2   force =    -0.00040236    0.00154304   -0.00011867
     atom   25 type  3   force =    -0.00082949    0.00160748   -0.00019784

     Total force =     0.004453     Total SCF correction =     0.000056


     Computing stress (Cartesian axis) and pressure


     negative rho (up, down):  1.547E-04 1.203E-04
          total   stress  (Ry/bohr**3)                   (kbar)     P=       -7.59
  -0.00007779  -0.00000135  -0.00000152          -11.44       -0.20       -0.22
  -0.00000135  -0.00008147   0.00000100           -0.20      -11.98        0.15
  -0.00000152   0.00000100   0.00000455           -0.22        0.15        0.67

     Energy error            =      4.2E-05 Ry
     Gradient error          =      2.0E-03 Ry/Bohr

     number of scf cycles    =  10
     number of bfgs steps    =   9

     energy             old  =   -7077.4535928702 Ry
     energy             new  =   -7077.4536345272 Ry

     CASE: energy            _new < energy            _old

     new trust radius        =       0.0107262437 bohr
     new conv_thr            =       0.0000000002 Ry


ATOMIC_POSITIONS (angstrom)
Ni               5.3171990772        3.0698863186       11.0000000000    0   0   0
Pd               2.6585995386        3.0698851333       11.0000764482    0   0   0
Pd               3.9878982814        0.7674721723       11.0000764482    0   0   0
Pd               1.3293007958        0.7674721723       11.0000764482    0   0   0
Ni               2.6585995386        1.5349431593       13.1707374333    0   0   0
Pd               3.9878982814        3.8373584909       13.1708138815    0   0   0
Pd               5.3171990772        1.5349419740       13.1708138815    0   0   0
Pd               6.6464998731        3.8373584909       13.1708138815    0   0   0
Ni              -0.0000746848       -0.0019212612       15.3354828074
Pd               5.3165671748        4.6016460318       15.3388389291
Pd               3.9875787721        2.2978682000       15.3334849432
Pd               6.6475601782        2.2999894804       15.3346080474
Ni               5.3137603102        3.0691128640       17.5000114769
Pd               3.9834740768        0.7668592684       17.5129747041
Pd               2.6596412290        3.0722043746       17.5030511241
Pd               1.3270098413        0.7711966212       17.5071571704
Ni               2.6655895836        1.5359917689       19.6807586836
Pd               4.0022840098        3.8405061244       19.6743655618
Pd               5.3182984963        1.5430747302       19.6705304002
Pd               6.6495434535        3.8325361734       19.6797465774
Ni              -0.0009216020       -0.0076045153       21.7811149443
Pd               5.3516027697        4.6071612644       21.9018047737
Pd               3.9978310362        2.2939286388       21.8843847365
Pd               6.6789804221        2.2867932935       21.8695920453
H                1.2338785438        0.0000004292       22.8463592721    1   0   1



     Writing config-only to output data dir /tmpu/isholek_g/isholek/MIGUEL/QE/Hydrogen/111_2x2/SAVE/Ni1Pd3_111-B2.save/ :
     XML data file
     NEW-OLD atomic charge density approx. for the potential

     Check: negative core charge=   -0.000002

     negative rho (up, down):  1.452E-04 1.309E-04
     Generating pointlists ...

     total cpu time spent up to now is    53078.5 secs

     Self-consistent Calculation

     iteration #  1     ecut=    60.00 Ry     beta= 0.20
     Davidson diagonalization with overlap
     ethr =  1.00E-06,  avg # of iterations =  4.0

     Threshold (ethr) on eigenvalues was too large:
     Diagonalizing with lowered threshold

     Davidson diagonalization with overlap
     ethr =  2.13E-08,  avg # of iterations =  3.7

     negative rho (up, down):  1.524E-04 1.278E-04

     total cpu time spent up to now is    53691.4 secs

     total energy              =   -7077.45364717 Ry
     estimated scf accuracy    <       0.00005258 Ry

     total magnetization       =     9.69 Bohr mag/cell
     absolute magnetization    =    10.53 Bohr mag/cell

     iteration #  2     ecut=    60.00 Ry     beta= 0.20
     Davidson diagonalization with overlap
     ethr =  2.18E-08,  avg # of iterations =  1.4

     negative rho (up, down):  1.524E-04 1.262E-04

     total cpu time spent up to now is    53865.8 secs

     total energy              =   -7077.45365121 Ry
     estimated scf accuracy    <       0.00012213 Ry

     total magnetization       =     9.69 Bohr mag/cell
     absolute magnetization    =    10.53 Bohr mag/cell

     iteration #  3     ecut=    60.00 Ry     beta= 0.20
     Davidson diagonalization with overlap
     ethr =  2.18E-08,  avg # of iterations =  1.0

     negative rho (up, down):  1.527E-04 1.248E-04

     total cpu time spent up to now is    54036.1 secs

     total energy              =   -7077.45365573 Ry
     estimated scf accuracy    <       0.00001002 Ry

     total magnetization       =     9.69 Bohr mag/cell
     absolute magnetization    =    10.53 Bohr mag/cell

     iteration #  4     ecut=    60.00 Ry     beta= 0.20
     Davidson diagonalization with overlap
     ethr =  4.16E-09,  avg # of iterations =  1.3

     negative rho (up, down):  1.530E-04 1.235E-04

     total cpu time spent up to now is    54206.8 secs

     total energy              =   -7077.45365981 Ry
     estimated scf accuracy    <       0.00000983 Ry

     total magnetization       =     9.69 Bohr mag/cell
     absolute magnetization    =    10.53 Bohr mag/cell

     iteration #  5     ecut=    60.00 Ry     beta= 0.20
     Davidson diagonalization with overlap
     ethr =  4.08E-09,  avg # of iterations =  2.0

     negative rho (up, down):  1.536E-04 1.224E-04

     total cpu time spent up to now is    54391.9 secs

     total energy              =   -7077.45366253 Ry
     estimated scf accuracy    <       0.00001619 Ry

     total magnetization       =     9.69 Bohr mag/cell
     absolute magnetization    =    10.53 Bohr mag/cell

     iteration #  6     ecut=    60.00 Ry     beta= 0.20
     Davidson diagonalization with overlap
     ethr =  4.08E-09,  avg # of iterations =  2.0

     negative rho (up, down):  1.539E-04 1.217E-04

     total cpu time spent up to now is    54577.9 secs

     total energy              =   -7077.45366327 Ry
     estimated scf accuracy    <       0.00000259 Ry

     total magnetization       =     9.69 Bohr mag/cell
     absolute magnetization    =    10.53 Bohr mag/cell

     iteration #  7     ecut=    60.00 Ry     beta= 0.20
     Davidson diagonalization with overlap
     ethr =  1.08E-09,  avg # of iterations =  2.0

     negative rho (up, down):  1.539E-04 1.212E-04

     total cpu time spent up to now is    54764.7 secs

     total energy              =   -7077.45366344 Ry
     estimated scf accuracy    <       0.00000063 Ry

     total magnetization       =     9.69 Bohr mag/cell
     absolute magnetization    =    10.53 Bohr mag/cell

     iteration #  8     ecut=    60.00 Ry     beta= 0.20
     Davidson diagonalization with overlap
     ethr =  2.62E-10,  avg # of iterations =  4.0

     negative rho (up, down):  1.539E-04 1.209E-04

     total cpu time spent up to now is    54964.2 secs

     total energy              =   -7077.45366349 Ry
     estimated scf accuracy    <       0.00000016 Ry

     total magnetization       =     9.69 Bohr mag/cell
     absolute magnetization    =    10.53 Bohr mag/cell

     iteration #  9     ecut=    60.00 Ry     beta= 0.20
     Davidson diagonalization with overlap
     ethr =  6.81E-11,  avg # of iterations =  3.6

     negative rho (up, down):  1.538E-04 1.207E-04

     total cpu time spent up to now is    55170.8 secs

     total energy              =   -7077.45366348 Ry
     estimated scf accuracy    <       0.00000010 Ry

     total magnetization       =     9.69 Bohr mag/cell
     absolute magnetization    =    10.53 Bohr mag/cell

     iteration # 10     ecut=    60.00 Ry     beta= 0.20
     Davidson diagonalization with overlap
     ethr =  4.11E-11,  avg # of iterations =  2.0

     negative rho (up, down):  1.539E-04 1.205E-04

     total cpu time spent up to now is    55357.9 secs

     total energy              =   -7077.45366349 Ry
     estimated scf accuracy    <       0.00000005 Ry

     total magnetization       =     9.69 Bohr mag/cell
     absolute magnetization    =    10.53 Bohr mag/cell

     iteration # 11     ecut=    60.00 Ry     beta= 0.20
     Davidson diagonalization with overlap
     ethr =  2.02E-11,  avg # of iterations =  1.3

     negative rho (up, down):  1.540E-04 1.203E-04

     total cpu time spent up to now is    55529.8 secs

     total energy              =   -7077.45366351 Ry
     estimated scf accuracy    <       0.00000008 Ry

     total magnetization       =     9.69 Bohr mag/cell
     absolute magnetization    =    10.53 Bohr mag/cell

     iteration # 12     ecut=    60.00 Ry     beta= 0.20
     Davidson diagonalization with overlap
     ethr =  2.02E-11,  avg # of iterations =  2.0

     negative rho (up, down):  1.541E-04 1.203E-04

     total cpu time spent up to now is    55716.0 secs

     total energy              =   -7077.45366351 Ry
     estimated scf accuracy    <          9.0E-09 Ry

     total magnetization       =     9.69 Bohr mag/cell
     absolute magnetization    =    10.53 Bohr mag/cell

     iteration # 13     ecut=    60.00 Ry     beta= 0.20
     Davidson diagonalization with overlap
     ethr =  3.73E-12,  avg # of iterations =  2.3

     negative rho (up, down):  1.541E-04 1.202E-04

     total cpu time spent up to now is    55902.0 secs

     total energy              =   -7077.45366351 Ry
     estimated scf accuracy    <          9.4E-09 Ry

     total magnetization       =     9.69 Bohr mag/cell
     absolute magnetization    =    10.53 Bohr mag/cell

     iteration # 14     ecut=    60.00 Ry     beta= 0.20
     Davidson diagonalization with overlap
     ethr =  3.73E-12,  avg # of iterations =  1.3

     negative rho (up, down):  1.542E-04 1.202E-04

     total cpu time spent up to now is    56077.1 secs

     total energy              =   -7077.45366351 Ry
     estimated scf accuracy    <          4.8E-09 Ry

     total magnetization       =     9.69 Bohr mag/cell
     absolute magnetization    =    10.53 Bohr mag/cell

     iteration # 15     ecut=    60.00 Ry     beta= 0.20
     Davidson diagonalization with overlap
     ethr =  1.97E-12,  avg # of iterations =  2.0

     negative rho (up, down):  1.543E-04 1.202E-04

     total cpu time spent up to now is    56263.1 secs

     total energy              =   -7077.45366351 Ry
     estimated scf accuracy    <          6.8E-09 Ry

     total magnetization       =     9.69 Bohr mag/cell
     absolute magnetization    =    10.53 Bohr mag/cell

     iteration # 16     ecut=    60.00 Ry     beta= 0.20
     Davidson diagonalization with overlap
     ethr =  1.97E-12,  avg # of iterations =  1.0

     negative rho (up, down):  1.544E-04 1.203E-04

     total cpu time spent up to now is    56434.2 secs

     total energy              =   -7077.45366351 Ry
     estimated scf accuracy    <          7.2E-09 Ry

     total magnetization       =     9.69 Bohr mag/cell
     absolute magnetization    =    10.53 Bohr mag/cell

     iteration # 17     ecut=    60.00 Ry     beta= 0.20
     Davidson diagonalization with overlap
     ethr =  1.97E-12,  avg # of iterations =  1.4

     negative rho (up, down):  1.545E-04 1.203E-04

     total cpu time spent up to now is    56611.7 secs

     total energy              =   -7077.45366351 Ry
     estimated scf accuracy    <          1.2E-09 Ry

     total magnetization       =     9.69 Bohr mag/cell
     absolute magnetization    =    10.53 Bohr mag/cell

     iteration # 18     ecut=    60.00 Ry     beta= 0.20
     Davidson diagonalization with overlap
     ethr =  4.98E-13,  avg # of iterations =  1.7

     negative rho (up, down):  1.546E-04 1.203E-04

     total cpu time spent up to now is    56793.1 secs

     total energy              =   -7077.45366351 Ry
     estimated scf accuracy    <          1.0E-09 Ry

     total magnetization       =     9.69 Bohr mag/cell
     absolute magnetization    =    10.53 Bohr mag/cell

     iteration # 19     ecut=    60.00 Ry     beta= 0.20
     Davidson diagonalization with overlap
     ethr =  4.15E-13,  avg # of iterations =  1.4

     negative rho (up, down):  1.546E-04 1.203E-04

     total cpu time spent up to now is    56969.8 secs

     total energy              =   -7077.45366351 Ry
     estimated scf accuracy    <          2.7E-10 Ry

     total magnetization       =     9.69 Bohr mag/cell
     absolute magnetization    =    10.53 Bohr mag/cell

     iteration # 20     ecut=    60.00 Ry     beta= 0.20
     Davidson diagonalization with overlap
     ethr =  1.10E-13,  avg # of iterations =  3.7

     negative rho (up, down):  1.547E-04 1.203E-04
 
     Magnetic moment per site  (integrated on atomic sphere of radius R)
     atom   1 (R=0.127)  charge=  6.7057  magn=  0.8530
     atom   2 (R=0.129)  charge=  4.9646  magn=  0.1807
     atom   3 (R=0.129)  charge=  4.9645  magn=  0.1840
     atom   4 (R=0.129)  charge=  4.9645  magn=  0.1803
     atom   5 (R=0.127)  charge=  6.6985  magn=  0.8230
     atom   6 (R=0.129)  charge=  4.9533  magn=  0.2285
     atom   7 (R=0.129)  charge=  4.9531  magn=  0.2261
     atom   8 (R=0.129)  charge=  4.9532  magn=  0.2261
     atom   9 (R=0.127)  charge=  6.7015  magn=  0.7756
     atom  10 (R=0.129)  charge=  4.9508  magn=  0.2166
     atom  11 (R=0.129)  charge=  4.9509  magn=  0.2238
     atom  12 (R=0.129)  charge=  4.9507  magn=  0.2133
     atom  13 (R=0.127)  charge=  6.7005  magn=  0.7823
     atom  14 (R=0.129)  charge=  4.9507  magn=  0.2080
     atom  15 (R=0.129)  charge=  4.9514  magn=  0.2107
     atom  16 (R=0.129)  charge=  4.9507  magn=  0.2133
     atom  17 (R=0.127)  charge=  6.6988  magn=  0.8295
     atom  18 (R=0.129)  charge=  4.9529  magn=  0.2087
     atom  19 (R=0.129)  charge=  4.9527  magn=  0.2147
     atom  20 (R=0.129)  charge=  4.9535  magn=  0.1834
     atom  21 (R=0.127)  charge=  6.7080  magn=  0.5890
     atom  22 (R=0.129)  charge=  4.9584  magn=  0.0987
     atom  23 (R=0.129)  charge=  4.9689  magn=  0.1540
     atom  24 (R=0.129)  charge=  4.9676  magn=  0.1532
     atom  25 (R=0.127)  charge=  0.8203  magn= -0.0077

     total cpu time spent up to now is    57164.3 secs

     End of self-consistent calculation

     Number of k-points >= 100: set verbosity='high' to print the bands.

     the Fermi energy is    -5.1711 ev

!    total energy              =   -7077.45366351 Ry
     total all-electron energy =   -199909.890234 Ry
     estimated scf accuracy    <          2.4E-10 Ry
     smearing contrib. (-TS)   =       0.00089343 Ry
     internal energy E=F+TS    =   -7077.45455695 Ry

     The total energy is F=E-TS. E is the sum of the following terms:
     one-electron contribution =  -61237.27651671 Ry
     hartree contribution      =   30806.05143997 Ry
     xc contribution           =    -835.53702781 Ry
     ewald contribution        =   29323.46984762 Ry
     DFT-D3 Dispersion         =      -2.53267885 Ry
     one-center paw contrib.   =   -5131.62962117 Ry

     total magnetization       =     9.69 Bohr mag/cell
     absolute magnetization    =    10.53 Bohr mag/cell

     convergence has been achieved in  20 iterations

     negative rho (up, down):  1.547E-04 1.203E-04

     Forces acting on atoms (cartesian axes, Ry/au):

     atom    1 type  1   force =    -0.00002351    0.00013517    0.01588010
     atom    2 type  2   force =     0.00001832   -0.01421053   -0.00937165
     atom    3 type  2   force =    -0.01243507    0.00719606   -0.00912547
     atom    4 type  2   force =     0.01223427    0.00712383   -0.00891781
     atom    5 type  1   force =    -0.00008091   -0.00035441    0.00034304
     atom    6 type  2   force =    -0.00039151    0.00056739    0.00366461
     atom    7 type  2   force =     0.00032969   -0.00115781    0.00416593
     atom    8 type  2   force =     0.00049078    0.00046218    0.00442734
     atom    9 type  1   force =    -0.00014360   -0.00011044    0.00028596
     atom   10 type  2   force =     0.00003425    0.00009263    0.00033429
     atom   11 type  2   force =     0.00012310    0.00004536    0.00008487
     atom   12 type  2   force =    -0.00010484    0.00014327    0.00067509
     atom   13 type  1   force =     0.00007119    0.00016561    0.00005715
     atom   14 type  2   force =     0.00008336   -0.00036279    0.00018066
     atom   15 type  2   force =     0.00004134   -0.00019096   -0.00014379
     atom   16 type  2   force =     0.00033595   -0.00005800   -0.00010660
     atom   17 type  1   force =     0.00040161    0.00016887    0.00031042
     atom   18 type  2   force =    -0.00043158   -0.00041986   -0.00080751
     atom   19 type  2   force =     0.00030216    0.00040507   -0.00103423
     atom   20 type  2   force =    -0.00018220    0.00019384   -0.00021082
     atom   21 type  1   force =     0.00042878   -0.00016971   -0.00016908
     atom   22 type  2   force =     0.00089173   -0.00073394   -0.00032324
     atom   23 type  2   force =    -0.00069627   -0.00113428    0.00018402
     atom   24 type  2   force =    -0.00055326    0.00056825    0.00000831
     atom   25 type  3   force =    -0.00074376    0.00163520   -0.00039161

     Total force =     0.002950     Total SCF correction =     0.000076


     Computing stress (Cartesian axis) and pressure


     negative rho (up, down):  1.547E-04 1.203E-04
          total   stress  (Ry/bohr**3)                   (kbar)     P=       -7.61
  -0.00007806  -0.00000134  -0.00000153          -11.48       -0.20       -0.22
  -0.00000134  -0.00008180   0.00000108           -0.20      -12.03        0.16
  -0.00000153   0.00000108   0.00000465           -0.22        0.16        0.68

     Energy error            =      2.9E-05 Ry
     Gradient error          =      1.1E-03 Ry/Bohr

     number of scf cycles    =  11
     number of bfgs steps    =  10

     energy             old  =   -7077.4536345272 Ry
     energy             new  =   -7077.4536635103 Ry

     CASE: energy            _new < energy            _old

     new trust radius        =       0.0060229572 bohr
     new conv_thr            =       0.0000000001 Ry


ATOMIC_POSITIONS (angstrom)
Ni               5.3171990772        3.0698863186       11.0000000000    0   0   0
Pd               2.6585995386        3.0698851333       11.0000764482    0   0   0
Pd               3.9878982814        0.7674721723       11.0000764482    0   0   0
Pd               1.3293007958        0.7674721723       11.0000764482    0   0   0
Ni               2.6585995386        1.5349431593       13.1707374333    0   0   0
Pd               3.9878982814        3.8373584909       13.1708138815    0   0   0
Pd               5.3171990772        1.5349419740       13.1708138815    0   0   0
Pd               6.6464998731        3.8373584909       13.1708138815    0   0   0
Ni              -0.0002336677       -0.0021599517       15.3356499441
Pd               5.3164809282        4.6014710390       15.3391723929
Pd               3.9876190100        2.2978349203       15.3336257609
Pd               6.6475655854        2.3000239738       15.3352568998
Ni               5.3137453405        3.0693392002       17.5001290865
Pd               3.9833593357        0.7665526077       17.5132112612
Pd               2.6597528687        3.0721132789       17.5032858887
Pd               1.3271961632        0.7712771345       17.5070690561
Ni               2.6666554323        1.5359704886       19.6813279679
Pd               4.0024079100        3.8404452806       19.6737638489
Pd               5.3187752178        1.5435585714       19.6691350269
Pd               6.6495159611        3.8326638412       19.6798176801
Ni              -0.0018335791       -0.0081415854       21.7792097615
Pd               5.3527246560        4.6059586717       21.9026426375
Pd               3.9980457119        2.2922089978       21.8846733298
Pd               6.6793326747        2.2873510960       21.8691659025
H                1.2311244472        0.0000004292       22.8447551306    1   0   1



     Writing config-only to output data dir /tmpu/isholek_g/isholek/MIGUEL/QE/Hydrogen/111_2x2/SAVE/Ni1Pd3_111-B2.save/ :
     XML data file
     NEW-OLD atomic charge density approx. for the potential

     Check: negative core charge=   -0.000002

     negative rho (up, down):  1.452E-04 1.303E-04
     Generating pointlists ...

     total cpu time spent up to now is    57461.7 secs

     Self-consistent Calculation

     iteration #  1     ecut=    60.00 Ry     beta= 0.20
     Davidson diagonalization with overlap
     ethr =  1.00E-06,  avg # of iterations =  3.1

     Threshold (ethr) on eigenvalues was too large:
     Diagonalizing with lowered threshold

     Davidson diagonalization with overlap
     ethr =  1.44E-08,  avg # of iterations =  4.3

     negative rho (up, down):  1.506E-04 1.252E-04

     total cpu time spent up to now is    58068.5 secs

     total energy              =   -7077.45366901 Ry
     estimated scf accuracy    <       0.00002501 Ry

     total magnetization       =     9.69 Bohr mag/cell
     absolute magnetization    =    10.53 Bohr mag/cell

     iteration #  2     ecut=    60.00 Ry     beta= 0.20
     Davidson diagonalization with overlap
     ethr =  1.04E-08,  avg # of iterations =  1.1

     negative rho (up, down):  1.512E-04 1.242E-04

     total cpu time spent up to now is    58237.7 secs

     total energy              =   -7077.45367067 Ry
     estimated scf accuracy    <       0.00002608 Ry

     total magnetization       =     9.69 Bohr mag/cell
     absolute magnetization    =    10.53 Bohr mag/cell

     iteration #  3     ecut=    60.00 Ry     beta= 0.20
     Davidson diagonalization with overlap
     ethr =  1.04E-08,  avg # of iterations =  1.0

     negative rho (up, down):  1.519E-04 1.229E-04

     total cpu time spent up to now is    58408.7 secs

     total energy              =   -7077.45367407 Ry
     estimated scf accuracy    <       0.00000869 Ry

     total magnetization       =     9.69 Bohr mag/cell
     absolute magnetization    =    10.53 Bohr mag/cell

     iteration #  4     ecut=    60.00 Ry     beta= 0.20
     Davidson diagonalization with overlap
     ethr =  3.61E-09,  avg # of iterations =  2.0

     negative rho (up, down):  1.523E-04 1.220E-04

     total cpu time spent up to now is    58584.7 secs

     total energy              =   -7077.45367533 Ry
     estimated scf accuracy    <       0.00000339 Ry

     total magnetization       =     9.69 Bohr mag/cell
     absolute magnetization    =    10.53 Bohr mag/cell

     iteration #  5     ecut=    60.00 Ry     beta= 0.20
     Davidson diagonalization with overlap
     ethr =  1.41E-09,  avg # of iterations =  2.0

     negative rho (up, down):  1.527E-04 1.212E-04

     total cpu time spent up to now is    58768.2 secs

     total energy              =   -7077.45367598 Ry
     estimated scf accuracy    <       0.00000088 Ry

     total magnetization       =     9.69 Bohr mag/cell
     absolute magnetization    =    10.53 Bohr mag/cell

     iteration #  6     ecut=    60.00 Ry     beta= 0.20
     Davidson diagonalization with overlap
     ethr =  3.66E-10,  avg # of iterations =  2.3

     negative rho (up, down):  1.529E-04 1.206E-04

     total cpu time spent up to now is    58964.2 secs

     total energy              =   -7077.45367613 Ry
     estimated scf accuracy    <       0.00000025 Ry

     total magnetization       =     9.69 Bohr mag/cell
     absolute magnetization    =    10.53 Bohr mag/cell

     iteration #  7     ecut=    60.00 Ry     beta= 0.20
     Davidson diagonalization with overlap
     ethr =  1.03E-10,  avg # of iterations =  3.9

     negative rho (up, down):  1.530E-04 1.204E-04

     total cpu time spent up to now is    59172.6 secs

     total energy              =   -7077.45367616 Ry
     estimated scf accuracy    <       0.00000007 Ry

     total magnetization       =     9.69 Bohr mag/cell
     absolute magnetization    =    10.53 Bohr mag/cell

     iteration #  8     ecut=    60.00 Ry     beta= 0.20
     Davidson diagonalization with overlap
     ethr =  3.02E-11,  avg # of iterations =  2.2

     negative rho (up, down):  1.531E-04 1.201E-04

     total cpu time spent up to now is    59360.6 secs

     total energy              =   -7077.45367616 Ry
     estimated scf accuracy    <       0.00000005 Ry

     total magnetization       =     9.69 Bohr mag/cell
     absolute magnetization    =    10.53 Bohr mag/cell

     iteration #  9     ecut=    60.00 Ry     beta= 0.20
     Davidson diagonalization with overlap
     ethr =  1.88E-11,  avg # of iterations =  2.0

     negative rho (up, down):  1.531E-04 1.199E-04

     total cpu time spent up to now is    59545.8 secs

     total energy              =   -7077.45367616 Ry
     estimated scf accuracy    <       0.00000003 Ry

     total magnetization       =     9.69 Bohr mag/cell
     absolute magnetization    =    10.53 Bohr mag/cell

     iteration # 10     ecut=    60.00 Ry     beta= 0.20
     Davidson diagonalization with overlap
     ethr =  1.07E-11,  avg # of iterations =  1.9

     negative rho (up, down):  1.532E-04 1.198E-04

     total cpu time spent up to now is    59733.6 secs

     total energy              =   -7077.45367616 Ry
     estimated scf accuracy    <       0.00000006 Ry

     total magnetization       =     9.69 Bohr mag/cell
     absolute magnetization    =    10.53 Bohr mag/cell

     iteration # 11     ecut=    60.00 Ry     beta= 0.20
     Davidson diagonalization with overlap
     ethr =  1.07E-11,  avg # of iterations =  1.0

     negative rho (up, down):  1.533E-04 1.197E-04

     total cpu time spent up to now is    59904.2 secs

     total energy              =   -7077.45367616 Ry
     estimated scf accuracy    <       0.00000004 Ry

     total magnetization       =     9.69 Bohr mag/cell
     absolute magnetization    =    10.53 Bohr mag/cell

     iteration # 12     ecut=    60.00 Ry     beta= 0.20
     Davidson diagonalization with overlap
     ethr =  1.07E-11,  avg # of iterations =  1.3

     negative rho (up, down):  1.534E-04 1.197E-04

     total cpu time spent up to now is    60079.8 secs

     total energy              =   -7077.45367616 Ry
     estimated scf accuracy    <       0.00000001 Ry

     total magnetization       =     9.69 Bohr mag/cell
     absolute magnetization    =    10.53 Bohr mag/cell

     iteration # 13     ecut=    60.00 Ry     beta= 0.20
     Davidson diagonalization with overlap
     ethr =  5.01E-12,  avg # of iterations =  1.0

     negative rho (up, down):  1.535E-04 1.196E-04

     total cpu time spent up to now is    60252.2 secs

     total energy              =   -7077.45367616 Ry
     estimated scf accuracy    <          7.4E-09 Ry

     total magnetization       =     9.69 Bohr mag/cell
     absolute magnetization    =    10.53 Bohr mag/cell

     iteration # 14     ecut=    60.00 Ry     beta= 0.20
     Davidson diagonalization with overlap
     ethr =  3.06E-12,  avg # of iterations =  1.2

     negative rho (up, down):  1.536E-04 1.196E-04

     total cpu time spent up to now is    60426.7 secs

     total energy              =   -7077.45367616 Ry
     estimated scf accuracy    <          6.0E-09 Ry

     total magnetization       =     9.69 Bohr mag/cell
     absolute magnetization    =    10.53 Bohr mag/cell

     iteration # 15     ecut=    60.00 Ry     beta= 0.20
     Davidson diagonalization with overlap
     ethr =  2.50E-12,  avg # of iterations =  1.0

     negative rho (up, down):  1.537E-04 1.196E-04

     total cpu time spent up to now is    60596.7 secs

     total energy              =   -7077.45367616 Ry
     estimated scf accuracy    <          2.5E-09 Ry

     total magnetization       =     9.69 Bohr mag/cell
     absolute magnetization    =    10.53 Bohr mag/cell

     iteration # 16     ecut=    60.00 Ry     beta= 0.20
     Davidson diagonalization with overlap
     ethr =  1.06E-12,  avg # of iterations =  1.8

     negative rho (up, down):  1.538E-04 1.197E-04

     total cpu time spent up to now is    60779.3 secs

     total energy              =   -7077.45367616 Ry
     estimated scf accuracy    <          1.5E-09 Ry

     total magnetization       =     9.69 Bohr mag/cell
     absolute magnetization    =    10.53 Bohr mag/cell

     iteration # 17     ecut=    60.00 Ry     beta= 0.20
     Davidson diagonalization with overlap
     ethr =  6.41E-13,  avg # of iterations =  1.7

     negative rho (up, down):  1.539E-04 1.198E-04

     total cpu time spent up to now is    60959.4 secs

     total energy              =   -7077.45367617 Ry
     estimated scf accuracy    <          3.5E-10 Ry

     total magnetization       =     9.69 Bohr mag/cell
     absolute magnetization    =    10.53 Bohr mag/cell

     iteration # 18     ecut=    60.00 Ry     beta= 0.20
     Davidson diagonalization with overlap
     ethr =  1.45E-13,  avg # of iterations =  4.9

     negative rho (up, down):  1.540E-04 1.198E-04

     total cpu time spent up to now is    61182.0 secs

     total energy              =   -7077.45367616 Ry
     estimated scf accuracy    <          2.1E-10 Ry

     total magnetization       =     9.69 Bohr mag/cell
     absolute magnetization    =    10.53 Bohr mag/cell

     iteration # 19     ecut=    60.00 Ry     beta= 0.20
     Davidson diagonalization with overlap
     ethr =  1.00E-13,  avg # of iterations =  1.1

     negative rho (up, down):  1.546E-04 1.203E-04
 
     Magnetic moment per site  (integrated on atomic sphere of radius R)
     atom   1 (R=0.127)  charge=  6.7057  magn=  0.8530
     atom   2 (R=0.129)  charge=  4.9646  magn=  0.1806
     atom   3 (R=0.129)  charge=  4.9645  magn=  0.1840
     atom   4 (R=0.129)  charge=  4.9645  magn=  0.1803
     atom   5 (R=0.127)  charge=  6.6985  magn=  0.8230
     atom   6 (R=0.129)  charge=  4.9533  magn=  0.2284
     atom   7 (R=0.129)  charge=  4.9531  magn=  0.2260
     atom   8 (R=0.129)  charge=  4.9532  magn=  0.2260
     atom   9 (R=0.127)  charge=  6.7015  magn=  0.7756
     atom  10 (R=0.129)  charge=  4.9508  magn=  0.2166
     atom  11 (R=0.129)  charge=  4.9509  magn=  0.2238
     atom  12 (R=0.129)  charge=  4.9507  magn=  0.2133
     atom  13 (R=0.127)  charge=  6.7005  magn=  0.7823
     atom  14 (R=0.129)  charge=  4.9507  magn=  0.2080
     atom  15 (R=0.129)  charge=  4.9514  magn=  0.2107
     atom  16 (R=0.129)  charge=  4.9507  magn=  0.2133
     atom  17 (R=0.127)  charge=  6.6988  magn=  0.8297
     atom  18 (R=0.129)  charge=  4.9529  magn=  0.2087
     atom  19 (R=0.129)  charge=  4.9527  magn=  0.2147
     atom  20 (R=0.129)  charge=  4.9535  magn=  0.1834
     atom  21 (R=0.127)  charge=  6.7081  magn=  0.5879
     atom  22 (R=0.129)  charge=  4.9584  magn=  0.0988
     atom  23 (R=0.129)  charge=  4.9689  magn=  0.1539
     atom  24 (R=0.129)  charge=  4.9676  magn=  0.1532
     atom  25 (R=0.127)  charge=  0.8201  magn= -0.0077

     total cpu time spent up to now is    61352.2 secs

     End of self-consistent calculation

     Number of k-points >= 100: set verbosity='high' to print the bands.

     the Fermi energy is    -5.1712 ev

!    total energy              =   -7077.45367617 Ry
     total all-electron energy =   -199909.890246 Ry
     estimated scf accuracy    <          9.7E-11 Ry
     smearing contrib. (-TS)   =       0.00090367 Ry
     internal energy E=F+TS    =   -7077.45457984 Ry

     The total energy is F=E-TS. E is the sum of the following terms:
     one-electron contribution =  -61239.79563541 Ry
     hartree contribution      =   30807.31079338 Ry
     xc contribution           =    -835.53733425 Ry
     ewald contribution        =   29324.73003044 Ry
     DFT-D3 Dispersion         =      -2.53270658 Ry
     one-center paw contrib.   =   -5131.62972742 Ry

     total magnetization       =     9.69 Bohr mag/cell
     absolute magnetization    =    10.53 Bohr mag/cell

     convergence has been achieved in  19 iterations

     negative rho (up, down):  1.546E-04 1.203E-04

     Forces acting on atoms (cartesian axes, Ry/au):

     atom    1 type  1   force =    -0.00002103    0.00013520    0.01588230
     atom    2 type  2   force =     0.00001700   -0.01420938   -0.00937456
     atom    3 type  2   force =    -0.01243718    0.00719461   -0.00913058
     atom    4 type  2   force =     0.01223625    0.00712749   -0.00891541
     atom    5 type  1   force =    -0.00009836   -0.00035673    0.00040349
     atom    6 type  2   force =    -0.00038179    0.00057093    0.00371837
     atom    7 type  2   force =     0.00037465   -0.00113629    0.00427099
     atom    8 type  2   force =     0.00046553    0.00042064    0.00454449
     atom    9 type  1   force =    -0.00010248   -0.00004207    0.00024618
     atom   10 type  2   force =     0.00005528    0.00016577    0.00015371
     atom   11 type  2   force =     0.00008734   -0.00003896    0.00006905
     atom   12 type  2   force =    -0.00014541    0.00011616    0.00034127
     atom   13 type  1   force =     0.00007233    0.00009761   -0.00006679
     atom   14 type  2   force =     0.00015657   -0.00026798   -0.00002902
     atom   15 type  2   force =     0.00003486   -0.00018643   -0.00015965
     atom   16 type  2   force =     0.00028114   -0.00011839   -0.00012616
     atom   17 type  1   force =     0.00014125    0.00011561    0.00026466
     atom   18 type  2   force =    -0.00033737   -0.00032404   -0.00030126
     atom   19 type  2   force =     0.00035044    0.00028500   -0.00050829
     atom   20 type  2   force =    -0.00008568    0.00022196   -0.00046179
     atom   21 type  1   force =     0.00097292   -0.00007090    0.00003881
     atom   22 type  2   force =    -0.00026044   -0.00047102   -0.00034426
     atom   23 type  2   force =    -0.00048874   -0.00059154   -0.00008558
     atom   24 type  2   force =    -0.00047365   -0.00029191    0.00003138
     atom   25 type  3   force =    -0.00041345    0.00165467   -0.00046133

     Total force =     0.002092     Total SCF correction =     0.000039


     Computing stress (Cartesian axis) and pressure


     negative rho (up, down):  1.546E-04 1.203E-04
          total   stress  (Ry/bohr**3)                   (kbar)     P=       -7.58
  -0.00007791  -0.00000133  -0.00000147          -11.46       -0.19       -0.22
  -0.00000133  -0.00008170   0.00000116           -0.19      -12.02        0.17
  -0.00000147   0.00000116   0.00000501           -0.22        0.17        0.74

     Energy error            =      1.3E-05 Ry
     Gradient error          =      9.7E-04 Ry/Bohr

     number of scf cycles    =  12
     number of bfgs steps    =  11

     energy             old  =   -7077.4536635103 Ry
     energy             new  =   -7077.4536761656 Ry

     CASE: energy            _new < energy            _old

     new trust radius        =       0.0032947222 bohr
     new conv_thr            =            1.0E-10 Ry


ATOMIC_POSITIONS (angstrom)
Ni               5.3171990772        3.0698863186       11.0000000000    0   0   0
Pd               2.6585995386        3.0698851333       11.0000764482    0   0   0
Pd               3.9878982814        0.7674721723       11.0000764482    0   0   0
Pd               1.3293007958        0.7674721723       11.0000764482    0   0   0
Ni               2.6585995386        1.5349431593       13.1707374333    0   0   0
Pd               3.9878982814        3.8373584909       13.1708138815    0   0   0
Pd               5.3171990772        1.5349419740       13.1708138815    0   0   0
Pd               6.6464998731        3.8373584909       13.1708138815    0   0   0
Ni              -0.0003727224       -0.0022905006       15.3359089451
Pd               5.3164875366        4.6015223579       15.3394283483
Pd               3.9877110859        2.2978104982       15.3337128820
Pd               6.6474582294        2.3001341911       15.3357932016
Ni               5.3137866773        3.0694976822       17.5001025039
Pd               3.9834384759        0.7662280056       17.5133153584
Pd               2.6598343277        3.0719292158       17.5032079065
Pd               1.3274887287        0.7712171038       17.5069461448
Ni               2.6671739112        1.5360734922       19.6817018539
Pd               4.0021637199        3.8401532853       19.6732019306
Pd               5.3192013329        1.5439645862       19.6681545729
Pd               6.6494328894        3.8328861017       19.6795671629
Ni              -0.0014851287       -0.0084173839       21.7786062877
Pd               5.3532579481        4.6050904608       21.9026418230
Pd               3.9977011046        2.2910381644       21.8847587964
Pd               6.6790731692        2.2874782889       21.8690232684
H                1.2296296694        0.0000004292       22.8438576879    1   0   1



     Writing config-only to output data dir /tmpu/isholek_g/isholek/MIGUEL/QE/Hydrogen/111_2x2/SAVE/Ni1Pd3_111-B2.save/ :
     XML data file
     NEW-OLD atomic charge density approx. for the potential

     Check: negative core charge=   -0.000002

     negative rho (up, down):  1.452E-04 1.303E-04
     Generating pointlists ...

     total cpu time spent up to now is    61644.6 secs

     Self-consistent Calculation

     iteration #  1     ecut=    60.00 Ry     beta= 0.20
     Davidson diagonalization with overlap
     ethr =  1.00E-06,  avg # of iterations =  3.0

     Threshold (ethr) on eigenvalues was too large:
     Diagonalizing with lowered threshold

     Davidson diagonalization with overlap
     ethr =  3.52E-09,  avg # of iterations =  6.4

     negative rho (up, down):  1.512E-04 1.260E-04

     total cpu time spent up to now is    62321.7 secs

     total energy              =   -7077.45367978 Ry
     estimated scf accuracy    <       0.00000271 Ry

     total magnetization       =     9.69 Bohr mag/cell
     absolute magnetization    =    10.53 Bohr mag/cell

     iteration #  2     ecut=    60.00 Ry     beta= 0.20
     Davidson diagonalization with overlap
     ethr =  1.12E-09,  avg # of iterations =  1.2

     negative rho (up, down):  1.516E-04 1.249E-04

     total cpu time spent up to now is    62495.2 secs

     total energy              =   -7077.45368031 Ry
     estimated scf accuracy    <       0.00000295 Ry

     total magnetization       =     9.69 Bohr mag/cell
     absolute magnetization    =    10.53 Bohr mag/cell

     iteration #  3     ecut=    60.00 Ry     beta= 0.20
     Davidson diagonalization with overlap
     ethr =  1.12E-09,  avg # of iterations =  1.0

     negative rho (up, down):  1.522E-04 1.234E-04

     total cpu time spent up to now is    62664.0 secs

     total energy              =   -7077.45368177 Ry
     estimated scf accuracy    <       0.00000127 Ry

     total magnetization       =     9.69 Bohr mag/cell
     absolute magnetization    =    10.53 Bohr mag/cell

     iteration #  4     ecut=    60.00 Ry     beta= 0.20
     Davidson diagonalization with overlap
     ethr =  5.26E-10,  avg # of iterations =  2.0

     negative rho (up, down):  1.528E-04 1.223E-04

     total cpu time spent up to now is    62851.8 secs

     total energy              =   -7077.45368240 Ry
     estimated scf accuracy    <       0.00000086 Ry

     total magnetization       =     9.69 Bohr mag/cell
     absolute magnetization    =    10.53 Bohr mag/cell

     iteration #  5     ecut=    60.00 Ry     beta= 0.20
     Davidson diagonalization with overlap
     ethr =  3.56E-10,  avg # of iterations =  2.0

     negative rho (up, down):  1.531E-04 1.216E-04

     total cpu time spent up to now is    63041.8 secs

     total energy              =   -7077.45368254 Ry
     estimated scf accuracy    <       0.00000047 Ry

     total magnetization       =     9.69 Bohr mag/cell
     absolute magnetization    =    10.53 Bohr mag/cell

     iteration #  6     ecut=    60.00 Ry     beta= 0.20
     Davidson diagonalization with overlap
     ethr =  1.96E-10,  avg # of iterations =  2.0

     negative rho (up, down):  1.532E-04 1.211E-04

     total cpu time spent up to now is    63228.7 secs

     total energy              =   -7077.45368256 Ry
     estimated scf accuracy    <       0.00000008 Ry

     total magnetization       =     9.69 Bohr mag/cell
     absolute magnetization    =    10.53 Bohr mag/cell

     iteration #  7     ecut=    60.00 Ry     beta= 0.20
     Davidson diagonalization with overlap
     ethr =  3.12E-11,  avg # of iterations =  3.5

     negative rho (up, down):  1.533E-04 1.207E-04

     total cpu time spent up to now is    63445.8 secs

     total energy              =   -7077.45368257 Ry
     estimated scf accuracy    <       0.00000002 Ry

     total magnetization       =     9.69 Bohr mag/cell
     absolute magnetization    =    10.53 Bohr mag/cell

     iteration #  8     ecut=    60.00 Ry     beta= 0.20
     Davidson diagonalization with overlap
     ethr =  8.11E-12,  avg # of iterations =  3.1

     negative rho (up, down):  1.534E-04 1.205E-04

     total cpu time spent up to now is    63640.2 secs

     total energy              =   -7077.45368257 Ry
     estimated scf accuracy    <       0.00000001 Ry

     total magnetization       =     9.69 Bohr mag/cell
     absolute magnetization    =    10.53 Bohr mag/cell

     iteration #  9     ecut=    60.00 Ry     beta= 0.20
     Davidson diagonalization with overlap
     ethr =  4.99E-12,  avg # of iterations =  2.0

     negative rho (up, down):  1.534E-04 1.202E-04

     total cpu time spent up to now is    63825.5 secs

     total energy              =   -7077.45368257 Ry
     estimated scf accuracy    <       0.00000001 Ry

     total magnetization       =     9.69 Bohr mag/cell
     absolute magnetization    =    10.53 Bohr mag/cell

     iteration # 10     ecut=    60.00 Ry     beta= 0.20
     Davidson diagonalization with overlap
     ethr =  4.99E-12,  avg # of iterations =  2.0

     negative rho (up, down):  1.534E-04 1.200E-04

     total cpu time spent up to now is    64011.1 secs

     total energy              =   -7077.45368257 Ry
     estimated scf accuracy    <          1.4E-09 Ry

     total magnetization       =     9.69 Bohr mag/cell
     absolute magnetization    =    10.53 Bohr mag/cell

     iteration # 11     ecut=    60.00 Ry     beta= 0.20
     Davidson diagonalization with overlap
     ethr =  5.97E-13,  avg # of iterations =  3.7

     negative rho (up, down):  1.535E-04 1.199E-04

     total cpu time spent up to now is    64232.3 secs

     total energy              =   -7077.45368257 Ry
     estimated scf accuracy    <          2.0E-09 Ry

     total magnetization       =     9.69 Bohr mag/cell
     absolute magnetization    =    10.53 Bohr mag/cell

     iteration # 12     ecut=    60.00 Ry     beta= 0.20
     Davidson diagonalization with overlap
     ethr =  5.97E-13,  avg # of iterations =  1.0

     negative rho (up, down):  1.536E-04 1.198E-04

     total cpu time spent up to now is    64402.2 secs

     total energy              =   -7077.45368257 Ry
     estimated scf accuracy    <          4.9E-10 Ry

     total magnetization       =     9.69 Bohr mag/cell
     absolute magnetization    =    10.53 Bohr mag/cell

     iteration # 13     ecut=    60.00 Ry     beta= 0.20
     Davidson diagonalization with overlap
     ethr =  2.04E-13,  avg # of iterations =  2.3

     negative rho (up, down):  1.536E-04 1.198E-04

     total cpu time spent up to now is    64596.4 secs

     total energy              =   -7077.45368257 Ry
     estimated scf accuracy    <          4.2E-10 Ry

     total magnetization       =     9.69 Bohr mag/cell
     absolute magnetization    =    10.53 Bohr mag/cell

     iteration # 14     ecut=    60.00 Ry     beta= 0.20
     Davidson diagonalization with overlap
     ethr =  1.74E-13,  avg # of iterations =  1.1

     negative rho (up, down):  1.537E-04 1.197E-04

     total cpu time spent up to now is    64766.6 secs

     total energy              =   -7077.45368257 Ry
     estimated scf accuracy    <          1.9E-10 Ry

     total magnetization       =     9.69 Bohr mag/cell
     absolute magnetization    =    10.53 Bohr mag/cell

     iteration # 15     ecut=    60.00 Ry     beta= 0.20
     Davidson diagonalization with overlap
     ethr =  1.00E-13,  avg # of iterations =  2.0

     negative rho (up, down):  1.538E-04 1.197E-04

     total cpu time spent up to now is    64952.5 secs

     total energy              =   -7077.45368258 Ry
     estimated scf accuracy    <          1.2E-10 Ry

     total magnetization       =     9.69 Bohr mag/cell
     absolute magnetization    =    10.53 Bohr mag/cell

     iteration # 16     ecut=    60.00 Ry     beta= 0.20
     Davidson diagonalization with overlap
     ethr =  1.00E-13,  avg # of iterations =  2.0

     negative rho (up, down):  1.546E-04 1.203E-04
 
     Magnetic moment per site  (integrated on atomic sphere of radius R)
     atom   1 (R=0.127)  charge=  6.7057  magn=  0.8530
     atom   2 (R=0.129)  charge=  4.9646  magn=  0.1806
     atom   3 (R=0.129)  charge=  4.9645  magn=  0.1840
     atom   4 (R=0.129)  charge=  4.9645  magn=  0.1803
     atom   5 (R=0.127)  charge=  6.6985  magn=  0.8230
     atom   6 (R=0.129)  charge=  4.9533  magn=  0.2284
     atom   7 (R=0.129)  charge=  4.9531  magn=  0.2260
     atom   8 (R=0.129)  charge=  4.9532  magn=  0.2260
     atom   9 (R=0.127)  charge=  6.7015  magn=  0.7755
     atom  10 (R=0.129)  charge=  4.9508  magn=  0.2166
     atom  11 (R=0.129)  charge=  4.9509  magn=  0.2237
     atom  12 (R=0.129)  charge=  4.9507  magn=  0.2133
     atom  13 (R=0.127)  charge=  6.7006  magn=  0.7823
     atom  14 (R=0.129)  charge=  4.9507  magn=  0.2080
     atom  15 (R=0.129)  charge=  4.9514  magn=  0.2106
     atom  16 (R=0.129)  charge=  4.9507  magn=  0.2133
     atom  17 (R=0.127)  charge=  6.6988  magn=  0.8298
     atom  18 (R=0.129)  charge=  4.9529  magn=  0.2088
     atom  19 (R=0.129)  charge=  4.9527  magn=  0.2146
     atom  20 (R=0.129)  charge=  4.9536  magn=  0.1834
     atom  21 (R=0.127)  charge=  6.7081  magn=  0.5870
     atom  22 (R=0.129)  charge=  4.9585  magn=  0.0988
     atom  23 (R=0.129)  charge=  4.9690  magn=  0.1539
     atom  24 (R=0.129)  charge=  4.9676  magn=  0.1531
     atom  25 (R=0.127)  charge=  0.8202  magn= -0.0077

     total cpu time spent up to now is    65136.4 secs

     End of self-consistent calculation

     Number of k-points >= 100: set verbosity='high' to print the bands.

     the Fermi energy is    -5.1713 ev

!    total energy              =   -7077.45368258 Ry
     total all-electron energy =   -199909.890253 Ry
     estimated scf accuracy    <          5.9E-11 Ry
     smearing contrib. (-TS)   =       0.00090811 Ry
     internal energy E=F+TS    =   -7077.45459069 Ry

     The total energy is F=E-TS. E is the sum of the following terms:
     one-electron contribution =  -61241.81011544 Ry
     hartree contribution      =   30808.31912498 Ry
     xc contribution           =    -835.53769041 Ry
     ewald contribution        =   29325.73662521 Ry
     DFT-D3 Dispersion         =      -2.53273451 Ry
     one-center paw contrib.   =   -5131.62980051 Ry

     total magnetization       =     9.69 Bohr mag/cell
     absolute magnetization    =    10.53 Bohr mag/cell

     convergence has been achieved in  16 iterations

     negative rho (up, down):  1.546E-04 1.203E-04

     Forces acting on atoms (cartesian axes, Ry/au):

     atom    1 type  1   force =    -0.00001902    0.00013471    0.01587608
     atom    2 type  2   force =     0.00001591   -0.01420907   -0.00938112
     atom    3 type  2   force =    -0.01243753    0.00719265   -0.00914046
     atom    4 type  2   force =     0.01223683    0.00713037   -0.00891773
     atom    5 type  1   force =    -0.00011675   -0.00034932    0.00044814
     atom    6 type  2   force =    -0.00037315    0.00058356    0.00377622
     atom    7 type  2   force =     0.00041536   -0.00112677    0.00434779
     atom    8 type  2   force =     0.00044949    0.00039306    0.00463630
     atom    9 type  1   force =    -0.00004399   -0.00000484    0.00015801
     atom   10 type  2   force =     0.00002919    0.00015352   -0.00003575
     atom   11 type  2   force =     0.00003324   -0.00005278    0.00003263
     atom   12 type  2   force =    -0.00012620    0.00007360    0.00004169
     atom   13 type  1   force =     0.00005538    0.00002712   -0.00012075
     atom   14 type  2   force =     0.00019975   -0.00011462   -0.00015697
     atom   15 type  2   force =     0.00005959   -0.00017138   -0.00009563
     atom   16 type  2   force =     0.00019616   -0.00015426   -0.00008022
     atom   17 type  1   force =    -0.00001164    0.00003431    0.00020315
     atom   18 type  2   force =    -0.00018532   -0.00019522    0.00002988
     atom   19 type  2   force =     0.00032022    0.00013739   -0.00013174
     atom   20 type  2   force =    -0.00001747    0.00021754   -0.00041050
     atom   21 type  1   force =     0.00088309   -0.00006710   -0.00008649
     atom   22 type  2   force =    -0.00080699   -0.00033105   -0.00032437
     atom   23 type  2   force =    -0.00027492   -0.00028924   -0.00026909
     atom   24 type  2   force =    -0.00033880   -0.00067936   -0.00000678
     atom   25 type  3   force =    -0.00014244    0.00166718   -0.00039230

     Total force =     0.001843     Total SCF correction =     0.000043


     Computing stress (Cartesian axis) and pressure


     negative rho (up, down):  1.546E-04 1.203E-04
          total   stress  (Ry/bohr**3)                   (kbar)     P=       -7.53
  -0.00007754  -0.00000131  -0.00000140          -11.41       -0.19       -0.21
  -0.00000131  -0.00008142   0.00000123           -0.19      -11.98        0.18
  -0.00000140   0.00000123   0.00000549           -0.21        0.18        0.81

     Energy error            =      6.4E-06 Ry
     Gradient error          =      8.8E-04 Ry/Bohr

     number of scf cycles    =  13
     number of bfgs steps    =  12

     energy             old  =   -7077.4536761656 Ry
     energy             new  =   -7077.4536825768 Ry

     CASE: energy            _new < energy            _old

     new trust radius        =       0.0028546429 bohr
     new conv_thr            =            1.0E-10 Ry


ATOMIC_POSITIONS (angstrom)
Ni               5.3171990772        3.0698863186       11.0000000000    0   0   0
Pd               2.6585995386        3.0698851333       11.0000764482    0   0   0
Pd               3.9878982814        0.7674721723       11.0000764482    0   0   0
Pd               1.3293007958        0.7674721723       11.0000764482    0   0   0
Ni               2.6585995386        1.5349431593       13.1707374333    0   0   0
Pd               3.9878982814        3.8373584909       13.1708138815    0   0   0
Pd               5.3171990772        1.5349419740       13.1708138815    0   0   0
Pd               6.6464998731        3.8373584909       13.1708138815    0   0   0
Ni              -0.0005254234       -0.0024110232       15.3362507386
Pd               5.3165061458        4.6016786031       15.3396121489
Pd               3.9878138127        2.2977754143       15.3338286600
Pd               6.6472713232        2.3002946051       15.3363064402
Ni               5.3138701960        3.0696592109       17.5000266607
Pd               3.9836765011        0.7658745477       17.5132830610
Pd               2.6599665040        3.0716198641       17.5031031116
Pd               1.3279013469        0.7710311950       17.5067997782
Ni               2.6676271971        1.5361774284       19.6822260506
Pd               4.0017924661        3.8397336357       19.6727017713
Pd               5.3198186118        1.5444176986       19.6671697623
Pd               6.6493111969        3.8332603929       19.6790777521
Ni              -0.0006283687       -0.0087147811       21.7778589103
Pd               5.3531175683        4.6040543912       21.9023071831
Pd               3.9971276087        2.2897214352       21.8846156866
Pd               6.6785190529        2.2871708881       21.8689027369
H                1.2284608528        0.0000004292       22.8429007049    1   0   1



     Writing config-only to output data dir /tmpu/isholek_g/isholek/MIGUEL/QE/Hydrogen/111_2x2/SAVE/Ni1Pd3_111-B2.save/ :
     XML data file
     NEW-OLD atomic charge density approx. for the potential

     Check: negative core charge=   -0.000002

     negative rho (up, down):  1.450E-04 1.304E-04
     Generating pointlists ...

     total cpu time spent up to now is    65429.8 secs

     Self-consistent Calculation

     iteration #  1     ecut=    60.00 Ry     beta= 0.20
     Davidson diagonalization with overlap
     ethr =  1.00E-06,  avg # of iterations =  3.0

     Threshold (ethr) on eigenvalues was too large:
     Diagonalizing with lowered threshold

     Davidson diagonalization with overlap
     ethr =  5.09E-09,  avg # of iterations =  4.9

     negative rho (up, down):  1.505E-04 1.255E-04

     total cpu time spent up to now is    66059.8 secs

     total energy              =   -7077.45368411 Ry
     estimated scf accuracy    <       0.00000448 Ry

     total magnetization       =     9.69 Bohr mag/cell
     absolute magnetization    =    10.52 Bohr mag/cell

     iteration #  2     ecut=    60.00 Ry     beta= 0.20
     Davidson diagonalization with overlap
     ethr =  1.86E-09,  avg # of iterations =  1.9

     negative rho (up, down):  1.512E-04 1.245E-04

     total cpu time spent up to now is    66252.7 secs

     total energy              =   -7077.45368526 Ry
     estimated scf accuracy    <       0.00000401 Ry

     total magnetization       =     9.69 Bohr mag/cell
     absolute magnetization    =    10.53 Bohr mag/cell

     iteration #  3     ecut=    60.00 Ry     beta= 0.20
     Davidson diagonalization with overlap
     ethr =  1.66E-09,  avg # of iterations =  1.1

     negative rho (up, down):  1.521E-04 1.235E-04

     total cpu time spent up to now is    66425.1 secs

     total energy              =   -7077.45368697 Ry
     estimated scf accuracy    <       0.00000224 Ry

     total magnetization       =     9.69 Bohr mag/cell
     absolute magnetization    =    10.53 Bohr mag/cell

     iteration #  4     ecut=    60.00 Ry     beta= 0.20
     Davidson diagonalization with overlap
     ethr =  9.28E-10,  avg # of iterations =  2.0

     negative rho (up, down):  1.528E-04 1.226E-04

     total cpu time spent up to now is    66605.5 secs

     total energy              =   -7077.45368801 Ry
     estimated scf accuracy    <       0.00000220 Ry

     total magnetization       =     9.69 Bohr mag/cell
     absolute magnetization    =    10.52 Bohr mag/cell

     iteration #  5     ecut=    60.00 Ry     beta= 0.20
     Davidson diagonalization with overlap
     ethr =  9.14E-10,  avg # of iterations =  2.0

     negative rho (up, down):  1.534E-04 1.219E-04

     total cpu time spent up to now is    66791.5 secs

     total energy              =   -7077.45368835 Ry
     estimated scf accuracy    <       0.00000171 Ry

     total magnetization       =     9.69 Bohr mag/cell
     absolute magnetization    =    10.53 Bohr mag/cell

     iteration #  6     ecut=    60.00 Ry     beta= 0.20
     Davidson diagonalization with overlap
     ethr =  7.09E-10,  avg # of iterations =  2.0

     negative rho (up, down):  1.537E-04 1.214E-04

     total cpu time spent up to now is    66977.2 secs

     total energy              =   -7077.45368841 Ry
     estimated scf accuracy    <       0.00000030 Ry

     total magnetization       =     9.69 Bohr mag/cell
     absolute magnetization    =    10.53 Bohr mag/cell

     iteration #  7     ecut=    60.00 Ry     beta= 0.20
     Davidson diagonalization with overlap
     ethr =  1.26E-10,  avg # of iterations =  2.1

     negative rho (up, down):  1.538E-04 1.211E-04

     total cpu time spent up to now is    67163.7 secs

     total energy              =   -7077.45368843 Ry
     estimated scf accuracy    <       0.00000005 Ry

     total magnetization       =     9.69 Bohr mag/cell
     absolute magnetization    =    10.53 Bohr mag/cell

     iteration #  8     ecut=    60.00 Ry     beta= 0.20
     Davidson diagonalization with overlap
     ethr =  2.10E-11,  avg # of iterations =  5.0

     negative rho (up, down):  1.539E-04 1.209E-04

     total cpu time spent up to now is    67398.4 secs

     total energy              =   -7077.45368844 Ry
     estimated scf accuracy    <       0.00000003 Ry

     total magnetization       =     9.69 Bohr mag/cell
     absolute magnetization    =    10.52 Bohr mag/cell

     iteration #  9     ecut=    60.00 Ry     beta= 0.20
     Davidson diagonalization with overlap
     ethr =  1.23E-11,  avg # of iterations =  2.0

     negative rho (up, down):  1.538E-04 1.207E-04

     total cpu time spent up to now is    67584.5 secs

     total energy              =   -7077.45368844 Ry
     estimated scf accuracy    <       0.00000001 Ry

     total magnetization       =     9.69 Bohr mag/cell
     absolute magnetization    =    10.53 Bohr mag/cell

     iteration # 10     ecut=    60.00 Ry     beta= 0.20
     Davidson diagonalization with overlap
     ethr =  5.75E-12,  avg # of iterations =  2.0

     negative rho (up, down):  1.539E-04 1.205E-04

     total cpu time spent up to now is    67772.4 secs

     total energy              =   -7077.45368844 Ry
     estimated scf accuracy    <          3.7E-09 Ry

     total magnetization       =     9.69 Bohr mag/cell
     absolute magnetization    =    10.52 Bohr mag/cell

     iteration # 11     ecut=    60.00 Ry     beta= 0.20
     Davidson diagonalization with overlap
     ethr =  1.52E-12,  avg # of iterations =  2.1

     negative rho (up, down):  1.540E-04 1.203E-04

     total cpu time spent up to now is    67950.7 secs

     total energy              =   -7077.45368844 Ry
     estimated scf accuracy    <          3.6E-09 Ry

     total magnetization       =     9.69 Bohr mag/cell
     absolute magnetization    =    10.52 Bohr mag/cell

     iteration # 12     ecut=    60.00 Ry     beta= 0.20
     Davidson diagonalization with overlap
     ethr =  1.49E-12,  avg # of iterations =  1.6

     negative rho (up, down):  1.540E-04 1.202E-04

     total cpu time spent up to now is    68129.4 secs

     total energy              =   -7077.45368844 Ry
     estimated scf accuracy    <          7.0E-10 Ry

     total magnetization       =     9.69 Bohr mag/cell
     absolute magnetization    =    10.52 Bohr mag/cell

     iteration # 13     ecut=    60.00 Ry     beta= 0.20
     Davidson diagonalization with overlap
     ethr =  2.92E-13,  avg # of iterations =  2.5

     negative rho (up, down):  1.541E-04 1.202E-04

     total cpu time spent up to now is    68323.5 secs

     total energy              =   -7077.45368844 Ry
     estimated scf accuracy    <          8.6E-10 Ry

     total magnetization       =     9.69 Bohr mag/cell
     absolute magnetization    =    10.52 Bohr mag/cell

     iteration # 14     ecut=    60.00 Ry     beta= 0.20
     Davidson diagonalization with overlap
     ethr =  2.92E-13,  avg # of iterations =  1.3

     negative rho (up, down):  1.541E-04 1.201E-04

     total cpu time spent up to now is    68499.8 secs

     total energy              =   -7077.45368844 Ry
     estimated scf accuracy    <          2.8E-10 Ry

     total magnetization       =     9.69 Bohr mag/cell
     absolute magnetization    =    10.52 Bohr mag/cell

     iteration # 15     ecut=    60.00 Ry     beta= 0.20
     Davidson diagonalization with overlap
     ethr =  1.18E-13,  avg # of iterations =  2.4

     negative rho (up, down):  1.541E-04 1.200E-04

     total cpu time spent up to now is    68692.4 secs

     total energy              =   -7077.45368844 Ry
     estimated scf accuracy    <          3.1E-10 Ry

     total magnetization       =     9.69 Bohr mag/cell
     absolute magnetization    =    10.52 Bohr mag/cell

     iteration # 16     ecut=    60.00 Ry     beta= 0.20
     Davidson diagonalization with overlap
     ethr =  1.18E-13,  avg # of iterations =  2.0

     negative rho (up, down):  1.541E-04 1.200E-04

     total cpu time spent up to now is    68879.7 secs

     total energy              =   -7077.45368844 Ry
     estimated scf accuracy    <          1.7E-10 Ry

     total magnetization       =     9.69 Bohr mag/cell
     absolute magnetization    =    10.52 Bohr mag/cell

     iteration # 17     ecut=    60.00 Ry     beta= 0.20
     Davidson diagonalization with overlap
     ethr =  1.00E-13,  avg # of iterations =  1.4

     negative rho (up, down):  1.541E-04 1.200E-04

     total cpu time spent up to now is    69053.8 secs

     total energy              =   -7077.45368844 Ry
     estimated scf accuracy    <          1.9E-10 Ry

     total magnetization       =     9.69 Bohr mag/cell
     absolute magnetization    =    10.52 Bohr mag/cell

     iteration # 18     ecut=    60.00 Ry     beta= 0.20
     Davidson diagonalization with overlap
     ethr =  1.00E-13,  avg # of iterations =  1.2

     negative rho (up, down):  1.546E-04 1.203E-04
 
     Magnetic moment per site  (integrated on atomic sphere of radius R)
     atom   1 (R=0.127)  charge=  6.7057  magn=  0.8530
     atom   2 (R=0.129)  charge=  4.9646  magn=  0.1806
     atom   3 (R=0.129)  charge=  4.9645  magn=  0.1839
     atom   4 (R=0.129)  charge=  4.9645  magn=  0.1803
     atom   5 (R=0.127)  charge=  6.6985  magn=  0.8230
     atom   6 (R=0.129)  charge=  4.9533  magn=  0.2283
     atom   7 (R=0.129)  charge=  4.9531  magn=  0.2259
     atom   8 (R=0.129)  charge=  4.9532  magn=  0.2259
     atom   9 (R=0.127)  charge=  6.7015  magn=  0.7755
     atom  10 (R=0.129)  charge=  4.9508  magn=  0.2166
     atom  11 (R=0.129)  charge=  4.9509  magn=  0.2237
     atom  12 (R=0.129)  charge=  4.9507  magn=  0.2132
     atom  13 (R=0.127)  charge=  6.7006  magn=  0.7822
     atom  14 (R=0.129)  charge=  4.9507  magn=  0.2079
     atom  15 (R=0.129)  charge=  4.9514  magn=  0.2106
     atom  16 (R=0.129)  charge=  4.9507  magn=  0.2133
     atom  17 (R=0.127)  charge=  6.6988  magn=  0.8300
     atom  18 (R=0.129)  charge=  4.9529  magn=  0.2088
     atom  19 (R=0.129)  charge=  4.9527  magn=  0.2145
     atom  20 (R=0.129)  charge=  4.9536  magn=  0.1833
     atom  21 (R=0.127)  charge=  6.7082  magn=  0.5862
     atom  22 (R=0.129)  charge=  4.9585  magn=  0.0989
     atom  23 (R=0.129)  charge=  4.9690  magn=  0.1539
     atom  24 (R=0.129)  charge=  4.9676  magn=  0.1530
     atom  25 (R=0.127)  charge=  0.8207  magn= -0.0077

     total cpu time spent up to now is    69224.8 secs

     End of self-consistent calculation

     Number of k-points >= 100: set verbosity='high' to print the bands.

     the Fermi energy is    -5.1712 ev

!    total energy              =   -7077.45368844 Ry
     total all-electron energy =   -199909.890259 Ry
     estimated scf accuracy    <          8.4E-11 Ry
     smearing contrib. (-TS)   =       0.00091091 Ry
     internal energy E=F+TS    =   -7077.45459935 Ry

     The total energy is F=E-TS. E is the sum of the following terms:
     one-electron contribution =  -61244.64690712 Ry
     hartree contribution      =   30809.73776466 Ry
     xc contribution           =    -835.53842391 Ry
     ewald contribution        =   29327.15567098 Ry
     DFT-D3 Dispersion         =      -2.53279139 Ry
     one-center paw contrib.   =   -5131.62991257 Ry

     total magnetization       =     9.69 Bohr mag/cell
     absolute magnetization    =    10.52 Bohr mag/cell

     convergence has been achieved in  18 iterations

     negative rho (up, down):  1.546E-04 1.203E-04

     Forces acting on atoms (cartesian axes, Ry/au):

     atom    1 type  1   force =    -0.00001658    0.00013376    0.01587932
     atom    2 type  2   force =     0.00001545   -0.01420937   -0.00937853
     atom    3 type  2   force =    -0.01243759    0.00719072   -0.00914217
     atom    4 type  2   force =     0.01223731    0.00713359   -0.00891207
     atom    5 type  1   force =    -0.00013591   -0.00033412    0.00048997
     atom    6 type  2   force =    -0.00037068    0.00059383    0.00384679
     atom    7 type  2   force =     0.00045110   -0.00112179    0.00442866
     atom    8 type  2   force =     0.00043954    0.00036918    0.00472455
     atom    9 type  1   force =     0.00002915    0.00002056    0.00002491
     atom   10 type  2   force =    -0.00001497    0.00010391   -0.00022513
     atom   11 type  2   force =    -0.00003049   -0.00002340   -0.00004621
     atom   12 type  2   force =    -0.00006651    0.00001851   -0.00023809
     atom   13 type  1   force =     0.00003988   -0.00005307   -0.00018424
     atom   14 type  2   force =     0.00023052    0.00005994   -0.00023842
     atom   15 type  2   force =     0.00008302   -0.00014386   -0.00002530
     atom   16 type  2   force =     0.00010977   -0.00017353   -0.00001765
     atom   17 type  1   force =    -0.00013967   -0.00005096    0.00004899
     atom   18 type  2   force =    -0.00001087   -0.00006953    0.00021607
     atom   19 type  2   force =     0.00021516   -0.00003238    0.00016164
     atom   20 type  2   force =     0.00004172    0.00017671   -0.00019262
     atom   21 type  1   force =     0.00046891   -0.00012820   -0.00024065
     atom   22 type  2   force =    -0.00091552   -0.00025197   -0.00030252
     atom   23 type  2   force =    -0.00009781   -0.00010665   -0.00040233
     atom   24 type  2   force =    -0.00018187   -0.00078469   -0.00006781
     atom   25 type  3   force =     0.00005696    0.00168281   -0.00020716

     Total force =     0.001656     Total SCF correction =     0.000063


     Computing stress (Cartesian axis) and pressure


     negative rho (up, down):  1.546E-04 1.203E-04
          total   stress  (Ry/bohr**3)                   (kbar)     P=       -7.51
  -0.00007743  -0.00000129  -0.00000133          -11.39       -0.19       -0.20
  -0.00000129  -0.00008147   0.00000133           -0.19      -11.99        0.20
  -0.00000133   0.00000133   0.00000572           -0.20        0.20        0.84

     Energy error            =      5.9E-06 Ry
     Gradient error          =      9.2E-04 Ry/Bohr

     number of scf cycles    =  14
     number of bfgs steps    =  13

     energy             old  =   -7077.4536825768 Ry
     energy             new  =   -7077.4536884430 Ry

     CASE: energy            _new < energy            _old

     new trust radius        =       0.0029282944 bohr
     new conv_thr            =            1.0E-10 Ry


ATOMIC_POSITIONS (angstrom)
Ni               5.3171990772        3.0698863186       11.0000000000    0   0   0
Pd               2.6585995386        3.0698851333       11.0000764482    0   0   0
Pd               3.9878982814        0.7674721723       11.0000764482    0   0   0
Pd               1.3293007958        0.7674721723       11.0000764482    0   0   0
Ni               2.6585995386        1.5349431593       13.1707374333    0   0   0
Pd               3.9878982814        3.8373584909       13.1708138815    0   0   0
Pd               5.3171990772        1.5349419740       13.1708138815    0   0   0
Pd               6.6464998731        3.8373584909       13.1708138815    0   0   0
Ni              -0.0006413671       -0.0025114608       15.3365581984
Pd               5.3164984268        4.6018788948       15.3396064725
Pd               3.9878726960        2.2977482723       15.3339272762
Pd               6.6470669934        2.3004518874       15.3366135566
Ni               5.3139844157        3.0697762045       17.4998864257
Pd               3.9840601676        0.7656158093       17.5130699912
Pd               2.6601535938        3.0712282032       17.5030738929
Pd               1.3283553333        0.7707321060       17.5066739793
Ni               2.6679804134        1.5362020797       19.6828096285
Pd               4.0014705553        3.8393077004       19.6724071816
Pd               5.3205426797        1.5448014830       19.6663601557
Pd               6.6491967292        3.8337285173       19.6785240247
Ni               0.0002828838       -0.0090928401       21.7767148393
Pd               5.3522375523        4.6029127696       21.9017762391
Pd               3.9965229861        2.2883633552       21.8841783434
Pd               6.6778643987        2.2864113608       21.8687420814
H                1.2277136264        0.0000004292       22.8419538362    1   0   1



     Writing config-only to output data dir /tmpu/isholek_g/isholek/MIGUEL/QE/Hydrogen/111_2x2/SAVE/Ni1Pd3_111-B2.save/ :
     XML data file
     NEW-OLD atomic charge density approx. for the potential

     Check: negative core charge=   -0.000002

     negative rho (up, down):  1.455E-04 1.303E-04
     Generating pointlists ...
     new r_m :   0.1261 (alat units)  1.2669 (a.u.) for type    1
     new r_m :   0.1261 (alat units)  1.2669 (a.u.) for type    3

     total cpu time spent up to now is    69519.5 secs

     Self-consistent Calculation

     iteration #  1     ecut=    60.00 Ry     beta= 0.20
     Davidson diagonalization with overlap
     ethr =  1.00E-06,  avg # of iterations =  3.0

     Threshold (ethr) on eigenvalues was too large:
     Diagonalizing with lowered threshold

     Davidson diagonalization with overlap
     ethr =  1.46E-08,  avg # of iterations =  3.3

     negative rho (up, down):  1.523E-04 1.268E-04

     total cpu time spent up to now is    70100.3 secs

     total energy              =   -7077.45368753 Ry
     estimated scf accuracy    <       0.00002974 Ry

     total magnetization       =     9.69 Bohr mag/cell
     absolute magnetization    =    10.52 Bohr mag/cell

     iteration #  2     ecut=    60.00 Ry     beta= 0.20
     Davidson diagonalization with overlap
     ethr =  1.23E-08,  avg # of iterations =  1.0

     negative rho (up, down):  1.526E-04 1.255E-04

     total cpu time spent up to now is    70269.6 secs

     total energy              =   -7077.45368920 Ry
     estimated scf accuracy    <       0.00001066 Ry

     total magnetization       =     9.69 Bohr mag/cell
     absolute magnetization    =    10.52 Bohr mag/cell

     iteration #  3     ecut=    60.00 Ry     beta= 0.20
     Davidson diagonalization with overlap
     ethr =  4.42E-09,  avg # of iterations =  1.0

     negative rho (up, down):  1.530E-04 1.244E-04

     total cpu time spent up to now is    70438.9 secs

     total energy              =   -7077.45369081 Ry
     estimated scf accuracy    <       0.00000719 Ry

     total magnetization       =     9.69 Bohr mag/cell
     absolute magnetization    =    10.52 Bohr mag/cell

     iteration #  4     ecut=    60.00 Ry     beta= 0.20
     Davidson diagonalization with overlap
     ethr =  2.98E-09,  avg # of iterations =  1.0

     negative rho (up, down):  1.534E-04 1.235E-04

     total cpu time spent up to now is    70607.9 secs

     total energy              =   -7077.45369200 Ry
     estimated scf accuracy    <       0.00000106 Ry

     total magnetization       =     9.69 Bohr mag/cell
     absolute magnetization    =    10.52 Bohr mag/cell

     iteration #  5     ecut=    60.00 Ry     beta= 0.20
     Davidson diagonalization with overlap
     ethr =  4.40E-10,  avg # of iterations =  2.5

     negative rho (up, down):  1.537E-04 1.226E-04

     total cpu time spent up to now is    70808.2 secs

     total energy              =   -7077.45369304 Ry
     estimated scf accuracy    <       0.00000137 Ry

     total magnetization       =     9.69 Bohr mag/cell
     absolute magnetization    =    10.52 Bohr mag/cell

     iteration #  6     ecut=    60.00 Ry     beta= 0.20
     Davidson diagonalization with overlap
     ethr =  4.40E-10,  avg # of iterations =  2.0

     negative rho (up, down):  1.540E-04 1.220E-04

     total cpu time spent up to now is    70996.8 secs

     total energy              =   -7077.45369336 Ry
     estimated scf accuracy    <       0.00000026 Ry

     total magnetization       =     9.69 Bohr mag/cell
     absolute magnetization    =    10.52 Bohr mag/cell

     iteration #  7     ecut=    60.00 Ry     beta= 0.20
     Davidson diagonalization with overlap
     ethr =  1.06E-10,  avg # of iterations =  2.3

     negative rho (up, down):  1.541E-04 1.215E-04

     total cpu time spent up to now is    71210.7 secs

     total energy              =   -7077.45369343 Ry
     estimated scf accuracy    <       0.00000006 Ry

     total magnetization       =     9.69 Bohr mag/cell
     absolute magnetization    =    10.52 Bohr mag/cell

     iteration #  8     ecut=    60.00 Ry     beta= 0.20
     Davidson diagonalization with overlap
     ethr =  2.48E-11,  avg # of iterations =  3.6

     negative rho (up, down):  1.541E-04 1.211E-04

     total cpu time spent up to now is    71471.4 secs

     total energy              =   -7077.45369345 Ry
     estimated scf accuracy    <       0.00000007 Ry

     total magnetization       =     9.69 Bohr mag/cell
     absolute magnetization    =    10.52 Bohr mag/cell

     iteration #  9     ecut=    60.00 Ry     beta= 0.20
     Davidson diagonalization with overlap
     ethr =  2.48E-11,  avg # of iterations =  1.0

     negative rho (up, down):  1.539E-04 1.207E-04

     total cpu time spent up to now is    71642.8 secs

     total energy              =   -7077.45369344 Ry
     estimated scf accuracy    <       0.00000005 Ry

     total magnetization       =     9.69 Bohr mag/cell
     absolute magnetization    =    10.52 Bohr mag/cell

     iteration # 10     ecut=    60.00 Ry     beta= 0.20
     Davidson diagonalization with overlap
     ethr =  1.87E-11,  avg # of iterations =  2.0

     negative rho (up, down):  1.538E-04 1.204E-04

     total cpu time spent up to now is    71828.6 secs

     total energy              =   -7077.45369345 Ry
     estimated scf accuracy    <       0.00000002 Ry

     total magnetization       =     9.69 Bohr mag/cell
     absolute magnetization    =    10.52 Bohr mag/cell

     iteration # 11     ecut=    60.00 Ry     beta= 0.20
     Davidson diagonalization with overlap
     ethr =  8.25E-12,  avg # of iterations =  1.0

     negative rho (up, down):  1.538E-04 1.202E-04

     total cpu time spent up to now is    71999.0 secs

     total energy              =   -7077.45369345 Ry
     estimated scf accuracy    <       0.00000002 Ry

     total magnetization       =     9.69 Bohr mag/cell
     absolute magnetization    =    10.52 Bohr mag/cell

     iteration # 12     ecut=    60.00 Ry     beta= 0.20
     Davidson diagonalization with overlap
     ethr =  8.25E-12,  avg # of iterations =  1.0

     negative rho (up, down):  1.538E-04 1.200E-04

     total cpu time spent up to now is    72169.2 secs

     total energy              =   -7077.45369345 Ry
     estimated scf accuracy    <       0.00000002 Ry

     total magnetization       =     9.69 Bohr mag/cell
     absolute magnetization    =    10.52 Bohr mag/cell

     iteration # 13     ecut=    60.00 Ry     beta= 0.20
     Davidson diagonalization with overlap
     ethr =  6.59E-12,  avg # of iterations =  1.0

     negative rho (up, down):  1.538E-04 1.199E-04

     total cpu time spent up to now is    72337.8 secs

     total energy              =   -7077.45369345 Ry
     estimated scf accuracy    <       0.00000001 Ry

     total magnetization       =     9.69 Bohr mag/cell
     absolute magnetization    =    10.52 Bohr mag/cell

     iteration # 14     ecut=    60.00 Ry     beta= 0.20
     Davidson diagonalization with overlap
     ethr =  5.70E-12,  avg # of iterations =  1.0

     negative rho (up, down):  1.537E-04 1.197E-04

     total cpu time spent up to now is    72506.3 secs

     total energy              =   -7077.45369345 Ry
     estimated scf accuracy    <       0.00000001 Ry

     total magnetization       =     9.69 Bohr mag/cell
     absolute magnetization    =    10.52 Bohr mag/cell

     iteration # 15     ecut=    60.00 Ry     beta= 0.20
     Davidson diagonalization with overlap
     ethr =  4.85E-12,  avg # of iterations =  1.0

     negative rho (up, down):  1.536E-04 1.196E-04

     total cpu time spent up to now is    72677.5 secs

     total energy              =   -7077.45369345 Ry
     estimated scf accuracy    <          5.4E-09 Ry

     total magnetization       =     9.69 Bohr mag/cell
     absolute magnetization    =    10.52 Bohr mag/cell

     iteration # 16     ecut=    60.00 Ry     beta= 0.20
     Davidson diagonalization with overlap
     ethr =  2.24E-12,  avg # of iterations =  1.0

     negative rho (up, down):  1.537E-04 1.195E-04

     total cpu time spent up to now is    72847.2 secs

     total energy              =   -7077.45369345 Ry
     estimated scf accuracy    <          1.7E-09 Ry

     total magnetization       =     9.69 Bohr mag/cell
     absolute magnetization    =    10.52 Bohr mag/cell

     iteration # 17     ecut=    60.00 Ry     beta= 0.20
     Davidson diagonalization with overlap
     ethr =  7.00E-13,  avg # of iterations =  1.6

     negative rho (up, down):  1.537E-04 1.196E-04

     total cpu time spent up to now is    73023.4 secs

     total energy              =   -7077.45369345 Ry
     estimated scf accuracy    <          3.2E-10 Ry

     total magnetization       =     9.69 Bohr mag/cell
     absolute magnetization    =    10.52 Bohr mag/cell

     iteration # 18     ecut=    60.00 Ry     beta= 0.20
     Davidson diagonalization with overlap
     ethr =  1.33E-13,  avg # of iterations =  2.1

     negative rho (up, down):  1.546E-04 1.202E-04
 
     Magnetic moment per site  (integrated on atomic sphere of radius R)
     atom   1 (R=0.126)  charge=  6.6586  magn=  0.8484
     atom   2 (R=0.129)  charge=  4.9646  magn=  0.1806
     atom   3 (R=0.129)  charge=  4.9645  magn=  0.1839
     atom   4 (R=0.129)  charge=  4.9645  magn=  0.1803
     atom   5 (R=0.126)  charge=  6.6513  magn=  0.8187
     atom   6 (R=0.129)  charge=  4.9533  magn=  0.2283
     atom   7 (R=0.129)  charge=  4.9531  magn=  0.2259
     atom   8 (R=0.129)  charge=  4.9532  magn=  0.2259
     atom   9 (R=0.126)  charge=  6.6537  magn=  0.7713
     atom  10 (R=0.129)  charge=  4.9508  magn=  0.2165
     atom  11 (R=0.129)  charge=  4.9509  magn=  0.2236
     atom  12 (R=0.129)  charge=  4.9507  magn=  0.2132
     atom  13 (R=0.126)  charge=  6.6532  magn=  0.7781
     atom  14 (R=0.129)  charge=  4.9507  magn=  0.2079
     atom  15 (R=0.129)  charge=  4.9515  magn=  0.2105
     atom  16 (R=0.129)  charge=  4.9507  magn=  0.2133
     atom  17 (R=0.126)  charge=  6.6517  magn=  0.8257
     atom  18 (R=0.129)  charge=  4.9529  magn=  0.2088
     atom  19 (R=0.129)  charge=  4.9528  magn=  0.2145
     atom  20 (R=0.129)  charge=  4.9536  magn=  0.1833
     atom  21 (R=0.126)  charge=  6.6606  magn=  0.5828
     atom  22 (R=0.129)  charge=  4.9585  magn=  0.0989
     atom  23 (R=0.129)  charge=  4.9690  magn=  0.1541
     atom  24 (R=0.129)  charge=  4.9676  magn=  0.1530
     atom  25 (R=0.126)  charge=  0.8058  magn= -0.0077

     total cpu time spent up to now is    73211.9 secs

     End of self-consistent calculation

     Number of k-points >= 100: set verbosity='high' to print the bands.

     the Fermi energy is    -5.1711 ev

!    total energy              =   -7077.45369345 Ry
     total all-electron energy =   -199909.890264 Ry
     estimated scf accuracy    <          3.2E-11 Ry
     smearing contrib. (-TS)   =       0.00091213 Ry
     internal energy E=F+TS    =   -7077.45460558 Ry

     The total energy is F=E-TS. E is the sum of the following terms:
     one-electron contribution =  -61248.17328108 Ry
     hartree contribution      =   30811.50181433 Ry
     xc contribution           =    -835.53956686 Ry
     ewald contribution        =   29328.91939472 Ry
     DFT-D3 Dispersion         =      -2.53288087 Ry
     one-center paw contrib.   =   -5131.63008582 Ry

     total magnetization       =     9.69 Bohr mag/cell
     absolute magnetization    =    10.52 Bohr mag/cell

     convergence has been achieved in  18 iterations

     negative rho (up, down):  1.546E-04 1.202E-04

     Forces acting on atoms (cartesian axes, Ry/au):

     atom    1 type  1   force =    -0.00001443    0.00013268    0.01587811
     atom    2 type  2   force =     0.00001608   -0.01420971   -0.00937958
     atom    3 type  2   force =    -0.01243704    0.00718922   -0.00914763
     atom    4 type  2   force =     0.01223765    0.00713613   -0.00891256
     atom    5 type  1   force =    -0.00014983   -0.00031499    0.00051412
     atom    6 type  2   force =    -0.00038118    0.00059592    0.00388998
     atom    7 type  2   force =     0.00046794   -0.00112410    0.00448087
     atom    8 type  2   force =     0.00044170    0.00035638    0.00476779
     atom    9 type  1   force =     0.00008923    0.00003136   -0.00008871
     atom   10 type  2   force =    -0.00004549    0.00004155   -0.00032618
     atom   11 type  2   force =    -0.00007661    0.00003156   -0.00014322
     atom   12 type  2   force =     0.00001032   -0.00003113   -0.00038332
     atom   13 type  1   force =     0.00004546   -0.00011575   -0.00021658
     atom   14 type  2   force =     0.00022994    0.00017247   -0.00024264
     atom   15 type  2   force =     0.00007359   -0.00009990    0.00001584
     atom   16 type  2   force =     0.00006112   -0.00016036    0.00002449
     atom   17 type  1   force =    -0.00021780   -0.00010757   -0.00015960
     atom   18 type  2   force =     0.00012395   -0.00000227    0.00018287
     atom   19 type  2   force =     0.00006173   -0.00016287    0.00027184
     atom   20 type  2   force =     0.00007571    0.00008810    0.00006456
     atom   21 type  1   force =    -0.00007225   -0.00023270   -0.00026762
     atom   22 type  2   force =    -0.00057229   -0.00023392   -0.00027343
     atom   23 type  2   force =    -0.00002625   -0.00007591   -0.00043941
     atom   24 type  2   force =    -0.00005526   -0.00060712   -0.00011820
     atom   25 type  3   force =     0.00011400    0.00170291    0.00000823

     Total force =     0.001412     Total SCF correction =     0.000023


     Computing stress (Cartesian axis) and pressure


     negative rho (up, down):  1.546E-04 1.202E-04
          total   stress  (Ry/bohr**3)                   (kbar)     P=       -7.46
  -0.00007705  -0.00000128  -0.00000128          -11.34       -0.19       -0.19
  -0.00000128  -0.00008130   0.00000144           -0.19      -11.96        0.21
  -0.00000128   0.00000144   0.00000628           -0.19        0.21        0.92

     Energy error            =      5.0E-06 Ry
     Gradient error          =      6.1E-04 Ry/Bohr

     bfgs converged in  15 scf cycles and  14 bfgs steps
     (criteria: energy <  1.8E-05 Ry, force <  7.8E-04 Ry/Bohr)

     End of BFGS Geometry Optimization

     Final energy             =   -7077.4536934504 Ry

     File /tmpu/isholek_g/isholek/MIGUEL/QE/Hydrogen/111_2x2/SAVE/Ni1Pd3_111-B2.bfgs deleted, as requested
Begin final coordinates

ATOMIC_POSITIONS (angstrom)
Ni               5.3171990772        3.0698863186       11.0000000000    0   0   0
Pd               2.6585995386        3.0698851333       11.0000764482    0   0   0
Pd               3.9878982814        0.7674721723       11.0000764482    0   0   0
Pd               1.3293007958        0.7674721723       11.0000764482    0   0   0
Ni               2.6585995386        1.5349431593       13.1707374333    0   0   0
Pd               3.9878982814        3.8373584909       13.1708138815    0   0   0
Pd               5.3171990772        1.5349419740       13.1708138815    0   0   0
Pd               6.6464998731        3.8373584909       13.1708138815    0   0   0
Ni              -0.0006413671       -0.0025114608       15.3365581984
Pd               5.3164984268        4.6018788948       15.3396064725
Pd               3.9878726960        2.2977482723       15.3339272762
Pd               6.6470669934        2.3004518874       15.3366135566
Ni               5.3139844157        3.0697762045       17.4998864257
Pd               3.9840601676        0.7656158093       17.5130699912
Pd               2.6601535938        3.0712282032       17.5030738929
Pd               1.3283553333        0.7707321060       17.5066739793
Ni               2.6679804134        1.5362020797       19.6828096285
Pd               4.0014705553        3.8393077004       19.6724071816
Pd               5.3205426797        1.5448014830       19.6663601557
Pd               6.6491967292        3.8337285173       19.6785240247
Ni               0.0002828838       -0.0090928401       21.7767148393
Pd               5.3522375523        4.6029127696       21.9017762391
Pd               3.9965229861        2.2883633552       21.8841783434
Pd               6.6778643987        2.2864113608       21.8687420814
H                1.2277136264        0.0000004292       22.8419538362    1   0   1
End final coordinates



     Writing all to output data dir /tmpu/isholek_g/isholek/MIGUEL/QE/Hydrogen/111_2x2/SAVE/Ni1Pd3_111-B2.save/ :
     XML data file, charge density, pseudopotentials, collected wavefunctions
 
     init_run     :     86.86s CPU     93.75s WALL (       1 calls)
     electrons    :  64192.31s CPU  69006.15s WALL (      15 calls)
     update_pot   :     17.31s CPU     20.53s WALL (      14 calls)
     forces       :    362.62s CPU    398.77s WALL (      15 calls)
     force_dftd3  :      2.21s CPU      2.29s WALL (      15 calls)
     stress       :   3713.48s CPU   3863.67s WALL (      15 calls)
     stres_dftd3  :      2.30s CPU      2.71s WALL (      15 calls)

     Called by init_run:
     wfcinit      :     83.48s CPU     89.98s WALL (       1 calls)
     potinit      :      2.16s CPU      2.24s WALL (       1 calls)
     hinit0       :      0.59s CPU      0.63s WALL (       1 calls)

     Called by electrons:
     c_bands      :  51493.08s CPU  55416.82s WALL (     361 calls)
     sum_band     :  11619.39s CPU  12405.43s WALL (     361 calls)
     v_of_rho     :    277.94s CPU    306.74s WALL (     368 calls)
     newd         :     79.20s CPU     93.75s WALL (     368 calls)
     PAW_pot      :    134.51s CPU    140.89s WALL (     382 calls)
     mix_rho      :    562.56s CPU    608.75s WALL (     361 calls)
     energy_dftd3 :      2.18s CPU      2.24s WALL (      15 calls)

     Called by c_bands:
     init_us_2    :    341.61s CPU    384.16s WALL (   19175 calls)
     init_us_2:cp :    341.30s CPU    383.87s WALL (   19175 calls)
     cegterg      :  46020.07s CPU  49670.02s WALL (    9025 calls)

     Called by *egterg:
     cdiaghg      :    933.79s CPU   1002.76s WALL (   26125 calls)
     h_psi        :  31528.72s CPU  34196.82s WALL (   26700 calls)
     s_psi        :   2670.40s CPU   2834.16s WALL (   26700 calls)
     g_psi        :     93.27s CPU    102.06s WALL (   17650 calls)

     Called by h_psi:
     h_psi:calbec :   3781.31s CPU   4027.54s WALL (   26700 calls)
     vloc_psi     :  24935.38s CPU  27061.66s WALL (   26700 calls)
     add_vuspsi   :   2704.14s CPU   2916.04s WALL (   26700 calls)

     General routines
     calbec       :   6561.30s CPU   6962.63s WALL (   37950 calls)
     fft          :    223.94s CPU    249.25s WALL (    9800 calls)
     ffts         :    174.15s CPU    192.85s WALL (   43032 calls)
     fftw         :  23994.37s CPU  25410.51s WALL ( 7008793 calls)
     interpolate  :     18.56s CPU     20.63s WALL (     736 calls)
 
     Parallel routines
 
     PWSCF        :     19h 1m CPU     20h25m WALL

 
   This run was terminated on:  19:28:41  21Apr2026            

=------------------------------------------------------------------------------=
   JOB DONE.
=------------------------------------------------------------------------------=
