
     Program PWSCF v.7.3 starts on 17Mar2026 at 21:25:23 

     This program is part of the open-source Quantum ESPRESSO suite
     for quantum simulation of materials; please cite
         "P. Giannozzi et al., J. Phys.:Condens. Matter 21 395502 (2009);
         "P. Giannozzi et al., J. Phys.:Condens. Matter 29 465901 (2017);
         "P. Giannozzi et al., J. Chem. Phys. 152 154105 (2020);
          URL http://www.quantum-espresso.org", 
     in publications or presentations arising from this work. More details at
     http://www.quantum-espresso.org/quote

     Parallel version (MPI), running on    64 processors

     MPI processes distributed on     4 nodes
     51507 MiB available memory on the printing compute node when the environment starts
 
     Reading input from /tmpu/isholek_g/isholek/MIGUEL/QE/Hydrogen/111_2x2/RELAX/Ni3Pd1_111-H_hcp_1-relax.in

     Current dimensions of program PWSCF are:
     Max number of different atomic species (ntypx) = 10
     Max number of k-points (npk) =  40000
     Max angular momentum in pseudopotentials (lmaxx) =  4
     file Ni.upf: wavefunction(s)  4S 3D renormalized
     file Pd.upf: wavefunction(s)  5S 4D renormalized
     file H.upf: wavefunction(s)  1S renormalized

     IMPORTANT: XC functional enforced from input :
     Exchange-correlation= PBE
                           (   1   4   3   4   0   0   0)
     Any further DFT definition will be discarded
     Please, verify this is what you really want

 
     K-points division:     npool     =       8
     R & G space division:  proc/nbgrp/npool/nimage =       8
     Subspace diagonalization in iterative solution of the eigenvalue problem:
     one sub-group per band group will be used
     scalapack distributed-memory algorithm (size of sub-group:  2*  2 procs)

 
     Parallelization info
     --------------------
     sticks:   dense  smooth     PW     G-vecs:    dense   smooth      PW
     Min         375     188     54               106317    37608    5856
     Max         376     189     55               106344    37623    5881
     Sum        3001    1507    433               850625   300931   46949
 
     Using Slab Decomposition
 

     Title: 
     Ni3Pd1_111-H_hcp_1-relax                                                   


     bravais-lattice index     =            0
     lattice parameter (alat)  =       9.5206  a.u.
     unit-cell volume          =    4789.0025 (a.u.)^3
     number of atoms/cell      =           25
     number of atomic types    =            3
     number of electrons       =       241.00
     number of Kohn-Sham states=          145
     kinetic-energy cutoff     =      60.0000  Ry
     charge density cutoff     =     480.0000  Ry
     scf convergence threshold =      1.0E-08
     mixing beta               =       0.2000
     number of iterations used =           12  local-TF  mixing
     energy convergence thresh.=      1.8E-05
     force convergence thresh. =      7.8E-04
     Exchange-correlation= PBE
                           (   1   4   3   4   0   0   0)
     nstep                     =           50


     celldm(1)=   9.520593  celldm(2)=   0.000000  celldm(3)=   0.000000
     celldm(4)=   0.000000  celldm(5)=   0.000000  celldm(6)=   0.000000

     crystal axes: (cart. coord. in units of alat)
               a(1) = (   1.000000   0.000000   0.000000 )  
               a(2) = (   0.500000   0.866025   0.000000 )  
               a(3) = (   0.000000   0.000000   6.408000 )  

     reciprocal axes: (cart. coord. in units 2 pi/alat)
               b(1) = (  1.000000 -0.577350  0.000000 )  
               b(2) = (  0.000000  1.154701  0.000000 )  
               b(3) = (  0.000000  0.000000  0.156055 )  


     PseudoPot. # 1 for Ni read from file:
     /tmpu/isholek_g/isholek/MIGUEL/PP/PAW/Ni.upf
     MD5 check sum: d88365a95a5e142bd87181c2c8b16588
     Pseudo is Projector augmented-wave + core cor, Zval = 10.0
     Generated using "atomic" code by A. Dal Corso  v.5.0.2 svn rev. 9415
     Shape of augmentation charge: PSQ
     Using radial grid of 1195 points,  6 beta functions with: 
                l(1) =   0
                l(2) =   0
                l(3) =   1
                l(4) =   1
                l(5) =   2
                l(6) =   2
     Q(r) pseudized with 0 coefficients 


     PseudoPot. # 2 for Pd read from file:
     /tmpu/isholek_g/isholek/MIGUEL/PP/PAW/Pd.upf
     MD5 check sum: e9d6f14fd83b79f8105499163af174c9
     Pseudo is Projector augmented-wave + core cor, Zval = 10.0
     Generated using "atomic" code by A. Dal Corso  v.5.0.2 svn rev. 9415
     Shape of augmentation charge: PSQ
     Using radial grid of 1235 points,  6 beta functions with: 
                l(1) =   0
                l(2) =   0
                l(3) =   1
                l(4) =   1
                l(5) =   2
                l(6) =   2
     Q(r) pseudized with 0 coefficients 


     PseudoPot. # 3 for H  read from file:
     /tmpu/isholek_g/isholek/MIGUEL/PP/PAW/H.upf
     MD5 check sum: 4cbe42a24e15140179a93d5bf84f2220
     Pseudo is Projector augmented-wave, Zval =  1.0
     Generated using "atomic" code by A. Dal Corso  v.5.0.2 svn rev. 9415
     Shape of augmentation charge: PSQ
     Using radial grid of  929 points,  2 beta functions with: 
                l(1) =   0
                l(2) =   0
     Q(r) pseudized with 0 coefficients 


     atomic species   valence    mass     pseudopotential
     Ni               10.00    58.69340     Ni( 1.00)
     Pd               10.00   106.42000     Pd( 1.00)
     H                 1.00     1.00794     H ( 1.00)

     Starting magnetic structure 
     atomic species   magnetization
     Ni              0.650
     Pd              0.100
     H               0.000

     No symmetry found



   Cartesian axes

     site n.     atom                  positions (alat units)
         1        Ni     tau(   1) = (   1.0000055   0.5773497   2.1833712  )
         2        Ni     tau(   2) = (   0.2499946   0.1443334   2.1833775  )
         3        Pd     tau(   3) = (   0.5000045   0.5773498   2.1833823  )
         4        Ni     tau(   4) = (   0.7499961   0.1443432   2.1833870  )
         5        Ni     tau(   5) = (   0.5000055   0.2886746   2.5916194  )
         6        Ni     tau(   6) = (   1.2499946   0.7216837   2.5916258  )
         7        Pd     tau(   7) = (   1.0000045   0.2886747   2.5916306  )
         8        Ni     tau(   8) = (   0.7499961   0.7216934   2.5916353  )
         9        Ni     tau(   9) = (   0.5000001   0.8656035   2.9996417  )
        10        Ni     tau(  10) = (   0.7496345   0.4332248   2.9996403  )
        11        Pd     tau(  11) = (   1.0000009   0.8660278   2.9988887  )
        12        Ni     tau(  12) = (   1.2503687   0.4332260   2.9996406  )
        13        Ni     tau(  13) = (   1.0000011   0.5775760   3.4076330  )
        14        Ni     tau(  14) = (   0.2501945   0.1442245   3.4076341  )
        15        Pd     tau(  15) = (   0.5000006   0.5773503   3.4103187  )
        16        Ni     tau(  16) = (   0.7498054   0.1442258   3.4076350  )
        17        Ni     tau(  17) = (   0.5000008   0.2852883   3.8164077  )
        18        Ni     tau(  18) = (   1.2470663   0.7233808   3.8164079  )
        19        Pd     tau(  19) = (   1.0000003   0.2886755   3.8139684  )
        20        Ni     tau(  20) = (   0.7529338   0.7233824   3.8164085  )
        21        Ni     tau(  21) = (   0.5000002   0.8590908   4.2179755  )
        22        Ni     tau(  22) = (   0.7439943   0.4364798   4.2179755  )
        23        Pd     tau(  23) = (   1.0000001   0.8660255   4.2390566  )
        24        Ni     tau(  24) = (   1.2560056   0.4364803   4.2179754  )
        25        H      tau(  25) = (   1.0000011   0.5775760   4.4164636  )

     --------------------------------------------
     DFT-D3 Dispersion Correction (3-body terms):
     --------------------------------------------
       Reference C6 values for interpolation: 

         atom   Coordination number   C6
         H          0.912             6.05
         H          0.000            15.18
         Ni         0.000          1149.49
         Ni         1.794           356.66
         Ni         6.546           257.56
         Ni         6.292           283.75
         Pd         0.000          1217.01
         Pd         1.863           573.90
         Pd         5.710           531.75

       Values used:

         atom   Coordination number  R0_AB[au]  C6      C8
         Ni         6.658            3.162    267.12  22382.83
         Ni         6.659            3.162    267.12  22382.67
         Pd         7.596            3.168    531.75  48720.73
         Ni         6.659            3.162    267.12  22382.47
         Ni         8.918            3.162    257.72  21594.69
         Ni         8.918            3.162    257.72  21594.70
         Pd        10.217            3.168    531.75  48720.73
         Ni         8.918            3.162    257.72  21594.70
         Ni         8.915            3.162    257.72  21594.77
         Ni         8.915            3.162    257.72  21594.77
         Pd        10.236            3.168    531.75  48720.73
         Ni         8.915            3.162    257.72  21594.77
         Ni         8.934            3.162    257.71  21594.30
         Ni         8.934            3.162    257.71  21594.30
         Pd        10.203            3.168    531.75  48720.73
         Ni         8.934            3.162    257.71  21594.30
         Ni         8.950            3.162    257.71  21593.90
         Ni         8.950            3.162    257.71  21593.89
         Pd        10.217            3.168    531.75  48720.73
         Ni         8.950            3.162    257.71  21593.89
         Ni         6.731            3.162    266.25  22309.42
         Ni         7.154            3.162    262.11  21962.72
         Pd         8.209            3.168    531.75  48720.73
         Ni         7.154            3.162    262.11  21962.71
         H          1.677            2.062      6.05     73.19

         Molecular C6 ( Ry / a.u.^6 ) =    185830.80


     number of k points=   100  Marzari-Vanderbilt smearing, width (Ry)=  0.0147

     Number of k-points >= 100: set verbosity='high' to print them.

     Dense  grid:   850625 G-vectors     FFT dimensions: (  72,  72, 432)

     Smooth grid:   300931 G-vectors     FFT dimensions: (  48,  48, 320)

     Estimated max dynamical RAM per process >     509.42 MB

     Estimated total dynamical RAM >      27.58 GB
 ----2D----2D----2D----2D----2D----2D----2D----2D----2D----2D----2D----2D
  The code is running with the 2D cutoff
  Please refer to:
  Sohier, T., Calandra, M., & Mauri, F. (2017), 
  Density functional perturbation theory for gated two-dimensional heterostructu
 res:
  Theoretical developments and application to flexural phonons in graphene.
  Physical Review B, 96(7), 75448. https://doi.org/10.1103/PhysRevB.96.075448
 ----2D----2D----2D----2D----2D----2D----2D----2D----2D----2D----2D----2D

     Check: negative core charge=   -0.000001
     Generating pointlists ...
     new r_m :   0.1457 (alat units)  1.3876 (a.u.) for type    1
     new r_m :   0.1397 (alat units)  1.3299 (a.u.) for type    2
     new r_m :   0.1397 (alat units)  1.3299 (a.u.) for type    3

     Initial potential from superposition of free atoms

     starting charge     240.9923, renormalised to     241.0000

     negative rho (up, down):  3.178E-04 6.789E-05
     Starting wfcs are  217 randomized atomic wfcs
     Checking if some PAW data can be deallocated... 

     total cpu time spent up to now is      332.9 secs

     Self-consistent Calculation

     iteration #  1     ecut=    60.00 Ry     beta= 0.20
     Davidson diagonalization with overlap
     ethr =  1.00E-02,  avg # of iterations =  2.0

     negative rho (up, down):  6.690E-05 2.444E-06

     total cpu time spent up to now is      980.2 secs

     total energy              =   -5327.32151649 Ry
     estimated scf accuracy    <      35.04232131 Ry

     total magnetization       =    25.51 Bohr mag/cell
     absolute magnetization    =    25.52 Bohr mag/cell

     iteration #  2     ecut=    60.00 Ry     beta= 0.20
     Davidson diagonalization with overlap
     ethr =  1.00E-02,  avg # of iterations =  1.0

     negative rho (up, down):  7.824E-06 1.109E-06

     total cpu time spent up to now is     1543.7 secs

     total energy              =   -5329.69208205 Ry
     estimated scf accuracy    <      10.28319045 Ry

     total magnetization       =    27.43 Bohr mag/cell
     absolute magnetization    =    27.44 Bohr mag/cell

     iteration #  3     ecut=    60.00 Ry     beta= 0.20
     Davidson diagonalization with overlap
     ethr =  4.27E-03,  avg # of iterations =  1.2

     negative rho (up, down):  4.817E-07 1.240E-06

     total cpu time spent up to now is     2098.4 secs

     total energy              =   -5331.06456917 Ry
     estimated scf accuracy    <       3.64179944 Ry

     total magnetization       =    24.76 Bohr mag/cell
     absolute magnetization    =    24.92 Bohr mag/cell

     iteration #  4     ecut=    60.00 Ry     beta= 0.20
     Davidson diagonalization with overlap
     ethr =  1.51E-03,  avg # of iterations =  1.1

     negative rho (up, down):  8.466E-08 1.402E-06

     total cpu time spent up to now is     2679.3 secs

     total energy              =   -5331.73270337 Ry
     estimated scf accuracy    <       3.52187852 Ry

     total magnetization       =    21.80 Bohr mag/cell
     absolute magnetization    =    22.58 Bohr mag/cell

     iteration #  5     ecut=    60.00 Ry     beta= 0.20
     Davidson diagonalization with overlap
     ethr =  1.46E-03,  avg # of iterations =  1.0

     negative rho (up, down):  3.410E-08 1.851E-06

     total cpu time spent up to now is     3239.3 secs

     total energy              =   -5332.02633704 Ry
     estimated scf accuracy    <       1.28696396 Ry

     total magnetization       =    18.94 Bohr mag/cell
     absolute magnetization    =    20.48 Bohr mag/cell

     iteration #  6     ecut=    60.00 Ry     beta= 0.20
     Davidson diagonalization with overlap
     ethr =  5.34E-04,  avg # of iterations =  1.2

     negative rho (up, down):  6.625E-08 1.612E-06

     total cpu time spent up to now is     3782.3 secs

     total energy              =   -5332.09117096 Ry
     estimated scf accuracy    <       0.45216838 Ry

     total magnetization       =    14.87 Bohr mag/cell
     absolute magnetization    =    17.16 Bohr mag/cell

     iteration #  7     ecut=    60.00 Ry     beta= 0.20
     Davidson diagonalization with overlap
     ethr =  1.88E-04,  avg # of iterations =  1.5

     negative rho (up, down):  8.901E-08 1.045E-06

     total cpu time spent up to now is     4360.7 secs

     total energy              =   -5332.11313868 Ry
     estimated scf accuracy    <       0.31067054 Ry

     total magnetization       =    13.94 Bohr mag/cell
     absolute magnetization    =    16.32 Bohr mag/cell

     iteration #  8     ecut=    60.00 Ry     beta= 0.20
     Davidson diagonalization with overlap
     ethr =  1.29E-04,  avg # of iterations =  1.0

     negative rho (up, down):  6.673E-08 5.245E-07

     total cpu time spent up to now is     4911.5 secs

     total energy              =   -5332.11848706 Ry
     estimated scf accuracy    <       0.24508980 Ry

     total magnetization       =    13.96 Bohr mag/cell
     absolute magnetization    =    16.30 Bohr mag/cell

     iteration #  9     ecut=    60.00 Ry     beta= 0.20
     Davidson diagonalization with overlap
     ethr =  1.02E-04,  avg # of iterations =  1.1

     negative rho (up, down):  6.197E-08 3.191E-07

     total cpu time spent up to now is     5498.4 secs

     total energy              =   -5332.12224899 Ry
     estimated scf accuracy    <       0.27955584 Ry

     total magnetization       =    14.13 Bohr mag/cell
     absolute magnetization    =    16.32 Bohr mag/cell

     iteration # 10     ecut=    60.00 Ry     beta= 0.20
     Davidson diagonalization with overlap
     ethr =  1.02E-04,  avg # of iterations =  1.0

     negative rho (up, down):  2.374E-07 4.968E-07

     total cpu time spent up to now is     6072.3 secs

     total energy              =   -5332.11387245 Ry
     estimated scf accuracy    <       0.22619081 Ry

     total magnetization       =    14.13 Bohr mag/cell
     absolute magnetization    =    16.15 Bohr mag/cell

     iteration # 11     ecut=    60.00 Ry     beta= 0.20
     Davidson diagonalization with overlap
     ethr =  9.39E-05,  avg # of iterations =  1.0

     negative rho (up, down):  2.490E-07 4.282E-07

     total cpu time spent up to now is     6636.7 secs

     total energy              =   -5332.11497992 Ry
     estimated scf accuracy    <       0.19902308 Ry

     total magnetization       =    14.11 Bohr mag/cell
     absolute magnetization    =    15.88 Bohr mag/cell

     iteration # 12     ecut=    60.00 Ry     beta= 0.20
     Davidson diagonalization with overlap
     ethr =  8.26E-05,  avg # of iterations =  1.0

     negative rho (up, down):  1.265E-07 1.932E-07

     total cpu time spent up to now is     7164.2 secs

     total energy              =   -5332.11082480 Ry
     estimated scf accuracy    <       0.16370815 Ry

     total magnetization       =    14.18 Bohr mag/cell
     absolute magnetization    =    15.83 Bohr mag/cell

     iteration # 13     ecut=    60.00 Ry     beta= 0.20
     Davidson diagonalization with overlap
     ethr =  6.79E-05,  avg # of iterations =  1.0

     negative rho (up, down):  5.656E-08 7.893E-08

     total cpu time spent up to now is     7706.0 secs

     total energy              =   -5332.10838548 Ry
     estimated scf accuracy    <       0.11380050 Ry

     total magnetization       =    14.37 Bohr mag/cell
     absolute magnetization    =    15.93 Bohr mag/cell

     iteration # 14     ecut=    60.00 Ry     beta= 0.20
     Davidson diagonalization with overlap
     ethr =  4.72E-05,  avg # of iterations =  1.2

     negative rho (up, down):  1.144E-08 1.733E-08

     total cpu time spent up to now is     8260.0 secs

     total energy              =   -5332.10932139 Ry
     estimated scf accuracy    <       0.07309100 Ry

     total magnetization       =    14.49 Bohr mag/cell
     absolute magnetization    =    16.05 Bohr mag/cell

     iteration # 15     ecut=    60.00 Ry     beta= 0.20
     Davidson diagonalization with overlap
     ethr =  3.03E-05,  avg # of iterations =  1.2

     negative rho (up, down):  1.889E-04 5.829E-05

     total cpu time spent up to now is     8828.2 secs

     total energy              =   -5332.10555980 Ry
     estimated scf accuracy    <       0.04934520 Ry

     total magnetization       =    14.36 Bohr mag/cell
     absolute magnetization    =    16.00 Bohr mag/cell

     iteration # 16     ecut=    60.00 Ry     beta= 0.20
     Davidson diagonalization with overlap
     ethr =  2.05E-05,  avg # of iterations =  2.5

     negative rho (up, down):  3.008E-03 2.602E-03

     total cpu time spent up to now is     9507.3 secs

     total energy              =   -5332.10389011 Ry
     estimated scf accuracy    <       0.01448443 Ry

     total magnetization       =    14.22 Bohr mag/cell
     absolute magnetization    =    16.02 Bohr mag/cell

     iteration # 17     ecut=    60.00 Ry     beta= 0.20
     Davidson diagonalization with overlap
     ethr =  6.01E-06,  avg # of iterations =  5.0

     negative rho (up, down):  1.217E-03 9.759E-04

     total cpu time spent up to now is    10278.3 secs

     total energy              =   -5332.10555494 Ry
     estimated scf accuracy    <       0.01153029 Ry

     total magnetization       =    14.34 Bohr mag/cell
     absolute magnetization    =    16.21 Bohr mag/cell

     iteration # 18     ecut=    60.00 Ry     beta= 0.20
     Davidson diagonalization with overlap
     ethr =  4.78E-06,  avg # of iterations =  1.4

     negative rho (up, down):  3.861E-04 2.896E-04

     total cpu time spent up to now is    10850.8 secs

     total energy              =   -5332.10574228 Ry
     estimated scf accuracy    <       0.00945529 Ry

     total magnetization       =    14.39 Bohr mag/cell
     absolute magnetization    =    16.24 Bohr mag/cell

     iteration # 19     ecut=    60.00 Ry     beta= 0.20
     Davidson diagonalization with overlap
     ethr =  3.92E-06,  avg # of iterations =  1.9

     total cpu time spent up to now is    11437.5 secs

     total energy              =   -5332.10662858 Ry
     estimated scf accuracy    <       0.01080418 Ry

     total magnetization       =    14.47 Bohr mag/cell
     absolute magnetization    =    16.34 Bohr mag/cell

     iteration # 20     ecut=    60.00 Ry     beta= 0.20
     Davidson diagonalization with overlap
     ethr =  3.92E-06,  avg # of iterations =  1.1

     total cpu time spent up to now is    11975.7 secs

     total energy              =   -5332.10639852 Ry
     estimated scf accuracy    <       0.00847904 Ry

     total magnetization       =    14.50 Bohr mag/cell
     absolute magnetization    =    16.36 Bohr mag/cell

     iteration # 21     ecut=    60.00 Ry     beta= 0.20
     Davidson diagonalization with overlap
     ethr =  3.52E-06,  avg # of iterations =  2.0

     negative rho (up, down):  1.300E-06 1.183E-06

     total cpu time spent up to now is    12569.4 secs

     total energy              =   -5332.10540959 Ry
     estimated scf accuracy    <       0.00976461 Ry

     total magnetization       =    14.44 Bohr mag/cell
     absolute magnetization    =    16.32 Bohr mag/cell

     iteration # 22     ecut=    60.00 Ry     beta= 0.20
     Davidson diagonalization with overlap
     ethr =  3.52E-06,  avg # of iterations =  1.5

     negative rho (up, down):  2.247E-04 2.213E-04

     total cpu time spent up to now is    13138.2 secs

     total energy              =   -5332.10377680 Ry
     estimated scf accuracy    <       0.01000191 Ry

     total magnetization       =    14.42 Bohr mag/cell
     absolute magnetization    =    16.31 Bohr mag/cell

     iteration # 23     ecut=    60.00 Ry     beta= 0.20
     Davidson diagonalization with overlap
     ethr =  3.52E-06,  avg # of iterations =  3.7

     negative rho (up, down):  2.496E-04 2.454E-04

     total cpu time spent up to now is    13790.1 secs

     total energy              =   -5332.10348706 Ry
     estimated scf accuracy    <       0.01481737 Ry

     total magnetization       =    14.44 Bohr mag/cell
     absolute magnetization    =    16.31 Bohr mag/cell

     iteration # 24     ecut=    60.00 Ry     beta= 0.20
     Davidson diagonalization with overlap
     ethr =  3.52E-06,  avg # of iterations =  1.6

     negative rho (up, down):  5.373E-04 5.154E-04

     total cpu time spent up to now is    14368.0 secs

     total energy              =   -5332.10214252 Ry
     estimated scf accuracy    <       0.00861117 Ry

     total magnetization       =    14.47 Bohr mag/cell
     absolute magnetization    =    16.32 Bohr mag/cell

     iteration # 25     ecut=    60.00 Ry     beta= 0.20
     Davidson diagonalization with overlap
     ethr =  3.52E-06,  avg # of iterations =  1.9

     negative rho (up, down):  2.826E-03 2.828E-03

     total cpu time spent up to now is    14924.5 secs

     total energy              =   -5332.10246670 Ry
     estimated scf accuracy    <       0.00468848 Ry

     total magnetization       =    14.48 Bohr mag/cell
     absolute magnetization    =    16.36 Bohr mag/cell

     iteration # 26     ecut=    60.00 Ry     beta= 0.20
     Davidson diagonalization with overlap
     ethr =  1.95E-06,  avg # of iterations =  4.5

     negative rho (up, down):  1.094E-03 1.067E-03

     total cpu time spent up to now is    15587.4 secs

     total energy              =   -5332.10206207 Ry
     estimated scf accuracy    <       0.00436307 Ry

     total magnetization       =    14.48 Bohr mag/cell
     absolute magnetization    =    16.35 Bohr mag/cell

     iteration # 27     ecut=    60.00 Ry     beta= 0.20
     Davidson diagonalization with overlap
     ethr =  1.81E-06,  avg # of iterations =  2.1

     negative rho (up, down):  1.001E-03 9.911E-04

     total cpu time spent up to now is    16212.8 secs

     total energy              =   -5332.10235317 Ry
     estimated scf accuracy    <       0.00265999 Ry

     total magnetization       =    14.45 Bohr mag/cell
     absolute magnetization    =    16.31 Bohr mag/cell

     iteration # 28     ecut=    60.00 Ry     beta= 0.20
     Davidson diagonalization with overlap
     ethr =  1.10E-06,  avg # of iterations =  1.7

     negative rho (up, down):  6.726E-04 6.688E-04

     total cpu time spent up to now is    16810.0 secs

     total energy              =   -5332.10248017 Ry
     estimated scf accuracy    <       0.00218449 Ry

     total magnetization       =    14.44 Bohr mag/cell
     absolute magnetization    =    16.29 Bohr mag/cell

     iteration # 29     ecut=    60.00 Ry     beta= 0.20
     Davidson diagonalization with overlap
     ethr =  9.06E-07,  avg # of iterations =  1.8

     negative rho (up, down):  3.381E-04 3.299E-04

     total cpu time spent up to now is    17410.7 secs

     total energy              =   -5332.10249832 Ry
     estimated scf accuracy    <       0.00137528 Ry

     total magnetization       =    14.45 Bohr mag/cell
     absolute magnetization    =    16.29 Bohr mag/cell

     iteration # 30     ecut=    60.00 Ry     beta= 0.20
     Davidson diagonalization with overlap
     ethr =  5.71E-07,  avg # of iterations =  2.0

     negative rho (up, down):  2.881E-04 2.731E-04

     total cpu time spent up to now is    18016.6 secs

     total energy              =   -5332.10260039 Ry
     estimated scf accuracy    <       0.00029265 Ry

     total magnetization       =    14.47 Bohr mag/cell
     absolute magnetization    =    16.30 Bohr mag/cell

     iteration # 31     ecut=    60.00 Ry     beta= 0.20
     Davidson diagonalization with overlap
     ethr =  1.21E-07,  avg # of iterations =  3.4

     negative rho (up, down):  1.305E-04 1.043E-04

     total cpu time spent up to now is    18689.8 secs

     total energy              =   -5332.10266919 Ry
     estimated scf accuracy    <       0.00010698 Ry

     total magnetization       =    14.46 Bohr mag/cell
     absolute magnetization    =    16.32 Bohr mag/cell

     iteration # 32     ecut=    60.00 Ry     beta= 0.20
     Davidson diagonalization with overlap
     ethr =  4.44E-08,  avg # of iterations =  3.3

     negative rho (up, down):  1.750E-04 1.361E-04

     total cpu time spent up to now is    19376.5 secs

     total energy              =   -5332.10268516 Ry
     estimated scf accuracy    <       0.00002644 Ry

     total magnetization       =    14.44 Bohr mag/cell
     absolute magnetization    =    16.32 Bohr mag/cell

     iteration # 33     ecut=    60.00 Ry     beta= 0.20
     Davidson diagonalization with overlap
     ethr =  1.10E-08,  avg # of iterations =  4.0

     negative rho (up, down):  1.701E-04 1.303E-04

     total cpu time spent up to now is    20088.0 secs

     total energy              =   -5332.10268857 Ry
     estimated scf accuracy    <       0.00001418 Ry

     total magnetization       =    14.43 Bohr mag/cell
     absolute magnetization    =    16.32 Bohr mag/cell

     iteration # 34     ecut=    60.00 Ry     beta= 0.20
     Davidson diagonalization with overlap
     ethr =  5.88E-09,  avg # of iterations =  2.2

     negative rho (up, down):  2.525E-04 2.088E-04

     total cpu time spent up to now is    20708.3 secs

     total energy              =   -5332.10268985 Ry
     estimated scf accuracy    <       0.00000546 Ry

     total magnetization       =    14.44 Bohr mag/cell
     absolute magnetization    =    16.32 Bohr mag/cell

     iteration # 35     ecut=    60.00 Ry     beta= 0.20
     Davidson diagonalization with overlap
     ethr =  2.26E-09,  avg # of iterations =  2.9

     negative rho (up, down):  2.423E-04 1.967E-04

     total cpu time spent up to now is    21390.8 secs

     total energy              =   -5332.10269106 Ry
     estimated scf accuracy    <       0.00000244 Ry

     total magnetization       =    14.44 Bohr mag/cell
     absolute magnetization    =    16.32 Bohr mag/cell

     iteration # 36     ecut=    60.00 Ry     beta= 0.20
     Davidson diagonalization with overlap
     ethr =  1.01E-09,  avg # of iterations =  2.1

     negative rho (up, down):  2.408E-04 1.906E-04

     total cpu time spent up to now is    22008.9 secs

     total energy              =   -5332.10269163 Ry
     estimated scf accuracy    <       0.00000223 Ry

     total magnetization       =    14.44 Bohr mag/cell
     absolute magnetization    =    16.32 Bohr mag/cell

     iteration # 37     ecut=    60.00 Ry     beta= 0.20
     Davidson diagonalization with overlap
     ethr =  9.25E-10,  avg # of iterations =  1.6

     negative rho (up, down):  1.730E-04 1.221E-04

     total cpu time spent up to now is    22606.7 secs

     total energy              =   -5332.10269162 Ry
     estimated scf accuracy    <       0.00000133 Ry

     total magnetization       =    14.44 Bohr mag/cell
     absolute magnetization    =    16.32 Bohr mag/cell

     iteration # 38     ecut=    60.00 Ry     beta= 0.20
     Davidson diagonalization with overlap
     ethr =  5.54E-10,  avg # of iterations =  1.8

     negative rho (up, down):  1.776E-04 1.263E-04

     total cpu time spent up to now is    23253.9 secs

     total energy              =   -5332.10269166 Ry
     estimated scf accuracy    <       0.00000114 Ry

     total magnetization       =    14.44 Bohr mag/cell
     absolute magnetization    =    16.32 Bohr mag/cell

     iteration # 39     ecut=    60.00 Ry     beta= 0.20
     Davidson diagonalization with overlap
     ethr =  4.74E-10,  avg # of iterations =  1.2

     negative rho (up, down):  1.800E-04 1.294E-04

     total cpu time spent up to now is    23860.9 secs

     total energy              =   -5332.10269179 Ry
     estimated scf accuracy    <       0.00000106 Ry

     total magnetization       =    14.44 Bohr mag/cell
     absolute magnetization    =    16.32 Bohr mag/cell

     iteration # 40     ecut=    60.00 Ry     beta= 0.20
     Davidson diagonalization with overlap
     ethr =  4.42E-10,  avg # of iterations =  1.1

     negative rho (up, down):  2.054E-04 1.533E-04

     total cpu time spent up to now is    24469.6 secs

     total energy              =   -5332.10269198 Ry
     estimated scf accuracy    <       0.00000036 Ry

     total magnetization       =    14.44 Bohr mag/cell
     absolute magnetization    =    16.32 Bohr mag/cell

     iteration # 41     ecut=    60.00 Ry     beta= 0.20
     Davidson diagonalization with overlap
     ethr =  1.51E-10,  avg # of iterations =  1.7

     negative rho (up, down):  2.161E-04 1.638E-04

     total cpu time spent up to now is    25055.5 secs

     total energy              =   -5332.10269204 Ry
     estimated scf accuracy    <       0.00000018 Ry

     total magnetization       =    14.44 Bohr mag/cell
     absolute magnetization    =    16.32 Bohr mag/cell

     iteration # 42     ecut=    60.00 Ry     beta= 0.20
     Davidson diagonalization with overlap
     ethr =  7.57E-11,  avg # of iterations =  1.9

     negative rho (up, down):  2.331E-04 1.807E-04

     total cpu time spent up to now is    25631.7 secs

     total energy              =   -5332.10269212 Ry
     estimated scf accuracy    <       0.00000016 Ry

     total magnetization       =    14.44 Bohr mag/cell
     absolute magnetization    =    16.32 Bohr mag/cell

     iteration # 43     ecut=    60.00 Ry     beta= 0.20
     Davidson diagonalization with overlap
     ethr =  6.80E-11,  avg # of iterations =  1.6

     negative rho (up, down):  2.467E-04 1.939E-04

     total cpu time spent up to now is    26190.5 secs

     total energy              =   -5332.10269217 Ry
     estimated scf accuracy    <       0.00000004 Ry

     total magnetization       =    14.44 Bohr mag/cell
     absolute magnetization    =    16.32 Bohr mag/cell

     iteration # 44     ecut=    60.00 Ry     beta= 0.20
     Davidson diagonalization with overlap
     ethr =  1.69E-11,  avg # of iterations =  3.7

     negative rho (up, down):  2.457E-04 1.924E-04

     total cpu time spent up to now is    26880.4 secs

     total energy              =   -5332.10269218 Ry
     estimated scf accuracy    <       0.00000002 Ry

     total magnetization       =    14.44 Bohr mag/cell
     absolute magnetization    =    16.32 Bohr mag/cell

     iteration # 45     ecut=    60.00 Ry     beta= 0.20
     Davidson diagonalization with overlap
     ethr =  9.95E-12,  avg # of iterations =  2.0

     negative rho (up, down):  2.524E-04 1.990E-04

     total cpu time spent up to now is    27508.4 secs

     total energy              =   -5332.10269220 Ry
     estimated scf accuracy    <       0.00000003 Ry

     total magnetization       =    14.44 Bohr mag/cell
     absolute magnetization    =    16.32 Bohr mag/cell

     iteration # 46     ecut=    60.00 Ry     beta= 0.20
     Davidson diagonalization with overlap
     ethr =  9.95E-12,  avg # of iterations =  2.0

     negative rho (up, down):  2.462E-04 1.931E-04
 
     Magnetic moment per site  (integrated on atomic sphere of radius R)
     atom   1 (R=0.146)  charge=  7.0833  magn=  0.7379
     atom   2 (R=0.146)  charge=  7.0830  magn=  0.7423
     atom   3 (R=0.140)  charge=  5.1406  magn=  0.2141
     atom   4 (R=0.146)  charge=  7.0831  magn=  0.7423
     atom   5 (R=0.146)  charge=  7.0812  magn=  0.7623
     atom   6 (R=0.146)  charge=  7.0815  magn=  0.7519
     atom   7 (R=0.140)  charge=  5.1290  magn=  0.2613
     atom   8 (R=0.146)  charge=  7.0815  magn=  0.7520
     atom   9 (R=0.146)  charge=  7.0811  magn=  0.7341
     atom  10 (R=0.146)  charge=  7.0819  magn=  0.7134
     atom  11 (R=0.140)  charge=  5.1260  magn=  0.2493
     atom  12 (R=0.146)  charge=  7.0819  magn=  0.7134
     atom  13 (R=0.146)  charge=  7.0823  magn=  0.7156
     atom  14 (R=0.146)  charge=  7.0820  magn=  0.7145
     atom  15 (R=0.140)  charge=  5.1262  magn=  0.2496
     atom  16 (R=0.146)  charge=  7.0820  magn=  0.7145
     atom  17 (R=0.146)  charge=  7.0837  magn=  0.6530
     atom  18 (R=0.146)  charge=  7.0819  magn=  0.7510
     atom  19 (R=0.140)  charge=  5.1295  magn=  0.2592
     atom  20 (R=0.146)  charge=  7.0819  magn=  0.7510
     atom  21 (R=0.146)  charge=  7.0863  magn=  0.7459
     atom  22 (R=0.146)  charge=  7.0876  magn=  0.5948
     atom  23 (R=0.140)  charge=  5.1364  magn=  0.1482
     atom  24 (R=0.146)  charge=  7.0876  magn=  0.5948
     atom  25 (R=0.140)  charge=  0.9133  magn= -0.0058

     total cpu time spent up to now is    28102.0 secs

     End of self-consistent calculation

     Number of k-points >= 100: set verbosity='high' to print the bands.

     the Fermi energy is    -5.0781 ev

!    total energy              =   -5332.10269218 Ry
     total all-electron energy =   -115303.848833 Ry
     estimated scf accuracy    <          3.4E-09 Ry
     smearing contrib. (-TS)   =      -0.00248261 Ry
     internal energy E=F+TS    =   -5332.10020957 Ry

     The total energy is F=E-TS. E is the sum of the following terms:
     one-electron contribution =  -70022.22403157 Ry
     hartree contribution      =   35205.70382123 Ry
     xc contribution           =    -947.26836098 Ry
     ewald contribution        =   33505.29335897 Ry
     DFT-D3 Dispersion         =      -2.02480880 Ry
     one-center paw contrib.   =   -3071.58018841 Ry

     total magnetization       =    14.44 Bohr mag/cell
     absolute magnetization    =    16.32 Bohr mag/cell

     convergence has been achieved in  46 iterations

     negative rho (up, down):  2.462E-04 1.931E-04

     Forces acting on atoms (cartesian axes, Ry/au):

     atom    1 type  1   force =    -0.00000623    0.01346630    0.00375444
     atom    2 type  1   force =     0.01172629   -0.00677619    0.00372818
     atom    3 type  2   force =    -0.00000930   -0.00010854   -0.01859938
     atom    4 type  1   force =    -0.01171069   -0.00679872    0.00371701
     atom    5 type  1   force =    -0.00000865    0.00158738    0.00178538
     atom    6 type  1   force =     0.00129499   -0.00072053    0.00186719
     atom    7 type  2   force =    -0.00001148    0.00003187    0.00513152
     atom    8 type  1   force =    -0.00127688   -0.00074813    0.00185042
     atom    9 type  1   force =     0.00000010    0.00018893   -0.00042854
     atom   10 type  1   force =    -0.00032626   -0.00015034    0.00061042
     atom   11 type  2   force =    -0.00000007    0.00042846   -0.00017494
     atom   12 type  1   force =     0.00032757   -0.00015451    0.00061035
     atom   13 type  1   force =    -0.00000073    0.00044796   -0.00053414
     atom   14 type  1   force =     0.00014369   -0.00017701   -0.00063397
     atom   15 type  2   force =    -0.00000010    0.00030813   -0.00246405
     atom   16 type  1   force =    -0.00014190   -0.00018150   -0.00063442
     atom   17 type  1   force =    -0.00000211    0.00167878    0.00241337
     atom   18 type  1   force =     0.00154167   -0.00016135   -0.00350984
     atom   19 type  2   force =     0.00000021   -0.00242863   -0.00444224
     atom   20 type  1   force =    -0.00154011   -0.00016381   -0.00351175
     atom   21 type  1   force =    -0.00000036    0.00044275   -0.00185254
     atom   22 type  1   force =    -0.00271021   -0.00411640    0.00487597
     atom   23 type  2   force =    -0.00000015    0.02921504   -0.00235147
     atom   24 type  1   force =     0.00271085   -0.00411722    0.00487519
     atom   25 type  3   force =    -0.00000017   -0.02099271    0.00391783

     Total force =     0.038569     Total SCF correction =     0.000106


     Computing stress (Cartesian axis) and pressure


     negative rho (up, down):  2.462E-04 1.931E-04
          total   stress  (Ry/bohr**3)                   (kbar)     P=       -4.00
  -0.00005571   0.00000000   0.00000000           -8.19        0.00        0.00
   0.00000000  -0.00003416  -0.00000717            0.00       -5.03       -1.05
   0.00000000  -0.00000717   0.00000835            0.00       -1.05        1.23


     BFGS Geometry Optimization
     Energy error            =      0.0E+00 Ry
     Gradient error          =      2.9E-02 Ry/Bohr

     number of scf cycles    =   1
     number of bfgs steps    =   0

     energy             new  =   -5332.1026921767 Ry

     new trust radius        =       0.0293095174 bohr
     new conv_thr            =       0.0000000100 Ry


ATOMIC_POSITIONS (angstrom)
Ni               5.0381082178        2.9087344078       11.0000000000    0   0   0
Ni               1.2594928383        0.7271633007       11.0000321314    0   0   0
Pd               2.5190631929        2.9087349143       11.0000563881    0   0   0
Ni               3.7785410216        0.7272125305       11.0000798881    0   0   0
Ni               2.5190678846        1.4543657934       13.0567878192    0   0   0
Ni               6.2975735046        3.6359005296       13.0568199507    0   0   0
Pd               5.0381035260        1.4543662999       13.0568442073    0   0   0
Ni               3.7785410216        3.6359497594       13.0568677074    0   0   0
Ni               2.5190406460        4.3610802512       15.1122100614
Ni               3.7765464336        2.1825419444       15.1127529357
Pd               5.0380852895        4.3633445369       15.1085506468
Ni               6.2996316811        2.1825459475       15.1127543481
Ni               5.0380858622        2.9101112870       17.1676475195
Ni               1.2605763408        0.7265208489       17.1676000259
Pd               2.5190431642        2.9089003605       17.1801566028
Ni               3.7775051635        0.7265249678       17.1676044585
Ni               2.5190434485        1.4381936372       19.2286470735
Ni               6.2836364760        3.6443654898       19.2255136340
Pd               5.0380822730        1.4530850923       19.2127297333
Ni               3.7925260080        3.6443720534       19.2255153178
Ni               2.5190410558        4.3284032495       21.2495206916
Ni               3.7468693015        2.1968422177       21.2530809799
Pd               5.0380813209        4.3785662598       21.3554648399
Ni               6.3292918383        2.1968443869       21.2530799334
H                5.0380861584        2.8987653737       22.2525733188



     Writing config-only to output data dir /tmpu/isholek_g/isholek/MIGUEL/QE/Hydrogen/111_2x2/SAVE/Ni3Pd1_111-H_hcp_1.save/ :
     XML data file
     NEW-OLD atomic charge density approx. for the potential

     Check: negative core charge=   -0.000001

     negative rho (up, down):  2.466E-04 2.122E-04
     Generating pointlists ...

     total cpu time spent up to now is    28519.7 secs

     Self-consistent Calculation

     iteration #  1     ecut=    60.00 Ry     beta= 0.20
     Davidson diagonalization with overlap
     ethr =  1.00E-06,  avg # of iterations =  7.4

     negative rho (up, down):  3.368E-04 2.939E-04

     total cpu time spent up to now is    30231.3 secs

     total energy              =   -5332.10355678 Ry
     estimated scf accuracy    <       0.00406177 Ry

     total magnetization       =    14.43 Bohr mag/cell
     absolute magnetization    =    16.32 Bohr mag/cell

     iteration #  2     ecut=    60.00 Ry     beta= 0.20
     Davidson diagonalization with overlap
     ethr =  1.69E-06,  avg # of iterations =  1.0

     negative rho (up, down):  3.137E-04 2.685E-04

     total cpu time spent up to now is    30849.3 secs

     total energy              =   -5332.10361732 Ry
     estimated scf accuracy    <       0.00085913 Ry

     total magnetization       =    14.44 Bohr mag/cell
     absolute magnetization    =    16.32 Bohr mag/cell

     iteration #  3     ecut=    60.00 Ry     beta= 0.20
     Davidson diagonalization with overlap
     ethr =  3.56E-07,  avg # of iterations =  1.5

     negative rho (up, down):  2.973E-04 2.504E-04

     total cpu time spent up to now is    31465.0 secs

     total energy              =   -5332.10370109 Ry
     estimated scf accuracy    <       0.00095242 Ry

     total magnetization       =    14.44 Bohr mag/cell
     absolute magnetization    =    16.33 Bohr mag/cell

     iteration #  4     ecut=    60.00 Ry     beta= 0.20
     Davidson diagonalization with overlap
     ethr =  3.56E-07,  avg # of iterations =  1.0

     negative rho (up, down):  2.851E-04 2.365E-04

     total cpu time spent up to now is    32047.3 secs

     total energy              =   -5332.10374862 Ry
     estimated scf accuracy    <       0.00008647 Ry

     total magnetization       =    14.45 Bohr mag/cell
     absolute magnetization    =    16.33 Bohr mag/cell

     iteration #  5     ecut=    60.00 Ry     beta= 0.20
     Davidson diagonalization with overlap
     ethr =  3.59E-08,  avg # of iterations =  2.1

     negative rho (up, down):  2.767E-04 2.272E-04

     total cpu time spent up to now is    32678.4 secs

     total energy              =   -5332.10380904 Ry
     estimated scf accuracy    <       0.00008411 Ry

     total magnetization       =    14.44 Bohr mag/cell
     absolute magnetization    =    16.33 Bohr mag/cell

     iteration #  6     ecut=    60.00 Ry     beta= 0.20
     Davidson diagonalization with overlap
     ethr =  3.49E-08,  avg # of iterations =  2.0

     negative rho (up, down):  2.701E-04 2.198E-04

     total cpu time spent up to now is    33295.5 secs

     total energy              =   -5332.10384346 Ry
     estimated scf accuracy    <       0.00006680 Ry

     total magnetization       =    14.44 Bohr mag/cell
     absolute magnetization    =    16.33 Bohr mag/cell

     iteration #  7     ecut=    60.00 Ry     beta= 0.20
     Davidson diagonalization with overlap
     ethr =  2.77E-08,  avg # of iterations =  2.0

     negative rho (up, down):  2.672E-04 2.168E-04

     total cpu time spent up to now is    33946.6 secs

     total energy              =   -5332.10386729 Ry
     estimated scf accuracy    <       0.00003314 Ry

     total magnetization       =    14.44 Bohr mag/cell
     absolute magnetization    =    16.33 Bohr mag/cell

     iteration #  8     ecut=    60.00 Ry     beta= 0.20
     Davidson diagonalization with overlap
     ethr =  1.37E-08,  avg # of iterations =  2.0

     negative rho (up, down):  2.632E-04 2.123E-04

     total cpu time spent up to now is    34625.8 secs

     total energy              =   -5332.10387021 Ry
     estimated scf accuracy    <       0.00000378 Ry

     total magnetization       =    14.44 Bohr mag/cell
     absolute magnetization    =    16.32 Bohr mag/cell

     iteration #  9     ecut=    60.00 Ry     beta= 0.20
     Davidson diagonalization with overlap
     ethr =  1.57E-09,  avg # of iterations =  3.3

     negative rho (up, down):  2.590E-04 2.077E-04

     total cpu time spent up to now is    35302.4 secs

     total energy              =   -5332.10387014 Ry
     estimated scf accuracy    <       0.00000115 Ry

     total magnetization       =    14.44 Bohr mag/cell
     absolute magnetization    =    16.32 Bohr mag/cell

     iteration # 10     ecut=    60.00 Ry     beta= 0.20
     Davidson diagonalization with overlap
     ethr =  4.77E-10,  avg # of iterations =  4.4

     negative rho (up, down):  2.556E-04 2.038E-04

     total cpu time spent up to now is    36098.5 secs

     total energy              =   -5332.10387070 Ry
     estimated scf accuracy    <       0.00000065 Ry

     total magnetization       =    14.44 Bohr mag/cell
     absolute magnetization    =    16.32 Bohr mag/cell

     iteration # 11     ecut=    60.00 Ry     beta= 0.20
     Davidson diagonalization with overlap
     ethr =  2.69E-10,  avg # of iterations =  2.1

     negative rho (up, down):  2.536E-04 2.015E-04

     total cpu time spent up to now is    36753.7 secs

     total energy              =   -5332.10387088 Ry
     estimated scf accuracy    <       0.00000034 Ry

     total magnetization       =    14.44 Bohr mag/cell
     absolute magnetization    =    16.32 Bohr mag/cell

     iteration # 12     ecut=    60.00 Ry     beta= 0.20
     Davidson diagonalization with overlap
     ethr =  1.41E-10,  avg # of iterations =  1.7

     negative rho (up, down):  2.514E-04 1.991E-04

     total cpu time spent up to now is    37380.8 secs

     total energy              =   -5332.10387098 Ry
     estimated scf accuracy    <       0.00000059 Ry

     total magnetization       =    14.44 Bohr mag/cell
     absolute magnetization    =    16.32 Bohr mag/cell

     iteration # 13     ecut=    60.00 Ry     beta= 0.20
     Davidson diagonalization with overlap
     ethr =  1.41E-10,  avg # of iterations =  2.0

     negative rho (up, down):  2.501E-04 1.976E-04

     total cpu time spent up to now is    37997.0 secs

     total energy              =   -5332.10387102 Ry
     estimated scf accuracy    <       0.00000013 Ry

     total magnetization       =    14.44 Bohr mag/cell
     absolute magnetization    =    16.32 Bohr mag/cell

     iteration # 14     ecut=    60.00 Ry     beta= 0.20
     Davidson diagonalization with overlap
     ethr =  5.22E-11,  avg # of iterations =  2.2

     negative rho (up, down):  2.492E-04 1.966E-04

     total cpu time spent up to now is    38603.5 secs

     total energy              =   -5332.10387104 Ry
     estimated scf accuracy    <       0.00000004 Ry

     total magnetization       =    14.44 Bohr mag/cell
     absolute magnetization    =    16.32 Bohr mag/cell

     iteration # 15     ecut=    60.00 Ry     beta= 0.20
     Davidson diagonalization with overlap
     ethr =  1.54E-11,  avg # of iterations =  3.0

     negative rho (up, down):  2.483E-04 1.956E-04

     total cpu time spent up to now is    39308.9 secs

     total energy              =   -5332.10387105 Ry
     estimated scf accuracy    <       0.00000004 Ry

     total magnetization       =    14.44 Bohr mag/cell
     absolute magnetization    =    16.32 Bohr mag/cell

     iteration # 16     ecut=    60.00 Ry     beta= 0.20
     Davidson diagonalization with overlap
     ethr =  1.54E-11,  avg # of iterations =  1.1

     negative rho (up, down):  2.475E-04 1.947E-04

     total cpu time spent up to now is    39886.5 secs

     total energy              =   -5332.10387105 Ry
     estimated scf accuracy    <       0.00000004 Ry

     total magnetization       =    14.44 Bohr mag/cell
     absolute magnetization    =    16.32 Bohr mag/cell

     iteration # 17     ecut=    60.00 Ry     beta= 0.20
     Davidson diagonalization with overlap
     ethr =  1.54E-11,  avg # of iterations =  1.0

     negative rho (up, down):  2.471E-04 1.943E-04

     total cpu time spent up to now is    40457.0 secs

     total energy              =   -5332.10387106 Ry
     estimated scf accuracy    <       0.00000004 Ry

     total magnetization       =    14.44 Bohr mag/cell
     absolute magnetization    =    16.32 Bohr mag/cell

     iteration # 18     ecut=    60.00 Ry     beta= 0.20
     Davidson diagonalization with overlap
     ethr =  1.54E-11,  avg # of iterations =  1.9

     negative rho (up, down):  2.464E-04 1.936E-04

     total cpu time spent up to now is    41051.9 secs

     total energy              =   -5332.10387106 Ry
     estimated scf accuracy    <       0.00000003 Ry

     total magnetization       =    14.44 Bohr mag/cell
     absolute magnetization    =    16.32 Bohr mag/cell

     iteration # 19     ecut=    60.00 Ry     beta= 0.20
     Davidson diagonalization with overlap
     ethr =  1.05E-11,  avg # of iterations =  1.0

     negative rho (up, down):  2.451E-04 1.922E-04

     total cpu time spent up to now is    41626.0 secs

     total energy              =   -5332.10387106 Ry
     estimated scf accuracy    <       0.00000002 Ry

     total magnetization       =    14.44 Bohr mag/cell
     absolute magnetization    =    16.32 Bohr mag/cell

     iteration # 20     ecut=    60.00 Ry     beta= 0.20
     Davidson diagonalization with overlap
     ethr =  1.01E-11,  avg # of iterations =  1.0

     negative rho (up, down):  2.461E-04 1.930E-04
 
     Magnetic moment per site  (integrated on atomic sphere of radius R)
     atom   1 (R=0.146)  charge=  7.0833  magn=  0.7381
     atom   2 (R=0.146)  charge=  7.0830  magn=  0.7423
     atom   3 (R=0.140)  charge=  5.1406  magn=  0.2141
     atom   4 (R=0.146)  charge=  7.0830  magn=  0.7423
     atom   5 (R=0.146)  charge=  7.0812  magn=  0.7624
     atom   6 (R=0.146)  charge=  7.0815  magn=  0.7519
     atom   7 (R=0.140)  charge=  5.1290  magn=  0.2614
     atom   8 (R=0.146)  charge=  7.0815  magn=  0.7519
     atom   9 (R=0.146)  charge=  7.0812  magn=  0.7339
     atom  10 (R=0.146)  charge=  7.0820  magn=  0.7135
     atom  11 (R=0.140)  charge=  5.1261  magn=  0.2493
     atom  12 (R=0.146)  charge=  7.0820  magn=  0.7135
     atom  13 (R=0.146)  charge=  7.0824  magn=  0.7157
     atom  14 (R=0.146)  charge=  7.0820  magn=  0.7150
     atom  15 (R=0.140)  charge=  5.1262  magn=  0.2497
     atom  16 (R=0.146)  charge=  7.0820  magn=  0.7150
     atom  17 (R=0.146)  charge=  7.0838  magn=  0.6538
     atom  18 (R=0.146)  charge=  7.0817  magn=  0.7514
     atom  19 (R=0.140)  charge=  5.1295  magn=  0.2593
     atom  20 (R=0.146)  charge=  7.0817  magn=  0.7514
     atom  21 (R=0.146)  charge=  7.0863  magn=  0.7465
     atom  22 (R=0.146)  charge=  7.0873  magn=  0.5913
     atom  23 (R=0.140)  charge=  5.1361  magn=  0.1503
     atom  24 (R=0.146)  charge=  7.0873  magn=  0.5913
     atom  25 (R=0.140)  charge=  0.9033  magn= -0.0060

     total cpu time spent up to now is    42185.0 secs

     End of self-consistent calculation

     Number of k-points >= 100: set verbosity='high' to print the bands.

     the Fermi energy is    -5.0794 ev

!    total energy              =   -5332.10387106 Ry
     total all-electron energy =   -115303.850012 Ry
     estimated scf accuracy    <          5.6E-09 Ry
     smearing contrib. (-TS)   =      -0.00245546 Ry
     internal energy E=F+TS    =   -5332.10141560 Ry

     The total energy is F=E-TS. E is the sum of the following terms:
     one-electron contribution =  -70022.43580521 Ry
     hartree contribution      =   35205.81443856 Ry
     xc contribution           =    -947.26308823 Ry
     ewald contribution        =   33505.38760030 Ry
     DFT-D3 Dispersion         =      -2.02480099 Ry
     one-center paw contrib.   =   -3071.57976002 Ry

     total magnetization       =    14.44 Bohr mag/cell
     absolute magnetization    =    16.32 Bohr mag/cell

     convergence has been achieved in  20 iterations

     negative rho (up, down):  2.461E-04 1.930E-04

     Forces acting on atoms (cartesian axes, Ry/au):

     atom    1 type  1   force =    -0.00000536    0.01345682    0.00375378
     atom    2 type  1   force =     0.01173102   -0.00676684    0.00371082
     atom    3 type  2   force =    -0.00001000   -0.00010601   -0.01859753
     atom    4 type  1   force =    -0.01171571   -0.00679037    0.00370104
     atom    5 type  1   force =    -0.00000649    0.00161686    0.00170191
     atom    6 type  1   force =     0.00129669   -0.00074247    0.00183789
     atom    7 type  2   force =    -0.00001269    0.00010192    0.00514724
     atom    8 type  1   force =    -0.00127849   -0.00077252    0.00182324
     atom    9 type  1   force =    -0.00000151    0.00024741   -0.00057422
     atom   10 type  1   force =    -0.00009420   -0.00010516    0.00026498
     atom   11 type  2   force =     0.00000101    0.00019738   -0.00025698
     atom   12 type  1   force =     0.00009496   -0.00010661    0.00026354
     atom   13 type  1   force =    -0.00000134    0.00038966   -0.00063012
     atom   14 type  1   force =     0.00032174   -0.00007047   -0.00085138
     atom   15 type  2   force =     0.00000047   -0.00013156   -0.00190626
     atom   16 type  1   force =    -0.00032045   -0.00007276   -0.00085291
     atom   17 type  1   force =    -0.00000060    0.00213824    0.00082608
     atom   18 type  1   force =     0.00049034   -0.00051114   -0.00218305
     atom   19 type  2   force =    -0.00000048   -0.00095191   -0.00274296
     atom   20 type  1   force =    -0.00048932   -0.00051421   -0.00218352
     atom   21 type  1   force =    -0.00000004    0.00010862   -0.00184456
     atom   22 type  1   force =     0.00113029    0.00061670    0.00461069
     atom   23 type  2   force =    -0.00000028    0.01504510    0.00015323
     atom   24 type  1   force =    -0.00112935    0.00061547    0.00461113
     atom   25 type  3   force =    -0.00000021   -0.01689215    0.00021793

     Total force =     0.024327     Total SCF correction =     0.000498


     Computing stress (Cartesian axis) and pressure


     negative rho (up, down):  2.461E-04 1.930E-04
          total   stress  (Ry/bohr**3)                   (kbar)     P=       -3.80
  -0.00005365   0.00000000   0.00000000           -7.89        0.00        0.00
   0.00000000  -0.00003359  -0.00000670            0.00       -4.94       -0.99
   0.00000000  -0.00000670   0.00000984            0.00       -0.99        1.45

     Energy error            =      1.2E-03 Ry
     Gradient error          =      1.7E-02 Ry/Bohr

     number of scf cycles    =   2
     number of bfgs steps    =   1

     energy             old  =   -5332.1026921767 Ry
     energy             new  =   -5332.1038710585 Ry

     CASE: energy            _new < energy            _old

     new trust radius        =       0.0322404691 bohr
     new conv_thr            =       0.0000000022 Ry


ATOMIC_POSITIONS (angstrom)
Ni               5.0381082178        2.9087344078       11.0000000000    0   0   0
Ni               1.2594928383        0.7271633007       11.0000321314    0   0   0
Pd               2.5190631929        2.9087349143       11.0000563881    0   0   0
Ni               3.7785410216        0.7272125305       11.0000798881    0   0   0
Ni               2.5190678846        1.4543657934       13.0567878192    0   0   0
Ni               6.2975735046        3.6359005296       13.0568199507    0   0   0
Pd               5.0381035260        1.4543662999       13.0568442073    0   0   0
Ni               3.7785410216        3.6359497594       13.0568677074    0   0   0
Ni               2.5190393398        4.3613171316       15.1116613666
Ni               3.7764286898        2.1824336732       15.1130508460
Pd               5.0380861640        4.3635636008       15.1083069179
Ni               6.2997502287        2.1824359563       15.1130509902
Ni               5.0380846077        2.9105006487       17.1670384872
Ni               1.2608733328        0.7264400347       17.1667866438
Pd               2.5190435634        2.9088186688       17.1782222506
Ni               3.7772094958        0.7264416612       17.1667896913
Ni               2.5190426978        1.4402458244       19.2296311121
Ni               6.2842324031        3.6439009150       19.2232238692
Pd               5.0380818728        1.4519893416       19.2098492027
Ni               3.7919311425        3.6439045293       19.2232249377
Ni               2.5190409777        4.3285462307       21.2477065616
Ni               3.7475643260        2.1969356592       21.2576421886
Pd               5.0380810601        4.3948913142       21.3553441047
Ni               6.3285977041        2.1969366656       21.2576414414
H                5.0380859574        2.8817155435       22.2531884054



     Writing config-only to output data dir /tmpu/isholek_g/isholek/MIGUEL/QE/Hydrogen/111_2x2/SAVE/Ni3Pd1_111-H_hcp_1.save/ :
     XML data file
     NEW-OLD atomic charge density approx. for the potential

     Check: negative core charge=   -0.000001

     negative rho (up, down):  2.489E-04 2.173E-04
     Generating pointlists ...

     total cpu time spent up to now is    42600.8 secs

     Self-consistent Calculation

     iteration #  1     ecut=    60.00 Ry     beta= 0.20
     Davidson diagonalization with overlap
     ethr =  1.00E-06,  avg # of iterations =  7.5

     negative rho (up, down):  3.644E-04 3.257E-04

     total cpu time spent up to now is    44135.1 secs

     total energy              =   -5332.10434411 Ry
     estimated scf accuracy    <       0.00680270 Ry

     total magnetization       =    14.43 Bohr mag/cell
     absolute magnetization    =    16.31 Bohr mag/cell

     iteration #  2     ecut=    60.00 Ry     beta= 0.20
     Davidson diagonalization with overlap
     ethr =  2.82E-06,  avg # of iterations =  1.0

     negative rho (up, down):  3.330E-04 2.915E-04

     total cpu time spent up to now is    44678.1 secs

     total energy              =   -5332.10442774 Ry
     estimated scf accuracy    <       0.00225748 Ry

     total magnetization       =    14.44 Bohr mag/cell
     absolute magnetization    =    16.32 Bohr mag/cell

     iteration #  3     ecut=    60.00 Ry     beta= 0.20
     Davidson diagonalization with overlap
     ethr =  9.37E-07,  avg # of iterations =  1.0

     negative rho (up, down):  3.118E-04 2.678E-04

     total cpu time spent up to now is    45215.3 secs

     total energy              =   -5332.10453091 Ry
     estimated scf accuracy    <       0.00162790 Ry

     total magnetization       =    14.44 Bohr mag/cell
     absolute magnetization    =    16.32 Bohr mag/cell

     iteration #  4     ecut=    60.00 Ry     beta= 0.20
     Davidson diagonalization with overlap
     ethr =  6.75E-07,  avg # of iterations =  1.0

     negative rho (up, down):  2.959E-04 2.499E-04

     total cpu time spent up to now is    45764.3 secs

     total energy              =   -5332.10458315 Ry
     estimated scf accuracy    <       0.00010397 Ry

     total magnetization       =    14.44 Bohr mag/cell
     absolute magnetization    =    16.33 Bohr mag/cell

     iteration #  5     ecut=    60.00 Ry     beta= 0.20
     Davidson diagonalization with overlap
     ethr =  4.31E-08,  avg # of iterations =  2.1

     negative rho (up, down):  2.849E-04 2.372E-04

     total cpu time spent up to now is    46367.3 secs

     total energy              =   -5332.10467010 Ry
     estimated scf accuracy    <       0.00008104 Ry

     total magnetization       =    14.44 Bohr mag/cell
     absolute magnetization    =    16.33 Bohr mag/cell

     iteration #  6     ecut=    60.00 Ry     beta= 0.20
     Davidson diagonalization with overlap
     ethr =  3.36E-08,  avg # of iterations =  2.0

     negative rho (up, down):  2.769E-04 2.278E-04

     total cpu time spent up to now is    46964.7 secs

     total energy              =   -5332.10471582 Ry
     estimated scf accuracy    <       0.00007125 Ry

     total magnetization       =    14.44 Bohr mag/cell
     absolute magnetization    =    16.32 Bohr mag/cell

     iteration #  7     ecut=    60.00 Ry     beta= 0.20
     Davidson diagonalization with overlap
     ethr =  2.96E-08,  avg # of iterations =  2.0

     negative rho (up, down):  2.739E-04 2.239E-04

     total cpu time spent up to now is    47604.1 secs

     total energy              =   -5332.10473180 Ry
     estimated scf accuracy    <       0.00001808 Ry

     total magnetization       =    14.44 Bohr mag/cell
     absolute magnetization    =    16.32 Bohr mag/cell

     iteration #  8     ecut=    60.00 Ry     beta= 0.20
     Davidson diagonalization with overlap
     ethr =  7.50E-09,  avg # of iterations =  2.4

     negative rho (up, down):  2.691E-04 2.184E-04

     total cpu time spent up to now is    48299.7 secs

     total energy              =   -5332.10473316 Ry
     estimated scf accuracy    <       0.00000586 Ry

     total magnetization       =    14.44 Bohr mag/cell
     absolute magnetization    =    16.32 Bohr mag/cell

     iteration #  9     ecut=    60.00 Ry     beta= 0.20
     Davidson diagonalization with overlap
     ethr =  2.43E-09,  avg # of iterations =  2.1

     negative rho (up, down):  2.640E-04 2.127E-04

     total cpu time spent up to now is    48912.2 secs

     total energy              =   -5332.10473396 Ry
     estimated scf accuracy    <       0.00000262 Ry

     total magnetization       =    14.44 Bohr mag/cell
     absolute magnetization    =    16.32 Bohr mag/cell

     iteration # 10     ecut=    60.00 Ry     beta= 0.20
     Davidson diagonalization with overlap
     ethr =  1.09E-09,  avg # of iterations =  2.5

     negative rho (up, down):  2.602E-04 2.085E-04

     total cpu time spent up to now is    49542.0 secs

     total energy              =   -5332.10473427 Ry
     estimated scf accuracy    <       0.00000329 Ry

     total magnetization       =    14.44 Bohr mag/cell
     absolute magnetization    =    16.32 Bohr mag/cell

     iteration # 11     ecut=    60.00 Ry     beta= 0.20
     Davidson diagonalization with overlap
     ethr =  1.09E-09,  avg # of iterations =  2.0

     negative rho (up, down):  2.579E-04 2.058E-04

     total cpu time spent up to now is    50145.6 secs

     total energy              =   -5332.10473453 Ry
     estimated scf accuracy    <       0.00000059 Ry

     total magnetization       =    14.44 Bohr mag/cell
     absolute magnetization    =    16.32 Bohr mag/cell

     iteration # 12     ecut=    60.00 Ry     beta= 0.20
     Davidson diagonalization with overlap
     ethr =  2.47E-10,  avg # of iterations =  4.5

     negative rho (up, down):  2.556E-04 2.033E-04

     total cpu time spent up to now is    50916.0 secs

     total energy              =   -5332.10473481 Ry
     estimated scf accuracy    <       0.00000026 Ry

     total magnetization       =    14.44 Bohr mag/cell
     absolute magnetization    =    16.32 Bohr mag/cell

     iteration # 13     ecut=    60.00 Ry     beta= 0.20
     Davidson diagonalization with overlap
     ethr =  1.07E-10,  avg # of iterations =  3.0

     negative rho (up, down):  2.537E-04 2.012E-04

     total cpu time spent up to now is    51600.6 secs

     total energy              =   -5332.10473486 Ry
     estimated scf accuracy    <       0.00000018 Ry

     total magnetization       =    14.44 Bohr mag/cell
     absolute magnetization    =    16.32 Bohr mag/cell

     iteration # 14     ecut=    60.00 Ry     beta= 0.20
     Davidson diagonalization with overlap
     ethr =  7.40E-11,  avg # of iterations =  2.0

     negative rho (up, down):  2.523E-04 1.997E-04

     total cpu time spent up to now is    52182.1 secs

     total energy              =   -5332.10473488 Ry
     estimated scf accuracy    <       0.00000021 Ry

     total magnetization       =    14.44 Bohr mag/cell
     absolute magnetization    =    16.32 Bohr mag/cell

     iteration # 15     ecut=    60.00 Ry     beta= 0.20
     Davidson diagonalization with overlap
     ethr =  7.40E-11,  avg # of iterations =  1.1

     negative rho (up, down):  2.513E-04 1.986E-04

     total cpu time spent up to now is    52734.4 secs

     total energy              =   -5332.10473489 Ry
     estimated scf accuracy    <       0.00000016 Ry

     total magnetization       =    14.44 Bohr mag/cell
     absolute magnetization    =    16.32 Bohr mag/cell

     iteration # 16     ecut=    60.00 Ry     beta= 0.20
     Davidson diagonalization with overlap
     ethr =  6.48E-11,  avg # of iterations =  1.0

     negative rho (up, down):  2.503E-04 1.975E-04

     total cpu time spent up to now is    53295.1 secs

     total energy              =   -5332.10473490 Ry
     estimated scf accuracy    <       0.00000018 Ry

     total magnetization       =    14.44 Bohr mag/cell
     absolute magnetization    =    16.32 Bohr mag/cell

     iteration # 17     ecut=    60.00 Ry     beta= 0.20
     Davidson diagonalization with overlap
     ethr =  6.48E-11,  avg # of iterations =  1.0

     negative rho (up, down):  2.499E-04 1.970E-04

     total cpu time spent up to now is    53847.9 secs

     total energy              =   -5332.10473491 Ry
     estimated scf accuracy    <       0.00000014 Ry

     total magnetization       =    14.44 Bohr mag/cell
     absolute magnetization    =    16.32 Bohr mag/cell

     iteration # 18     ecut=    60.00 Ry     beta= 0.20
     Davidson diagonalization with overlap
     ethr =  5.92E-11,  avg # of iterations =  1.0

     negative rho (up, down):  2.492E-04 1.963E-04

     total cpu time spent up to now is    54383.9 secs

     total energy              =   -5332.10473491 Ry
     estimated scf accuracy    <       0.00000012 Ry

     total magnetization       =    14.44 Bohr mag/cell
     absolute magnetization    =    16.32 Bohr mag/cell

     iteration # 19     ecut=    60.00 Ry     beta= 0.20
     Davidson diagonalization with overlap
     ethr =  4.95E-11,  avg # of iterations =  1.0

     negative rho (up, down):  2.473E-04 1.944E-04

     total cpu time spent up to now is    54922.8 secs

     total energy              =   -5332.10473491 Ry
     estimated scf accuracy    <       0.00000008 Ry

     total magnetization       =    14.44 Bohr mag/cell
     absolute magnetization    =    16.32 Bohr mag/cell

     iteration # 20     ecut=    60.00 Ry     beta= 0.20
     Davidson diagonalization with overlap
     ethr =  3.48E-11,  avg # of iterations =  1.0

     negative rho (up, down):  2.469E-04 1.940E-04

     total cpu time spent up to now is    55467.3 secs

     total energy              =   -5332.10473491 Ry
     estimated scf accuracy    <          8.1E-09 Ry

     total magnetization       =    14.44 Bohr mag/cell
     absolute magnetization    =    16.32 Bohr mag/cell

     iteration # 21     ecut=    60.00 Ry     beta= 0.20
     Davidson diagonalization with overlap
     ethr =  3.37E-12,  avg # of iterations =  1.9

     negative rho (up, down):  2.464E-04 1.934E-04

     total cpu time spent up to now is    56079.6 secs

     total energy              =   -5332.10473491 Ry
     estimated scf accuracy    <          4.2E-09 Ry

     total magnetization       =    14.44 Bohr mag/cell
     absolute magnetization    =    16.32 Bohr mag/cell

     iteration # 22     ecut=    60.00 Ry     beta= 0.20
     Davidson diagonalization with overlap
     ethr =  1.75E-12,  avg # of iterations =  1.9

     negative rho (up, down):  2.461E-04 1.932E-04

     total cpu time spent up to now is    56661.5 secs

     total energy              =   -5332.10473491 Ry
     estimated scf accuracy    <          3.3E-09 Ry

     total magnetization       =    14.44 Bohr mag/cell
     absolute magnetization    =    16.32 Bohr mag/cell

     iteration # 23     ecut=    60.00 Ry     beta= 0.20
     Davidson diagonalization with overlap
     ethr =  1.37E-12,  avg # of iterations =  1.9

     negative rho (up, down):  2.460E-04 1.931E-04

     total cpu time spent up to now is    57250.1 secs

     total energy              =   -5332.10473491 Ry
     estimated scf accuracy    <          5.3E-09 Ry

     total magnetization       =    14.44 Bohr mag/cell
     absolute magnetization    =    16.32 Bohr mag/cell

     iteration # 24     ecut=    60.00 Ry     beta= 0.20
     Davidson diagonalization with overlap
     ethr =  1.37E-12,  avg # of iterations =  1.0

     negative rho (up, down):  2.453E-04 1.924E-04

     total cpu time spent up to now is    57812.2 secs

     total energy              =   -5332.10473491 Ry
     estimated scf accuracy    <          3.7E-09 Ry

     total magnetization       =    14.44 Bohr mag/cell
     absolute magnetization    =    16.32 Bohr mag/cell

     iteration # 25     ecut=    60.00 Ry     beta= 0.20
     Davidson diagonalization with overlap
     ethr =  1.37E-12,  avg # of iterations =  1.1

     negative rho (up, down):  2.454E-04 1.924E-04

     total cpu time spent up to now is    58360.7 secs

     total energy              =   -5332.10473491 Ry
     estimated scf accuracy    <          7.7E-09 Ry

     total magnetization       =    14.44 Bohr mag/cell
     absolute magnetization    =    16.32 Bohr mag/cell

     iteration # 26     ecut=    60.00 Ry     beta= 0.20
     Davidson diagonalization with overlap
     ethr =  1.37E-12,  avg # of iterations =  1.1

     negative rho (up, down):  2.454E-04 1.924E-04

     total cpu time spent up to now is    58898.6 secs

     total energy              =   -5332.10473491 Ry
     estimated scf accuracy    <          2.8E-09 Ry

     total magnetization       =    14.44 Bohr mag/cell
     absolute magnetization    =    16.32 Bohr mag/cell

     iteration # 27     ecut=    60.00 Ry     beta= 0.20
     Davidson diagonalization with overlap
     ethr =  1.18E-12,  avg # of iterations =  1.0

     negative rho (up, down):  2.454E-04 1.925E-04

     total cpu time spent up to now is    59440.5 secs

     total energy              =   -5332.10473491 Ry
     estimated scf accuracy    <          3.0E-09 Ry

     total magnetization       =    14.44 Bohr mag/cell
     absolute magnetization    =    16.32 Bohr mag/cell

     iteration # 28     ecut=    60.00 Ry     beta= 0.20
     Davidson diagonalization with overlap
     ethr =  1.18E-12,  avg # of iterations =  1.1

     negative rho (up, down):  2.456E-04 1.926E-04

     total cpu time spent up to now is    59993.5 secs

     total energy              =   -5332.10473491 Ry
     estimated scf accuracy    <          2.4E-09 Ry

     total magnetization       =    14.44 Bohr mag/cell
     absolute magnetization    =    16.32 Bohr mag/cell

     iteration # 29     ecut=    60.00 Ry     beta= 0.20
     Davidson diagonalization with overlap
     ethr =  1.00E-12,  avg # of iterations =  1.0

     negative rho (up, down):  2.459E-04 1.929E-04
 
     Magnetic moment per site  (integrated on atomic sphere of radius R)
     atom   1 (R=0.146)  charge=  7.0833  magn=  0.7382
     atom   2 (R=0.146)  charge=  7.0831  magn=  0.7422
     atom   3 (R=0.140)  charge=  5.1406  magn=  0.2142
     atom   4 (R=0.146)  charge=  7.0831  magn=  0.7422
     atom   5 (R=0.146)  charge=  7.0812  magn=  0.7625
     atom   6 (R=0.146)  charge=  7.0815  magn=  0.7517
     atom   7 (R=0.140)  charge=  5.1290  magn=  0.2614
     atom   8 (R=0.146)  charge=  7.0815  magn=  0.7517
     atom   9 (R=0.146)  charge=  7.0812  magn=  0.7338
     atom  10 (R=0.146)  charge=  7.0820  magn=  0.7136
     atom  11 (R=0.140)  charge=  5.1261  magn=  0.2494
     atom  12 (R=0.146)  charge=  7.0820  magn=  0.7136
     atom  13 (R=0.146)  charge=  7.0824  magn=  0.7158
     atom  14 (R=0.146)  charge=  7.0820  magn=  0.7157
     atom  15 (R=0.140)  charge=  5.1262  magn=  0.2498
     atom  16 (R=0.146)  charge=  7.0820  magn=  0.7157
     atom  17 (R=0.146)  charge=  7.0837  magn=  0.6549
     atom  18 (R=0.146)  charge=  7.0815  magn=  0.7519
     atom  19 (R=0.140)  charge=  5.1295  magn=  0.2594
     atom  20 (R=0.146)  charge=  7.0815  magn=  0.7519
     atom  21 (R=0.146)  charge=  7.0861  magn=  0.7471
     atom  22 (R=0.146)  charge=  7.0870  magn=  0.5858
     atom  23 (R=0.140)  charge=  5.1365  magn=  0.1529
     atom  24 (R=0.146)  charge=  7.0870  magn=  0.5858
     atom  25 (R=0.140)  charge=  0.8962  magn= -0.0062

     total cpu time spent up to now is    60539.6 secs

     End of self-consistent calculation

     Number of k-points >= 100: set verbosity='high' to print the bands.

     the Fermi energy is    -5.0801 ev

!    total energy              =   -5332.10473491 Ry
     total all-electron energy =   -115303.850876 Ry
     estimated scf accuracy    <          5.7E-10 Ry
     smearing contrib. (-TS)   =      -0.00241000 Ry
     internal energy E=F+TS    =   -5332.10232492 Ry

     The total energy is F=E-TS. E is the sum of the following terms:
     one-electron contribution =  -70019.28817956 Ry
     hartree contribution      =   35204.23795144 Ry
     xc contribution           =    -947.25787004 Ry
     ewald contribution        =   33503.80973014 Ry
     DFT-D3 Dispersion         =      -2.02463884 Ry
     one-center paw contrib.   =   -3071.57931806 Ry

     total magnetization       =    14.44 Bohr mag/cell
     absolute magnetization    =    16.32 Bohr mag/cell

     convergence has been achieved in  29 iterations

     negative rho (up, down):  2.459E-04 1.929E-04

     Forces acting on atoms (cartesian axes, Ry/au):

     atom    1 type  1   force =    -0.00000545    0.01344306    0.00375860
     atom    2 type  1   force =     0.01173658   -0.00675799    0.00369889
     atom    3 type  2   force =    -0.00000996   -0.00010671   -0.01862717
     atom    4 type  1   force =    -0.01172127   -0.00678139    0.00368894
     atom    5 type  1   force =    -0.00000666    0.00166243    0.00168023
     atom    6 type  1   force =     0.00129889   -0.00078328    0.00186160
     atom    7 type  2   force =    -0.00001267    0.00020999    0.00508332
     atom    8 type  1   force =    -0.00128067   -0.00081295    0.00184693
     atom    9 type  1   force =    -0.00000040    0.00024755   -0.00057754
     atom   10 type  1   force =     0.00014277   -0.00004717   -0.00010896
     atom   11 type  2   force =     0.00000014   -0.00004525   -0.00041439
     atom   12 type  1   force =    -0.00014219   -0.00004831   -0.00010956
     atom   13 type  1   force =    -0.00000048    0.00026649   -0.00068806
     atom   14 type  1   force =     0.00031911   -0.00003785   -0.00086409
     atom   15 type  2   force =     0.00000009   -0.00028440   -0.00116895
     atom   16 type  1   force =    -0.00031823   -0.00003903   -0.00086483
     atom   17 type  1   force =    -0.00000050    0.00224210   -0.00011956
     atom   18 type  1   force =    -0.00055621   -0.00047318   -0.00069761
     atom   19 type  2   force =     0.00000006    0.00024318   -0.00074643
     atom   20 type  1   force =     0.00055671   -0.00047458   -0.00069791
     atom   21 type  1   force =    -0.00000002   -0.00001332   -0.00187539
     atom   22 type  1   force =     0.00369155    0.00427348    0.00342405
     atom   23 type  2   force =     0.00000012    0.00238501    0.00181361
     atom   24 type  1   force =    -0.00369112    0.00427295    0.00342428
     atom   25 type  3   force =    -0.00000018   -0.01254083   -0.00272001

     Total force =     0.016626     Total SCF correction =     0.000064


     Computing stress (Cartesian axis) and pressure


     negative rho (up, down):  2.459E-04 1.929E-04
          total   stress  (Ry/bohr**3)                   (kbar)     P=       -4.25
  -0.00005602   0.00000000   0.00000000           -8.24        0.00        0.00
   0.00000000  -0.00003704  -0.00000623            0.00       -5.45       -0.92
   0.00000000  -0.00000623   0.00000648            0.00       -0.92        0.95

     Energy error            =      8.6E-04 Ry
     Gradient error          =      1.3E-02 Ry/Bohr

     number of scf cycles    =   3
     number of bfgs steps    =   2

     energy             old  =   -5332.1038710585 Ry
     energy             new  =   -5332.1047349141 Ry

     CASE: energy            _new < energy            _old

     new trust radius        =       0.0492303903 bohr
     new conv_thr            =       0.0000000016 Ry


ATOMIC_POSITIONS (angstrom)
Ni               5.0381082178        2.9087344078       11.0000000000    0   0   0
Ni               1.2594928383        0.7271633007       11.0000321314    0   0   0
Pd               2.5190631929        2.9087349143       11.0000563881    0   0   0
Ni               3.7785410216        0.7272125305       11.0000798881    0   0   0
Ni               2.5190678846        1.4543657934       13.0567878192    0   0   0
Ni               6.2975735046        3.6359005296       13.0568199507    0   0   0
Pd               5.0381035260        1.4543662999       13.0568442073    0   0   0
Ni               3.7785410216        3.6359497594       13.0568677074    0   0   0
Ni               2.5190383103        4.3617334045       15.1106947354
Ni               3.7764520439        2.1822991842       15.1132114729
Pd               5.0380867202        4.3637141160       15.1077142266
Ni               6.2997281602        2.1822985408       15.1132103641
Ni               5.0380833348        2.9110664395       17.1659032458
Ni               1.2613842637        0.7263228069       17.1653456116
Pd               2.5190438308        2.9085459283       17.1755232749
Ni               3.7767005143        0.7263210177       17.1653471081
Ni               2.5190413492        1.4439642315       19.2305015902
Ni               6.2842661195        3.6431428874       19.2206247957
Pd               5.0380817867        1.4511923458       19.2067122233
Ni               3.7918988040        3.6431430708       19.2206248374
Ni               2.5190408363        4.3286969640       21.2444521478
Ni               3.7512084555        2.2005998875       21.2645086887
Pd               5.0380810306        4.4115975174       21.3566909020
Ni               6.3249545991        2.2005996017       21.2645081625
H                5.0380856294        2.8557212035       22.2514620840



     Writing config-only to output data dir /tmpu/isholek_g/isholek/MIGUEL/QE/Hydrogen/111_2x2/SAVE/Ni3Pd1_111-H_hcp_1.save/ :
     XML data file
     NEW-OLD atomic charge density approx. for the potential

     Check: negative core charge=   -0.000001

     negative rho (up, down):  2.481E-04 2.120E-04
     Generating pointlists ...
     new r_m :   0.1432 (alat units)  1.3634 (a.u.) for type    1

     total cpu time spent up to now is    60953.5 secs

     Self-consistent Calculation

     iteration #  1     ecut=    60.00 Ry     beta= 0.20
     Davidson diagonalization with overlap
     ethr =  1.00E-06,  avg # of iterations =  7.1

     negative rho (up, down):  3.081E-04 2.658E-04

     total cpu time spent up to now is    62561.8 secs

     total energy              =   -5332.10496830 Ry
     estimated scf accuracy    <       0.00319743 Ry

     total magnetization       =    14.42 Bohr mag/cell
     absolute magnetization    =    16.31 Bohr mag/cell

     iteration #  2     ecut=    60.00 Ry     beta= 0.20
     Davidson diagonalization with overlap
     ethr =  1.33E-06,  avg # of iterations =  1.0

     negative rho (up, down):  2.920E-04 2.474E-04

     total cpu time spent up to now is    63095.8 secs

     total energy              =   -5332.10507151 Ry
     estimated scf accuracy    <       0.00114966 Ry

     total magnetization       =    14.43 Bohr mag/cell
     absolute magnetization    =    16.31 Bohr mag/cell

     iteration #  3     ecut=    60.00 Ry     beta= 0.20
     Davidson diagonalization with overlap
     ethr =  4.77E-07,  avg # of iterations =  1.5

     negative rho (up, down):  2.809E-04 2.345E-04

     total cpu time spent up to now is    63667.2 secs

     total energy              =   -5332.10519164 Ry
     estimated scf accuracy    <       0.00034780 Ry

     total magnetization       =    14.44 Bohr mag/cell
     absolute magnetization    =    16.32 Bohr mag/cell

     iteration #  4     ecut=    60.00 Ry     beta= 0.20
     Davidson diagonalization with overlap
     ethr =  1.44E-07,  avg # of iterations =  1.7

     negative rho (up, down):  2.727E-04 2.246E-04

     total cpu time spent up to now is    64251.2 secs

     total energy              =   -5332.10525870 Ry
     estimated scf accuracy    <       0.00013508 Ry

     total magnetization       =    14.44 Bohr mag/cell
     absolute magnetization    =    16.32 Bohr mag/cell

     iteration #  5     ecut=    60.00 Ry     beta= 0.20
     Davidson diagonalization with overlap
     ethr =  5.60E-08,  avg # of iterations =  1.8

     negative rho (up, down):  2.671E-04 2.180E-04

     total cpu time spent up to now is    64840.0 secs

     total energy              =   -5332.10533074 Ry
     estimated scf accuracy    <       0.00022211 Ry

     total magnetization       =    14.44 Bohr mag/cell
     absolute magnetization    =    16.32 Bohr mag/cell

     iteration #  6     ecut=    60.00 Ry     beta= 0.20
     Davidson diagonalization with overlap
     ethr =  5.60E-08,  avg # of iterations =  2.0

     negative rho (up, down):  2.635E-04 2.137E-04

     total cpu time spent up to now is    65436.9 secs

     total energy              =   -5332.10537720 Ry
     estimated scf accuracy    <       0.00008960 Ry

     total magnetization       =    14.43 Bohr mag/cell
     absolute magnetization    =    16.32 Bohr mag/cell

     iteration #  7     ecut=    60.00 Ry     beta= 0.20
     Davidson diagonalization with overlap
     ethr =  3.72E-08,  avg # of iterations =  2.0

     negative rho (up, down):  2.606E-04 2.105E-04

     total cpu time spent up to now is    66016.4 secs

     total energy              =   -5332.10538422 Ry
     estimated scf accuracy    <       0.00005238 Ry

     total magnetization       =    14.43 Bohr mag/cell
     absolute magnetization    =    16.32 Bohr mag/cell

     iteration #  8     ecut=    60.00 Ry     beta= 0.20
     Davidson diagonalization with overlap
     ethr =  2.17E-08,  avg # of iterations =  2.0

     negative rho (up, down):  2.579E-04 2.073E-04

     total cpu time spent up to now is    66609.8 secs

     total energy              =   -5332.10538453 Ry
     estimated scf accuracy    <       0.00000655 Ry

     total magnetization       =    14.43 Bohr mag/cell
     absolute magnetization    =    16.32 Bohr mag/cell

     iteration #  9     ecut=    60.00 Ry     beta= 0.20
     Davidson diagonalization with overlap
     ethr =  2.72E-09,  avg # of iterations =  5.0

     negative rho (up, down):  2.541E-04 2.029E-04

     total cpu time spent up to now is    67366.2 secs

     total energy              =   -5332.10538756 Ry
     estimated scf accuracy    <       0.00000250 Ry

     total magnetization       =    14.43 Bohr mag/cell
     absolute magnetization    =    16.31 Bohr mag/cell

     iteration # 10     ecut=    60.00 Ry     beta= 0.20
     Davidson diagonalization with overlap
     ethr =  1.04E-09,  avg # of iterations =  2.6

     negative rho (up, down):  2.514E-04 1.999E-04

     total cpu time spent up to now is    68065.8 secs

     total energy              =   -5332.10538816 Ry
     estimated scf accuracy    <       0.00000094 Ry

     total magnetization       =    14.43 Bohr mag/cell
     absolute magnetization    =    16.31 Bohr mag/cell

     iteration # 11     ecut=    60.00 Ry     beta= 0.20
     Davidson diagonalization with overlap
     ethr =  3.91E-10,  avg # of iterations =  3.0

     negative rho (up, down):  2.496E-04 1.978E-04

     total cpu time spent up to now is    68783.7 secs

     total energy              =   -5332.10538827 Ry
     estimated scf accuracy    <       0.00000065 Ry

     total magnetization       =    14.43 Bohr mag/cell
     absolute magnetization    =    16.31 Bohr mag/cell

     iteration # 12     ecut=    60.00 Ry     beta= 0.20
     Davidson diagonalization with overlap
     ethr =  2.68E-10,  avg # of iterations =  1.8

     negative rho (up, down):  2.483E-04 1.962E-04

     total cpu time spent up to now is    69392.2 secs

     total energy              =   -5332.10538832 Ry
     estimated scf accuracy    <       0.00000072 Ry

     total magnetization       =    14.43 Bohr mag/cell
     absolute magnetization    =    16.31 Bohr mag/cell

     iteration # 13     ecut=    60.00 Ry     beta= 0.20
     Davidson diagonalization with overlap
     ethr =  2.68E-10,  avg # of iterations =  1.1

     negative rho (up, down):  2.468E-04 1.945E-04

     total cpu time spent up to now is    70006.2 secs

     total energy              =   -5332.10538841 Ry
     estimated scf accuracy    <       0.00000034 Ry

     total magnetization       =    14.43 Bohr mag/cell
     absolute magnetization    =    16.31 Bohr mag/cell

     iteration # 14     ecut=    60.00 Ry     beta= 0.20
     Davidson diagonalization with overlap
     ethr =  1.41E-10,  avg # of iterations =  2.0

     negative rho (up, down):  2.460E-04 1.936E-04

     total cpu time spent up to now is    70660.3 secs

     total energy              =   -5332.10538845 Ry
     estimated scf accuracy    <       0.00000004 Ry

     total magnetization       =    14.43 Bohr mag/cell
     absolute magnetization    =    16.31 Bohr mag/cell

     iteration # 15     ecut=    60.00 Ry     beta= 0.20
     Davidson diagonalization with overlap
     ethr =  1.65E-11,  avg # of iterations =  4.7

     negative rho (up, down):  2.454E-04 1.930E-04

     total cpu time spent up to now is    71746.2 secs

     total energy              =   -5332.10538846 Ry
     estimated scf accuracy    <       0.00000004 Ry

     total magnetization       =    14.43 Bohr mag/cell
     absolute magnetization    =    16.31 Bohr mag/cell

     iteration # 16     ecut=    60.00 Ry     beta= 0.20
     Davidson diagonalization with overlap
     ethr =  1.51E-11,  avg # of iterations =  2.0

     negative rho (up, down):  2.448E-04 1.923E-04

     total cpu time spent up to now is    72359.7 secs

     total energy              =   -5332.10538846 Ry
     estimated scf accuracy    <       0.00000003 Ry

     total magnetization       =    14.43 Bohr mag/cell
     absolute magnetization    =    16.31 Bohr mag/cell

     iteration # 17     ecut=    60.00 Ry     beta= 0.20
     Davidson diagonalization with overlap
     ethr =  1.43E-11,  avg # of iterations =  1.0

     negative rho (up, down):  2.443E-04 1.917E-04

     total cpu time spent up to now is    72935.8 secs

     total energy              =   -5332.10538847 Ry
     estimated scf accuracy    <       0.00000003 Ry

     total magnetization       =    14.43 Bohr mag/cell
     absolute magnetization    =    16.31 Bohr mag/cell

     iteration # 18     ecut=    60.00 Ry     beta= 0.20
     Davidson diagonalization with overlap
     ethr =  1.39E-11,  avg # of iterations =  1.1

     negative rho (up, down):  2.439E-04 1.913E-04

     total cpu time spent up to now is    73517.3 secs

     total energy              =   -5332.10538848 Ry
     estimated scf accuracy    <       0.00000003 Ry

     total magnetization       =    14.43 Bohr mag/cell
     absolute magnetization    =    16.31 Bohr mag/cell

     iteration # 19     ecut=    60.00 Ry     beta= 0.20
     Davidson diagonalization with overlap
     ethr =  1.37E-11,  avg # of iterations =  2.0

     negative rho (up, down):  2.436E-04 1.909E-04

     total cpu time spent up to now is    74103.9 secs

     total energy              =   -5332.10538848 Ry
     estimated scf accuracy    <       0.00000002 Ry

     total magnetization       =    14.43 Bohr mag/cell
     absolute magnetization    =    16.31 Bohr mag/cell

     iteration # 20     ecut=    60.00 Ry     beta= 0.20
     Davidson diagonalization with overlap
     ethr =  9.85E-12,  avg # of iterations =  1.0

     negative rho (up, down):  2.432E-04 1.904E-04

     total cpu time spent up to now is    74644.7 secs

     total energy              =   -5332.10538848 Ry
     estimated scf accuracy    <       0.00000001 Ry

     total magnetization       =    14.43 Bohr mag/cell
     absolute magnetization    =    16.31 Bohr mag/cell

     iteration # 21     ecut=    60.00 Ry     beta= 0.20
     Davidson diagonalization with overlap
     ethr =  5.95E-12,  avg # of iterations =  1.0

     negative rho (up, down):  2.428E-04 1.901E-04

     total cpu time spent up to now is    75200.0 secs

     total energy              =   -5332.10538848 Ry
     estimated scf accuracy    <          5.6E-09 Ry

     total magnetization       =    14.43 Bohr mag/cell
     absolute magnetization    =    16.31 Bohr mag/cell

     iteration # 22     ecut=    60.00 Ry     beta= 0.20
     Davidson diagonalization with overlap
     ethr =  2.33E-12,  avg # of iterations =  1.1

     negative rho (up, down):  2.457E-04 1.927E-04
 
     Magnetic moment per site  (integrated on atomic sphere of radius R)
     atom   1 (R=0.143)  charge=  7.0016  magn=  0.7331
     atom   2 (R=0.143)  charge=  7.0014  magn=  0.7370
     atom   3 (R=0.140)  charge=  5.1406  magn=  0.2142
     atom   4 (R=0.143)  charge=  7.0014  magn=  0.7370
     atom   5 (R=0.143)  charge=  6.9988  magn=  0.7575
     atom   6 (R=0.143)  charge=  6.9991  magn=  0.7465
     atom   7 (R=0.140)  charge=  5.1290  magn=  0.2615
     atom   8 (R=0.143)  charge=  6.9991  magn=  0.7465
     atom   9 (R=0.143)  charge=  6.9984  magn=  0.7288
     atom  10 (R=0.143)  charge=  6.9993  magn=  0.7090
     atom  11 (R=0.140)  charge=  5.1262  magn=  0.2496
     atom  12 (R=0.143)  charge=  6.9993  magn=  0.7089
     atom  13 (R=0.143)  charge=  6.9998  magn=  0.7113
     atom  14 (R=0.143)  charge=  6.9994  magn=  0.7119
     atom  15 (R=0.140)  charge=  5.1260  magn=  0.2500
     atom  16 (R=0.143)  charge=  6.9994  magn=  0.7119
     atom  17 (R=0.143)  charge=  7.0009  magn=  0.6518
     atom  18 (R=0.143)  charge=  6.9991  magn=  0.7474
     atom  19 (R=0.140)  charge=  5.1295  magn=  0.2593
     atom  20 (R=0.143)  charge=  6.9991  magn=  0.7474
     atom  21 (R=0.143)  charge=  7.0050  magn=  0.7425
     atom  22 (R=0.143)  charge=  7.0060  magn=  0.5737
     atom  23 (R=0.140)  charge=  5.1372  magn=  0.1560
     atom  24 (R=0.143)  charge=  7.0060  magn=  0.5737
     atom  25 (R=0.140)  charge=  0.8935  magn= -0.0065

     total cpu time spent up to now is    75750.5 secs

     End of self-consistent calculation

     Number of k-points >= 100: set verbosity='high' to print the bands.

     the Fermi energy is    -5.0809 ev

!    total energy              =   -5332.10538849 Ry
     total all-electron energy =   -115303.851530 Ry
     estimated scf accuracy    <          1.3E-09 Ry
     smearing contrib. (-TS)   =      -0.00234138 Ry
     internal energy E=F+TS    =   -5332.10304711 Ry

     The total energy is F=E-TS. E is the sum of the following terms:
     one-electron contribution =  -70011.97760868 Ry
     hartree contribution      =   35200.58998323 Ry
     xc contribution           =    -947.25322340 Ry
     ewald contribution        =   33500.14097353 Ry
     DFT-D3 Dispersion         =      -2.02427870 Ry
     one-center paw contrib.   =   -3071.57889308 Ry

     total magnetization       =    14.43 Bohr mag/cell
     absolute magnetization    =    16.31 Bohr mag/cell

     convergence has been achieved in  22 iterations

     negative rho (up, down):  2.457E-04 1.927E-04

     Forces acting on atoms (cartesian axes, Ry/au):

     atom    1 type  1   force =    -0.00000544    0.01342070    0.00375115
     atom    2 type  1   force =     0.01173983   -0.00674280    0.00367688
     atom    3 type  2   force =    -0.00000995   -0.00011269   -0.01863901
     atom    4 type  1   force =    -0.01172453   -0.00676619    0.00366692
     atom    5 type  1   force =    -0.00000655    0.00173747    0.00156141
     atom    6 type  1   force =     0.00132511   -0.00083918    0.00177482
     atom    7 type  2   force =    -0.00001274    0.00035355    0.00488788
     atom    8 type  1   force =    -0.00130691   -0.00086873    0.00176021
     atom    9 type  1   force =     0.00000025    0.00017129   -0.00055971
     atom   10 type  1   force =     0.00031376    0.00000218   -0.00061487
     atom   11 type  2   force =    -0.00000010   -0.00021987   -0.00058814
     atom   12 type  1   force =    -0.00031358    0.00000229   -0.00061483
     atom   13 type  1   force =     0.00000029    0.00003211   -0.00073043
     atom   14 type  1   force =     0.00011853   -0.00002684   -0.00068389
     atom   15 type  2   force =    -0.00000005   -0.00016952   -0.00012435
     atom   16 type  1   force =    -0.00011829   -0.00002634   -0.00068386
     atom   17 type  1   force =     0.00000011    0.00187859   -0.00020384
     atom   18 type  1   force =    -0.00142190    0.00002904    0.00080325
     atom   19 type  2   force =     0.00000017    0.00107672    0.00135682
     atom   20 type  1   force =     0.00142178    0.00002932    0.00080341
     atom   21 type  1   force =     0.00000011    0.00017714   -0.00160840
     atom   22 type  1   force =     0.00418909    0.00605028    0.00131998
     atom   23 type  2   force =     0.00000016   -0.00742213    0.00254534
     atom   24 type  1   force =    -0.00418900    0.00605045    0.00132022
     atom   25 type  3   force =    -0.00000014   -0.00781685   -0.00417695

     Total force =     0.016422     Total SCF correction =     0.000160


     Computing stress (Cartesian axis) and pressure


     negative rho (up, down):  2.457E-04 1.927E-04
          total   stress  (Ry/bohr**3)                   (kbar)     P=       -4.38
  -0.00005623   0.00000000   0.00000000           -8.27        0.00        0.00
   0.00000000  -0.00003816  -0.00000572            0.00       -5.61       -0.84
   0.00000000  -0.00000572   0.00000505            0.00       -0.84        0.74

     Energy error            =      6.5E-04 Ry
     Gradient error          =      7.8E-03 Ry/Bohr

     number of scf cycles    =   4
     number of bfgs steps    =   3

     energy             old  =   -5332.1047349141 Ry
     energy             new  =   -5332.1053884874 Ry

     CASE: energy            _new < energy            _old

     new trust radius        =       0.0442850343 bohr
     new conv_thr            =       0.0000000010 Ry


ATOMIC_POSITIONS (angstrom)
Ni               5.0381082178        2.9087344078       11.0000000000    0   0   0
Ni               1.2594928383        0.7271633007       11.0000321314    0   0   0
Pd               2.5190631929        2.9087349143       11.0000563881    0   0   0
Ni               3.7785410216        0.7272125305       11.0000798881    0   0   0
Ni               2.5190678846        1.4543657934       13.0567878192    0   0   0
Ni               6.2975735046        3.6359005296       13.0568199507    0   0   0
Pd               5.0381035260        1.4543662999       13.0568442073    0   0   0
Ni               3.7785410216        3.6359497594       13.0568677074    0   0   0
Ni               2.5190379515        4.3621112507       15.1096825235
Ni               3.7766493821        2.1822046906       15.1129104867
Pd               5.0380869642        4.3636981540       15.1069157981
Ni               6.2995318404        2.1822019668       15.1129087274
Ni               5.0380827693        2.9114553274       17.1646518817
Ni               1.2617549626        0.7262094838       17.1639654009
Pd               2.5190439318        2.9083405664       17.1736209440
Ni               3.7763313039        0.7262055753       17.1639660316
Ni               2.5190404122        1.4476234515       19.2312603602
Ni               6.2834475418        3.6427724004       19.2193019631
Pd               5.0380818789        1.4511820902       19.2053883872
Ni               3.7927182688        3.6427705964       19.2193012912
Ni               2.5190407926        4.3290087206       21.2412059361
Ni               3.7557853154        2.2064123855       21.2698873659
Pd               5.0380810939        4.4196532963       21.3589214274
Ni               6.3203784594        2.2064114142       21.2698870297
H                5.0380853183        2.8325344727       22.2480624605



     Writing config-only to output data dir /tmpu/isholek_g/isholek/MIGUEL/QE/Hydrogen/111_2x2/SAVE/Ni3Pd1_111-H_hcp_1.save/ :
     XML data file
     NEW-OLD atomic charge density approx. for the potential

     Check: negative core charge=   -0.000001

     negative rho (up, down):  2.387E-04 2.134E-04
     Generating pointlists ...
     new r_m :   0.1417 (alat units)  1.3486 (a.u.) for type    1

     total cpu time spent up to now is    76165.8 secs

     Self-consistent Calculation

     iteration #  1     ecut=    60.00 Ry     beta= 0.20
     Davidson diagonalization with overlap
     ethr =  1.00E-06,  avg # of iterations =  6.0

     negative rho (up, down):  2.913E-04 2.536E-04

     total cpu time spent up to now is    77543.6 secs

     total energy              =   -5332.10566985 Ry
     estimated scf accuracy    <       0.00156439 Ry

     total magnetization       =    14.43 Bohr mag/cell
     absolute magnetization    =    16.31 Bohr mag/cell

     iteration #  2     ecut=    60.00 Ry     beta= 0.20
     Davidson diagonalization with overlap
     ethr =  6.49E-07,  avg # of iterations =  1.0

     negative rho (up, down):  2.774E-04 2.370E-04

     total cpu time spent up to now is    78105.0 secs

     total energy              =   -5332.10573351 Ry
     estimated scf accuracy    <       0.00233090 Ry

     total magnetization       =    14.42 Bohr mag/cell
     absolute magnetization    =    16.31 Bohr mag/cell

     iteration #  3     ecut=    60.00 Ry     beta= 0.20
     Davidson diagonalization with overlap
     ethr =  6.49E-07,  avg # of iterations =  1.0

     negative rho (up, down):  2.675E-04 2.245E-04

     total cpu time spent up to now is    78667.1 secs

     total energy              =   -5332.10575439 Ry
     estimated scf accuracy    <       0.00012349 Ry

     total magnetization       =    14.43 Bohr mag/cell
     absolute magnetization    =    16.31 Bohr mag/cell

     iteration #  4     ecut=    60.00 Ry     beta= 0.20
     Davidson diagonalization with overlap
     ethr =  5.12E-08,  avg # of iterations =  1.2

     negative rho (up, down):  2.605E-04 2.150E-04

     total cpu time spent up to now is    79248.1 secs

     total energy              =   -5332.10576175 Ry
     estimated scf accuracy    <       0.00009541 Ry

     total magnetization       =    14.43 Bohr mag/cell
     absolute magnetization    =    16.31 Bohr mag/cell

     iteration #  5     ecut=    60.00 Ry     beta= 0.20
     Davidson diagonalization with overlap
     ethr =  3.96E-08,  avg # of iterations =  2.0

     negative rho (up, down):  2.561E-04 2.086E-04

     total cpu time spent up to now is    79811.6 secs

     total energy              =   -5332.10576656 Ry
     estimated scf accuracy    <       0.00008985 Ry

     total magnetization       =    14.43 Bohr mag/cell
     absolute magnetization    =    16.31 Bohr mag/cell

     iteration #  6     ecut=    60.00 Ry     beta= 0.20
     Davidson diagonalization with overlap
     ethr =  3.73E-08,  avg # of iterations =  1.3

     negative rho (up, down):  2.557E-04 2.063E-04

     total cpu time spent up to now is    80356.5 secs

     total energy              =   -5332.10576604 Ry
     estimated scf accuracy    <       0.00006073 Ry

     total magnetization       =    14.43 Bohr mag/cell
     absolute magnetization    =    16.31 Bohr mag/cell

     iteration #  7     ecut=    60.00 Ry     beta= 0.20
     Davidson diagonalization with overlap
     ethr =  2.52E-08,  avg # of iterations =  2.0

     negative rho (up, down):  2.529E-04 2.026E-04

     total cpu time spent up to now is    80925.9 secs

     total energy              =   -5332.10576868 Ry
     estimated scf accuracy    <       0.00000755 Ry

     total magnetization       =    14.42 Bohr mag/cell
     absolute magnetization    =    16.31 Bohr mag/cell

     iteration #  8     ecut=    60.00 Ry     beta= 0.20
     Davidson diagonalization with overlap
     ethr =  3.13E-09,  avg # of iterations =  4.6

     negative rho (up, down):  2.504E-04 1.995E-04

     total cpu time spent up to now is    81569.1 secs

     total energy              =   -5332.10576935 Ry
     estimated scf accuracy    <       0.00000238 Ry

     total magnetization       =    14.42 Bohr mag/cell
     absolute magnetization    =    16.31 Bohr mag/cell

     iteration #  9     ecut=    60.00 Ry     beta= 0.20
     Davidson diagonalization with overlap
     ethr =  9.88E-10,  avg # of iterations =  3.0

     negative rho (up, down):  2.484E-04 1.970E-04

     total cpu time spent up to now is    82211.8 secs

     total energy              =   -5332.10576969 Ry
     estimated scf accuracy    <       0.00000218 Ry

     total magnetization       =    14.42 Bohr mag/cell
     absolute magnetization    =    16.31 Bohr mag/cell

     iteration # 10     ecut=    60.00 Ry     beta= 0.20
     Davidson diagonalization with overlap
     ethr =  9.03E-10,  avg # of iterations =  1.2

     negative rho (up, down):  2.470E-04 1.953E-04

     total cpu time spent up to now is    82774.0 secs

     total energy              =   -5332.10576982 Ry
     estimated scf accuracy    <       0.00000060 Ry

     total magnetization       =    14.42 Bohr mag/cell
     absolute magnetization    =    16.31 Bohr mag/cell

     iteration # 11     ecut=    60.00 Ry     beta= 0.20
     Davidson diagonalization with overlap
     ethr =  2.49E-10,  avg # of iterations =  3.2

     negative rho (up, down):  2.461E-04 1.942E-04

     total cpu time spent up to now is    83469.8 secs

     total energy              =   -5332.10576991 Ry
     estimated scf accuracy    <       0.00000031 Ry

     total magnetization       =    14.42 Bohr mag/cell
     absolute magnetization    =    16.31 Bohr mag/cell

     iteration # 12     ecut=    60.00 Ry     beta= 0.20
     Davidson diagonalization with overlap
     ethr =  1.27E-10,  avg # of iterations =  2.1

     negative rho (up, down):  2.456E-04 1.935E-04

     total cpu time spent up to now is    84094.7 secs

     total energy              =   -5332.10576994 Ry
     estimated scf accuracy    <       0.00000013 Ry

     total magnetization       =    14.42 Bohr mag/cell
     absolute magnetization    =    16.31 Bohr mag/cell

     iteration # 13     ecut=    60.00 Ry     beta= 0.20
     Davidson diagonalization with overlap
     ethr =  5.40E-11,  avg # of iterations =  3.6

     negative rho (up, down):  2.454E-04 1.931E-04

     total cpu time spent up to now is    84758.5 secs

     total energy              =   -5332.10576996 Ry
     estimated scf accuracy    <       0.00000003 Ry

     total magnetization       =    14.42 Bohr mag/cell
     absolute magnetization    =    16.31 Bohr mag/cell

     iteration # 14     ecut=    60.00 Ry     beta= 0.20
     Davidson diagonalization with overlap
     ethr =  1.19E-11,  avg # of iterations =  4.1

     negative rho (up, down):  2.452E-04 1.928E-04

     total cpu time spent up to now is    85669.2 secs

     total energy              =   -5332.10576998 Ry
     estimated scf accuracy    <       0.00000001 Ry

     total magnetization       =    14.42 Bohr mag/cell
     absolute magnetization    =    16.31 Bohr mag/cell

     iteration # 15     ecut=    60.00 Ry     beta= 0.20
     Davidson diagonalization with overlap
     ethr =  4.72E-12,  avg # of iterations =  2.0

     negative rho (up, down):  2.451E-04 1.926E-04

     total cpu time spent up to now is    86284.4 secs

     total energy              =   -5332.10576998 Ry
     estimated scf accuracy    <          5.0E-09 Ry

     total magnetization       =    14.42 Bohr mag/cell
     absolute magnetization    =    16.31 Bohr mag/cell

     iteration # 16     ecut=    60.00 Ry     beta= 0.20
     Davidson diagonalization with overlap
     ethr =  2.07E-12,  avg # of iterations =  2.3

     negative rho (up, down):  2.451E-04 1.925E-04

     total cpu time spent up to now is    86891.2 secs

     total energy              =   -5332.10576999 Ry
     estimated scf accuracy    <          3.6E-09 Ry

     total magnetization       =    14.42 Bohr mag/cell
     absolute magnetization    =    16.31 Bohr mag/cell

     iteration # 17     ecut=    60.00 Ry     beta= 0.20
     Davidson diagonalization with overlap
     ethr =  1.48E-12,  avg # of iterations =  2.0

     negative rho (up, down):  2.451E-04 1.924E-04

     total cpu time spent up to now is    87484.7 secs

     total energy              =   -5332.10576999 Ry
     estimated scf accuracy    <          3.0E-09 Ry

     total magnetization       =    14.42 Bohr mag/cell
     absolute magnetization    =    16.31 Bohr mag/cell

     iteration # 18     ecut=    60.00 Ry     beta= 0.20
     Davidson diagonalization with overlap
     ethr =  1.24E-12,  avg # of iterations =  1.7

     negative rho (up, down):  2.451E-04 1.924E-04

     total cpu time spent up to now is    88075.4 secs

     total energy              =   -5332.10577000 Ry
     estimated scf accuracy    <          2.5E-09 Ry

     total magnetization       =    14.42 Bohr mag/cell
     absolute magnetization    =    16.31 Bohr mag/cell

     iteration # 19     ecut=    60.00 Ry     beta= 0.20
     Davidson diagonalization with overlap
     ethr =  1.06E-12,  avg # of iterations =  1.9

     negative rho (up, down):  2.451E-04 1.923E-04

     total cpu time spent up to now is    88668.3 secs

     total energy              =   -5332.10577000 Ry
     estimated scf accuracy    <          2.4E-09 Ry

     total magnetization       =    14.42 Bohr mag/cell
     absolute magnetization    =    16.31 Bohr mag/cell

     iteration # 20     ecut=    60.00 Ry     beta= 0.20
     Davidson diagonalization with overlap
     ethr =  1.01E-12,  avg # of iterations =  1.0

     negative rho (up, down):  2.451E-04 1.924E-04

     total cpu time spent up to now is    89208.7 secs

     total energy              =   -5332.10577000 Ry
     estimated scf accuracy    <          1.7E-09 Ry

     total magnetization       =    14.42 Bohr mag/cell
     absolute magnetization    =    16.31 Bohr mag/cell

     iteration # 21     ecut=    60.00 Ry     beta= 0.20
     Davidson diagonalization with overlap
     ethr =  6.85E-13,  avg # of iterations =  1.4

     negative rho (up, down):  2.455E-04 1.926E-04
 
     Magnetic moment per site  (integrated on atomic sphere of radius R)
     atom   1 (R=0.142)  charge=  6.9508  magn=  0.7297
     atom   2 (R=0.142)  charge=  6.9506  magn=  0.7336
     atom   3 (R=0.140)  charge=  5.1406  magn=  0.2143
     atom   4 (R=0.142)  charge=  6.9506  magn=  0.7336
     atom   5 (R=0.142)  charge=  6.9474  magn=  0.7543
     atom   6 (R=0.142)  charge=  6.9477  magn=  0.7431
     atom   7 (R=0.140)  charge=  5.1291  magn=  0.2616
     atom   8 (R=0.142)  charge=  6.9477  magn=  0.7431
     atom   9 (R=0.142)  charge=  6.9470  magn=  0.7258
     atom  10 (R=0.142)  charge=  6.9478  magn=  0.7059
     atom  11 (R=0.140)  charge=  5.1262  magn=  0.2498
     atom  12 (R=0.142)  charge=  6.9478  magn=  0.7059
     atom  13 (R=0.142)  charge=  6.9483  magn=  0.7084
     atom  14 (R=0.142)  charge=  6.9478  magn=  0.7095
     atom  15 (R=0.140)  charge=  5.1259  magn=  0.2500
     atom  16 (R=0.142)  charge=  6.9478  magn=  0.7095
     atom  17 (R=0.142)  charge=  6.9491  magn=  0.6498
     atom  18 (R=0.142)  charge=  6.9477  magn=  0.7445
     atom  19 (R=0.140)  charge=  5.1295  magn=  0.2591
     atom  20 (R=0.142)  charge=  6.9477  magn=  0.7445
     atom  21 (R=0.142)  charge=  6.9544  magn=  0.7394
     atom  22 (R=0.142)  charge=  6.9548  magn=  0.5643
     atom  23 (R=0.140)  charge=  5.1378  magn=  0.1581
     atom  24 (R=0.142)  charge=  6.9548  magn=  0.5643
     atom  25 (R=0.140)  charge=  0.8968  magn= -0.0067

     total cpu time spent up to now is    89766.3 secs

     End of self-consistent calculation

     Number of k-points >= 100: set verbosity='high' to print the bands.

     the Fermi energy is    -5.0811 ev

!    total energy              =   -5332.10577000 Ry
     total all-electron energy =   -115303.851911 Ry
     estimated scf accuracy    <          5.5E-10 Ry
     smearing contrib. (-TS)   =      -0.00228706 Ry
     internal energy E=F+TS    =   -5332.10348294 Ry

     The total energy is F=E-TS. E is the sum of the following terms:
     one-electron contribution =  -70003.84764136 Ry
     hartree contribution      =   35196.52676667 Ry
     xc contribution           =    -947.25151441 Ry
     ewald contribution        =   33496.07149942 Ry
     DFT-D3 Dispersion         =      -2.02390286 Ry
     one-center paw contrib.   =   -3071.57869039 Ry

     total magnetization       =    14.42 Bohr mag/cell
     absolute magnetization    =    16.31 Bohr mag/cell

     convergence has been achieved in  21 iterations

     negative rho (up, down):  2.455E-04 1.926E-04

     Forces acting on atoms (cartesian axes, Ry/au):

     atom    1 type  1   force =    -0.00000545    0.01340496    0.00376123
     atom    2 type  1   force =     0.01174101   -0.00673437    0.00368261
     atom    3 type  2   force =    -0.00000994   -0.00011947   -0.01864819
     atom    4 type  1   force =    -0.01172572   -0.00675774    0.00367265
     atom    5 type  1   force =    -0.00000650    0.00180973    0.00144683
     atom    6 type  1   force =     0.00136536   -0.00088872    0.00165414
     atom    7 type  2   force =    -0.00001280    0.00044544    0.00458961
     atom    8 type  1   force =    -0.00134716   -0.00091822    0.00163953
     atom    9 type  1   force =     0.00000047    0.00002606   -0.00039839
     atom   10 type  1   force =     0.00026518    0.00002746   -0.00079094
     atom   11 type  2   force =    -0.00000003   -0.00020320   -0.00058282
     atom   12 type  1   force =    -0.00026532    0.00002853   -0.00079057
     atom   13 type  1   force =     0.00000064   -0.00021085   -0.00058519
     atom   14 type  1   force =    -0.00011831    0.00002831   -0.00027508
     atom   15 type  2   force =     0.00000001    0.00003856    0.00068097
     atom   16 type  1   force =     0.00011809    0.00002991   -0.00027463
     atom   17 type  1   force =     0.00000061    0.00122171    0.00044865
     atom   18 type  1   force =    -0.00157416    0.00067093    0.00139551
     atom   19 type  2   force =     0.00000014    0.00117467    0.00210160
     atom   20 type  1   force =     0.00157367    0.00067215    0.00139593
     atom   21 type  1   force =     0.00000019    0.00056886   -0.00117307
     atom   22 type  1   force =     0.00220784    0.00481778   -0.00077351
     atom   23 type  2   force =     0.00000034   -0.00923323    0.00211916
     atom   24 type  1   force =    -0.00220802    0.00481837   -0.00077339
     atom   25 type  3   force =    -0.00000014   -0.00471763   -0.00352263

     Total force =     0.014272     Total SCF correction =     0.000157


     Computing stress (Cartesian axis) and pressure


     negative rho (up, down):  2.455E-04 1.926E-04
          total   stress  (Ry/bohr**3)                   (kbar)     P=       -4.79
  -0.00005840   0.00000000   0.00000000           -8.59        0.00        0.00
   0.00000000  -0.00004111  -0.00000530            0.00       -6.05       -0.78
   0.00000000  -0.00000530   0.00000190            0.00       -0.78        0.28

     Energy error            =      3.8E-04 Ry
     Gradient error          =      9.2E-03 Ry/Bohr

     number of scf cycles    =   5
     number of bfgs steps    =   4

     energy             old  =   -5332.1053884873 Ry
     energy             new  =   -5332.1057699998 Ry

     CASE: energy            _new < energy            _old

     new trust radius        =       0.0416200503 bohr
     new conv_thr            =       0.0000000012 Ry


ATOMIC_POSITIONS (angstrom)
Ni               5.0381082178        2.9087344078       11.0000000000    0   0   0
Ni               1.2594928383        0.7271633007       11.0000321314    0   0   0
Pd               2.5190631929        2.9087349143       11.0000563881    0   0   0
Ni               3.7785410216        0.7272125305       11.0000798881    0   0   0
Ni               2.5190678846        1.4543657934       13.0567878192    0   0   0
Ni               6.2975735046        3.6359005296       13.0568199507    0   0   0
Pd               5.0381035260        1.4543662999       13.0568442073    0   0   0
Ni               3.7785410216        3.6359497594       13.0568677074    0   0   0
Ni               2.5190380967        4.3623896564       15.1086561976
Ni               3.7769415007        2.1821473300       15.1121416662
Pd               5.0380871207        4.3635847818       15.1059003441
Ni               6.2992404171        2.1821436796       15.1121397759
Ni               5.0380828305        2.9115735356       17.1633033166
Ni               1.2619001739        0.7261440272       17.1627966523
Pd               2.5190440188        2.9082937767       17.1726761344
Ni               3.7761870844        0.7261395452       17.1627970321
Ni               2.5190400778        1.4511779721       19.2325104790
Ni               6.2818292502        3.6431158240       19.2191451031
Pd               5.0380820634        1.4518144397       19.2056832054
Ni               3.7943369224        3.6431134335       19.2191440887
Ni               2.5190408775        4.3297763488       21.2379202374
Ni               3.7600012338        2.2134453835       21.2732302490
Pd               5.0380814208        4.4212177737       21.3617555543
Ni               6.3161629308        2.2134443583       21.2732300287
H                5.0380849718        2.8109740706       22.2435655204



     Writing config-only to output data dir /tmpu/isholek_g/isholek/MIGUEL/QE/Hydrogen/111_2x2/SAVE/Ni3Pd1_111-H_hcp_1.save/ :
     XML data file
     NEW-OLD atomic charge density approx. for the potential

     Check: negative core charge=   -0.000001

     negative rho (up, down):  2.322E-04 2.097E-04
     Generating pointlists ...
     new r_m :   0.1402 (alat units)  1.3348 (a.u.) for type    1

     total cpu time spent up to now is    90181.9 secs

     Self-consistent Calculation

     iteration #  1     ecut=    60.00 Ry     beta= 0.20
     Davidson diagonalization with overlap
     ethr =  1.00E-06,  avg # of iterations =  4.1

     negative rho (up, down):  2.407E-04 2.032E-04

     total cpu time spent up to now is    91301.1 secs

     total energy              =   -5332.10594796 Ry
     estimated scf accuracy    <       0.00246326 Ry

     total magnetization       =    14.42 Bohr mag/cell
     absolute magnetization    =    16.30 Bohr mag/cell

     iteration #  2     ecut=    60.00 Ry     beta= 0.20
     Davidson diagonalization with overlap
     ethr =  1.02E-06,  avg # of iterations =  1.0

     negative rho (up, down):  2.398E-04 1.998E-04

     total cpu time spent up to now is    91867.9 secs

     total energy              =   -5332.10601111 Ry
     estimated scf accuracy    <       0.00328699 Ry

     total magnetization       =    14.42 Bohr mag/cell
     absolute magnetization    =    16.30 Bohr mag/cell

     iteration #  3     ecut=    60.00 Ry     beta= 0.20
     Davidson diagonalization with overlap
     ethr =  1.02E-06,  avg # of iterations =  1.0

     negative rho (up, down):  2.395E-04 1.974E-04

     total cpu time spent up to now is    92421.6 secs

     total energy              =   -5332.10603743 Ry
     estimated scf accuracy    <       0.00013779 Ry

     total magnetization       =    14.42 Bohr mag/cell
     absolute magnetization    =    16.30 Bohr mag/cell

     iteration #  4     ecut=    60.00 Ry     beta= 0.20
     Davidson diagonalization with overlap
     ethr =  5.72E-08,  avg # of iterations =  1.4

     negative rho (up, down):  2.383E-04 1.918E-04

     total cpu time spent up to now is    92987.2 secs

     total energy              =   -5332.10602364 Ry
     estimated scf accuracy    <       0.00008710 Ry

     total magnetization       =    14.42 Bohr mag/cell
     absolute magnetization    =    16.30 Bohr mag/cell

     iteration #  5     ecut=    60.00 Ry     beta= 0.20
     Davidson diagonalization with overlap
     ethr =  3.61E-08,  avg # of iterations =  2.0

     negative rho (up, down):  2.382E-04 1.889E-04

     total cpu time spent up to now is    93624.6 secs

     total energy              =   -5332.10602584 Ry
     estimated scf accuracy    <       0.00004412 Ry

     total magnetization       =    14.42 Bohr mag/cell
     absolute magnetization    =    16.30 Bohr mag/cell

     iteration #  6     ecut=    60.00 Ry     beta= 0.20
     Davidson diagonalization with overlap
     ethr =  1.83E-08,  avg # of iterations =  2.0

     negative rho (up, down):  2.381E-04 1.881E-04

     total cpu time spent up to now is    94206.8 secs

     total energy              =   -5332.10602800 Ry
     estimated scf accuracy    <       0.00001215 Ry

     total magnetization       =    14.42 Bohr mag/cell
     absolute magnetization    =    16.30 Bohr mag/cell

     iteration #  7     ecut=    60.00 Ry     beta= 0.20
     Davidson diagonalization with overlap
     ethr =  5.04E-09,  avg # of iterations =  3.9

     negative rho (up, down):  2.380E-04 1.876E-04

     total cpu time spent up to now is    94831.0 secs

     total energy              =   -5332.10602912 Ry
     estimated scf accuracy    <       0.00000135 Ry

     total magnetization       =    14.42 Bohr mag/cell
     absolute magnetization    =    16.30 Bohr mag/cell

     iteration #  8     ecut=    60.00 Ry     beta= 0.20
     Davidson diagonalization with overlap
     ethr =  5.62E-10,  avg # of iterations =  4.9

     negative rho (up, down):  2.381E-04 1.874E-04

     total cpu time spent up to now is    95759.7 secs

     total energy              =   -5332.10602962 Ry
     estimated scf accuracy    <       0.00000055 Ry

     total magnetization       =    14.42 Bohr mag/cell
     absolute magnetization    =    16.30 Bohr mag/cell

     iteration #  9     ecut=    60.00 Ry     beta= 0.20
     Davidson diagonalization with overlap
     ethr =  2.28E-10,  avg # of iterations =  1.4

     negative rho (up, down):  2.384E-04 1.873E-04

     total cpu time spent up to now is    96324.2 secs

     total energy              =   -5332.10602956 Ry
     estimated scf accuracy    <       0.00000042 Ry

     total magnetization       =    14.42 Bohr mag/cell
     absolute magnetization    =    16.30 Bohr mag/cell

     iteration # 10     ecut=    60.00 Ry     beta= 0.20
     Davidson diagonalization with overlap
     ethr =  1.73E-10,  avg # of iterations =  2.0

     negative rho (up, down):  2.388E-04 1.874E-04

     total cpu time spent up to now is    96899.9 secs

     total energy              =   -5332.10602954 Ry
     estimated scf accuracy    <       0.00000021 Ry

     total magnetization       =    14.42 Bohr mag/cell
     absolute magnetization    =    16.30 Bohr mag/cell

     iteration # 11     ecut=    60.00 Ry     beta= 0.20
     Davidson diagonalization with overlap
     ethr =  8.56E-11,  avg # of iterations =  2.2

     negative rho (up, down):  2.391E-04 1.874E-04

     total cpu time spent up to now is    97521.7 secs

     total energy              =   -5332.10602956 Ry
     estimated scf accuracy    <       0.00000019 Ry

     total magnetization       =    14.42 Bohr mag/cell
     absolute magnetization    =    16.30 Bohr mag/cell

     iteration # 12     ecut=    60.00 Ry     beta= 0.20
     Davidson diagonalization with overlap
     ethr =  7.83E-11,  avg # of iterations =  1.1

     negative rho (up, down):  2.396E-04 1.878E-04

     total cpu time spent up to now is    98071.8 secs

     total energy              =   -5332.10602956 Ry
     estimated scf accuracy    <       0.00000020 Ry

     total magnetization       =    14.42 Bohr mag/cell
     absolute magnetization    =    16.30 Bohr mag/cell

     iteration # 13     ecut=    60.00 Ry     beta= 0.20
     Davidson diagonalization with overlap
     ethr =  7.83E-11,  avg # of iterations =  1.2

     negative rho (up, down):  2.401E-04 1.881E-04

     total cpu time spent up to now is    98630.6 secs

     total energy              =   -5332.10602956 Ry
     estimated scf accuracy    <       0.00000019 Ry

     total magnetization       =    14.42 Bohr mag/cell
     absolute magnetization    =    16.30 Bohr mag/cell

     iteration # 14     ecut=    60.00 Ry     beta= 0.20
     Davidson diagonalization with overlap
     ethr =  7.83E-11,  avg # of iterations =  1.0

     negative rho (up, down):  2.405E-04 1.883E-04

     total cpu time spent up to now is    99185.2 secs

     total energy              =   -5332.10602957 Ry
     estimated scf accuracy    <       0.00000017 Ry

     total magnetization       =    14.42 Bohr mag/cell
     absolute magnetization    =    16.30 Bohr mag/cell

     iteration # 15     ecut=    60.00 Ry     beta= 0.20
     Davidson diagonalization with overlap
     ethr =  7.14E-11,  avg # of iterations =  1.0

     negative rho (up, down):  2.410E-04 1.887E-04

     total cpu time spent up to now is    99732.6 secs

     total energy              =   -5332.10602957 Ry
     estimated scf accuracy    <       0.00000016 Ry

     total magnetization       =    14.42 Bohr mag/cell
     absolute magnetization    =    16.30 Bohr mag/cell

     iteration # 16     ecut=    60.00 Ry     beta= 0.20
     Davidson diagonalization with overlap
     ethr =  6.66E-11,  avg # of iterations =  1.0

     negative rho (up, down):  2.432E-04 1.906E-04

     total cpu time spent up to now is   100271.9 secs

     total energy              =   -5332.10602958 Ry
     estimated scf accuracy    <       0.00000012 Ry

     total magnetization       =    14.42 Bohr mag/cell
     absolute magnetization    =    16.30 Bohr mag/cell

     iteration # 17     ecut=    60.00 Ry     beta= 0.20
     Davidson diagonalization with overlap
     ethr =  4.97E-11,  avg # of iterations =  1.0

     negative rho (up, down):  2.432E-04 1.906E-04

     total cpu time spent up to now is   100833.7 secs

     total energy              =   -5332.10602958 Ry
     estimated scf accuracy    <       0.00000003 Ry

     total magnetization       =    14.42 Bohr mag/cell
     absolute magnetization    =    16.30 Bohr mag/cell

     iteration # 18     ecut=    60.00 Ry     beta= 0.20
     Davidson diagonalization with overlap
     ethr =  1.43E-11,  avg # of iterations =  1.1

     negative rho (up, down):  2.439E-04 1.913E-04

     total cpu time spent up to now is   101413.8 secs

     total energy              =   -5332.10602958 Ry
     estimated scf accuracy    <       0.00000002 Ry

     total magnetization       =    14.42 Bohr mag/cell
     absolute magnetization    =    16.30 Bohr mag/cell

     iteration # 19     ecut=    60.00 Ry     beta= 0.20
     Davidson diagonalization with overlap
     ethr =  9.63E-12,  avg # of iterations =  1.0

     negative rho (up, down):  2.442E-04 1.915E-04

     total cpu time spent up to now is   101977.6 secs

     total energy              =   -5332.10602958 Ry
     estimated scf accuracy    <       0.00000001 Ry

     total magnetization       =    14.42 Bohr mag/cell
     absolute magnetization    =    16.30 Bohr mag/cell

     iteration # 20     ecut=    60.00 Ry     beta= 0.20
     Davidson diagonalization with overlap
     ethr =  4.51E-12,  avg # of iterations =  1.2

     negative rho (up, down):  2.437E-04 1.911E-04

     total cpu time spent up to now is   102558.2 secs

     total energy              =   -5332.10602958 Ry
     estimated scf accuracy    <          7.5E-09 Ry

     total magnetization       =    14.42 Bohr mag/cell
     absolute magnetization    =    16.30 Bohr mag/cell

     iteration # 21     ecut=    60.00 Ry     beta= 0.20
     Davidson diagonalization with overlap
     ethr =  3.11E-12,  avg # of iterations =  1.0

     negative rho (up, down):  2.455E-04 1.926E-04
 
     Magnetic moment per site  (integrated on atomic sphere of radius R)
     atom   1 (R=0.140)  charge=  6.9035  magn=  0.7264
     atom   2 (R=0.140)  charge=  6.9033  magn=  0.7303
     atom   3 (R=0.140)  charge=  5.1406  magn=  0.2143
     atom   4 (R=0.140)  charge=  6.9033  magn=  0.7303
     atom   5 (R=0.140)  charge=  6.8991  magn=  0.7511
     atom   6 (R=0.140)  charge=  6.8995  magn=  0.7398
     atom   7 (R=0.140)  charge=  5.1291  magn=  0.2618
     atom   8 (R=0.140)  charge=  6.8995  magn=  0.7398
     atom   9 (R=0.140)  charge=  6.8992  magn=  0.7230
     atom  10 (R=0.140)  charge=  6.8997  magn=  0.7030
     atom  11 (R=0.140)  charge=  5.1263  magn=  0.2499
     atom  12 (R=0.140)  charge=  6.8997  magn=  0.7030
     atom  13 (R=0.140)  charge=  6.8998  magn=  0.7055
     atom  14 (R=0.140)  charge=  6.8992  magn=  0.7070
     atom  15 (R=0.140)  charge=  5.1259  magn=  0.2498
     atom  16 (R=0.140)  charge=  6.8992  magn=  0.7070
     atom  17 (R=0.140)  charge=  6.9006  magn=  0.6474
     atom  18 (R=0.140)  charge=  6.8992  magn=  0.7416
     atom  19 (R=0.140)  charge=  5.1295  magn=  0.2589
     atom  20 (R=0.140)  charge=  6.8992  magn=  0.7416
     atom  21 (R=0.140)  charge=  6.9062  magn=  0.7364
     atom  22 (R=0.140)  charge=  6.9067  magn=  0.5562
     atom  23 (R=0.140)  charge=  5.1384  magn=  0.1596
     atom  24 (R=0.140)  charge=  6.9067  magn=  0.5562
     atom  25 (R=0.140)  charge=  0.9028  magn= -0.0068

     total cpu time spent up to now is   103097.0 secs

     End of self-consistent calculation

     Number of k-points >= 100: set verbosity='high' to print the bands.

     the Fermi energy is    -5.0813 ev

!    total energy              =   -5332.10602958 Ry
     total all-electron energy =   -115303.852171 Ry
     estimated scf accuracy    <          9.0E-10 Ry
     smearing contrib. (-TS)   =      -0.00224770 Ry
     internal energy E=F+TS    =   -5332.10378188 Ry

     The total energy is F=E-TS. E is the sum of the following terms:
     one-electron contribution =  -69996.29445467 Ry
     hartree contribution      =   35192.75275274 Ry
     xc contribution           =    -947.25177693 Ry
     ewald contribution        =   33492.29187533 Ry
     DFT-D3 Dispersion         =      -2.02356549 Ry
     one-center paw contrib.   =   -3071.57861286 Ry

     total magnetization       =    14.42 Bohr mag/cell
     absolute magnetization    =    16.30 Bohr mag/cell

     convergence has been achieved in  21 iterations

     negative rho (up, down):  2.455E-04 1.926E-04

     Forces acting on atoms (cartesian axes, Ry/au):

     atom    1 type  1   force =    -0.00000544    0.01339275    0.00377326
     atom    2 type  1   force =     0.01173636   -0.00672738    0.00369577
     atom    3 type  2   force =    -0.00000994   -0.00012209   -0.01863440
     atom    4 type  1   force =    -0.01172108   -0.00675075    0.00368579
     atom    5 type  1   force =    -0.00000646    0.00188748    0.00128102
     atom    6 type  1   force =     0.00142565   -0.00092821    0.00146792
     atom    7 type  2   force =    -0.00001282    0.00047955    0.00420858
     atom    8 type  1   force =    -0.00140743   -0.00095771    0.00145326
     atom    9 type  1   force =     0.00000044   -0.00015689   -0.00014370
     atom   10 type  1   force =     0.00003879    0.00004823   -0.00065811
     atom   11 type  2   force =     0.00000012   -0.00005072   -0.00032366
     atom   12 type  1   force =    -0.00003908    0.00004976   -0.00065768
     atom   13 type  1   force =     0.00000071   -0.00039696   -0.00033187
     atom   14 type  1   force =    -0.00027554    0.00013812    0.00019553
     atom   15 type  2   force =     0.00000011    0.00020578    0.00122172
     atom   16 type  1   force =     0.00027512    0.00014007    0.00019604
     atom   17 type  1   force =     0.00000086    0.00045782    0.00127415
     atom   18 type  1   force =    -0.00114826    0.00126604    0.00121153
     atom   19 type  2   force =     0.00000004    0.00087931    0.00165891
     atom   20 type  1   force =     0.00114768    0.00126744    0.00121210
     atom   21 type  1   force =     0.00000027    0.00105626   -0.00046123
     atom   22 type  1   force =    -0.00108560    0.00169119   -0.00245451
     atom   23 type  2   force =     0.00000024   -0.00605631    0.00133520
     atom   24 type  1   force =     0.00108538    0.00169180   -0.00245438
     atom   25 type  3   force =    -0.00000013   -0.00250458   -0.00175123

     Total force =     0.009300     Total SCF correction =     0.000137


     Computing stress (Cartesian axis) and pressure


     negative rho (up, down):  2.455E-04 1.926E-04
          total   stress  (Ry/bohr**3)                   (kbar)     P=       -4.99
  -0.00005923   0.00000000   0.00000000           -8.71        0.00        0.00
   0.00000000  -0.00004283  -0.00000489            0.00       -6.30       -0.72
   0.00000000  -0.00000489   0.00000031            0.00       -0.72        0.05

     Energy error            =      2.6E-04 Ry
     Gradient error          =      6.1E-03 Ry/Bohr

     number of scf cycles    =   6
     number of bfgs steps    =   5

     energy             old  =   -5332.1057699998 Ry
     energy             new  =   -5332.1060295837 Ry

     CASE: energy            _new < energy            _old

     new trust radius        =       0.0188903238 bohr
     new conv_thr            =       0.0000000008 Ry


ATOMIC_POSITIONS (angstrom)
Ni               5.0381082178        2.9087344078       11.0000000000    0   0   0
Ni               1.2594928383        0.7271633007       11.0000321314    0   0   0
Pd               2.5190631929        2.9087349143       11.0000563881    0   0   0
Ni               3.7785410216        0.7272125305       11.0000798881    0   0   0
Ni               2.5190678846        1.4543657934       13.0567878192    0   0   0
Ni               6.2975735046        3.6359005296       13.0568199507    0   0   0
Pd               5.0381035260        1.4543662999       13.0568442073    0   0   0
Ni               3.7785410216        3.6359497594       13.0568677074    0   0   0
Ni               2.5190385150        4.3623725857       15.1081914620
Ni               3.7770648195        2.1821612759       15.1114037697
Pd               5.0380872319        4.3635150960       15.1053122272
Ni               6.2991171585        2.1821583241       15.1114021790
Ni               5.0380833839        2.9113301416       17.1625851689
Ni               1.2617504903        0.7262201767       17.1625273280
Pd               2.5190441098        2.9084346520       17.1732104254
Ni               3.7763368410        0.7262168342       17.1625280089
Ni               2.5190405337        1.4527658490       19.2339164164
Ni               6.2804526780        3.6441650484       19.2199250378
Pd               5.0380821766        1.4526415483       19.2069322195
Ni               3.7957132192        3.6441634739       19.2199242787
Ni               2.5190410986        4.3308277708       21.2364226882
Ni               3.7606075150        2.2170421217       21.2726526949
Pd               5.0380817001        4.4177633348       21.3636819554
Ni               6.3155566271        2.2170415207       21.2726525866
H                5.0380847563        2.8013718705       22.2407862500



     Writing config-only to output data dir /tmpu/isholek_g/isholek/MIGUEL/QE/Hydrogen/111_2x2/SAVE/Ni3Pd1_111-H_hcp_1.save/ :
     XML data file
     NEW-OLD atomic charge density approx. for the potential

     Check: negative core charge=   -0.000001

     negative rho (up, down):  2.316E-04 2.111E-04
     Generating pointlists ...

     total cpu time spent up to now is   103511.8 secs

     Self-consistent Calculation

     iteration #  1     ecut=    60.00 Ry     beta= 0.20
     Davidson diagonalization with overlap
     ethr =  1.00E-06,  avg # of iterations =  4.6

     Threshold (ethr) on eigenvalues was too large:
     Diagonalizing with lowered threshold

     Davidson diagonalization with overlap
     ethr =  2.31E-08,  avg # of iterations =  3.6

     negative rho (up, down):  2.463E-04 2.102E-04

     total cpu time spent up to now is   105633.7 secs

     total energy              =   -5332.10613604 Ry
     estimated scf accuracy    <       0.00005938 Ry

     total magnetization       =    14.42 Bohr mag/cell
     absolute magnetization    =    16.30 Bohr mag/cell

     iteration #  2     ecut=    60.00 Ry     beta= 0.20
     Davidson diagonalization with overlap
     ethr =  2.46E-08,  avg # of iterations =  1.2

     negative rho (up, down):  2.447E-04 2.060E-04

     total cpu time spent up to now is   106178.1 secs

     total energy              =   -5332.10613926 Ry
     estimated scf accuracy    <       0.00005742 Ry

     total magnetization       =    14.42 Bohr mag/cell
     absolute magnetization    =    16.30 Bohr mag/cell

     iteration #  3     ecut=    60.00 Ry     beta= 0.20
     Davidson diagonalization with overlap
     ethr =  2.38E-08,  avg # of iterations =  1.0

     negative rho (up, down):  2.439E-04 2.020E-04

     total cpu time spent up to now is   106709.2 secs

     total energy              =   -5332.10614083 Ry
     estimated scf accuracy    <       0.00001667 Ry

     total magnetization       =    14.42 Bohr mag/cell
     absolute magnetization    =    16.30 Bohr mag/cell

     iteration #  4     ecut=    60.00 Ry     beta= 0.20
     Davidson diagonalization with overlap
     ethr =  6.92E-09,  avg # of iterations =  1.3

     negative rho (up, down):  2.434E-04 1.987E-04

     total cpu time spent up to now is   107249.1 secs

     total energy              =   -5332.10614203 Ry
     estimated scf accuracy    <       0.00001271 Ry

     total magnetization       =    14.42 Bohr mag/cell
     absolute magnetization    =    16.30 Bohr mag/cell

     iteration #  5     ecut=    60.00 Ry     beta= 0.20
     Davidson diagonalization with overlap
     ethr =  5.27E-09,  avg # of iterations =  1.6

     negative rho (up, down):  2.434E-04 1.957E-04

     total cpu time spent up to now is   107794.2 secs

     total energy              =   -5332.10614267 Ry
     estimated scf accuracy    <       0.00002003 Ry

     total magnetization       =    14.42 Bohr mag/cell
     absolute magnetization    =    16.30 Bohr mag/cell

     iteration #  6     ecut=    60.00 Ry     beta= 0.20
     Davidson diagonalization with overlap
     ethr =  5.27E-09,  avg # of iterations =  2.0

     negative rho (up, down):  2.432E-04 1.935E-04

     total cpu time spent up to now is   108349.0 secs

     total energy              =   -5332.10614275 Ry
     estimated scf accuracy    <       0.00000595 Ry

     total magnetization       =    14.42 Bohr mag/cell
     absolute magnetization    =    16.30 Bohr mag/cell

     iteration #  7     ecut=    60.00 Ry     beta= 0.20
     Davidson diagonalization with overlap
     ethr =  2.47E-09,  avg # of iterations =  2.0

     negative rho (up, down):  2.426E-04 1.921E-04

     total cpu time spent up to now is   108906.4 secs

     total energy              =   -5332.10614296 Ry
     estimated scf accuracy    <       0.00000135 Ry

     total magnetization       =    14.42 Bohr mag/cell
     absolute magnetization    =    16.30 Bohr mag/cell

     iteration #  8     ecut=    60.00 Ry     beta= 0.20
     Davidson diagonalization with overlap
     ethr =  5.60E-10,  avg # of iterations =  2.6

     negative rho (up, down):  2.419E-04 1.910E-04

     total cpu time spent up to now is   109479.7 secs

     total energy              =   -5332.10614301 Ry
     estimated scf accuracy    <       0.00000065 Ry

     total magnetization       =    14.42 Bohr mag/cell
     absolute magnetization    =    16.30 Bohr mag/cell

     iteration #  9     ecut=    60.00 Ry     beta= 0.20
     Davidson diagonalization with overlap
     ethr =  2.68E-10,  avg # of iterations =  3.2

     negative rho (up, down):  2.415E-04 1.903E-04

     total cpu time spent up to now is   110067.9 secs

     total energy              =   -5332.10614307 Ry
     estimated scf accuracy    <       0.00000027 Ry

     total magnetization       =    14.42 Bohr mag/cell
     absolute magnetization    =    16.30 Bohr mag/cell

     iteration # 10     ecut=    60.00 Ry     beta= 0.20
     Davidson diagonalization with overlap
     ethr =  1.11E-10,  avg # of iterations =  2.7

     negative rho (up, down):  2.412E-04 1.898E-04

     total cpu time spent up to now is   110680.2 secs

     total energy              =   -5332.10614310 Ry
     estimated scf accuracy    <       0.00000006 Ry

     total magnetization       =    14.42 Bohr mag/cell
     absolute magnetization    =    16.30 Bohr mag/cell

     iteration # 11     ecut=    60.00 Ry     beta= 0.20
     Davidson diagonalization with overlap
     ethr =  2.68E-11,  avg # of iterations =  3.5

     negative rho (up, down):  2.410E-04 1.893E-04

     total cpu time spent up to now is   111395.0 secs

     total energy              =   -5332.10614311 Ry
     estimated scf accuracy    <       0.00000003 Ry

     total magnetization       =    14.42 Bohr mag/cell
     absolute magnetization    =    16.30 Bohr mag/cell

     iteration # 12     ecut=    60.00 Ry     beta= 0.20
     Davidson diagonalization with overlap
     ethr =  1.29E-11,  avg # of iterations =  2.3

     negative rho (up, down):  2.409E-04 1.890E-04

     total cpu time spent up to now is   112006.1 secs

     total energy              =   -5332.10614311 Ry
     estimated scf accuracy    <          9.9E-09 Ry

     total magnetization       =    14.42 Bohr mag/cell
     absolute magnetization    =    16.30 Bohr mag/cell

     iteration # 13     ecut=    60.00 Ry     beta= 0.20
     Davidson diagonalization with overlap
     ethr =  4.11E-12,  avg # of iterations =  4.5

     negative rho (up, down):  2.410E-04 1.889E-04

     total cpu time spent up to now is   112831.7 secs

     total energy              =   -5332.10614311 Ry
     estimated scf accuracy    <          5.1E-09 Ry

     total magnetization       =    14.42 Bohr mag/cell
     absolute magnetization    =    16.30 Bohr mag/cell

     iteration # 14     ecut=    60.00 Ry     beta= 0.20
     Davidson diagonalization with overlap
     ethr =  2.11E-12,  avg # of iterations =  1.8

     negative rho (up, down):  2.411E-04 1.889E-04

     total cpu time spent up to now is   113416.6 secs

     total energy              =   -5332.10614312 Ry
     estimated scf accuracy    <          2.6E-09 Ry

     total magnetization       =    14.42 Bohr mag/cell
     absolute magnetization    =    16.30 Bohr mag/cell

     iteration # 15     ecut=    60.00 Ry     beta= 0.20
     Davidson diagonalization with overlap
     ethr =  1.09E-12,  avg # of iterations =  2.2

     negative rho (up, down):  2.412E-04 1.888E-04

     total cpu time spent up to now is   114007.7 secs

     total energy              =   -5332.10614312 Ry
     estimated scf accuracy    <          3.9E-09 Ry

     total magnetization       =    14.42 Bohr mag/cell
     absolute magnetization    =    16.30 Bohr mag/cell

     iteration # 16     ecut=    60.00 Ry     beta= 0.20
     Davidson diagonalization with overlap
     ethr =  1.09E-12,  avg # of iterations =  1.0

     negative rho (up, down):  2.413E-04 1.889E-04

     total cpu time spent up to now is   114564.4 secs

     total energy              =   -5332.10614312 Ry
     estimated scf accuracy    <          3.8E-09 Ry

     total magnetization       =    14.42 Bohr mag/cell
     absolute magnetization    =    16.30 Bohr mag/cell

     iteration # 17     ecut=    60.00 Ry     beta= 0.20
     Davidson diagonalization with overlap
     ethr =  1.09E-12,  avg # of iterations =  1.1

     negative rho (up, down):  2.416E-04 1.891E-04

     total cpu time spent up to now is   115119.6 secs

     total energy              =   -5332.10614312 Ry
     estimated scf accuracy    <          2.8E-09 Ry

     total magnetization       =    14.42 Bohr mag/cell
     absolute magnetization    =    16.30 Bohr mag/cell

     iteration # 18     ecut=    60.00 Ry     beta= 0.20
     Davidson diagonalization with overlap
     ethr =  1.09E-12,  avg # of iterations =  1.0

     negative rho (up, down):  2.419E-04 1.893E-04

     total cpu time spent up to now is   115681.8 secs

     total energy              =   -5332.10614312 Ry
     estimated scf accuracy    <          2.2E-09 Ry

     total magnetization       =    14.42 Bohr mag/cell
     absolute magnetization    =    16.30 Bohr mag/cell

     iteration # 19     ecut=    60.00 Ry     beta= 0.20
     Davidson diagonalization with overlap
     ethr =  8.99E-13,  avg # of iterations =  1.0

     negative rho (up, down):  2.420E-04 1.893E-04

     total cpu time spent up to now is   116235.9 secs

     total energy              =   -5332.10614312 Ry
     estimated scf accuracy    <          2.1E-09 Ry

     total magnetization       =    14.42 Bohr mag/cell
     absolute magnetization    =    16.30 Bohr mag/cell

     iteration # 20     ecut=    60.00 Ry     beta= 0.20
     Davidson diagonalization with overlap
     ethr =  8.65E-13,  avg # of iterations =  1.0

     negative rho (up, down):  2.418E-04 1.892E-04

     total cpu time spent up to now is   116781.2 secs

     total energy              =   -5332.10614312 Ry
     estimated scf accuracy    <          1.9E-09 Ry

     total magnetization       =    14.42 Bohr mag/cell
     absolute magnetization    =    16.30 Bohr mag/cell

     iteration # 21     ecut=    60.00 Ry     beta= 0.20
     Davidson diagonalization with overlap
     ethr =  7.76E-13,  avg # of iterations =  1.0

     negative rho (up, down):  2.424E-04 1.897E-04

     total cpu time spent up to now is   117337.3 secs

     total energy              =   -5332.10614312 Ry
     estimated scf accuracy    <          1.0E-09 Ry

     total magnetization       =    14.42 Bohr mag/cell
     absolute magnetization    =    16.30 Bohr mag/cell

     iteration # 22     ecut=    60.00 Ry     beta= 0.20
     Davidson diagonalization with overlap
     ethr =  4.25E-13,  avg # of iterations =  1.0

     negative rho (up, down):  2.427E-04 1.900E-04

     total cpu time spent up to now is   117901.2 secs

     total energy              =   -5332.10614312 Ry
     estimated scf accuracy    <          1.5E-09 Ry

     total magnetization       =    14.42 Bohr mag/cell
     absolute magnetization    =    16.30 Bohr mag/cell

     iteration # 23     ecut=    60.00 Ry     beta= 0.20
     Davidson diagonalization with overlap
     ethr =  4.25E-13,  avg # of iterations =  1.0

     negative rho (up, down):  2.429E-04 1.902E-04

     total cpu time spent up to now is   118452.4 secs

     total energy              =   -5332.10614312 Ry
     estimated scf accuracy    <          9.4E-10 Ry

     total magnetization       =    14.42 Bohr mag/cell
     absolute magnetization    =    16.30 Bohr mag/cell

     iteration # 24     ecut=    60.00 Ry     beta= 0.20
     Davidson diagonalization with overlap
     ethr =  3.89E-13,  avg # of iterations =  1.0

     negative rho (up, down):  2.455E-04 1.927E-04
 
     Magnetic moment per site  (integrated on atomic sphere of radius R)
     atom   1 (R=0.140)  charge=  6.9035  magn=  0.7264
     atom   2 (R=0.140)  charge=  6.9033  magn=  0.7303
     atom   3 (R=0.140)  charge=  5.1406  magn=  0.2143
     atom   4 (R=0.140)  charge=  6.9033  magn=  0.7303
     atom   5 (R=0.140)  charge=  6.8992  magn=  0.7511
     atom   6 (R=0.140)  charge=  6.8995  magn=  0.7398
     atom   7 (R=0.140)  charge=  5.1291  magn=  0.2619
     atom   8 (R=0.140)  charge=  6.8995  magn=  0.7398
     atom   9 (R=0.140)  charge=  6.8992  magn=  0.7232
     atom  10 (R=0.140)  charge=  6.8998  magn=  0.7031
     atom  11 (R=0.140)  charge=  5.1263  magn=  0.2499
     atom  12 (R=0.140)  charge=  6.8998  magn=  0.7031
     atom  13 (R=0.140)  charge=  6.8998  magn=  0.7056
     atom  14 (R=0.140)  charge=  6.8992  magn=  0.7070
     atom  15 (R=0.140)  charge=  5.1258  magn=  0.2497
     atom  16 (R=0.140)  charge=  6.8992  magn=  0.7070
     atom  17 (R=0.140)  charge=  6.9005  magn=  0.6473
     atom  18 (R=0.140)  charge=  6.8993  magn=  0.7417
     atom  19 (R=0.140)  charge=  5.1295  magn=  0.2588
     atom  20 (R=0.140)  charge=  6.8993  magn=  0.7417
     atom  21 (R=0.140)  charge=  6.9062  magn=  0.7366
     atom  22 (R=0.140)  charge=  6.9069  magn=  0.5547
     atom  23 (R=0.140)  charge=  5.1387  magn=  0.1600
     atom  24 (R=0.140)  charge=  6.9069  magn=  0.5547
     atom  25 (R=0.140)  charge=  0.9060  magn= -0.0068

     total cpu time spent up to now is   118988.6 secs

     End of self-consistent calculation

     Number of k-points >= 100: set verbosity='high' to print the bands.

     the Fermi energy is    -5.0814 ev

!    total energy              =   -5332.10614313 Ry
     total all-electron energy =   -115303.852284 Ry
     estimated scf accuracy    <          6.5E-10 Ry
     smearing contrib. (-TS)   =      -0.00224245 Ry
     internal energy E=F+TS    =   -5332.10390068 Ry

     The total energy is F=E-TS. E is the sum of the following terms:
     one-electron contribution =  -69994.05468971 Ry
     hartree contribution      =   35191.63581073 Ry
     xc contribution           =    -947.25315360 Ry
     ewald contribution        =   33491.17031465 Ry
     DFT-D3 Dispersion         =      -2.02346212 Ry
     one-center paw contrib.   =   -3071.57872063 Ry

     total magnetization       =    14.42 Bohr mag/cell
     absolute magnetization    =    16.30 Bohr mag/cell

     convergence has been achieved in  24 iterations

     negative rho (up, down):  2.455E-04 1.927E-04

     Forces acting on atoms (cartesian axes, Ry/au):

     atom    1 type  1   force =    -0.00000545    0.01339134    0.00375002
     atom    2 type  1   force =     0.01173088   -0.00672564    0.00367544
     atom    3 type  2   force =    -0.00000996   -0.00011974   -0.01864679
     atom    4 type  1   force =    -0.01171559   -0.00674902    0.00366546
     atom    5 type  1   force =    -0.00000649    0.00192067    0.00115632
     atom    6 type  1   force =     0.00145946   -0.00093298    0.00133696
     atom    7 type  2   force =    -0.00001278    0.00044951    0.00396041
     atom    8 type  1   force =    -0.00144120   -0.00096248    0.00132228
     atom    9 type  1   force =     0.00000028   -0.00024439    0.00008737
     atom   10 type  1   force =    -0.00016613    0.00006745   -0.00030080
     atom   11 type  2   force =     0.00000013    0.00007896   -0.00000312
     atom   12 type  1   force =     0.00016593    0.00006865   -0.00030053
     atom   13 type  1   force =     0.00000050   -0.00037306   -0.00010499
     atom   14 type  1   force =    -0.00022156    0.00021312    0.00043438
     atom   15 type  2   force =     0.00000014    0.00020840    0.00120324
     atom   16 type  1   force =     0.00022128    0.00021455    0.00043471
     atom   17 type  1   force =     0.00000068    0.00007858    0.00147807
     atom   18 type  1   force =    -0.00056297    0.00140128    0.00061749
     atom   19 type  2   force =     0.00000004    0.00060825    0.00059088
     atom   20 type  1   force =     0.00056262    0.00140229    0.00061797
     atom   21 type  1   force =     0.00000030    0.00128914    0.00005711
     atom   22 type  1   force =    -0.00275357   -0.00058039   -0.00263069
     atom   23 type  2   force =     0.00000011   -0.00220176    0.00098415
     atom   24 type  1   force =     0.00275349   -0.00058007   -0.00263061
     atom   25 type  3   force =    -0.00000014   -0.00192267   -0.00075474

     Total force =     0.007224     Total SCF correction =     0.000094


     Computing stress (Cartesian axis) and pressure


     negative rho (up, down):  2.455E-04 1.927E-04
          total   stress  (Ry/bohr**3)                   (kbar)     P=       -4.88
  -0.00005831   0.00000000   0.00000000           -8.58        0.00        0.00
   0.00000000  -0.00004231  -0.00000466            0.00       -6.22       -0.68
   0.00000000  -0.00000466   0.00000110            0.00       -0.68        0.16

     Energy error            =      1.1E-04 Ry
     Gradient error          =      2.8E-03 Ry/Bohr

     number of scf cycles    =   7
     number of bfgs steps    =   6

     energy             old  =   -5332.1060295837 Ry
     energy             new  =   -5332.1061431307 Ry

     CASE: energy            _new < energy            _old

     new trust radius        =       0.0156223281 bohr
     new conv_thr            =       0.0000000004 Ry


ATOMIC_POSITIONS (angstrom)
Ni               5.0381082178        2.9087344078       11.0000000000    0   0   0
Ni               1.2594928383        0.7271633007       11.0000321314    0   0   0
Pd               2.5190631929        2.9087349143       11.0000563881    0   0   0
Ni               3.7785410216        0.7272125305       11.0000798881    0   0   0
Ni               2.5190678846        1.4543657934       13.0567878192    0   0   0
Ni               6.2975735046        3.6359005296       13.0568199507    0   0   0
Pd               5.0381035260        1.4543662999       13.0568442073    0   0   0
Ni               3.7785410216        3.6359497594       13.0568677074    0   0   0
Ni               2.5190390834        4.3621480569       15.1079567369
Ni               3.7770198182        2.1822349632       15.1106201249
Pd               5.0380873867        4.3635181901       15.1049075154
Ni               6.2991620072        2.1822335910       15.1106190005
Ni               5.0380842318        2.9108354371       17.1620071570
Ni               1.2614608198        0.7264602368       17.1627230975
Pd               2.5190442829        2.9086975168       17.1746759270
Ni               3.7766262825        0.7264590100       17.1627243117
Ni               2.5190414590        1.4539092813       19.2360673498
Ni               6.2789600263        3.6460957072       19.2211002513
Pd               5.0380823105        1.4538287853       19.2084320784
Ni               3.7972053442        3.6460956574       19.2211001143
Ni               2.5190415224        4.3326540564       21.2354755409
Ni               3.7588310053        2.2192387111       21.2698941684
Pd               5.0380819913        4.4125085607       21.3659832892
Ni               6.3173330297        2.2192387139       21.2698942122
H                5.0380844907        2.7935857176       22.2380079803



     Writing config-only to output data dir /tmpu/isholek_g/isholek/MIGUEL/QE/Hydrogen/111_2x2/SAVE/Ni3Pd1_111-H_hcp_1.save/ :
     XML data file
     NEW-OLD atomic charge density approx. for the potential

     Check: negative core charge=   -0.000001

     negative rho (up, down):  2.332E-04 2.097E-04
     Generating pointlists ...

     total cpu time spent up to now is   119404.1 secs

     Self-consistent Calculation

     iteration #  1     ecut=    60.00 Ry     beta= 0.20
     Davidson diagonalization with overlap
     ethr =  1.00E-06,  avg # of iterations =  5.7

     Threshold (ethr) on eigenvalues was too large:
     Diagonalizing with lowered threshold

     Davidson diagonalization with overlap
     ethr =  4.23E-08,  avg # of iterations =  4.3

     negative rho (up, down):  2.448E-04 2.059E-04

     total cpu time spent up to now is   121497.9 secs

     total energy              =   -5332.10622146 Ry
     estimated scf accuracy    <       0.00010278 Ry

     total magnetization       =    14.41 Bohr mag/cell
     absolute magnetization    =    16.29 Bohr mag/cell

     iteration #  2     ecut=    60.00 Ry     beta= 0.20
     Davidson diagonalization with overlap
     ethr =  4.26E-08,  avg # of iterations =  1.1

     negative rho (up, down):  2.440E-04 2.028E-04

     total cpu time spent up to now is   122058.3 secs

     total energy              =   -5332.10622654 Ry
     estimated scf accuracy    <       0.00015531 Ry

     total magnetization       =    14.41 Bohr mag/cell
     absolute magnetization    =    16.29 Bohr mag/cell

     iteration #  3     ecut=    60.00 Ry     beta= 0.20
     Davidson diagonalization with overlap
     ethr =  4.26E-08,  avg # of iterations =  1.0

     negative rho (up, down):  2.442E-04 2.002E-04

     total cpu time spent up to now is   122603.3 secs

     total energy              =   -5332.10623147 Ry
     estimated scf accuracy    <       0.00001905 Ry

     total magnetization       =    14.42 Bohr mag/cell
     absolute magnetization    =    16.29 Bohr mag/cell

     iteration #  4     ecut=    60.00 Ry     beta= 0.20
     Davidson diagonalization with overlap
     ethr =  7.90E-09,  avg # of iterations =  2.0

     negative rho (up, down):  2.442E-04 1.986E-04

     total cpu time spent up to now is   123219.2 secs

     total energy              =   -5332.10623490 Ry
     estimated scf accuracy    <       0.00002262 Ry

     total magnetization       =    14.42 Bohr mag/cell
     absolute magnetization    =    16.30 Bohr mag/cell

     iteration #  5     ecut=    60.00 Ry     beta= 0.20
     Davidson diagonalization with overlap
     ethr =  7.90E-09,  avg # of iterations =  1.0

     negative rho (up, down):  2.452E-04 1.967E-04

     total cpu time spent up to now is   123774.8 secs

     total energy              =   -5332.10623915 Ry
     estimated scf accuracy    <       0.00002360 Ry

     total magnetization       =    14.42 Bohr mag/cell
     absolute magnetization    =    16.30 Bohr mag/cell

     iteration #  6     ecut=    60.00 Ry     beta= 0.20
     Davidson diagonalization with overlap
     ethr =  7.90E-09,  avg # of iterations =  2.0

     negative rho (up, down):  2.452E-04 1.953E-04

     total cpu time spent up to now is   124397.3 secs

     total energy              =   -5332.10624035 Ry
     estimated scf accuracy    <       0.00000830 Ry

     total magnetization       =    14.41 Bohr mag/cell
     absolute magnetization    =    16.29 Bohr mag/cell

     iteration #  7     ecut=    60.00 Ry     beta= 0.20
     Davidson diagonalization with overlap
     ethr =  3.45E-09,  avg # of iterations =  1.1

     negative rho (up, down):  2.442E-04 1.935E-04

     total cpu time spent up to now is   124975.9 secs

     total energy              =   -5332.10624031 Ry
     estimated scf accuracy    <       0.00000238 Ry

     total magnetization       =    14.41 Bohr mag/cell
     absolute magnetization    =    16.29 Bohr mag/cell

     iteration #  8     ecut=    60.00 Ry     beta= 0.20
     Davidson diagonalization with overlap
     ethr =  9.86E-10,  avg # of iterations =  2.1

     negative rho (up, down):  2.438E-04 1.926E-04

     total cpu time spent up to now is   125621.8 secs

     total energy              =   -5332.10624053 Ry
     estimated scf accuracy    <       0.00000037 Ry

     total magnetization       =    14.41 Bohr mag/cell
     absolute magnetization    =    16.29 Bohr mag/cell

     iteration #  9     ecut=    60.00 Ry     beta= 0.20
     Davidson diagonalization with overlap
     ethr =  1.52E-10,  avg # of iterations =  5.1

     negative rho (up, down):  2.435E-04 1.921E-04

     total cpu time spent up to now is   126429.1 secs

     total energy              =   -5332.10624069 Ry
     estimated scf accuracy    <       0.00000021 Ry

     total magnetization       =    14.42 Bohr mag/cell
     absolute magnetization    =    16.30 Bohr mag/cell

     iteration # 10     ecut=    60.00 Ry     beta= 0.20
     Davidson diagonalization with overlap
     ethr =  8.56E-11,  avg # of iterations =  2.0

     negative rho (up, down):  2.432E-04 1.916E-04

     total cpu time spent up to now is   127055.9 secs

     total energy              =   -5332.10624071 Ry
     estimated scf accuracy    <       0.00000016 Ry

     total magnetization       =    14.42 Bohr mag/cell
     absolute magnetization    =    16.30 Bohr mag/cell

     iteration # 11     ecut=    60.00 Ry     beta= 0.20
     Davidson diagonalization with overlap
     ethr =  6.70E-11,  avg # of iterations =  1.8

     negative rho (up, down):  2.429E-04 1.910E-04

     total cpu time spent up to now is   127646.9 secs

     total energy              =   -5332.10624072 Ry
     estimated scf accuracy    <       0.00000018 Ry

     total magnetization       =    14.42 Bohr mag/cell
     absolute magnetization    =    16.30 Bohr mag/cell

     iteration # 12     ecut=    60.00 Ry     beta= 0.20
     Davidson diagonalization with overlap
     ethr =  6.70E-11,  avg # of iterations =  1.0

     negative rho (up, down):  2.429E-04 1.908E-04

     total cpu time spent up to now is   128202.0 secs

     total energy              =   -5332.10624072 Ry
     estimated scf accuracy    <       0.00000011 Ry

     total magnetization       =    14.42 Bohr mag/cell
     absolute magnetization    =    16.30 Bohr mag/cell

     iteration # 13     ecut=    60.00 Ry     beta= 0.20
     Davidson diagonalization with overlap
     ethr =  4.67E-11,  avg # of iterations =  1.0

     negative rho (up, down):  2.429E-04 1.907E-04

     total cpu time spent up to now is   128763.1 secs

     total energy              =   -5332.10624072 Ry
     estimated scf accuracy    <       0.00000011 Ry

     total magnetization       =    14.42 Bohr mag/cell
     absolute magnetization    =    16.30 Bohr mag/cell

     iteration # 14     ecut=    60.00 Ry     beta= 0.20
     Davidson diagonalization with overlap
     ethr =  4.65E-11,  avg # of iterations =  1.0

     negative rho (up, down):  2.430E-04 1.907E-04

     total cpu time spent up to now is   129322.4 secs

     total energy              =   -5332.10624072 Ry
     estimated scf accuracy    <       0.00000008 Ry

     total magnetization       =    14.42 Bohr mag/cell
     absolute magnetization    =    16.30 Bohr mag/cell

     iteration # 15     ecut=    60.00 Ry     beta= 0.20
     Davidson diagonalization with overlap
     ethr =  3.40E-11,  avg # of iterations =  1.0

     negative rho (up, down):  2.431E-04 1.906E-04

     total cpu time spent up to now is   129879.4 secs

     total energy              =   -5332.10624073 Ry
     estimated scf accuracy    <       0.00000005 Ry

     total magnetization       =    14.42 Bohr mag/cell
     absolute magnetization    =    16.30 Bohr mag/cell

     iteration # 16     ecut=    60.00 Ry     beta= 0.20
     Davidson diagonalization with overlap
     ethr =  1.88E-11,  avg # of iterations =  1.0

     negative rho (up, down):  2.432E-04 1.907E-04

     total cpu time spent up to now is   130425.6 secs

     total energy              =   -5332.10624073 Ry
     estimated scf accuracy    <       0.00000004 Ry

     total magnetization       =    14.42 Bohr mag/cell
     absolute magnetization    =    16.30 Bohr mag/cell

     iteration # 17     ecut=    60.00 Ry     beta= 0.20
     Davidson diagonalization with overlap
     ethr =  1.70E-11,  avg # of iterations =  1.0

     negative rho (up, down):  2.435E-04 1.910E-04

     total cpu time spent up to now is   130974.5 secs

     total energy              =   -5332.10624073 Ry
     estimated scf accuracy    <       0.00000002 Ry

     total magnetization       =    14.42 Bohr mag/cell
     absolute magnetization    =    16.30 Bohr mag/cell

     iteration # 18     ecut=    60.00 Ry     beta= 0.20
     Davidson diagonalization with overlap
     ethr =  1.03E-11,  avg # of iterations =  1.0

     negative rho (up, down):  2.436E-04 1.910E-04

     total cpu time spent up to now is   131545.8 secs

     total energy              =   -5332.10624073 Ry
     estimated scf accuracy    <          8.6E-10 Ry

     total magnetization       =    14.42 Bohr mag/cell
     absolute magnetization    =    16.30 Bohr mag/cell

     iteration # 19     ecut=    60.00 Ry     beta= 0.20
     Davidson diagonalization with overlap
     ethr =  3.56E-13,  avg # of iterations =  2.3

     negative rho (up, down):  2.437E-04 1.911E-04

     total cpu time spent up to now is   132166.9 secs

     total energy              =   -5332.10624073 Ry
     estimated scf accuracy    <          5.9E-10 Ry

     total magnetization       =    14.42 Bohr mag/cell
     absolute magnetization    =    16.30 Bohr mag/cell

     iteration # 20     ecut=    60.00 Ry     beta= 0.20
     Davidson diagonalization with overlap
     ethr =  2.46E-13,  avg # of iterations =  1.3

     negative rho (up, down):  2.456E-04 1.927E-04
 
     Magnetic moment per site  (integrated on atomic sphere of radius R)
     atom   1 (R=0.140)  charge=  6.9035  magn=  0.7263
     atom   2 (R=0.140)  charge=  6.9033  magn=  0.7303
     atom   3 (R=0.140)  charge=  5.1406  magn=  0.2143
     atom   4 (R=0.140)  charge=  6.9033  magn=  0.7303
     atom   5 (R=0.140)  charge=  6.8992  magn=  0.7511
     atom   6 (R=0.140)  charge=  6.8995  magn=  0.7398
     atom   7 (R=0.140)  charge=  5.1291  magn=  0.2620
     atom   8 (R=0.140)  charge=  6.8995  magn=  0.7398
     atom   9 (R=0.140)  charge=  6.8991  magn=  0.7233
     atom  10 (R=0.140)  charge=  6.8998  magn=  0.7032
     atom  11 (R=0.140)  charge=  5.1263  magn=  0.2498
     atom  12 (R=0.140)  charge=  6.8998  magn=  0.7032
     atom  13 (R=0.140)  charge=  6.8998  magn=  0.7056
     atom  14 (R=0.140)  charge=  6.8991  magn=  0.7069
     atom  15 (R=0.140)  charge=  5.1258  magn=  0.2494
     atom  16 (R=0.140)  charge=  6.8991  magn=  0.7069
     atom  17 (R=0.140)  charge=  6.9005  magn=  0.6470
     atom  18 (R=0.140)  charge=  6.8994  magn=  0.7417
     atom  19 (R=0.140)  charge=  5.1295  magn=  0.2587
     atom  20 (R=0.140)  charge=  6.8994  magn=  0.7417
     atom  21 (R=0.140)  charge=  6.9062  magn=  0.7367
     atom  22 (R=0.140)  charge=  6.9069  magn=  0.5545
     atom  23 (R=0.140)  charge=  5.1388  magn=  0.1601
     atom  24 (R=0.140)  charge=  6.9069  magn=  0.5545
     atom  25 (R=0.140)  charge=  0.9074  magn= -0.0068

     total cpu time spent up to now is   132748.5 secs

     End of self-consistent calculation

     Number of k-points >= 100: set verbosity='high' to print the bands.

     the Fermi energy is    -5.0813 ev

!    total energy              =   -5332.10624074 Ry
     total all-electron energy =   -115303.852382 Ry
     estimated scf accuracy    <          2.7E-10 Ry
     smearing contrib. (-TS)   =      -0.00224848 Ry
     internal energy E=F+TS    =   -5332.10399226 Ry

     The total energy is F=E-TS. E is the sum of the following terms:
     one-electron contribution =  -69994.23747798 Ry
     hartree contribution      =   35191.72732980 Ry
     xc contribution           =    -947.25480916 Ry
     ewald contribution        =   33491.26334870 Ry
     DFT-D3 Dispersion         =      -2.02344773 Ry
     one-center paw contrib.   =   -3071.57893589 Ry

     total magnetization       =    14.42 Bohr mag/cell
     absolute magnetization    =    16.30 Bohr mag/cell

     convergence has been achieved in  20 iterations

     negative rho (up, down):  2.456E-04 1.927E-04

     Forces acting on atoms (cartesian axes, Ry/au):

     atom    1 type  1   force =    -0.00000545    0.01339229    0.00374921
     atom    2 type  1   force =     0.01172472   -0.00672862    0.00367569
     atom    3 type  2   force =    -0.00000995   -0.00011951   -0.01864091
     atom    4 type  1   force =    -0.01170941   -0.00675201    0.00366571
     atom    5 type  1   force =    -0.00000653    0.00193565    0.00103308
     atom    6 type  1   force =     0.00147889   -0.00092403    0.00122569
     atom    7 type  2   force =    -0.00001273    0.00038905    0.00378546
     atom    8 type  1   force =    -0.00146060   -0.00095358    0.00121101
     atom    9 type  1   force =     0.00000012   -0.00026162    0.00032091
     atom   10 type  1   force =    -0.00032503    0.00009023    0.00017090
     atom   11 type  2   force =     0.00000006    0.00016377    0.00037170
     atom   12 type  1   force =     0.00032504    0.00009065    0.00017093
     atom   13 type  1   force =     0.00000019   -0.00019347    0.00008295
     atom   14 type  1   force =    -0.00003222    0.00025233    0.00050756
     atom   15 type  2   force =     0.00000011    0.00013538    0.00090872
     atom   16 type  1   force =     0.00003223    0.00025276    0.00050761
     atom   17 type  1   force =     0.00000026   -0.00017088    0.00113675
     atom   18 type  1   force =     0.00009395    0.00125834   -0.00012602
     atom   19 type  2   force =     0.00000010    0.00046666   -0.00071517
     atom   20 type  1   force =    -0.00009394    0.00125862   -0.00012577
     atom   21 type  1   force =     0.00000017    0.00135494    0.00053609
     atom   22 type  1   force =    -0.00324849   -0.00222472   -0.00203410
     atom   23 type  2   force =     0.00000006    0.00127729    0.00084106
     atom   24 type  1   force =     0.00324860   -0.00222471   -0.00203412
     atom   25 type  3   force =    -0.00000014   -0.00176482   -0.00022495

     Total force =     0.007371     Total SCF correction =     0.000052


     Computing stress (Cartesian axis) and pressure


     negative rho (up, down):  2.456E-04 1.927E-04
          total   stress  (Ry/bohr**3)                   (kbar)     P=       -4.84
  -0.00005800   0.00000000   0.00000000           -8.53        0.00        0.00
   0.00000000  -0.00004230  -0.00000444            0.00       -6.22       -0.65
   0.00000000  -0.00000444   0.00000155            0.00       -0.65        0.23

     Energy error            =      9.8E-05 Ry
     Gradient error          =      3.2E-03 Ry/Bohr

     number of scf cycles    =   8
     number of bfgs steps    =   7

     energy             old  =   -5332.1061431307 Ry
     energy             new  =   -5332.1062407370 Ry

     CASE: energy            _new < energy            _old

     new trust radius        =       0.0179927872 bohr
     new conv_thr            =       0.0000000004 Ry


ATOMIC_POSITIONS (angstrom)
Ni               5.0381082178        2.9087344078       11.0000000000    0   0   0
Ni               1.2594928383        0.7271633007       11.0000321314    0   0   0
Pd               2.5190631929        2.9087349143       11.0000563881    0   0   0
Ni               3.7785410216        0.7272125305       11.0000798881    0   0   0
Ni               2.5190678846        1.4543657934       13.0567878192    0   0   0
Ni               6.2975735046        3.6359005296       13.0568199507    0   0   0
Pd               5.0381035260        1.4543662999       13.0568442073    0   0   0
Ni               3.7785410216        3.6359497594       13.0568677074    0   0   0
Ni               2.5190396807        4.3617566342       15.1079580074
Ni               3.7767538712        2.1823759058       15.1100035125
Pd               5.0380875826        4.3636241949       15.1047978313
Ni               6.2994278387        2.1823763312       15.1100028005
Ni               5.0380851488        2.9102499546       17.1614884464
Ni               1.2611988832        0.7268760520       17.1632347385
Pd               2.5190445261        2.9090160344       17.1767124715
Ni               3.7768880382        0.7268771253       17.1632364404
Ni               2.5190425317        1.4549675421       19.2388154750
Ni               6.2775565231        3.6488224399       19.2221465694
Pd               5.0380825112        1.4554128870       19.2093431563
Ni               3.7986083592        3.6488239785       19.2221472226
Ni               2.5190420290        4.3353850981       21.2349238386
Ni               3.7551464494        2.2200779810       21.2659233752
Pd               5.0380823389        4.4078118044       21.3690073652
Ni               6.3210175983        2.2200785468       21.2659235695
H                5.0380841224        2.7845988958       22.2348625747



     Writing config-only to output data dir /tmpu/isholek_g/isholek/MIGUEL/QE/Hydrogen/111_2x2/SAVE/Ni3Pd1_111-H_hcp_1.save/ :
     XML data file
     NEW-OLD atomic charge density approx. for the potential

     Check: negative core charge=   -0.000001

     negative rho (up, down):  2.327E-04 2.098E-04
     Generating pointlists ...

     total cpu time spent up to now is   133164.3 secs

     Self-consistent Calculation

     iteration #  1     ecut=    60.00 Ry     beta= 0.20
     Davidson diagonalization with overlap
     ethr =  1.00E-06,  avg # of iterations =  5.1

     Threshold (ethr) on eigenvalues was too large:
     Diagonalizing with lowered threshold

     Davidson diagonalization with overlap
     ethr =  5.55E-08,  avg # of iterations =  4.0

     negative rho (up, down):  2.454E-04 2.078E-04

     total cpu time spent up to now is   135194.3 secs

     total energy              =   -5332.10631313 Ry
     estimated scf accuracy    <       0.00014199 Ry

     total magnetization       =    14.41 Bohr mag/cell
     absolute magnetization    =    16.29 Bohr mag/cell

     iteration #  2     ecut=    60.00 Ry     beta= 0.20
     Davidson diagonalization with overlap
     ethr =  5.89E-08,  avg # of iterations =  1.1

     negative rho (up, down):  2.445E-04 2.045E-04

     total cpu time spent up to now is   135720.9 secs

     total energy              =   -5332.10631899 Ry
     estimated scf accuracy    <       0.00030735 Ry

     total magnetization       =    14.41 Bohr mag/cell
     absolute magnetization    =    16.29 Bohr mag/cell

     iteration #  3     ecut=    60.00 Ry     beta= 0.20
     Davidson diagonalization with overlap
     ethr =  5.89E-08,  avg # of iterations =  1.0

     negative rho (up, down):  2.446E-04 2.014E-04

     total cpu time spent up to now is   136269.6 secs

     total energy              =   -5332.10632284 Ry
     estimated scf accuracy    <       0.00004184 Ry

     total magnetization       =    14.41 Bohr mag/cell
     absolute magnetization    =    16.29 Bohr mag/cell

     iteration #  4     ecut=    60.00 Ry     beta= 0.20
     Davidson diagonalization with overlap
     ethr =  1.74E-08,  avg # of iterations =  1.8

     negative rho (up, down):  2.448E-04 1.997E-04

     total cpu time spent up to now is   136844.5 secs

     total energy              =   -5332.10632626 Ry
     estimated scf accuracy    <       0.00002805 Ry

     total magnetization       =    14.42 Bohr mag/cell
     absolute magnetization    =    16.30 Bohr mag/cell

     iteration #  5     ecut=    60.00 Ry     beta= 0.20
     Davidson diagonalization with overlap
     ethr =  1.16E-08,  avg # of iterations =  1.0

     negative rho (up, down):  2.457E-04 1.980E-04

     total cpu time spent up to now is   137405.6 secs

     total energy              =   -5332.10632901 Ry
     estimated scf accuracy    <       0.00002669 Ry

     total magnetization       =    14.42 Bohr mag/cell
     absolute magnetization    =    16.30 Bohr mag/cell

     iteration #  6     ecut=    60.00 Ry     beta= 0.20
     Davidson diagonalization with overlap
     ethr =  1.11E-08,  avg # of iterations =  1.9

     negative rho (up, down):  2.464E-04 1.968E-04

     total cpu time spent up to now is   137996.0 secs

     total energy              =   -5332.10632984 Ry
     estimated scf accuracy    <       0.00001199 Ry

     total magnetization       =    14.41 Bohr mag/cell
     absolute magnetization    =    16.29 Bohr mag/cell

     iteration #  7     ecut=    60.00 Ry     beta= 0.20
     Davidson diagonalization with overlap
     ethr =  4.98E-09,  avg # of iterations =  2.0

     negative rho (up, down):  2.455E-04 1.950E-04

     total cpu time spent up to now is   138574.9 secs

     total energy              =   -5332.10633018 Ry
     estimated scf accuracy    <       0.00000258 Ry

     total magnetization       =    14.41 Bohr mag/cell
     absolute magnetization    =    16.29 Bohr mag/cell

     iteration #  8     ecut=    60.00 Ry     beta= 0.20
     Davidson diagonalization with overlap
     ethr =  1.07E-09,  avg # of iterations =  3.0

     negative rho (up, down):  2.450E-04 1.941E-04

     total cpu time spent up to now is   139203.6 secs

     total energy              =   -5332.10633050 Ry
     estimated scf accuracy    <       0.00000140 Ry

     total magnetization       =    14.41 Bohr mag/cell
     absolute magnetization    =    16.29 Bohr mag/cell

     iteration #  9     ecut=    60.00 Ry     beta= 0.20
     Davidson diagonalization with overlap
     ethr =  5.83E-10,  avg # of iterations =  2.0

     negative rho (up, down):  2.446E-04 1.933E-04

     total cpu time spent up to now is   139785.2 secs

     total energy              =   -5332.10633059 Ry
     estimated scf accuracy    <       0.00000021 Ry

     total magnetization       =    14.42 Bohr mag/cell
     absolute magnetization    =    16.29 Bohr mag/cell

     iteration # 10     ecut=    60.00 Ry     beta= 0.20
     Davidson diagonalization with overlap
     ethr =  8.79E-11,  avg # of iterations =  4.8

     negative rho (up, down):  2.442E-04 1.927E-04

     total cpu time spent up to now is   140648.0 secs

     total energy              =   -5332.10633067 Ry
     estimated scf accuracy    <       0.00000014 Ry

     total magnetization       =    14.42 Bohr mag/cell
     absolute magnetization    =    16.29 Bohr mag/cell

     iteration # 11     ecut=    60.00 Ry     beta= 0.20
     Davidson diagonalization with overlap
     ethr =  5.72E-11,  avg # of iterations =  2.0

     negative rho (up, down):  2.440E-04 1.922E-04

     total cpu time spent up to now is   141232.5 secs

     total energy              =   -5332.10633068 Ry
     estimated scf accuracy    <       0.00000012 Ry

     total magnetization       =    14.42 Bohr mag/cell
     absolute magnetization    =    16.29 Bohr mag/cell

     iteration # 12     ecut=    60.00 Ry     beta= 0.20
     Davidson diagonalization with overlap
     ethr =  4.82E-11,  avg # of iterations =  1.0

     negative rho (up, down):  2.437E-04 1.917E-04

     total cpu time spent up to now is   141781.0 secs

     total energy              =   -5332.10633068 Ry
     estimated scf accuracy    <       0.00000002 Ry

     total magnetization       =    14.42 Bohr mag/cell
     absolute magnetization    =    16.29 Bohr mag/cell

     iteration # 13     ecut=    60.00 Ry     beta= 0.20
     Davidson diagonalization with overlap
     ethr =  9.74E-12,  avg # of iterations =  2.1

     negative rho (up, down):  2.437E-04 1.915E-04

     total cpu time spent up to now is   142453.5 secs

     total energy              =   -5332.10633068 Ry
     estimated scf accuracy    <       0.00000002 Ry

     total magnetization       =    14.42 Bohr mag/cell
     absolute magnetization    =    16.29 Bohr mag/cell

     iteration # 14     ecut=    60.00 Ry     beta= 0.20
     Davidson diagonalization with overlap
     ethr =  8.86E-12,  avg # of iterations =  1.1

     negative rho (up, down):  2.438E-04 1.915E-04

     total cpu time spent up to now is   143064.3 secs

     total energy              =   -5332.10633068 Ry
     estimated scf accuracy    <       0.00000003 Ry

     total magnetization       =    14.42 Bohr mag/cell
     absolute magnetization    =    16.29 Bohr mag/cell

     iteration # 15     ecut=    60.00 Ry     beta= 0.20
     Davidson diagonalization with overlap
     ethr =  8.86E-12,  avg # of iterations =  1.1

     negative rho (up, down):  2.438E-04 1.914E-04

     total cpu time spent up to now is   143619.1 secs

     total energy              =   -5332.10633068 Ry
     estimated scf accuracy    <       0.00000001 Ry

     total magnetization       =    14.42 Bohr mag/cell
     absolute magnetization    =    16.29 Bohr mag/cell

     iteration # 16     ecut=    60.00 Ry     beta= 0.20
     Davidson diagonalization with overlap
     ethr =  4.36E-12,  avg # of iterations =  1.1

     negative rho (up, down):  2.440E-04 1.915E-04

     total cpu time spent up to now is   144159.4 secs

     total energy              =   -5332.10633069 Ry
     estimated scf accuracy    <       0.00000001 Ry

     total magnetization       =    14.42 Bohr mag/cell
     absolute magnetization    =    16.29 Bohr mag/cell

     iteration # 17     ecut=    60.00 Ry     beta= 0.20
     Davidson diagonalization with overlap
     ethr =  4.36E-12,  avg # of iterations =  1.4

     negative rho (up, down):  2.440E-04 1.915E-04

     total cpu time spent up to now is   144710.0 secs

     total energy              =   -5332.10633069 Ry
     estimated scf accuracy    <          9.3E-09 Ry

     total magnetization       =    14.42 Bohr mag/cell
     absolute magnetization    =    16.29 Bohr mag/cell

     iteration # 18     ecut=    60.00 Ry     beta= 0.20
     Davidson diagonalization with overlap
     ethr =  3.87E-12,  avg # of iterations =  1.0

     negative rho (up, down):  2.440E-04 1.914E-04

     total cpu time spent up to now is   145257.6 secs

     total energy              =   -5332.10633069 Ry
     estimated scf accuracy    <          5.1E-09 Ry

     total magnetization       =    14.42 Bohr mag/cell
     absolute magnetization    =    16.29 Bohr mag/cell

     iteration # 19     ecut=    60.00 Ry     beta= 0.20
     Davidson diagonalization with overlap
     ethr =  2.13E-12,  avg # of iterations =  1.0

     negative rho (up, down):  2.440E-04 1.913E-04

     total cpu time spent up to now is   145800.6 secs

     total energy              =   -5332.10633069 Ry
     estimated scf accuracy    <          8.9E-09 Ry

     total magnetization       =    14.42 Bohr mag/cell
     absolute magnetization    =    16.29 Bohr mag/cell

     iteration # 20     ecut=    60.00 Ry     beta= 0.20
     Davidson diagonalization with overlap
     ethr =  2.13E-12,  avg # of iterations =  1.0

     negative rho (up, down):  2.440E-04 1.913E-04

     total cpu time spent up to now is   146339.1 secs

     total energy              =   -5332.10633069 Ry
     estimated scf accuracy    <          8.5E-09 Ry

     total magnetization       =    14.42 Bohr mag/cell
     absolute magnetization    =    16.29 Bohr mag/cell

     iteration # 21     ecut=    60.00 Ry     beta= 0.20
     Davidson diagonalization with overlap
     ethr =  2.13E-12,  avg # of iterations =  1.0

     negative rho (up, down):  2.440E-04 1.913E-04

     total cpu time spent up to now is   146872.9 secs

     total energy              =   -5332.10633069 Ry
     estimated scf accuracy    <          7.6E-09 Ry

     total magnetization       =    14.42 Bohr mag/cell
     absolute magnetization    =    16.29 Bohr mag/cell

     iteration # 22     ecut=    60.00 Ry     beta= 0.20
     Davidson diagonalization with overlap
     ethr =  2.13E-12,  avg # of iterations =  1.0

     negative rho (up, down):  2.440E-04 1.913E-04

     total cpu time spent up to now is   147405.7 secs

     total energy              =   -5332.10633069 Ry
     estimated scf accuracy    <          7.3E-09 Ry

     total magnetization       =    14.42 Bohr mag/cell
     absolute magnetization    =    16.29 Bohr mag/cell

     iteration # 23     ecut=    60.00 Ry     beta= 0.20
     Davidson diagonalization with overlap
     ethr =  2.13E-12,  avg # of iterations =  1.0

     negative rho (up, down):  2.441E-04 1.913E-04

     total cpu time spent up to now is   147940.5 secs

     total energy              =   -5332.10633069 Ry
     estimated scf accuracy    <          7.4E-09 Ry

     total magnetization       =    14.42 Bohr mag/cell
     absolute magnetization    =    16.29 Bohr mag/cell

     iteration # 24     ecut=    60.00 Ry     beta= 0.20
     Davidson diagonalization with overlap
     ethr =  2.13E-12,  avg # of iterations =  1.0

     negative rho (up, down):  2.444E-04 1.916E-04

     total cpu time spent up to now is   148490.1 secs

     total energy              =   -5332.10633069 Ry
     estimated scf accuracy    <          4.9E-09 Ry

     total magnetization       =    14.42 Bohr mag/cell
     absolute magnetization    =    16.29 Bohr mag/cell

     iteration # 25     ecut=    60.00 Ry     beta= 0.20
     Davidson diagonalization with overlap
     ethr =  2.02E-12,  avg # of iterations =  1.0

     negative rho (up, down):  2.456E-04 1.928E-04
 
     Magnetic moment per site  (integrated on atomic sphere of radius R)
     atom   1 (R=0.140)  charge=  6.9035  magn=  0.7264
     atom   2 (R=0.140)  charge=  6.9033  magn=  0.7303
     atom   3 (R=0.140)  charge=  5.1406  magn=  0.2143
     atom   4 (R=0.140)  charge=  6.9033  magn=  0.7303
     atom   5 (R=0.140)  charge=  6.8992  magn=  0.7511
     atom   6 (R=0.140)  charge=  6.8995  magn=  0.7398
     atom   7 (R=0.140)  charge=  5.1291  magn=  0.2621
     atom   8 (R=0.140)  charge=  6.8995  magn=  0.7398
     atom   9 (R=0.140)  charge=  6.8991  magn=  0.7234
     atom  10 (R=0.140)  charge=  6.8998  magn=  0.7034
     atom  11 (R=0.140)  charge=  5.1263  magn=  0.2497
     atom  12 (R=0.140)  charge=  6.8998  magn=  0.7034
     atom  13 (R=0.140)  charge=  6.8997  magn=  0.7056
     atom  14 (R=0.140)  charge=  6.8991  magn=  0.7068
     atom  15 (R=0.140)  charge=  5.1259  magn=  0.2492
     atom  16 (R=0.140)  charge=  6.8991  magn=  0.7068
     atom  17 (R=0.140)  charge=  6.9006  magn=  0.6467
     atom  18 (R=0.140)  charge=  6.8995  magn=  0.7417
     atom  19 (R=0.140)  charge=  5.1295  magn=  0.2586
     atom  20 (R=0.140)  charge=  6.8995  magn=  0.7417
     atom  21 (R=0.140)  charge=  6.9063  magn=  0.7367
     atom  22 (R=0.140)  charge=  6.9070  magn=  0.5545
     atom  23 (R=0.140)  charge=  5.1391  magn=  0.1603
     atom  24 (R=0.140)  charge=  6.9070  magn=  0.5545
     atom  25 (R=0.140)  charge=  0.9072  magn= -0.0068

     total cpu time spent up to now is   149011.8 secs

     End of self-consistent calculation

     Number of k-points >= 100: set verbosity='high' to print the bands.

     the Fermi energy is    -5.0812 ev

!    total energy              =   -5332.10633069 Ry
     total all-electron energy =   -115303.852472 Ry
     estimated scf accuracy    <          3.6E-10 Ry
     smearing contrib. (-TS)   =      -0.00225452 Ry
     internal energy E=F+TS    =   -5332.10407617 Ry

     The total energy is F=E-TS. E is the sum of the following terms:
     one-electron contribution =  -69996.09627827 Ry
     hartree contribution      =   35192.65511567 Ry
     xc contribution           =    -947.25616648 Ry
     ewald contribution        =   33492.19593031 Ry
     DFT-D3 Dispersion         =      -2.02347424 Ry
     one-center paw contrib.   =   -3071.57920317 Ry

     total magnetization       =    14.42 Bohr mag/cell
     absolute magnetization    =    16.29 Bohr mag/cell

     convergence has been achieved in  25 iterations

     negative rho (up, down):  2.456E-04 1.928E-04

     Forces acting on atoms (cartesian axes, Ry/au):

     atom    1 type  1   force =    -0.00000546    0.01339811    0.00375560
     atom    2 type  1   force =     0.01171943   -0.00672929    0.00367957
     atom    3 type  2   force =    -0.00000995   -0.00011655   -0.01863718
     atom    4 type  1   force =    -0.01170412   -0.00675268    0.00366959
     atom    5 type  1   force =    -0.00000656    0.00193707    0.00094718
     atom    6 type  1   force =     0.00147841   -0.00089951    0.00117537
     atom    7 type  2   force =    -0.00001266    0.00032901    0.00372905
     atom    8 type  1   force =    -0.00146007   -0.00092911    0.00116072
     atom    9 type  1   force =    -0.00000005   -0.00018160    0.00053730
     atom   10 type  1   force =    -0.00036564    0.00011196    0.00062993
     atom   11 type  2   force =    -0.00000007    0.00017032    0.00064696
     atom   12 type  1   force =     0.00036591    0.00011150    0.00062974
     atom   13 type  1   force =    -0.00000014    0.00012757    0.00019303
     atom   14 type  1   force =     0.00021469    0.00023136    0.00040815
     atom   15 type  2   force =     0.00000001    0.00007234    0.00044629
     atom   16 type  1   force =    -0.00021433    0.00023066    0.00040793
     atom   17 type  1   force =    -0.00000012   -0.00038252    0.00031352
     atom   18 type  1   force =     0.00063917    0.00092484   -0.00067118
     atom   19 type  2   force =     0.00000014    0.00053252   -0.00173633
     atom   20 type  1   force =    -0.00063880    0.00092432   -0.00067115
     atom   21 type  1   force =     0.00000003    0.00122914    0.00087928
     atom   22 type  1   force =    -0.00250580   -0.00286902   -0.00103001
     atom   23 type  2   force =     0.00000000    0.00296761    0.00073866
     atom   24 type  1   force =     0.00250612   -0.00286932   -0.00103010
     atom   25 type  3   force =    -0.00000013   -0.00156872   -0.00017190

     Total force =     0.007409     Total SCF correction =     0.000069


     Computing stress (Cartesian axis) and pressure


     negative rho (up, down):  2.456E-04 1.928E-04
          total   stress  (Ry/bohr**3)                   (kbar)     P=       -4.83
  -0.00005791   0.00000000   0.00000000           -8.52        0.00        0.00
   0.00000000  -0.00004261  -0.00000423            0.00       -6.27       -0.62
   0.00000000  -0.00000423   0.00000193            0.00       -0.62        0.28

     Energy error            =      9.0E-05 Ry
     Gradient error          =      3.0E-03 Ry/Bohr

     number of scf cycles    =   9
     number of bfgs steps    =   8

     energy             old  =   -5332.1062407370 Ry
     energy             new  =   -5332.1063306909 Ry

     CASE: energy            _new < energy            _old

     new trust radius        =       0.0219202957 bohr
     new conv_thr            =       0.0000000004 Ry


ATOMIC_POSITIONS (angstrom)
Ni               5.0381082178        2.9087344078       11.0000000000    0   0   0
Ni               1.2594928383        0.7271633007       11.0000321314    0   0   0
Pd               2.5190631929        2.9087349143       11.0000563881    0   0   0
Ni               3.7785410216        0.7272125305       11.0000798881    0   0   0
Ni               2.5190678846        1.4543657934       13.0567878192    0   0   0
Ni               6.2975735046        3.6359005296       13.0568199507    0   0   0
Pd               5.0381035260        1.4543662999       13.0568442073    0   0   0
Ni               3.7785410216        3.6359497594       13.0568677074    0   0   0
Ni               2.5190401592        4.3612922964       15.1082906060
Ni               3.7762769105        2.1825910925       15.1098399747
Pd               5.0380877567        4.3638225174       15.1050967310
Ni               6.2999049317        2.1825928550       15.1098394493
Ni               5.0380858788        2.9098351767       17.1610338021
Ni               1.2611460252        0.7274301141       17.1639011599
Pd               2.5190447725        2.9093556736       17.1788827197
Ni               3.7769410671        0.7274328208       17.1639030929
Ni               2.5190434817        1.4559389708       19.2415689500
Ni               6.2765593717        3.6520642626       19.2226853209
Pd               5.0380827882        1.4574450381       19.2089995933
Ni               3.7996053469        3.6520667979       19.2226867639
Ni               2.5190425348        4.3388948079       21.2348211140
Ni               3.7504421673        2.2195178001       21.2617155803
Pd               5.0380826846        4.4049732644       21.3726957460
Ni               6.3257221784        2.2195186500       21.2617159071
H                5.0380836556        2.7735751400       22.2312528195



     Writing config-only to output data dir /tmpu/isholek_g/isholek/MIGUEL/QE/Hydrogen/111_2x2/SAVE/Ni3Pd1_111-H_hcp_1.save/ :
     XML data file
     NEW-OLD atomic charge density approx. for the potential

     Check: negative core charge=   -0.000001

     negative rho (up, down):  2.343E-04 2.109E-04
     Generating pointlists ...

     total cpu time spent up to now is   149426.4 secs

     Self-consistent Calculation

     iteration #  1     ecut=    60.00 Ry     beta= 0.20
     Davidson diagonalization with overlap
     ethr =  1.00E-06,  avg # of iterations =  4.5

     Threshold (ethr) on eigenvalues was too large:
     Diagonalizing with lowered threshold

     Davidson diagonalization with overlap
     ethr =  9.44E-08,  avg # of iterations =  3.6

     negative rho (up, down):  2.512E-04 2.132E-04

     total cpu time spent up to now is   151224.1 secs

     total energy              =   -5332.10638914 Ry
     estimated scf accuracy    <       0.00023472 Ry

     total magnetization       =    14.41 Bohr mag/cell
     absolute magnetization    =    16.29 Bohr mag/cell

     iteration #  2     ecut=    60.00 Ry     beta= 0.20
     Davidson diagonalization with overlap
     ethr =  9.74E-08,  avg # of iterations =  1.1

     negative rho (up, down):  2.492E-04 2.087E-04

     total cpu time spent up to now is   151759.2 secs

     total energy              =   -5332.10639857 Ry
     estimated scf accuracy    <       0.00060890 Ry

     total magnetization       =    14.41 Bohr mag/cell
     absolute magnetization    =    16.29 Bohr mag/cell

     iteration #  3     ecut=    60.00 Ry     beta= 0.20
     Davidson diagonalization with overlap
     ethr =  9.74E-08,  avg # of iterations =  1.0

     negative rho (up, down):  2.482E-04 2.045E-04

     total cpu time spent up to now is   152298.5 secs

     total energy              =   -5332.10640370 Ry
     estimated scf accuracy    <       0.00005257 Ry

     total magnetization       =    14.41 Bohr mag/cell
     absolute magnetization    =    16.29 Bohr mag/cell

     iteration #  4     ecut=    60.00 Ry     beta= 0.20
     Davidson diagonalization with overlap
     ethr =  2.18E-08,  avg # of iterations =  1.7

     negative rho (up, down):  2.474E-04 2.017E-04

     total cpu time spent up to now is   152845.2 secs

     total energy              =   -5332.10640690 Ry
     estimated scf accuracy    <       0.00003543 Ry

     total magnetization       =    14.42 Bohr mag/cell
     absolute magnetization    =    16.29 Bohr mag/cell

     iteration #  5     ecut=    60.00 Ry     beta= 0.20
     Davidson diagonalization with overlap
     ethr =  1.47E-08,  avg # of iterations =  1.0

     negative rho (up, down):  2.475E-04 1.989E-04

     total cpu time spent up to now is   153371.9 secs

     total energy              =   -5332.10640746 Ry
     estimated scf accuracy    <       0.00003484 Ry

     total magnetization       =    14.42 Bohr mag/cell
     absolute magnetization    =    16.29 Bohr mag/cell

     iteration #  6     ecut=    60.00 Ry     beta= 0.20
     Davidson diagonalization with overlap
     ethr =  1.45E-08,  avg # of iterations =  2.0

     negative rho (up, down):  2.469E-04 1.970E-04

     total cpu time spent up to now is   153943.1 secs

     total energy              =   -5332.10640869 Ry
     estimated scf accuracy    <       0.00000578 Ry

     total magnetization       =    14.41 Bohr mag/cell
     absolute magnetization    =    16.29 Bohr mag/cell

     iteration #  7     ecut=    60.00 Ry     beta= 0.20
     Davidson diagonalization with overlap
     ethr =  2.40E-09,  avg # of iterations =  2.7

     negative rho (up, down):  2.458E-04 1.953E-04

     total cpu time spent up to now is   154570.3 secs

     total energy              =   -5332.10640928 Ry
     estimated scf accuracy    <       0.00000103 Ry

     total magnetization       =    14.41 Bohr mag/cell
     absolute magnetization    =    16.29 Bohr mag/cell

     iteration #  8     ecut=    60.00 Ry     beta= 0.20
     Davidson diagonalization with overlap
     ethr =  4.26E-10,  avg # of iterations =  4.8

     negative rho (up, down):  2.452E-04 1.943E-04

     total cpu time spent up to now is   155460.4 secs

     total energy              =   -5332.10640968 Ry
     estimated scf accuracy    <       0.00000142 Ry

     total magnetization       =    14.41 Bohr mag/cell
     absolute magnetization    =    16.29 Bohr mag/cell

     iteration #  9     ecut=    60.00 Ry     beta= 0.20
     Davidson diagonalization with overlap
     ethr =  4.26E-10,  avg # of iterations =  1.0

     negative rho (up, down):  2.449E-04 1.936E-04

     total cpu time spent up to now is   156002.9 secs

     total energy              =   -5332.10640971 Ry
     estimated scf accuracy    <       0.00000015 Ry

     total magnetization       =    14.41 Bohr mag/cell
     absolute magnetization    =    16.29 Bohr mag/cell

     iteration # 10     ecut=    60.00 Ry     beta= 0.20
     Davidson diagonalization with overlap
     ethr =  6.22E-11,  avg # of iterations =  1.6

     negative rho (up, down):  2.445E-04 1.930E-04

     total cpu time spent up to now is   156569.7 secs

     total energy              =   -5332.10640971 Ry
     estimated scf accuracy    <       0.00000014 Ry

     total magnetization       =    14.41 Bohr mag/cell
     absolute magnetization    =    16.29 Bohr mag/cell

     iteration # 11     ecut=    60.00 Ry     beta= 0.20
     Davidson diagonalization with overlap
     ethr =  5.90E-11,  avg # of iterations =  1.2

     negative rho (up, down):  2.443E-04 1.925E-04

     total cpu time spent up to now is   157100.3 secs

     total energy              =   -5332.10640972 Ry
     estimated scf accuracy    <       0.00000007 Ry

     total magnetization       =    14.41 Bohr mag/cell
     absolute magnetization    =    16.29 Bohr mag/cell

     iteration # 12     ecut=    60.00 Ry     beta= 0.20
     Davidson diagonalization with overlap
     ethr =  2.99E-11,  avg # of iterations =  1.3

     negative rho (up, down):  2.443E-04 1.922E-04

     total cpu time spent up to now is   157640.8 secs

     total energy              =   -5332.10640972 Ry
     estimated scf accuracy    <       0.00000001 Ry

     total magnetization       =    14.41 Bohr mag/cell
     absolute magnetization    =    16.29 Bohr mag/cell

     iteration # 13     ecut=    60.00 Ry     beta= 0.20
     Davidson diagonalization with overlap
     ethr =  4.39E-12,  avg # of iterations =  3.9

     negative rho (up, down):  2.442E-04 1.920E-04

     total cpu time spent up to now is   158436.0 secs

     total energy              =   -5332.10640972 Ry
     estimated scf accuracy    <          4.4E-09 Ry

     total magnetization       =    14.41 Bohr mag/cell
     absolute magnetization    =    16.29 Bohr mag/cell

     iteration # 14     ecut=    60.00 Ry     beta= 0.20
     Davidson diagonalization with overlap
     ethr =  1.83E-12,  avg # of iterations =  2.1

     negative rho (up, down):  2.442E-04 1.919E-04

     total cpu time spent up to now is   159038.0 secs

     total energy              =   -5332.10640973 Ry
     estimated scf accuracy    <          2.9E-09 Ry

     total magnetization       =    14.41 Bohr mag/cell
     absolute magnetization    =    16.29 Bohr mag/cell

     iteration # 15     ecut=    60.00 Ry     beta= 0.20
     Davidson diagonalization with overlap
     ethr =  1.22E-12,  avg # of iterations =  1.6

     negative rho (up, down):  2.442E-04 1.918E-04

     total cpu time spent up to now is   159634.4 secs

     total energy              =   -5332.10640973 Ry
     estimated scf accuracy    <          2.5E-09 Ry

     total magnetization       =    14.41 Bohr mag/cell
     absolute magnetization    =    16.29 Bohr mag/cell

     iteration # 16     ecut=    60.00 Ry     beta= 0.20
     Davidson diagonalization with overlap
     ethr =  1.03E-12,  avg # of iterations =  1.3

     negative rho (up, down):  2.443E-04 1.918E-04

     total cpu time spent up to now is   160193.5 secs

     total energy              =   -5332.10640973 Ry
     estimated scf accuracy    <          1.5E-09 Ry

     total magnetization       =    14.41 Bohr mag/cell
     absolute magnetization    =    16.29 Bohr mag/cell

     iteration # 17     ecut=    60.00 Ry     beta= 0.20
     Davidson diagonalization with overlap
     ethr =  6.24E-13,  avg # of iterations =  1.6

     negative rho (up, down):  2.444E-04 1.918E-04

     total cpu time spent up to now is   160775.5 secs

     total energy              =   -5332.10640973 Ry
     estimated scf accuracy    <          7.6E-10 Ry

     total magnetization       =    14.41 Bohr mag/cell
     absolute magnetization    =    16.29 Bohr mag/cell

     iteration # 18     ecut=    60.00 Ry     beta= 0.20
     Davidson diagonalization with overlap
     ethr =  3.15E-13,  avg # of iterations =  2.2

     negative rho (up, down):  2.457E-04 1.928E-04
 
     Magnetic moment per site  (integrated on atomic sphere of radius R)
     atom   1 (R=0.140)  charge=  6.9035  magn=  0.7265
     atom   2 (R=0.140)  charge=  6.9033  magn=  0.7303
     atom   3 (R=0.140)  charge=  5.1406  magn=  0.2144
     atom   4 (R=0.140)  charge=  6.9033  magn=  0.7303
     atom   5 (R=0.140)  charge=  6.8992  magn=  0.7511
     atom   6 (R=0.140)  charge=  6.8995  magn=  0.7399
     atom   7 (R=0.140)  charge=  5.1291  magn=  0.2622
     atom   8 (R=0.140)  charge=  6.8995  magn=  0.7399
     atom   9 (R=0.140)  charge=  6.8990  magn=  0.7234
     atom  10 (R=0.140)  charge=  6.8997  magn=  0.7036
     atom  11 (R=0.140)  charge=  5.1262  magn=  0.2495
     atom  12 (R=0.140)  charge=  6.8997  magn=  0.7036
     atom  13 (R=0.140)  charge=  6.8997  magn=  0.7057
     atom  14 (R=0.140)  charge=  6.8991  magn=  0.7068
     atom  15 (R=0.140)  charge=  5.1260  magn=  0.2491
     atom  16 (R=0.140)  charge=  6.8991  magn=  0.7068
     atom  17 (R=0.140)  charge=  6.9006  magn=  0.6467
     atom  18 (R=0.140)  charge=  6.8997  magn=  0.7416
     atom  19 (R=0.140)  charge=  5.1295  magn=  0.2586
     atom  20 (R=0.140)  charge=  6.8997  magn=  0.7416
     atom  21 (R=0.140)  charge=  6.9063  magn=  0.7366
     atom  22 (R=0.140)  charge=  6.9069  magn=  0.5540
     atom  23 (R=0.140)  charge=  5.1394  magn=  0.1605
     atom  24 (R=0.140)  charge=  6.9069  magn=  0.5540
     atom  25 (R=0.140)  charge=  0.9059  magn= -0.0069

     total cpu time spent up to now is   161400.8 secs

     End of self-consistent calculation

     Number of k-points >= 100: set verbosity='high' to print the bands.

     the Fermi energy is    -5.0813 ev

!    total energy              =   -5332.10640974 Ry
     total all-electron energy =   -115303.852551 Ry
     estimated scf accuracy    <          1.4E-10 Ry
     smearing contrib. (-TS)   =      -0.00225382 Ry
     internal energy E=F+TS    =   -5332.10415592 Ry

     The total energy is F=E-TS. E is the sum of the following terms:
     one-electron contribution =  -69999.13583363 Ry
     hartree contribution      =   35194.17471774 Ry
     xc contribution           =    -947.25681292 Ry
     ewald contribution        =   33493.71669784 Ry
     DFT-D3 Dispersion         =      -2.02350769 Ry
     one-center paw contrib.   =   -3071.57941725 Ry

     total magnetization       =    14.41 Bohr mag/cell
     absolute magnetization    =    16.29 Bohr mag/cell

     convergence has been achieved in  18 iterations

     negative rho (up, down):  2.457E-04 1.928E-04

     Forces acting on atoms (cartesian axes, Ry/au):

     atom    1 type  1   force =    -0.00000547    0.01340462    0.00374792
     atom    2 type  1   force =     0.01171786   -0.00673217    0.00366562
     atom    3 type  2   force =    -0.00000995   -0.00011789   -0.01864807
     atom    4 type  1   force =    -0.01170255   -0.00675555    0.00365562
     atom    5 type  1   force =    -0.00000660    0.00192086    0.00092974
     atom    6 type  1   force =     0.00145365   -0.00086900    0.00121235
     atom    7 type  2   force =    -0.00001259    0.00028943    0.00385169
     atom    8 type  1   force =    -0.00143527   -0.00089862    0.00119774
     atom    9 type  1   force =    -0.00000012   -0.00000966    0.00064916
     atom   10 type  1   force =    -0.00024773    0.00011404    0.00089408
     atom   11 type  2   force =    -0.00000017    0.00009244    0.00065092
     atom   12 type  1   force =     0.00024814    0.00011293    0.00089379
     atom   13 type  1   force =    -0.00000034    0.00050338    0.00020135
     atom   14 type  1   force =     0.00039966    0.00015173    0.00017066
     atom   15 type  2   force =     0.00000000    0.00007391   -0.00003457
     atom   16 type  1   force =    -0.00039910    0.00015027    0.00017028
     atom   17 type  1   force =    -0.00000051   -0.00055910   -0.00072741
     atom   18 type  1   force =     0.00091512    0.00049157   -0.00074224
     atom   19 type  2   force =     0.00000024    0.00073171   -0.00203988
     atom   20 type  1   force =    -0.00091448    0.00049057   -0.00074250
     atom   21 type  1   force =    -0.00000009    0.00089985    0.00096111
     atom   22 type  1   force =    -0.00077189   -0.00235832    0.00000144
     atom   23 type  2   force =     0.00000001    0.00236153    0.00054542
     atom   24 type  1   force =     0.00077226   -0.00235876    0.00000133
     atom   25 type  3   force =    -0.00000008   -0.00112976   -0.00046557

     Total force =     0.005791     Total SCF correction =     0.000071


     Computing stress (Cartesian axis) and pressure


     negative rho (up, down):  2.457E-04 1.928E-04
          total   stress  (Ry/bohr**3)                   (kbar)     P=       -4.76
  -0.00005733   0.00000000   0.00000000           -8.43        0.00        0.00
   0.00000000  -0.00004264  -0.00000401            0.00       -6.27       -0.59
   0.00000000  -0.00000401   0.00000281            0.00       -0.59        0.41

     Energy error            =      7.9E-05 Ry
     Gradient error          =      2.4E-03 Ry/Bohr

     number of scf cycles    =  10
     number of bfgs steps    =   9

     energy             old  =   -5332.1063306909 Ry
     energy             new  =   -5332.1064097351 Ry

     CASE: energy            _new < energy            _old

     new trust radius        =       0.0166271639 bohr
     new conv_thr            =       0.0000000003 Ry


ATOMIC_POSITIONS (angstrom)
Ni               5.0381082178        2.9087344078       11.0000000000    0   0   0
Ni               1.2594928383        0.7271633007       11.0000321314    0   0   0
Pd               2.5190631929        2.9087349143       11.0000563881    0   0   0
Ni               3.7785410216        0.7272125305       11.0000798881    0   0   0
Ni               2.5190678846        1.4543657934       13.0567878192    0   0   0
Ni               6.2975735046        3.6359005296       13.0568199507    0   0   0
Pd               5.0381035260        1.4543662999       13.0568442073    0   0   0
Ni               3.7785410216        3.6359497594       13.0568677074    0   0   0
Ni               2.5190403191        4.3610489892       15.1088730562
Ni               3.7758619326        2.1827896587       15.1103218799
Pd               5.0380877807        4.3639872596       15.1056418294
Ni               6.3003203025        2.1827914068       15.1103212191
Ni               5.0380860437        2.9099752734       17.1608262483
Ni               1.2614053570        0.7278471513       17.1643169377
Pd               2.5190449530        2.9096061809       17.1800378567
Ni               3.7766822716        0.7278497764       17.1643186974
Ni               2.5190436684        1.4563068924       19.2426634964
Ni               6.2765227564        3.6542769675       19.2225039999
Pd               5.0380831141        1.4591879381       19.2074318781
Ni               3.7996423371        3.6542793137       19.2225056987
Ni               2.5190427732        4.3415679631       21.2352273361
Ni               3.7475595117        2.2180510111       21.2595146642
Pd               5.0380829095        4.4048891593       21.3753509090
Ni               6.3286052797        2.2180517076       21.2595150311
H                5.0380833178        2.7651986641       22.2285598550



     Writing config-only to output data dir /tmpu/isholek_g/isholek/MIGUEL/QE/Hydrogen/111_2x2/SAVE/Ni3Pd1_111-H_hcp_1.save/ :
     XML data file
     NEW-OLD atomic charge density approx. for the potential

     Check: negative core charge=   -0.000001

     negative rho (up, down):  2.310E-04 2.101E-04
     Generating pointlists ...

     total cpu time spent up to now is   161815.9 secs

     Self-consistent Calculation

     iteration #  1     ecut=    60.00 Ry     beta= 0.20
     Davidson diagonalization with overlap
     ethr =  1.00E-06,  avg # of iterations =  4.0

     Threshold (ethr) on eigenvalues was too large:
     Diagonalizing with lowered threshold

     Davidson diagonalization with overlap
     ethr =  6.10E-08,  avg # of iterations =  2.1

     negative rho (up, down):  2.396E-04 2.030E-04

     total cpu time spent up to now is   163517.8 secs

     total energy              =   -5332.10644026 Ry
     estimated scf accuracy    <       0.00015323 Ry

     total magnetization       =    14.41 Bohr mag/cell
     absolute magnetization    =    16.29 Bohr mag/cell

     iteration #  2     ecut=    60.00 Ry     beta= 0.20
     Davidson diagonalization with overlap
     ethr =  6.36E-08,  avg # of iterations =  1.1

     negative rho (up, down):  2.403E-04 2.012E-04

     total cpu time spent up to now is   164054.7 secs

     total energy              =   -5332.10644583 Ry
     estimated scf accuracy    <       0.00025016 Ry

     total magnetization       =    14.41 Bohr mag/cell
     absolute magnetization    =    16.29 Bohr mag/cell

     iteration #  3     ecut=    60.00 Ry     beta= 0.20
     Davidson diagonalization with overlap
     ethr =  6.36E-08,  avg # of iterations =  1.0

     negative rho (up, down):  2.421E-04 1.984E-04

     total cpu time spent up to now is   164577.0 secs

     total energy              =   -5332.10645026 Ry
     estimated scf accuracy    <       0.00001869 Ry

     total magnetization       =    14.41 Bohr mag/cell
     absolute magnetization    =    16.29 Bohr mag/cell

     iteration #  4     ecut=    60.00 Ry     beta= 0.20
     Davidson diagonalization with overlap
     ethr =  7.76E-09,  avg # of iterations =  2.0

     negative rho (up, down):  2.434E-04 1.967E-04

     total cpu time spent up to now is   165172.7 secs

     total energy              =   -5332.10645226 Ry
     estimated scf accuracy    <       0.00002656 Ry

     total magnetization       =    14.41 Bohr mag/cell
     absolute magnetization    =    16.29 Bohr mag/cell

     iteration #  5     ecut=    60.00 Ry     beta= 0.20
     Davidson diagonalization with overlap
     ethr =  7.76E-09,  avg # of iterations =  1.4

     negative rho (up, down):  2.446E-04 1.952E-04

     total cpu time spent up to now is   165754.3 secs

     total energy              =   -5332.10645240 Ry
     estimated scf accuracy    <       0.00001899 Ry

     total magnetization       =    14.41 Bohr mag/cell
     absolute magnetization    =    16.29 Bohr mag/cell

     iteration #  6     ecut=    60.00 Ry     beta= 0.20
     Davidson diagonalization with overlap
     ethr =  7.76E-09,  avg # of iterations =  1.9

     negative rho (up, down):  2.448E-04 1.945E-04

     total cpu time spent up to now is   166362.9 secs

     total energy              =   -5332.10645293 Ry
     estimated scf accuracy    <       0.00000100 Ry

     total magnetization       =    14.41 Bohr mag/cell
     absolute magnetization    =    16.29 Bohr mag/cell

     iteration #  7     ecut=    60.00 Ry     beta= 0.20
     Davidson diagonalization with overlap
     ethr =  4.15E-10,  avg # of iterations =  4.5

     negative rho (up, down):  2.446E-04 1.941E-04

     total cpu time spent up to now is   167277.4 secs

     total energy              =   -5332.10645332 Ry
     estimated scf accuracy    <       0.00000037 Ry

     total magnetization       =    14.41 Bohr mag/cell
     absolute magnetization    =    16.29 Bohr mag/cell

     iteration #  8     ecut=    60.00 Ry     beta= 0.20
     Davidson diagonalization with overlap
     ethr =  1.51E-10,  avg # of iterations =  2.0

     negative rho (up, down):  2.446E-04 1.937E-04

     total cpu time spent up to now is   167847.9 secs

     total energy              =   -5332.10645332 Ry
     estimated scf accuracy    <       0.00000009 Ry

     total magnetization       =    14.41 Bohr mag/cell
     absolute magnetization    =    16.29 Bohr mag/cell

     iteration #  9     ecut=    60.00 Ry     beta= 0.20
     Davidson diagonalization with overlap
     ethr =  3.69E-11,  avg # of iterations =  2.0

     negative rho (up, down):  2.447E-04 1.934E-04

     total cpu time spent up to now is   168460.8 secs

     total energy              =   -5332.10645332 Ry
     estimated scf accuracy    <       0.00000010 Ry

     total magnetization       =    14.41 Bohr mag/cell
     absolute magnetization    =    16.29 Bohr mag/cell

     iteration # 10     ecut=    60.00 Ry     beta= 0.20
     Davidson diagonalization with overlap
     ethr =  3.69E-11,  avg # of iterations =  1.0

     negative rho (up, down):  2.448E-04 1.932E-04

     total cpu time spent up to now is   169011.9 secs

     total energy              =   -5332.10645332 Ry
     estimated scf accuracy    <       0.00000023 Ry

     total magnetization       =    14.41 Bohr mag/cell
     absolute magnetization    =    16.29 Bohr mag/cell

     iteration # 11     ecut=    60.00 Ry     beta= 0.20
     Davidson diagonalization with overlap
     ethr =  3.69E-11,  avg # of iterations =  1.0

     negative rho (up, down):  2.449E-04 1.930E-04

     total cpu time spent up to now is   169563.1 secs

     total energy              =   -5332.10645332 Ry
     estimated scf accuracy    <       0.00000004 Ry

     total magnetization       =    14.41 Bohr mag/cell
     absolute magnetization    =    16.29 Bohr mag/cell

     iteration # 12     ecut=    60.00 Ry     beta= 0.20
     Davidson diagonalization with overlap
     ethr =  1.86E-11,  avg # of iterations =  1.1

     negative rho (up, down):  2.450E-04 1.930E-04

     total cpu time spent up to now is   170111.6 secs

     total energy              =   -5332.10645332 Ry
     estimated scf accuracy    <          4.9E-09 Ry

     total magnetization       =    14.41 Bohr mag/cell
     absolute magnetization    =    16.29 Bohr mag/cell

     iteration # 13     ecut=    60.00 Ry     beta= 0.20
     Davidson diagonalization with overlap
     ethr =  2.02E-12,  avg # of iterations =  3.9

     negative rho (up, down):  2.451E-04 1.929E-04

     total cpu time spent up to now is   170871.7 secs

     total energy              =   -5332.10645332 Ry
     estimated scf accuracy    <          7.6E-09 Ry

     total magnetization       =    14.41 Bohr mag/cell
     absolute magnetization    =    16.29 Bohr mag/cell

     iteration # 14     ecut=    60.00 Ry     beta= 0.20
     Davidson diagonalization with overlap
     ethr =  2.02E-12,  avg # of iterations =  1.7

     negative rho (up, down):  2.452E-04 1.929E-04

     total cpu time spent up to now is   171455.2 secs

     total energy              =   -5332.10645332 Ry
     estimated scf accuracy    <          6.8E-09 Ry

     total magnetization       =    14.41 Bohr mag/cell
     absolute magnetization    =    16.29 Bohr mag/cell

     iteration # 15     ecut=    60.00 Ry     beta= 0.20
     Davidson diagonalization with overlap
     ethr =  2.02E-12,  avg # of iterations =  1.0

     negative rho (up, down):  2.453E-04 1.928E-04

     total cpu time spent up to now is   171996.5 secs

     total energy              =   -5332.10645332 Ry
     estimated scf accuracy    <          9.7E-10 Ry

     total magnetization       =    14.41 Bohr mag/cell
     absolute magnetization    =    16.29 Bohr mag/cell

     iteration # 16     ecut=    60.00 Ry     beta= 0.20
     Davidson diagonalization with overlap
     ethr =  4.01E-13,  avg # of iterations =  2.0

     negative rho (up, down):  2.453E-04 1.928E-04

     total cpu time spent up to now is   172593.7 secs

     total energy              =   -5332.10645332 Ry
     estimated scf accuracy    <          9.3E-10 Ry

     total magnetization       =    14.41 Bohr mag/cell
     absolute magnetization    =    16.29 Bohr mag/cell

     iteration # 17     ecut=    60.00 Ry     beta= 0.20
     Davidson diagonalization with overlap
     ethr =  3.85E-13,  avg # of iterations =  1.2

     negative rho (up, down):  2.454E-04 1.928E-04

     total cpu time spent up to now is   173157.1 secs

     total energy              =   -5332.10645332 Ry
     estimated scf accuracy    <          7.8E-10 Ry

     total magnetization       =    14.41 Bohr mag/cell
     absolute magnetization    =    16.29 Bohr mag/cell

     iteration # 18     ecut=    60.00 Ry     beta= 0.20
     Davidson diagonalization with overlap
     ethr =  3.26E-13,  avg # of iterations =  1.5

     negative rho (up, down):  2.457E-04 1.929E-04
 
     Magnetic moment per site  (integrated on atomic sphere of radius R)
     atom   1 (R=0.140)  charge=  6.9035  magn=  0.7266
     atom   2 (R=0.140)  charge=  6.9033  magn=  0.7304
     atom   3 (R=0.140)  charge=  5.1406  magn=  0.2144
     atom   4 (R=0.140)  charge=  6.9033  magn=  0.7304
     atom   5 (R=0.140)  charge=  6.8992  magn=  0.7511
     atom   6 (R=0.140)  charge=  6.8995  magn=  0.7399
     atom   7 (R=0.140)  charge=  5.1291  magn=  0.2622
     atom   8 (R=0.140)  charge=  6.8995  magn=  0.7399
     atom   9 (R=0.140)  charge=  6.8990  magn=  0.7234
     atom  10 (R=0.140)  charge=  6.8997  magn=  0.7038
     atom  11 (R=0.140)  charge=  5.1262  magn=  0.2494
     atom  12 (R=0.140)  charge=  6.8997  magn=  0.7038
     atom  13 (R=0.140)  charge=  6.8997  magn=  0.7058
     atom  14 (R=0.140)  charge=  6.8992  magn=  0.7069
     atom  15 (R=0.140)  charge=  5.1260  magn=  0.2491
     atom  16 (R=0.140)  charge=  6.8992  magn=  0.7069
     atom  17 (R=0.140)  charge=  6.9007  magn=  0.6470
     atom  18 (R=0.140)  charge=  6.8997  magn=  0.7415
     atom  19 (R=0.140)  charge=  5.1294  magn=  0.2585
     atom  20 (R=0.140)  charge=  6.8997  magn=  0.7415
     atom  21 (R=0.140)  charge=  6.9062  magn=  0.7363
     atom  22 (R=0.140)  charge=  6.9068  magn=  0.5531
     atom  23 (R=0.140)  charge=  5.1395  magn=  0.1607
     atom  24 (R=0.140)  charge=  6.9068  magn=  0.5531
     atom  25 (R=0.140)  charge=  0.9048  magn= -0.0069

     total cpu time spent up to now is   173714.7 secs

     End of self-consistent calculation

     Number of k-points >= 100: set verbosity='high' to print the bands.

     the Fermi energy is    -5.0814 ev

!    total energy              =   -5332.10645332 Ry
     total all-electron energy =   -115303.852595 Ry
     estimated scf accuracy    <          2.5E-10 Ry
     smearing contrib. (-TS)   =      -0.00224562 Ry
     internal energy E=F+TS    =   -5332.10420771 Ry

     The total energy is F=E-TS. E is the sum of the following terms:
     one-electron contribution =  -70001.73000530 Ry
     hartree contribution      =   35195.46991265 Ry
     xc contribution           =    -947.25660667 Ry
     ewald contribution        =   33495.01549967 Ry
     DFT-D3 Dispersion         =      -2.02351399 Ry
     one-center paw contrib.   =   -3071.57949406 Ry

     total magnetization       =    14.41 Bohr mag/cell
     absolute magnetization    =    16.29 Bohr mag/cell

     convergence has been achieved in  18 iterations

     negative rho (up, down):  2.457E-04 1.929E-04

     Forces acting on atoms (cartesian axes, Ry/au):

     atom    1 type  1   force =    -0.00000546    0.01340991    0.00376665
     atom    2 type  1   force =     0.01171944   -0.00673319    0.00367983
     atom    3 type  2   force =    -0.00000994   -0.00011783   -0.01864474
     atom    4 type  1   force =    -0.01170414   -0.00675659    0.00366987
     atom    5 type  1   force =    -0.00000658    0.00190116    0.00102081
     atom    6 type  1   force =     0.00142179   -0.00084756    0.00133977
     atom    7 type  2   force =    -0.00001260    0.00029558    0.00412260
     atom    8 type  1   force =    -0.00140341   -0.00087719    0.00132519
     atom    9 type  1   force =    -0.00000017    0.00017151    0.00055480
     atom   10 type  1   force =    -0.00004166    0.00007847    0.00077486
     atom   11 type  2   force =    -0.00000008    0.00001287    0.00034369
     atom   12 type  1   force =     0.00004201    0.00007742    0.00077460
     atom   13 type  1   force =    -0.00000033    0.00071373    0.00010846
     atom   14 type  1   force =     0.00038135    0.00007561   -0.00008170
     atom   15 type  2   force =     0.00000000    0.00015604   -0.00024416
     atom   16 type  1   force =    -0.00038082    0.00007422   -0.00008206
     atom   17 type  1   force =    -0.00000045   -0.00060847   -0.00126809
     atom   18 type  1   force =     0.00081116    0.00018503   -0.00036010
     atom   19 type  2   force =     0.00000015    0.00084730   -0.00145805
     atom   20 type  1   force =    -0.00081050    0.00018406   -0.00036047
     atom   21 type  1   force =    -0.00000010    0.00049441    0.00071896
     atom   22 type  1   force =     0.00066156   -0.00123781    0.00039265
     atom   23 type  2   force =     0.00000005    0.00037276    0.00023994
     atom   24 type  1   force =    -0.00066126   -0.00123818    0.00039256
     atom   25 type  3   force =    -0.00000002   -0.00063324   -0.00072588

     Total force =     0.003898     Total SCF correction =     0.000088


     Computing stress (Cartesian axis) and pressure


     negative rho (up, down):  2.457E-04 1.929E-04
          total   stress  (Ry/bohr**3)                   (kbar)     P=       -4.88
  -0.00005799   0.00000000   0.00000000           -8.53        0.00        0.00
   0.00000000  -0.00004383  -0.00000387            0.00       -6.45       -0.57
   0.00000000  -0.00000387   0.00000227            0.00       -0.57        0.33

     Energy error            =      4.4E-05 Ry
     Gradient error          =      1.5E-03 Ry/Bohr

     number of scf cycles    =  11
     number of bfgs steps    =  10

     energy             old  =   -5332.1064097351 Ry
     energy             new  =   -5332.1064533237 Ry

     CASE: energy            _new < energy            _old

     new trust radius        =       0.0088881847 bohr
     new conv_thr            =       0.0000000002 Ry


ATOMIC_POSITIONS (angstrom)
Ni               5.0381082178        2.9087344078       11.0000000000    0   0   0
Ni               1.2594928383        0.7271633007       11.0000321314    0   0   0
Pd               2.5190631929        2.9087349143       11.0000563881    0   0   0
Ni               3.7785410216        0.7272125305       11.0000798881    0   0   0
Ni               2.5190678846        1.4543657934       13.0567878192    0   0   0
Ni               6.2975735046        3.6359005296       13.0568199507    0   0   0
Pd               5.0381035260        1.4543662999       13.0568442073    0   0   0
Ni               3.7785410216        3.6359497594       13.0568677074    0   0   0
Ni               2.5190402252        4.3610871645       15.1094972884
Ni               3.7756640295        2.1829237938       15.1110863414
Pd               5.0380877630        4.3640702367       15.1060943443
Ni               6.3005186405        2.1829247304       15.1110854031
Ni               5.0380858368        2.9105709761       17.1607981952
Ni               1.2617947118        0.7280716464       17.1643980554
Pd               2.5190450406        2.9098267584       17.1802801808
Ni               3.7762935565        0.7280731670       17.1643994451
Ni               2.5190433993        1.4560731976       19.2422136615
Ni               6.2771108921        3.6553083270       19.2221181758
Pd               5.0380833437        1.4604968963       19.2056643370
Ni               3.7990548721        3.6553098126       19.2221196846
Ni               2.5190427993        4.3430259679       21.2358542932
Ni               3.7468963492        2.2165750745       21.2590184831
Pd               5.0380830340        4.4055372014       21.3766060457
Ni               6.3292688663        2.2165754076       21.2590188098
H                5.0380831599        2.7607863183       22.2269309260



     Writing config-only to output data dir /tmpu/isholek_g/isholek/MIGUEL/QE/Hydrogen/111_2x2/SAVE/Ni3Pd1_111-H_hcp_1.save/ :
     XML data file
     NEW-OLD atomic charge density approx. for the potential

     Check: negative core charge=   -0.000001

     negative rho (up, down):  2.305E-04 2.093E-04
     Generating pointlists ...

     total cpu time spent up to now is   174129.6 secs

     Self-consistent Calculation

     iteration #  1     ecut=    60.00 Ry     beta= 0.20
     Davidson diagonalization with overlap
     ethr =  1.00E-06,  avg # of iterations =  3.5

     Threshold (ethr) on eigenvalues was too large:
     Diagonalizing with lowered threshold

     Davidson diagonalization with overlap
     ethr =  3.11E-08,  avg # of iterations =  4.0

     negative rho (up, down):  2.386E-04 2.017E-04

     total cpu time spent up to now is   175969.8 secs

     total energy              =   -5332.10647085 Ry
     estimated scf accuracy    <       0.00006850 Ry

     total magnetization       =    14.41 Bohr mag/cell
     absolute magnetization    =    16.29 Bohr mag/cell

     iteration #  2     ecut=    60.00 Ry     beta= 0.20
     Davidson diagonalization with overlap
     ethr =  2.84E-08,  avg # of iterations =  1.0

     negative rho (up, down):  2.396E-04 2.001E-04

     total cpu time spent up to now is   176528.9 secs

     total energy              =   -5332.10647193 Ry
     estimated scf accuracy    <       0.00008160 Ry

     total magnetization       =    14.41 Bohr mag/cell
     absolute magnetization    =    16.29 Bohr mag/cell

     iteration #  3     ecut=    60.00 Ry     beta= 0.20
     Davidson diagonalization with overlap
     ethr =  2.84E-08,  avg # of iterations =  1.0

     negative rho (up, down):  2.410E-04 1.977E-04

     total cpu time spent up to now is   177090.2 secs

     total energy              =   -5332.10647382 Ry
     estimated scf accuracy    <       0.00001161 Ry

     total magnetization       =    14.41 Bohr mag/cell
     absolute magnetization    =    16.29 Bohr mag/cell

     iteration #  4     ecut=    60.00 Ry     beta= 0.20
     Davidson diagonalization with overlap
     ethr =  4.82E-09,  avg # of iterations =  1.6

     negative rho (up, down):  2.427E-04 1.952E-04

     total cpu time spent up to now is   177640.3 secs

     total energy              =   -5332.10647450 Ry
     estimated scf accuracy    <       0.00000877 Ry

     total magnetization       =    14.41 Bohr mag/cell
     absolute magnetization    =    16.29 Bohr mag/cell

     iteration #  5     ecut=    60.00 Ry     beta= 0.20
     Davidson diagonalization with overlap
     ethr =  3.64E-09,  avg # of iterations =  2.0

     negative rho (up, down):  2.431E-04 1.942E-04

     total cpu time spent up to now is   178221.4 secs

     total energy              =   -5332.10647488 Ry
     estimated scf accuracy    <       0.00000264 Ry

     total magnetization       =    14.41 Bohr mag/cell
     absolute magnetization    =    16.29 Bohr mag/cell

     iteration #  6     ecut=    60.00 Ry     beta= 0.20
     Davidson diagonalization with overlap
     ethr =  1.10E-09,  avg # of iterations =  1.0

     negative rho (up, down):  2.432E-04 1.936E-04

     total cpu time spent up to now is   178783.0 secs

     total energy              =   -5332.10647492 Ry
     estimated scf accuracy    <       0.00000048 Ry

     total magnetization       =    14.41 Bohr mag/cell
     absolute magnetization    =    16.29 Bohr mag/cell

     iteration #  7     ecut=    60.00 Ry     beta= 0.20
     Davidson diagonalization with overlap
     ethr =  2.00E-10,  avg # of iterations =  3.6

     negative rho (up, down):  2.434E-04 1.930E-04

     total cpu time spent up to now is   179441.4 secs

     total energy              =   -5332.10647496 Ry
     estimated scf accuracy    <       0.00000029 Ry

     total magnetization       =    14.41 Bohr mag/cell
     absolute magnetization    =    16.29 Bohr mag/cell

     iteration #  8     ecut=    60.00 Ry     beta= 0.20
     Davidson diagonalization with overlap
     ethr =  1.21E-10,  avg # of iterations =  1.8

     negative rho (up, down):  2.434E-04 1.926E-04

     total cpu time spent up to now is   180019.9 secs

     total energy              =   -5332.10647496 Ry
     estimated scf accuracy    <       0.00000012 Ry

     total magnetization       =    14.41 Bohr mag/cell
     absolute magnetization    =    16.29 Bohr mag/cell

     iteration #  9     ecut=    60.00 Ry     beta= 0.20
     Davidson diagonalization with overlap
     ethr =  5.05E-11,  avg # of iterations =  3.3

     negative rho (up, down):  2.434E-04 1.923E-04

     total cpu time spent up to now is   180648.5 secs

     total energy              =   -5332.10647497 Ry
     estimated scf accuracy    <       0.00000003 Ry

     total magnetization       =    14.41 Bohr mag/cell
     absolute magnetization    =    16.29 Bohr mag/cell

     iteration # 10     ecut=    60.00 Ry     beta= 0.20
     Davidson diagonalization with overlap
     ethr =  1.20E-11,  avg # of iterations =  4.7

     negative rho (up, down):  2.434E-04 1.921E-04

     total cpu time spent up to now is   181470.6 secs

     total energy              =   -5332.10647498 Ry
     estimated scf accuracy    <       0.00000003 Ry

     total magnetization       =    14.41 Bohr mag/cell
     absolute magnetization    =    16.29 Bohr mag/cell

     iteration # 11     ecut=    60.00 Ry     beta= 0.20
     Davidson diagonalization with overlap
     ethr =  1.08E-11,  avg # of iterations =  1.9

     negative rho (up, down):  2.435E-04 1.918E-04

     total cpu time spent up to now is   182026.1 secs

     total energy              =   -5332.10647498 Ry
     estimated scf accuracy    <       0.00000002 Ry

     total magnetization       =    14.41 Bohr mag/cell
     absolute magnetization    =    16.29 Bohr mag/cell

     iteration # 12     ecut=    60.00 Ry     beta= 0.20
     Davidson diagonalization with overlap
     ethr =  9.49E-12,  avg # of iterations =  1.0

     negative rho (up, down):  2.436E-04 1.917E-04

     total cpu time spent up to now is   182541.4 secs

     total energy              =   -5332.10647498 Ry
     estimated scf accuracy    <          2.4E-09 Ry

     total magnetization       =    14.41 Bohr mag/cell
     absolute magnetization    =    16.29 Bohr mag/cell

     iteration # 13     ecut=    60.00 Ry     beta= 0.20
     Davidson diagonalization with overlap
     ethr =  9.94E-13,  avg # of iterations =  2.6

     negative rho (up, down):  2.437E-04 1.916E-04

     total cpu time spent up to now is   183223.8 secs

     total energy              =   -5332.10647498 Ry
     estimated scf accuracy    <          1.6E-09 Ry

     total magnetization       =    14.41 Bohr mag/cell
     absolute magnetization    =    16.29 Bohr mag/cell

     iteration # 14     ecut=    60.00 Ry     beta= 0.20
     Davidson diagonalization with overlap
     ethr =  6.61E-13,  avg # of iterations =  2.0

     negative rho (up, down):  2.438E-04 1.915E-04

     total cpu time spent up to now is   183805.2 secs

     total energy              =   -5332.10647498 Ry
     estimated scf accuracy    <          8.0E-10 Ry

     total magnetization       =    14.41 Bohr mag/cell
     absolute magnetization    =    16.29 Bohr mag/cell

     iteration # 15     ecut=    60.00 Ry     beta= 0.20
     Davidson diagonalization with overlap
     ethr =  3.33E-13,  avg # of iterations =  1.5

     negative rho (up, down):  2.439E-04 1.915E-04

     total cpu time spent up to now is   184373.0 secs

     total energy              =   -5332.10647498 Ry
     estimated scf accuracy    <          4.0E-10 Ry

     total magnetization       =    14.41 Bohr mag/cell
     absolute magnetization    =    16.29 Bohr mag/cell

     iteration # 16     ecut=    60.00 Ry     beta= 0.20
     Davidson diagonalization with overlap
     ethr =  1.65E-13,  avg # of iterations =  2.1

     negative rho (up, down):  2.440E-04 1.915E-04

     total cpu time spent up to now is   184993.5 secs

     total energy              =   -5332.10647498 Ry
     estimated scf accuracy    <          3.9E-10 Ry

     total magnetization       =    14.41 Bohr mag/cell
     absolute magnetization    =    16.29 Bohr mag/cell

     iteration # 17     ecut=    60.00 Ry     beta= 0.20
     Davidson diagonalization with overlap
     ethr =  1.62E-13,  avg # of iterations =  1.1

     negative rho (up, down):  2.441E-04 1.915E-04

     total cpu time spent up to now is   185555.7 secs

     total energy              =   -5332.10647498 Ry
     estimated scf accuracy    <          3.0E-10 Ry

     total magnetization       =    14.41 Bohr mag/cell
     absolute magnetization    =    16.29 Bohr mag/cell

     iteration # 18     ecut=    60.00 Ry     beta= 0.20
     Davidson diagonalization with overlap
     ethr =  1.25E-13,  avg # of iterations =  1.3

     negative rho (up, down):  2.442E-04 1.916E-04

     total cpu time spent up to now is   186107.3 secs

     total energy              =   -5332.10647498 Ry
     estimated scf accuracy    <          2.2E-10 Ry

     total magnetization       =    14.41 Bohr mag/cell
     absolute magnetization    =    16.29 Bohr mag/cell

     iteration # 19     ecut=    60.00 Ry     beta= 0.20
     Davidson diagonalization with overlap
     ethr =  1.00E-13,  avg # of iterations =  2.0

     negative rho (up, down):  2.458E-04 1.929E-04
 
     Magnetic moment per site  (integrated on atomic sphere of radius R)
     atom   1 (R=0.140)  charge=  6.9035  magn=  0.7267
     atom   2 (R=0.140)  charge=  6.9033  magn=  0.7304
     atom   3 (R=0.140)  charge=  5.1406  magn=  0.2144
     atom   4 (R=0.140)  charge=  6.9033  magn=  0.7304
     atom   5 (R=0.140)  charge=  6.8991  magn=  0.7511
     atom   6 (R=0.140)  charge=  6.8994  magn=  0.7399
     atom   7 (R=0.140)  charge=  5.1291  magn=  0.2622
     atom   8 (R=0.140)  charge=  6.8994  magn=  0.7399
     atom   9 (R=0.140)  charge=  6.8990  magn=  0.7233
     atom  10 (R=0.140)  charge=  6.8996  magn=  0.7038
     atom  11 (R=0.140)  charge=  5.1262  magn=  0.2494
     atom  12 (R=0.140)  charge=  6.8996  magn=  0.7038
     atom  13 (R=0.140)  charge=  6.8998  magn=  0.7059
     atom  14 (R=0.140)  charge=  6.8992  magn=  0.7070
     atom  15 (R=0.140)  charge=  5.1260  magn=  0.2492
     atom  16 (R=0.140)  charge=  6.8992  magn=  0.7070
     atom  17 (R=0.140)  charge=  6.9007  magn=  0.6472
     atom  18 (R=0.140)  charge=  6.8997  magn=  0.7414
     atom  19 (R=0.140)  charge=  5.1293  magn=  0.2586
     atom  20 (R=0.140)  charge=  6.8997  magn=  0.7414
     atom  21 (R=0.140)  charge=  6.9061  magn=  0.7361
     atom  22 (R=0.140)  charge=  6.9068  magn=  0.5521
     atom  23 (R=0.140)  charge=  5.1395  magn=  0.1607
     atom  24 (R=0.140)  charge=  6.9068  magn=  0.5521
     atom  25 (R=0.140)  charge=  0.9046  magn= -0.0070

     total cpu time spent up to now is   186670.7 secs

     End of self-consistent calculation

     Number of k-points >= 100: set verbosity='high' to print the bands.

     the Fermi energy is    -5.0815 ev

!    total energy              =   -5332.10647499 Ry
     total all-electron energy =   -115303.852616 Ry
     estimated scf accuracy    <          1.4E-10 Ry
     smearing contrib. (-TS)   =      -0.00223693 Ry
     internal energy E=F+TS    =   -5332.10423805 Ry

     The total energy is F=E-TS. E is the sum of the following terms:
     one-electron contribution =  -70003.55871209 Ry
     hartree contribution      =   35196.38659972 Ry
     xc contribution           =    -947.25622800 Ry
     ewald contribution        =   33495.92707485 Ry
     DFT-D3 Dispersion         =      -2.02350354 Ry
     one-center paw contrib.   =   -3071.57946899 Ry

     total magnetization       =    14.41 Bohr mag/cell
     absolute magnetization    =    16.29 Bohr mag/cell

     convergence has been achieved in  19 iterations

     negative rho (up, down):  2.458E-04 1.929E-04

     Forces acting on atoms (cartesian axes, Ry/au):

     atom    1 type  1   force =    -0.00000545    0.01341299    0.00377120
     atom    2 type  1   force =     0.01172194   -0.00673306    0.00368424
     atom    3 type  2   force =    -0.00000996   -0.00011587   -0.01864233
     atom    4 type  1   force =    -0.01170663   -0.00675646    0.00367428
     atom    5 type  1   force =    -0.00000655    0.00189533    0.00112420
     atom    6 type  1   force =     0.00140587   -0.00084063    0.00145520
     atom    7 type  2   force =    -0.00001263    0.00032427    0.00439460
     atom    8 type  1   force =    -0.00138749   -0.00087023    0.00144063
     atom    9 type  1   force =    -0.00000012    0.00027306    0.00032260
     atom   10 type  1   force =     0.00011408    0.00003720    0.00043840
     atom   11 type  2   force =     0.00000002   -0.00001417   -0.00005070
     atom   12 type  1   force =    -0.00011386    0.00003659    0.00043826
     atom   13 type  1   force =    -0.00000019    0.00072693    0.00002150
     atom   14 type  1   force =     0.00022002    0.00005698   -0.00022241
     atom   15 type  2   force =     0.00000008    0.00023832   -0.00021761
     atom   16 type  1   force =    -0.00021967    0.00005615   -0.00022257
     atom   17 type  1   force =    -0.00000023   -0.00054920   -0.00113981
     atom   18 type  1   force =     0.00055994    0.00006030    0.00011116
     atom   19 type  2   force =     0.00000009    0.00074941   -0.00063283
     atom   20 type  1   force =    -0.00055947    0.00005972    0.00011087
     atom   21 type  1   force =    -0.00000004    0.00015486    0.00038103
     atom   22 type  1   force =     0.00111147   -0.00039926    0.00028287
     atom   23 type  2   force =     0.00000004   -0.00109603   -0.00007162
     atom   24 type  1   force =    -0.00111128   -0.00039941    0.00028283
     atom   25 type  3   force =     0.00000003   -0.00030777   -0.00073400

     Total force =     0.003100     Total SCF correction =     0.000053


     Computing stress (Cartesian axis) and pressure


     negative rho (up, down):  2.458E-04 1.929E-04
          total   stress  (Ry/bohr**3)                   (kbar)     P=       -4.83
  -0.00005754   0.00000000   0.00000000           -8.46        0.00        0.00
   0.00000000  -0.00004366  -0.00000378            0.00       -6.42       -0.56
   0.00000000  -0.00000378   0.00000276            0.00       -0.56        0.41

     Energy error            =      2.2E-05 Ry
     Gradient error          =      1.1E-03 Ry/Bohr

     number of scf cycles    =  12
     number of bfgs steps    =  11

     energy             old  =   -5332.1064533237 Ry
     energy             new  =   -5332.1064749870 Ry

     CASE: energy            _new < energy            _old

     new trust radius        =       0.0054572686 bohr
     new conv_thr            =       0.0000000001 Ry


ATOMIC_POSITIONS (angstrom)
Ni               5.0381082178        2.9087344078       11.0000000000    0   0   0
Ni               1.2594928383        0.7271633007       11.0000321314    0   0   0
Pd               2.5190631929        2.9087349143       11.0000563881    0   0   0
Ni               3.7785410216        0.7272125305       11.0000798881    0   0   0
Ni               2.5190678846        1.4543657934       13.0567878192    0   0   0
Ni               6.2975735046        3.6359005296       13.0568199507    0   0   0
Pd               5.0381035260        1.4543662999       13.0568442073    0   0   0
Ni               3.7785410216        3.6359497594       13.0568677074    0   0   0
Ni               2.5190400808        4.3613175317       15.1101148304
Ni               3.7756282076        2.1830284762       15.1118819775
Pd               5.0380877571        4.3641173044       15.1063277918
Ni               6.3005548780        2.1830284436       15.1118807817
Ni               5.0380855598        2.9114784999       17.1608238864
Ni               1.2621830471        0.7282472270       17.1642896259
Pd               2.5190451533        2.9101414395       17.1802417444
Ni               3.7759058630        0.7282474356       17.1642906824
Ni               2.5190430501        1.4554604193       19.2410889398
Ni               6.2779378125        3.6559333913       19.2219448525
Pd               5.0380835482        1.4617748029       19.2041018312
Ni               3.7982287080        3.6559339292       19.2219460161
Ni               2.5190427744        4.3439618748       21.2365547427
Ni               3.7472369600        2.2152076243       21.2589413078
Pd               5.0380831228        4.4054058735       21.3771779278
Ni               6.3289286432        2.2152076255       21.2589415730
H                5.0380831001        2.7582359877       22.2255760971



     Writing config-only to output data dir /tmpu/isholek_g/isholek/MIGUEL/QE/Hydrogen/111_2x2/SAVE/Ni3Pd1_111-H_hcp_1.save/ :
     XML data file
     NEW-OLD atomic charge density approx. for the potential

     Check: negative core charge=   -0.000001

     negative rho (up, down):  2.303E-04 2.195E-04
     Generating pointlists ...

     total cpu time spent up to now is   187087.2 secs

     Self-consistent Calculation

     iteration #  1     ecut=    60.00 Ry     beta= 0.20
     Davidson diagonalization with overlap
     ethr =  1.00E-06,  avg # of iterations =  3.1

     Threshold (ethr) on eigenvalues was too large:
     Diagonalizing with lowered threshold

     Davidson diagonalization with overlap
     ethr =  7.87E-09,  avg # of iterations =  5.5

     negative rho (up, down):  3.650E-04 3.428E-04

     total cpu time spent up to now is   189167.1 secs

     total energy              =   -5332.10648556 Ry
     estimated scf accuracy    <       0.00001463 Ry

     total magnetization       =    14.41 Bohr mag/cell
     absolute magnetization    =    16.29 Bohr mag/cell

     iteration #  2     ecut=    60.00 Ry     beta= 0.20
     Davidson diagonalization with overlap
     ethr =  6.07E-09,  avg # of iterations =  1.0

     negative rho (up, down):  3.322E-04 3.056E-04

     total cpu time spent up to now is   189717.7 secs

     total energy              =   -5332.10648654 Ry
     estimated scf accuracy    <       0.00001462 Ry

     total magnetization       =    14.41 Bohr mag/cell
     absolute magnetization    =    16.29 Bohr mag/cell

     iteration #  3     ecut=    60.00 Ry     beta= 0.20
     Davidson diagonalization with overlap
     ethr =  6.07E-09,  avg # of iterations =  1.0

     negative rho (up, down):  3.100E-04 2.751E-04

     total cpu time spent up to now is   190271.5 secs

     total energy              =   -5332.10648751 Ry
     estimated scf accuracy    <       0.00000523 Ry

     total magnetization       =    14.41 Bohr mag/cell
     absolute magnetization    =    16.29 Bohr mag/cell

     iteration #  4     ecut=    60.00 Ry     beta= 0.20
     Davidson diagonalization with overlap
     ethr =  2.17E-09,  avg # of iterations =  2.0

     negative rho (up, down):  3.071E-04 2.639E-04

     total cpu time spent up to now is   190897.8 secs

     total energy              =   -5332.10648782 Ry
     estimated scf accuracy    <       0.00000320 Ry

     total magnetization       =    14.41 Bohr mag/cell
     absolute magnetization    =    16.29 Bohr mag/cell

     iteration #  5     ecut=    60.00 Ry     beta= 0.20
     Davidson diagonalization with overlap
     ethr =  1.33E-09,  avg # of iterations =  2.0

     negative rho (up, down):  2.918E-04 2.462E-04

     total cpu time spent up to now is   191508.9 secs

     total energy              =   -5332.10648837 Ry
     estimated scf accuracy    <       0.00000164 Ry

     total magnetization       =    14.41 Bohr mag/cell
     absolute magnetization    =    16.29 Bohr mag/cell

     iteration #  6     ecut=    60.00 Ry     beta= 0.20
     Davidson diagonalization with overlap
     ethr =  6.82E-10,  avg # of iterations =  1.0

     negative rho (up, down):  2.802E-04 2.327E-04

     total cpu time spent up to now is   192037.6 secs

     total energy              =   -5332.10648857 Ry
     estimated scf accuracy    <       0.00000059 Ry

     total magnetization       =    14.41 Bohr mag/cell
     absolute magnetization    =    16.29 Bohr mag/cell

     iteration #  7     ecut=    60.00 Ry     beta= 0.20
     Davidson diagonalization with overlap
     ethr =  2.44E-10,  avg # of iterations =  2.0

     negative rho (up, down):  2.708E-04 2.220E-04

     total cpu time spent up to now is   192612.3 secs

     total energy              =   -5332.10648874 Ry
     estimated scf accuracy    <       0.00000006 Ry

     total magnetization       =    14.41 Bohr mag/cell
     absolute magnetization    =    16.29 Bohr mag/cell

     iteration #  8     ecut=    60.00 Ry     beta= 0.20
     Davidson diagonalization with overlap
     ethr =  2.49E-11,  avg # of iterations =  5.0

     negative rho (up, down):  2.623E-04 2.129E-04

     total cpu time spent up to now is   193543.5 secs

     total energy              =   -5332.10648889 Ry
     estimated scf accuracy    <       0.00000005 Ry

     total magnetization       =    14.41 Bohr mag/cell
     absolute magnetization    =    16.29 Bohr mag/cell

     iteration #  9     ecut=    60.00 Ry     beta= 0.20
     Davidson diagonalization with overlap
     ethr =  1.97E-11,  avg # of iterations =  1.6

     negative rho (up, down):  2.567E-04 2.067E-04

     total cpu time spent up to now is   194101.3 secs

     total energy              =   -5332.10648897 Ry
     estimated scf accuracy    <       0.00000004 Ry

     total magnetization       =    14.41 Bohr mag/cell
     absolute magnetization    =    16.29 Bohr mag/cell

     iteration # 10     ecut=    60.00 Ry     beta= 0.20
     Davidson diagonalization with overlap
     ethr =  1.75E-11,  avg # of iterations =  1.0

     negative rho (up, down):  2.531E-04 2.025E-04

     total cpu time spent up to now is   194660.5 secs

     total energy              =   -5332.10648902 Ry
     estimated scf accuracy    <       0.00000001 Ry

     total magnetization       =    14.41 Bohr mag/cell
     absolute magnetization    =    16.29 Bohr mag/cell

     iteration # 11     ecut=    60.00 Ry     beta= 0.20
     Davidson diagonalization with overlap
     ethr =  5.93E-12,  avg # of iterations =  1.0

     negative rho (up, down):  2.507E-04 1.995E-04

     total cpu time spent up to now is   195211.0 secs

     total energy              =   -5332.10648906 Ry
     estimated scf accuracy    <          6.6E-09 Ry

     total magnetization       =    14.41 Bohr mag/cell
     absolute magnetization    =    16.29 Bohr mag/cell

     iteration # 12     ecut=    60.00 Ry     beta= 0.20
     Davidson diagonalization with overlap
     ethr =  2.75E-12,  avg # of iterations =  1.0

     negative rho (up, down):  2.490E-04 1.974E-04

     total cpu time spent up to now is   195767.3 secs

     total energy              =   -5332.10648908 Ry
     estimated scf accuracy    <       0.00000001 Ry

     total magnetization       =    14.41 Bohr mag/cell
     absolute magnetization    =    16.29 Bohr mag/cell

     iteration # 13     ecut=    60.00 Ry     beta= 0.20
     Davidson diagonalization with overlap
     ethr =  2.75E-12,  avg # of iterations =  1.0

     negative rho (up, down):  2.477E-04 1.958E-04

     total cpu time spent up to now is   196311.6 secs

     total energy              =   -5332.10648910 Ry
     estimated scf accuracy    <       0.00000002 Ry

     total magnetization       =    14.41 Bohr mag/cell
     absolute magnetization    =    16.29 Bohr mag/cell

     iteration # 14     ecut=    60.00 Ry     beta= 0.20
     Davidson diagonalization with overlap
     ethr =  2.75E-12,  avg # of iterations =  1.0

     negative rho (up, down):  2.468E-04 1.947E-04

     total cpu time spent up to now is   196876.8 secs

     total energy              =   -5332.10648911 Ry
     estimated scf accuracy    <       0.00000001 Ry

     total magnetization       =    14.41 Bohr mag/cell
     absolute magnetization    =    16.29 Bohr mag/cell

     iteration # 15     ecut=    60.00 Ry     beta= 0.20
     Davidson diagonalization with overlap
     ethr =  2.75E-12,  avg # of iterations =  1.0

     negative rho (up, down):  2.462E-04 1.939E-04

     total cpu time spent up to now is   197401.5 secs

     total energy              =   -5332.10648912 Ry
     estimated scf accuracy    <          7.1E-09 Ry

     total magnetization       =    14.41 Bohr mag/cell
     absolute magnetization    =    16.29 Bohr mag/cell

     iteration # 16     ecut=    60.00 Ry     beta= 0.20
     Davidson diagonalization with overlap
     ethr =  2.75E-12,  avg # of iterations =  1.0

     negative rho (up, down):  2.458E-04 1.934E-04

     total cpu time spent up to now is   197952.3 secs

     total energy              =   -5332.10648913 Ry
     estimated scf accuracy    <          3.8E-09 Ry

     total magnetization       =    14.41 Bohr mag/cell
     absolute magnetization    =    16.29 Bohr mag/cell

     iteration # 17     ecut=    60.00 Ry     beta= 0.20
     Davidson diagonalization with overlap
     ethr =  1.56E-12,  avg # of iterations =  1.0

     negative rho (up, down):  2.455E-04 1.930E-04

     total cpu time spent up to now is   198484.8 secs

     total energy              =   -5332.10648913 Ry
     estimated scf accuracy    <          6.5E-10 Ry

     total magnetization       =    14.41 Bohr mag/cell
     absolute magnetization    =    16.29 Bohr mag/cell

     iteration # 18     ecut=    60.00 Ry     beta= 0.20
     Davidson diagonalization with overlap
     ethr =  2.68E-13,  avg # of iterations =  1.2

     negative rho (up, down):  2.453E-04 1.927E-04

     total cpu time spent up to now is   199022.3 secs

     total energy              =   -5332.10648913 Ry
     estimated scf accuracy    <          1.6E-10 Ry

     total magnetization       =    14.41 Bohr mag/cell
     absolute magnetization    =    16.29 Bohr mag/cell

     iteration # 19     ecut=    60.00 Ry     beta= 0.20
     Davidson diagonalization with overlap
     ethr =  1.00E-13,  avg # of iterations =  1.6

     negative rho (up, down):  2.458E-04 1.930E-04
 
     Magnetic moment per site  (integrated on atomic sphere of radius R)
     atom   1 (R=0.140)  charge=  6.9035  magn=  0.7267
     atom   2 (R=0.140)  charge=  6.9033  magn=  0.7305
     atom   3 (R=0.140)  charge=  5.1406  magn=  0.2144
     atom   4 (R=0.140)  charge=  6.9033  magn=  0.7305
     atom   5 (R=0.140)  charge=  6.8991  magn=  0.7511
     atom   6 (R=0.140)  charge=  6.8994  magn=  0.7399
     atom   7 (R=0.140)  charge=  5.1291  magn=  0.2621
     atom   8 (R=0.140)  charge=  6.8994  magn=  0.7399
     atom   9 (R=0.140)  charge=  6.8990  magn=  0.7232
     atom  10 (R=0.140)  charge=  6.8996  magn=  0.7038
     atom  11 (R=0.140)  charge=  5.1262  magn=  0.2494
     atom  12 (R=0.140)  charge=  6.8996  magn=  0.7038
     atom  13 (R=0.140)  charge=  6.8999  magn=  0.7060
     atom  14 (R=0.140)  charge=  6.8993  magn=  0.7071
     atom  15 (R=0.140)  charge=  5.1260  magn=  0.2493
     atom  16 (R=0.140)  charge=  6.8993  magn=  0.7071
     atom  17 (R=0.140)  charge=  6.9007  magn=  0.6474
     atom  18 (R=0.140)  charge=  6.8997  magn=  0.7414
     atom  19 (R=0.140)  charge=  5.1293  magn=  0.2586
     atom  20 (R=0.140)  charge=  6.8997  magn=  0.7414
     atom  21 (R=0.140)  charge=  6.9060  magn=  0.7359
     atom  22 (R=0.140)  charge=  6.9068  magn=  0.5513
     atom  23 (R=0.140)  charge=  5.1396  magn=  0.1607
     atom  24 (R=0.140)  charge=  6.9068  magn=  0.5513
     atom  25 (R=0.140)  charge=  0.9052  magn= -0.0070

     total cpu time spent up to now is   199572.0 secs

     End of self-consistent calculation

     Number of k-points >= 100: set verbosity='high' to print the bands.

     the Fermi energy is    -5.0814 ev

!    total energy              =   -5332.10648915 Ry
     total all-electron energy =   -115303.852630 Ry
     estimated scf accuracy    <          5.5E-11 Ry
     smearing contrib. (-TS)   =      -0.00223163 Ry
     internal energy E=F+TS    =   -5332.10425751 Ry

     The total energy is F=E-TS. E is the sum of the following terms:
     one-electron contribution =  -70005.23118451 Ry
     hartree contribution      =   35197.22487496 Ry
     xc contribution           =    -947.25612466 Ry
     ewald contribution        =   33496.76110326 Ry
     DFT-D3 Dispersion         =      -2.02349625 Ry
     one-center paw contrib.   =   -3071.57943032 Ry

     total magnetization       =    14.41 Bohr mag/cell
     absolute magnetization    =    16.29 Bohr mag/cell

     convergence has been achieved in  19 iterations

     negative rho (up, down):  2.458E-04 1.930E-04

     Forces acting on atoms (cartesian axes, Ry/au):

     atom    1 type  1   force =    -0.00000545    0.01341460    0.00377402
     atom    2 type  1   force =     0.01172312   -0.00673235    0.00369076
     atom    3 type  2   force =    -0.00000998   -0.00011309   -0.01864248
     atom    4 type  1   force =    -0.01170782   -0.00675575    0.00368080
     atom    5 type  1   force =    -0.00000652    0.00190998    0.00122073
     atom    6 type  1   force =     0.00141061   -0.00084455    0.00155137
     atom    7 type  2   force =    -0.00001264    0.00035617    0.00462777
     atom    8 type  1   force =    -0.00139224   -0.00087413    0.00153680
     atom    9 type  1   force =    -0.00000005    0.00029807    0.00006579
     atom   10 type  1   force =     0.00019022    0.00000946    0.00008459
     atom   11 type  2   force =     0.00000014    0.00000887   -0.00037545
     atom   12 type  1   force =    -0.00019016    0.00000934    0.00008459
     atom   13 type  1   force =    -0.00000001    0.00063440   -0.00001193
     atom   14 type  1   force =     0.00001638    0.00009340   -0.00027019
     atom   15 type  2   force =     0.00000011    0.00027572   -0.00011099
     atom   16 type  1   force =    -0.00001624    0.00009320   -0.00027019
     atom   17 type  1   force =     0.00000004   -0.00042684   -0.00070245
     atom   18 type  1   force =     0.00031711   -0.00000083    0.00043369
     atom   19 type  2   force =     0.00000001    0.00048389    0.00003063
     atom   20 type  1   force =    -0.00031685   -0.00000097    0.00043352
     atom   21 type  1   force =     0.00000001   -0.00014899    0.00004192
     atom   22 type  1   force =     0.00089915    0.00001748    0.00002249
     atom   23 type  2   force =     0.00000005   -0.00158147   -0.00036306
     atom   24 type  1   force =    -0.00089908    0.00001755    0.00002252
     atom   25 type  3   force =     0.00000007   -0.00014317   -0.00055528

     Total force =     0.002659     Total SCF correction =     0.000028


     Computing stress (Cartesian axis) and pressure


     negative rho (up, down):  2.458E-04 1.930E-04
          total   stress  (Ry/bohr**3)                   (kbar)     P=       -4.84
  -0.00005756   0.00000000   0.00000000           -8.47        0.00        0.00
   0.00000000  -0.00004387  -0.00000368            0.00       -6.45       -0.54
   0.00000000  -0.00000368   0.00000278            0.00       -0.54        0.41

     Energy error            =      1.4E-05 Ry
     Gradient error          =      1.6E-03 Ry/Bohr

     number of scf cycles    =  13
     number of bfgs steps    =  12

     energy             old  =   -5332.1064749870 Ry
     energy             new  =   -5332.1064891462 Ry

     CASE: energy            _new < energy            _old

     new trust radius        =       0.0041412948 bohr
     new conv_thr            =            1.0E-10 Ry


ATOMIC_POSITIONS (angstrom)
Ni               5.0381082178        2.9087344078       11.0000000000    0   0   0
Ni               1.2594928383        0.7271633007       11.0000321314    0   0   0
Pd               2.5190631929        2.9087349143       11.0000563881    0   0   0
Ni               3.7785410216        0.7272125305       11.0000798881    0   0   0
Ni               2.5190678846        1.4543657934       13.0567878192    0   0   0
Ni               6.2975735046        3.6359005296       13.0568199507    0   0   0
Pd               5.0381035260        1.4543662999       13.0568442073    0   0   0
Ni               3.7785410216        3.6359497594       13.0568677074    0   0   0
Ni               2.5190399743        4.3616902301       15.1106630400
Ni               3.7757178872        2.1831236805       15.1125568666
Pd               5.0380878414        4.3641740450       15.1062562643
Ni               6.3004655374        2.1831228757       15.1125555133
Ni               5.0380853797        2.9126213801       17.1608686034
Ni               1.2624730626        0.7284739239       17.1640638435
Pd               2.5190453133        2.9105978264       17.1802226723
Ni               3.7756164140        0.7284730574       17.1640646850
Ni               2.5190428418        1.4545990298       19.2397861769
Ni               6.2788239496        3.6564862731       19.2221531070
Pd               5.0380837216        1.4631150777       19.2029222773
Ni               3.7973433272        3.6564860677       19.2221539024
Ni               2.5190427729        4.3446207717       21.2372029983
Ni               3.7478505853        2.2139176261       21.2586703800
Pd               5.0380832362        4.4041005607       21.3773334938
Ni               6.3283153525        2.2139174517       21.2586706068
H                5.0380831030        2.7565346690       22.2241947592



     Writing config-only to output data dir /tmpu/isholek_g/isholek/MIGUEL/QE/Hydrogen/111_2x2/SAVE/Ni3Pd1_111-H_hcp_1.save/ :
     XML data file
     NEW-OLD atomic charge density approx. for the potential

     Check: negative core charge=   -0.000001

     negative rho (up, down):  2.323E-04 2.098E-04
     Generating pointlists ...

     total cpu time spent up to now is   199987.1 secs

     Self-consistent Calculation

     iteration #  1     ecut=    60.00 Ry     beta= 0.20
     Davidson diagonalization with overlap
     ethr =  1.00E-06,  avg # of iterations =  3.0

     Threshold (ethr) on eigenvalues was too large:
     Diagonalizing with lowered threshold

     Davidson diagonalization with overlap
     ethr =  7.41E-09,  avg # of iterations =  5.1

     negative rho (up, down):  2.484E-04 2.117E-04

     total cpu time spent up to now is   201972.2 secs

     total energy              =   -5332.10649775 Ry
     estimated scf accuracy    <       0.00001176 Ry

     total magnetization       =    14.41 Bohr mag/cell
     absolute magnetization    =    16.29 Bohr mag/cell

     iteration #  2     ecut=    60.00 Ry     beta= 0.20
     Davidson diagonalization with overlap
     ethr =  4.88E-09,  avg # of iterations =  1.0

     negative rho (up, down):  2.465E-04 2.071E-04

     total cpu time spent up to now is   202524.5 secs

     total energy              =   -5332.10649821 Ry
     estimated scf accuracy    <       0.00001561 Ry

     total magnetization       =    14.41 Bohr mag/cell
     absolute magnetization    =    16.29 Bohr mag/cell

     iteration #  3     ecut=    60.00 Ry     beta= 0.20
     Davidson diagonalization with overlap
     ethr =  4.88E-09,  avg # of iterations =  1.0

     negative rho (up, down):  2.461E-04 2.028E-04

     total cpu time spent up to now is   203083.8 secs

     total energy              =   -5332.10649889 Ry
     estimated scf accuracy    <       0.00000415 Ry

     total magnetization       =    14.41 Bohr mag/cell
     absolute magnetization    =    16.29 Bohr mag/cell

     iteration #  4     ecut=    60.00 Ry     beta= 0.20
     Davidson diagonalization with overlap
     ethr =  1.72E-09,  avg # of iterations =  2.0

     negative rho (up, down):  2.466E-04 2.002E-04

     total cpu time spent up to now is   203726.8 secs

     total energy              =   -5332.10649927 Ry
     estimated scf accuracy    <       0.00000294 Ry

     total magnetization       =    14.41 Bohr mag/cell
     absolute magnetization    =    16.29 Bohr mag/cell

     iteration #  5     ecut=    60.00 Ry     beta= 0.20
     Davidson diagonalization with overlap
     ethr =  1.22E-09,  avg # of iterations =  2.0

     negative rho (up, down):  2.463E-04 1.982E-04

     total cpu time spent up to now is   204322.7 secs

     total energy              =   -5332.10649945 Ry
     estimated scf accuracy    <       0.00000294 Ry

     total magnetization       =    14.41 Bohr mag/cell
     absolute magnetization    =    16.29 Bohr mag/cell

     iteration #  6     ecut=    60.00 Ry     beta= 0.20
     Davidson diagonalization with overlap
     ethr =  1.22E-09,  avg # of iterations =  1.0

     negative rho (up, down):  2.460E-04 1.967E-04

     total cpu time spent up to now is   204878.4 secs

     total energy              =   -5332.10649951 Ry
     estimated scf accuracy    <       0.00000051 Ry

     total magnetization       =    14.41 Bohr mag/cell
     absolute magnetization    =    16.29 Bohr mag/cell

     iteration #  7     ecut=    60.00 Ry     beta= 0.20
     Davidson diagonalization with overlap
     ethr =  2.11E-10,  avg # of iterations =  2.7

     negative rho (up, down):  2.454E-04 1.954E-04

     total cpu time spent up to now is   205502.8 secs

     total energy              =   -5332.10649956 Ry
     estimated scf accuracy    <       0.00000014 Ry

     total magnetization       =    14.41 Bohr mag/cell
     absolute magnetization    =    16.29 Bohr mag/cell

     iteration #  8     ecut=    60.00 Ry     beta= 0.20
     Davidson diagonalization with overlap
     ethr =  6.00E-11,  avg # of iterations =  4.9

     negative rho (up, down):  2.449E-04 1.944E-04

     total cpu time spent up to now is   206208.8 secs

     total energy              =   -5332.10649960 Ry
     estimated scf accuracy    <       0.00000009 Ry

     total magnetization       =    14.41 Bohr mag/cell
     absolute magnetization    =    16.29 Bohr mag/cell

     iteration #  9     ecut=    60.00 Ry     beta= 0.20
     Davidson diagonalization with overlap
     ethr =  3.63E-11,  avg # of iterations =  1.7

     negative rho (up, down):  2.446E-04 1.937E-04

     total cpu time spent up to now is   206806.3 secs

     total energy              =   -5332.10649961 Ry
     estimated scf accuracy    <       0.00000004 Ry

     total magnetization       =    14.41 Bohr mag/cell
     absolute magnetization    =    16.29 Bohr mag/cell

     iteration # 10     ecut=    60.00 Ry     beta= 0.20
     Davidson diagonalization with overlap
     ethr =  1.87E-11,  avg # of iterations =  1.4

     negative rho (up, down):  2.444E-04 1.931E-04

     total cpu time spent up to now is   207397.5 secs

     total energy              =   -5332.10649962 Ry
     estimated scf accuracy    <       0.00000002 Ry

     total magnetization       =    14.41 Bohr mag/cell
     absolute magnetization    =    16.29 Bohr mag/cell

     iteration # 11     ecut=    60.00 Ry     beta= 0.20
     Davidson diagonalization with overlap
     ethr =  6.56E-12,  avg # of iterations =  2.4

     negative rho (up, down):  2.442E-04 1.927E-04

     total cpu time spent up to now is   208020.9 secs

     total energy              =   -5332.10649962 Ry
     estimated scf accuracy    <          4.9E-09 Ry

     total magnetization       =    14.41 Bohr mag/cell
     absolute magnetization    =    16.29 Bohr mag/cell

     iteration # 12     ecut=    60.00 Ry     beta= 0.20
     Davidson diagonalization with overlap
     ethr =  2.05E-12,  avg # of iterations =  3.5

     negative rho (up, down):  2.442E-04 1.924E-04

     total cpu time spent up to now is   208700.0 secs

     total energy              =   -5332.10649963 Ry
     estimated scf accuracy    <       0.00000001 Ry

     total magnetization       =    14.41 Bohr mag/cell
     absolute magnetization    =    16.29 Bohr mag/cell

     iteration # 13     ecut=    60.00 Ry     beta= 0.20
     Davidson diagonalization with overlap
     ethr =  2.05E-12,  avg # of iterations =  1.2

     negative rho (up, down):  2.442E-04 1.922E-04

     total cpu time spent up to now is   209258.4 secs

     total energy              =   -5332.10649963 Ry
     estimated scf accuracy    <       0.00000002 Ry

     total magnetization       =    14.41 Bohr mag/cell
     absolute magnetization    =    16.29 Bohr mag/cell

     iteration # 14     ecut=    60.00 Ry     beta= 0.20
     Davidson diagonalization with overlap
     ethr =  2.05E-12,  avg # of iterations =  1.0

     negative rho (up, down):  2.442E-04 1.920E-04

     total cpu time spent up to now is   209807.4 secs

     total energy              =   -5332.10649963 Ry
     estimated scf accuracy    <       0.00000001 Ry

     total magnetization       =    14.41 Bohr mag/cell
     absolute magnetization    =    16.29 Bohr mag/cell

     iteration # 15     ecut=    60.00 Ry     beta= 0.20
     Davidson diagonalization with overlap
     ethr =  2.05E-12,  avg # of iterations =  1.0

     negative rho (up, down):  2.443E-04 1.919E-04

     total cpu time spent up to now is   210359.6 secs

     total energy              =   -5332.10649964 Ry
     estimated scf accuracy    <          7.5E-09 Ry

     total magnetization       =    14.41 Bohr mag/cell
     absolute magnetization    =    16.29 Bohr mag/cell

     iteration # 16     ecut=    60.00 Ry     beta= 0.20
     Davidson diagonalization with overlap
     ethr =  2.05E-12,  avg # of iterations =  1.0

     negative rho (up, down):  2.443E-04 1.919E-04

     total cpu time spent up to now is   210914.0 secs

     total energy              =   -5332.10649964 Ry
     estimated scf accuracy    <          5.4E-09 Ry

     total magnetization       =    14.41 Bohr mag/cell
     absolute magnetization    =    16.29 Bohr mag/cell

     iteration # 17     ecut=    60.00 Ry     beta= 0.20
     Davidson diagonalization with overlap
     ethr =  2.05E-12,  avg # of iterations =  1.0

     negative rho (up, down):  2.444E-04 1.919E-04

     total cpu time spent up to now is   211466.2 secs

     total energy              =   -5332.10649964 Ry
     estimated scf accuracy    <          1.0E-09 Ry

     total magnetization       =    14.41 Bohr mag/cell
     absolute magnetization    =    16.29 Bohr mag/cell

     iteration # 18     ecut=    60.00 Ry     beta= 0.20
     Davidson diagonalization with overlap
     ethr =  4.17E-13,  avg # of iterations =  1.1

     negative rho (up, down):  2.445E-04 1.919E-04

     total cpu time spent up to now is   212024.3 secs

     total energy              =   -5332.10649964 Ry
     estimated scf accuracy    <          4.9E-10 Ry

     total magnetization       =    14.41 Bohr mag/cell
     absolute magnetization    =    16.29 Bohr mag/cell

     iteration # 19     ecut=    60.00 Ry     beta= 0.20
     Davidson diagonalization with overlap
     ethr =  2.02E-13,  avg # of iterations =  2.0

     negative rho (up, down):  2.459E-04 1.930E-04
 
     Magnetic moment per site  (integrated on atomic sphere of radius R)
     atom   1 (R=0.140)  charge=  6.9035  magn=  0.7268
     atom   2 (R=0.140)  charge=  6.9033  magn=  0.7305
     atom   3 (R=0.140)  charge=  5.1406  magn=  0.2145
     atom   4 (R=0.140)  charge=  6.9033  magn=  0.7305
     atom   5 (R=0.140)  charge=  6.8991  magn=  0.7511
     atom   6 (R=0.140)  charge=  6.8994  magn=  0.7399
     atom   7 (R=0.140)  charge=  5.1290  magn=  0.2621
     atom   8 (R=0.140)  charge=  6.8994  magn=  0.7399
     atom   9 (R=0.140)  charge=  6.8989  magn=  0.7232
     atom  10 (R=0.140)  charge=  6.8996  magn=  0.7038
     atom  11 (R=0.140)  charge=  5.1262  magn=  0.2494
     atom  12 (R=0.140)  charge=  6.8996  magn=  0.7038
     atom  13 (R=0.140)  charge=  6.9000  magn=  0.7061
     atom  14 (R=0.140)  charge=  6.8993  magn=  0.7071
     atom  15 (R=0.140)  charge=  5.1260  magn=  0.2494
     atom  16 (R=0.140)  charge=  6.8993  magn=  0.7071
     atom  17 (R=0.140)  charge=  6.9007  magn=  0.6474
     atom  18 (R=0.140)  charge=  6.8997  magn=  0.7414
     atom  19 (R=0.140)  charge=  5.1292  magn=  0.2586
     atom  20 (R=0.140)  charge=  6.8997  magn=  0.7414
     atom  21 (R=0.140)  charge=  6.9060  magn=  0.7357
     atom  22 (R=0.140)  charge=  6.9068  magn=  0.5508
     atom  23 (R=0.140)  charge=  5.1396  magn=  0.1607
     atom  24 (R=0.140)  charge=  6.9068  magn=  0.5508
     atom  25 (R=0.140)  charge=  0.9061  magn= -0.0070

     total cpu time spent up to now is   212612.0 secs

     End of self-consistent calculation

     Number of k-points >= 100: set verbosity='high' to print the bands.

     the Fermi energy is    -5.0812 ev

!    total energy              =   -5332.10649964 Ry
     total all-electron energy =   -115303.852641 Ry
     estimated scf accuracy    <          6.6E-11 Ry
     smearing contrib. (-TS)   =      -0.00223153 Ry
     internal energy E=F+TS    =   -5332.10426812 Ry

     The total energy is F=E-TS. E is the sum of the following terms:
     one-electron contribution =  -70007.14364051 Ry
     hartree contribution      =   35198.18354752 Ry
     xc contribution           =    -947.25648444 Ry
     ewald contribution        =   33497.71524134 Ry
     DFT-D3 Dispersion         =      -2.02350749 Ry
     one-center paw contrib.   =   -3071.57942453 Ry

     total magnetization       =    14.41 Bohr mag/cell
     absolute magnetization    =    16.29 Bohr mag/cell

     convergence has been achieved in  19 iterations

     negative rho (up, down):  2.459E-04 1.930E-04

     Forces acting on atoms (cartesian axes, Ry/au):

     atom    1 type  1   force =    -0.00000545    0.01341453    0.00377164
     atom    2 type  1   force =     0.01172227   -0.00673160    0.00369452
     atom    3 type  2   force =    -0.00000995   -0.00011028   -0.01864196
     atom    4 type  1   force =    -0.01170697   -0.00675499    0.00368455
     atom    5 type  1   force =    -0.00000649    0.00194932    0.00127874
     atom    6 type  1   force =     0.00143777   -0.00085798    0.00160630
     atom    7 type  2   force =    -0.00001267    0.00038235    0.00479627
     atom    8 type  1   force =    -0.00141942   -0.00088752    0.00159175
     atom    9 type  1   force =     0.00000003    0.00024738   -0.00016060
     atom   10 type  1   force =     0.00018054    0.00001146   -0.00019217
     atom   11 type  2   force =     0.00000017    0.00006380   -0.00051896
     atom   12 type  1   force =    -0.00018060    0.00001171   -0.00019209
     atom   13 type  1   force =     0.00000013    0.00049708   -0.00000128
     atom   14 type  1   force =    -0.00015596    0.00016732   -0.00026228
     atom   15 type  2   force =     0.00000013    0.00024898   -0.00000949
     atom   16 type  1   force =     0.00015595    0.00016763   -0.00026215
     atom   17 type  1   force =     0.00000022   -0.00026929   -0.00020952
     atom   18 type  1   force =     0.00013572   -0.00005608    0.00051020
     atom   19 type  2   force =    -0.00000000    0.00012533    0.00038040
     atom   20 type  1   force =    -0.00013563   -0.00005586    0.00051017
     atom   21 type  1   force =     0.00000010   -0.00040541   -0.00021602
     atom   22 type  1   force =     0.00034468    0.00006289   -0.00016751
     atom   23 type  2   force =     0.00000003   -0.00116888   -0.00055400
     atom   24 type  1   force =    -0.00034469    0.00006303   -0.00016744
     atom   25 type  3   force =     0.00000009   -0.00011490   -0.00026907

     Total force =     0.002040     Total SCF correction =     0.000039


     Computing stress (Cartesian axis) and pressure


     negative rho (up, down):  2.459E-04 1.930E-04
          total   stress  (Ry/bohr**3)                   (kbar)     P=       -4.81
  -0.00005735   0.00000000   0.00000000           -8.44        0.00        0.00
   0.00000000  -0.00004380  -0.00000354            0.00       -6.44       -0.52
   0.00000000  -0.00000354   0.00000310            0.00       -0.52        0.46

     Energy error            =      1.0E-05 Ry
     Gradient error          =      1.2E-03 Ry/Bohr

     number of scf cycles    =  14
     number of bfgs steps    =  13

     energy             old  =   -5332.1064891462 Ry
     energy             new  =   -5332.1064996444 Ry

     CASE: energy            _new < energy            _old

     new trust radius        =       0.0034664661 bohr
     new conv_thr            =            1.0E-10 Ry


ATOMIC_POSITIONS (angstrom)
Ni               5.0381082178        2.9087344078       11.0000000000    0   0   0
Ni               1.2594928383        0.7271633007       11.0000321314    0   0   0
Pd               2.5190631929        2.9087349143       11.0000563881    0   0   0
Ni               3.7785410216        0.7272125305       11.0000798881    0   0   0
Ni               2.5190678846        1.4543657934       13.0567878192    0   0   0
Ni               6.2975735046        3.6359005296       13.0568199507    0   0   0
Pd               5.0381035260        1.4543662999       13.0568442073    0   0   0
Ni               3.7785410216        3.6359497594       13.0568677074    0   0   0
Ni               2.5190399664        4.3620772209       15.1109333626
Ni               3.7758772745        2.1832059114       15.1128652168
Pd               5.0380879913        4.3642663843       15.1058874736
Ni               6.3003063158        2.1832048352       15.1128638370
Ni               5.0380853951        2.9136909521       17.1609199812
Ni               1.2625419040        0.7287633726       17.1637832021
Pd               2.5190455046        2.9110732839       17.1802973263
Ni               3.7755479123        0.7287620972       17.1637840270
Ni               2.5190428923        1.4538019198       19.2388536673
Ni               6.2794923446        3.6568873699       19.2226620603
Pd               5.0380838515        1.4641035558       19.2024140683
Ni               3.7966754691        3.6568869127       19.2226626283
Ni               2.5190428581        4.3448337789       21.2375423604
Ni               3.7482372265        2.2129471203       21.2581687696
Pd               5.0380833322        4.4022818395       21.3770943608
Ni               6.3279289181        2.2129469420       21.2581690143
H                5.0380831604        2.7555793056       22.2231021961



     Writing config-only to output data dir /tmpu/isholek_g/isholek/MIGUEL/QE/Hydrogen/111_2x2/SAVE/Ni3Pd1_111-H_hcp_1.save/ :
     XML data file
     NEW-OLD atomic charge density approx. for the potential

     Check: negative core charge=   -0.000001

     negative rho (up, down):  2.304E-04 2.097E-04
     Generating pointlists ...

     total cpu time spent up to now is   213029.5 secs

     Self-consistent Calculation

     iteration #  1     ecut=    60.00 Ry     beta= 0.20
     Davidson diagonalization with overlap
     ethr =  1.00E-06,  avg # of iterations =  3.0

     Threshold (ethr) on eigenvalues was too large:
     Diagonalizing with lowered threshold

     Davidson diagonalization with overlap
     ethr =  5.27E-09,  avg # of iterations =  6.5

     negative rho (up, down):  2.387E-04 2.020E-04

     total cpu time spent up to now is   215176.1 secs

     total energy              =   -5332.10650387 Ry
     estimated scf accuracy    <       0.00000726 Ry

     total magnetization       =    14.41 Bohr mag/cell
     absolute magnetization    =    16.29 Bohr mag/cell

     iteration #  2     ecut=    60.00 Ry     beta= 0.20
     Davidson diagonalization with overlap
     ethr =  3.01E-09,  avg # of iterations =  1.1

     negative rho (up, down):  2.402E-04 1.999E-04

     total cpu time spent up to now is   215756.6 secs

     total energy              =   -5332.10650467 Ry
     estimated scf accuracy    <       0.00000274 Ry

     total magnetization       =    14.41 Bohr mag/cell
     absolute magnetization    =    16.29 Bohr mag/cell

     iteration #  3     ecut=    60.00 Ry     beta= 0.20
     Davidson diagonalization with overlap
     ethr =  1.14E-09,  avg # of iterations =  1.8

     negative rho (up, down):  2.417E-04 1.981E-04

     total cpu time spent up to now is   216361.3 secs

     total energy              =   -5332.10650531 Ry
     estimated scf accuracy    <       0.00000250 Ry

     total magnetization       =    14.41 Bohr mag/cell
     absolute magnetization    =    16.29 Bohr mag/cell

     iteration #  4     ecut=    60.00 Ry     beta= 0.20
     Davidson diagonalization with overlap
     ethr =  1.04E-09,  avg # of iterations =  1.9

     negative rho (up, down):  2.425E-04 1.972E-04

     total cpu time spent up to now is   216955.5 secs

     total energy              =   -5332.10650552 Ry
     estimated scf accuracy    <       0.00000139 Ry

     total magnetization       =    14.41 Bohr mag/cell
     absolute magnetization    =    16.29 Bohr mag/cell

     iteration #  5     ecut=    60.00 Ry     beta= 0.20
     Davidson diagonalization with overlap
     ethr =  5.79E-10,  avg # of iterations =  1.0

     negative rho (up, down):  2.440E-04 1.955E-04

     total cpu time spent up to now is   217500.3 secs

     total energy              =   -5332.10650578 Ry
     estimated scf accuracy    <       0.00000069 Ry

     total magnetization       =    14.41 Bohr mag/cell
     absolute magnetization    =    16.29 Bohr mag/cell

     iteration #  6     ecut=    60.00 Ry     beta= 0.20
     Davidson diagonalization with overlap
     ethr =  2.87E-10,  avg # of iterations =  2.0

     negative rho (up, down):  2.445E-04 1.948E-04

     total cpu time spent up to now is   218157.5 secs

     total energy              =   -5332.10650588 Ry
     estimated scf accuracy    <       0.00000037 Ry

     total magnetization       =    14.41 Bohr mag/cell
     absolute magnetization    =    16.29 Bohr mag/cell

     iteration #  7     ecut=    60.00 Ry     beta= 0.20
     Davidson diagonalization with overlap
     ethr =  1.52E-10,  avg # of iterations =  2.0

     negative rho (up, down):  2.447E-04 1.941E-04

     total cpu time spent up to now is   218728.2 secs

     total energy              =   -5332.10650588 Ry
     estimated scf accuracy    <       0.00000011 Ry

     total magnetization       =    14.41 Bohr mag/cell
     absolute magnetization    =    16.29 Bohr mag/cell

     iteration #  8     ecut=    60.00 Ry     beta= 0.20
     Davidson diagonalization with overlap
     ethr =  4.77E-11,  avg # of iterations =  3.1

     negative rho (up, down):  2.448E-04 1.938E-04

     total cpu time spent up to now is   219358.1 secs

     total energy              =   -5332.10650590 Ry
     estimated scf accuracy    <       0.00000005 Ry

     total magnetization       =    14.41 Bohr mag/cell
     absolute magnetization    =    16.29 Bohr mag/cell

     iteration #  9     ecut=    60.00 Ry     beta= 0.20
     Davidson diagonalization with overlap
     ethr =  2.02E-11,  avg # of iterations =  3.9

     negative rho (up, down):  2.447E-04 1.935E-04

     total cpu time spent up to now is   220005.8 secs

     total energy              =   -5332.10650591 Ry
     estimated scf accuracy    <       0.00000002 Ry

     total magnetization       =    14.41 Bohr mag/cell
     absolute magnetization    =    16.29 Bohr mag/cell

     iteration # 10     ecut=    60.00 Ry     beta= 0.20
     Davidson diagonalization with overlap
     ethr =  8.83E-12,  avg # of iterations =  3.0

     negative rho (up, down):  2.447E-04 1.933E-04

     total cpu time spent up to now is   220674.6 secs

     total energy              =   -5332.10650591 Ry
     estimated scf accuracy    <       0.00000002 Ry

     total magnetization       =    14.41 Bohr mag/cell
     absolute magnetization    =    16.29 Bohr mag/cell

     iteration # 11     ecut=    60.00 Ry     beta= 0.20
     Davidson diagonalization with overlap
     ethr =  7.69E-12,  avg # of iterations =  1.4

     negative rho (up, down):  2.446E-04 1.928E-04

     total cpu time spent up to now is   221224.2 secs

     total energy              =   -5332.10650591 Ry
     estimated scf accuracy    <       0.00000001 Ry

     total magnetization       =    14.41 Bohr mag/cell
     absolute magnetization    =    16.29 Bohr mag/cell

     iteration # 12     ecut=    60.00 Ry     beta= 0.20
     Davidson diagonalization with overlap
     ethr =  5.87E-12,  avg # of iterations =  1.6

     negative rho (up, down):  2.446E-04 1.926E-04

     total cpu time spent up to now is   221791.4 secs

     total energy              =   -5332.10650591 Ry
     estimated scf accuracy    <       0.00000001 Ry

     total magnetization       =    14.41 Bohr mag/cell
     absolute magnetization    =    16.29 Bohr mag/cell

     iteration # 13     ecut=    60.00 Ry     beta= 0.20
     Davidson diagonalization with overlap
     ethr =  5.80E-12,  avg # of iterations =  1.0

     negative rho (up, down):  2.447E-04 1.925E-04

     total cpu time spent up to now is   222329.8 secs

     total energy              =   -5332.10650591 Ry
     estimated scf accuracy    <       0.00000001 Ry

     total magnetization       =    14.41 Bohr mag/cell
     absolute magnetization    =    16.29 Bohr mag/cell

     iteration # 14     ecut=    60.00 Ry     beta= 0.20
     Davidson diagonalization with overlap
     ethr =  5.24E-12,  avg # of iterations =  1.0

     negative rho (up, down):  2.447E-04 1.924E-04

     total cpu time spent up to now is   222877.9 secs

     total energy              =   -5332.10650591 Ry
     estimated scf accuracy    <       0.00000001 Ry

     total magnetization       =    14.41 Bohr mag/cell
     absolute magnetization    =    16.29 Bohr mag/cell

     iteration # 15     ecut=    60.00 Ry     beta= 0.20
     Davidson diagonalization with overlap
     ethr =  4.18E-12,  avg # of iterations =  1.0

     negative rho (up, down):  2.447E-04 1.923E-04

     total cpu time spent up to now is   223413.4 secs

     total energy              =   -5332.10650591 Ry
     estimated scf accuracy    <          8.2E-09 Ry

     total magnetization       =    14.41 Bohr mag/cell
     absolute magnetization    =    16.29 Bohr mag/cell

     iteration # 16     ecut=    60.00 Ry     beta= 0.20
     Davidson diagonalization with overlap
     ethr =  3.42E-12,  avg # of iterations =  1.0

     negative rho (up, down):  2.448E-04 1.923E-04

     total cpu time spent up to now is   223942.1 secs

     total energy              =   -5332.10650591 Ry
     estimated scf accuracy    <          6.1E-09 Ry

     total magnetization       =    14.41 Bohr mag/cell
     absolute magnetization    =    16.29 Bohr mag/cell

     iteration # 17     ecut=    60.00 Ry     beta= 0.20
     Davidson diagonalization with overlap
     ethr =  2.54E-12,  avg # of iterations =  1.0

     negative rho (up, down):  2.448E-04 1.923E-04

     total cpu time spent up to now is   224469.4 secs

     total energy              =   -5332.10650591 Ry
     estimated scf accuracy    <          2.5E-09 Ry

     total magnetization       =    14.41 Bohr mag/cell
     absolute magnetization    =    16.29 Bohr mag/cell

     iteration # 18     ecut=    60.00 Ry     beta= 0.20
     Davidson diagonalization with overlap
     ethr =  1.04E-12,  avg # of iterations =  1.0

     negative rho (up, down):  2.460E-04 1.931E-04
 
     Magnetic moment per site  (integrated on atomic sphere of radius R)
     atom   1 (R=0.140)  charge=  6.9035  magn=  0.7268
     atom   2 (R=0.140)  charge=  6.9033  magn=  0.7305
     atom   3 (R=0.140)  charge=  5.1406  magn=  0.2145
     atom   4 (R=0.140)  charge=  6.9033  magn=  0.7305
     atom   5 (R=0.140)  charge=  6.8991  magn=  0.7510
     atom   6 (R=0.140)  charge=  6.8994  magn=  0.7399
     atom   7 (R=0.140)  charge=  5.1291  magn=  0.2621
     atom   8 (R=0.140)  charge=  6.8994  magn=  0.7399
     atom   9 (R=0.140)  charge=  6.8989  magn=  0.7232
     atom  10 (R=0.140)  charge=  6.8995  magn=  0.7038
     atom  11 (R=0.140)  charge=  5.1262  magn=  0.2494
     atom  12 (R=0.140)  charge=  6.8995  magn=  0.7038
     atom  13 (R=0.140)  charge=  6.9000  magn=  0.7062
     atom  14 (R=0.140)  charge=  6.8993  magn=  0.7071
     atom  15 (R=0.140)  charge=  5.1260  magn=  0.2494
     atom  16 (R=0.140)  charge=  6.8993  magn=  0.7071
     atom  17 (R=0.140)  charge=  6.9007  magn=  0.6473
     atom  18 (R=0.140)  charge=  6.8997  magn=  0.7415
     atom  19 (R=0.140)  charge=  5.1293  magn=  0.2586
     atom  20 (R=0.140)  charge=  6.8997  magn=  0.7415
     atom  21 (R=0.140)  charge=  6.9059  magn=  0.7356
     atom  22 (R=0.140)  charge=  6.9069  magn=  0.5506
     atom  23 (R=0.140)  charge=  5.1396  magn=  0.1607
     atom  24 (R=0.140)  charge=  6.9069  magn=  0.5506
     atom  25 (R=0.140)  charge=  0.9069  magn= -0.0069

     total cpu time spent up to now is   224993.0 secs

     End of self-consistent calculation

     Number of k-points >= 100: set verbosity='high' to print the bands.

     the Fermi energy is    -5.0810 ev

!    total energy              =   -5332.10650591 Ry
     total all-electron energy =   -115303.852647 Ry
     estimated scf accuracy    <          7.3E-11 Ry
     smearing contrib. (-TS)   =      -0.00223602 Ry
     internal energy E=F+TS    =   -5332.10426989 Ry

     The total energy is F=E-TS. E is the sum of the following terms:
     one-electron contribution =  -70008.91759560 Ry
     hartree contribution      =   35199.07197748 Ry
     xc contribution           =    -947.25713299 Ry
     ewald contribution        =   33498.60148828 Ry
     DFT-D3 Dispersion         =      -2.02353922 Ry
     one-center paw contrib.   =   -3071.57946784 Ry

     total magnetization       =    14.41 Bohr mag/cell
     absolute magnetization    =    16.29 Bohr mag/cell

     convergence has been achieved in  18 iterations

     negative rho (up, down):  2.460E-04 1.931E-04

     Forces acting on atoms (cartesian axes, Ry/au):

     atom    1 type  1   force =    -0.00000545    0.01341343    0.00376787
     atom    2 type  1   force =     0.01172001   -0.00673044    0.00369631
     atom    3 type  2   force =    -0.00000995   -0.00010760   -0.01864114
     atom    4 type  1   force =    -0.01170471   -0.00675382    0.00368635
     atom    5 type  1   force =    -0.00000649    0.00200497    0.00126979
     atom    6 type  1   force =     0.00147784   -0.00087590    0.00159876
     atom    7 type  2   force =    -0.00001267    0.00039784    0.00484095
     atom    8 type  1   force =    -0.00145948   -0.00090542    0.00158423
     atom    9 type  1   force =     0.00000009    0.00014015   -0.00026982
     atom   10 type  1   force =     0.00010061    0.00005011   -0.00029261
     atom   11 type  2   force =     0.00000011    0.00011590   -0.00042395
     atom   12 type  1   force =    -0.00010068    0.00005047   -0.00029253
     atom   13 type  1   force =     0.00000021    0.00036611    0.00004728
     atom   14 type  1   force =    -0.00022599    0.00023640   -0.00021383
     atom   15 type  2   force =     0.00000010    0.00017694    0.00002717
     atom   16 type  1   force =     0.00022593    0.00023687   -0.00021367
     atom   17 type  1   force =     0.00000025   -0.00012299    0.00008828
     atom   18 type  1   force =     0.00004123   -0.00012274    0.00034116
     atom   19 type  2   force =     0.00000001   -0.00014399    0.00034236
     atom   20 type  1   force =    -0.00004119   -0.00012238    0.00034119
     atom   21 type  1   force =     0.00000011   -0.00055507   -0.00030754
     atom   22 type  1   force =    -0.00016666   -0.00009854   -0.00018814
     atom   23 type  2   force =     0.00000003   -0.00037416   -0.00056320
     atom   24 type  1   force =     0.00016667   -0.00009839   -0.00018802
     atom   25 type  3   force =     0.00000009   -0.00017775   -0.00003726

     Total force =     0.001556     Total SCF correction =     0.000034


     Computing stress (Cartesian axis) and pressure


     negative rho (up, down):  2.460E-04 1.931E-04
          total   stress  (Ry/bohr**3)                   (kbar)     P=       -4.79
  -0.00005729   0.00000000   0.00000000           -8.43        0.00        0.00
   0.00000000  -0.00004383  -0.00000340            0.00       -6.45       -0.50
   0.00000000  -0.00000340   0.00000334            0.00       -0.50        0.49

     Energy error            =      6.3E-06 Ry
     Gradient error          =      5.6E-04 Ry/Bohr

     bfgs converged in  15 scf cycles and  14 bfgs steps
     (criteria: energy <  1.8E-05 Ry, force <  7.8E-04 Ry/Bohr)

     End of BFGS Geometry Optimization

     Final energy             =   -5332.1065059107 Ry

     File /tmpu/isholek_g/isholek/MIGUEL/QE/Hydrogen/111_2x2/SAVE/Ni3Pd1_111-H_hcp_1.bfgs deleted, as requested
Begin final coordinates

ATOMIC_POSITIONS (angstrom)
Ni               5.0381082178        2.9087344078       11.0000000000    0   0   0
Ni               1.2594928383        0.7271633007       11.0000321314    0   0   0
Pd               2.5190631929        2.9087349143       11.0000563881    0   0   0
Ni               3.7785410216        0.7272125305       11.0000798881    0   0   0
Ni               2.5190678846        1.4543657934       13.0567878192    0   0   0
Ni               6.2975735046        3.6359005296       13.0568199507    0   0   0
Pd               5.0381035260        1.4543662999       13.0568442073    0   0   0
Ni               3.7785410216        3.6359497594       13.0568677074    0   0   0
Ni               2.5190399664        4.3620772209       15.1109333626
Ni               3.7758772745        2.1832059114       15.1128652168
Pd               5.0380879913        4.3642663843       15.1058874736
Ni               6.3003063158        2.1832048352       15.1128638370
Ni               5.0380853951        2.9136909521       17.1609199812
Ni               1.2625419040        0.7287633726       17.1637832021
Pd               2.5190455046        2.9110732839       17.1802973263
Ni               3.7755479123        0.7287620972       17.1637840270
Ni               2.5190428923        1.4538019198       19.2388536673
Ni               6.2794923446        3.6568873699       19.2226620603
Pd               5.0380838515        1.4641035558       19.2024140683
Ni               3.7966754691        3.6568869127       19.2226626283
Ni               2.5190428581        4.3448337789       21.2375423604
Ni               3.7482372265        2.2129471203       21.2581687696
Pd               5.0380833322        4.4022818395       21.3770943608
Ni               6.3279289181        2.2129469420       21.2581690143
H                5.0380831604        2.7555793056       22.2231021961
End final coordinates



     Writing all to output data dir /tmpu/isholek_g/isholek/MIGUEL/QE/Hydrogen/111_2x2/SAVE/Ni3Pd1_111-H_hcp_1.save/ :
     XML data file, charge density, pseudopotentials, collected wavefunctions
 
     init_run     :    172.70s CPU    322.58s WALL (       1 calls)
     electrons    : 113147.55s CPU 218852.17s WALL (      15 calls)
     update_pot   :     18.50s CPU     35.51s WALL (      14 calls)
     forces       :    289.25s CPU    551.99s WALL (      15 calls)
     force_dftd3  :      9.40s CPU     17.16s WALL (      15 calls)
     stress       :   2827.99s CPU   5458.85s WALL (      15 calls)
     stres_dftd3  :      9.15s CPU     18.22s WALL (      15 calls)

     Called by init_run:
     wfcinit      :    136.38s CPU    256.10s WALL (       1 calls)
     potinit      :      1.62s CPU      2.91s WALL (       1 calls)
     hinit0       :      0.73s CPU      1.14s WALL (       1 calls)

     Called by electrons:
     c_bands      :  93500.64s CPU 180907.89s WALL (     348 calls)
     sum_band     :  17357.03s CPU  33569.95s WALL (     348 calls)
     v_of_rho     :    232.83s CPU    442.69s WALL (     354 calls)
     newd         :     63.17s CPU    123.78s WALL (     354 calls)
     PAW_pot      :    181.29s CPU    347.41s WALL (     368 calls)
     mix_rho      :   1746.44s CPU   3330.08s WALL (     348 calls)
     energy_dftd3 :      2.62s CPU      4.96s WALL (      15 calls)

     Called by c_bands:
     init_us_2    :    183.58s CPU    327.90s WALL (   18525 calls)
     init_us_2:cp :    183.29s CPU    327.64s WALL (   18525 calls)
     cegterg      :  73375.59s CPU 142087.20s WALL (    8700 calls)

     Called by *egterg:
     cdiaghg      :   6970.20s CPU  13550.85s WALL (   25539 calls)
     h_psi        :  55291.02s CPU 107308.23s WALL (   26139 calls)
     s_psi        :   2197.32s CPU   4253.51s WALL (   26139 calls)
     g_psi        :     78.60s CPU    161.99s WALL (   17414 calls)

     Called by h_psi:
     h_psi:calbec :   2920.93s CPU   5624.26s WALL (   26139 calls)
     vloc_psi     :  50074.23s CPU  97236.66s WALL (   26139 calls)
     add_vuspsi   :   2247.35s CPU   4299.27s WALL (   26139 calls)

     General routines
     calbec       :   4589.85s CPU   8834.80s WALL (   37064 calls)
     fft          :    176.27s CPU    345.31s WALL (    9452 calls)
     ffts         :    385.67s CPU    762.16s WALL (   41256 calls)
     fftw         :  58982.87s CPU 113670.60s WALL ( 6799374 calls)
     interpolate  :     17.48s CPU     34.65s WALL (     708 calls)
 
     Parallel routines
 
     PWSCF        :   1d 8h24m CPU   2d14h40m WALL

 
   This run was terminated on:  12: 5:51  20Mar2026            

=------------------------------------------------------------------------------=
   JOB DONE.
=------------------------------------------------------------------------------=
