
     Program PWSCF v.7.3 starts on 11May2026 at 20:34:12 

     This program is part of the open-source Quantum ESPRESSO suite
     for quantum simulation of materials; please cite
         "P. Giannozzi et al., J. Phys.:Condens. Matter 21 395502 (2009);
         "P. Giannozzi et al., J. Phys.:Condens. Matter 29 465901 (2017);
         "P. Giannozzi et al., J. Chem. Phys. 152 154105 (2020);
          URL http://www.quantum-espresso.org", 
     in publications or presentations arising from this work. More details at
     http://www.quantum-espresso.org/quote

     Parallel version (MPI), running on   128 processors

     MPI processes distributed on     8 nodes
     245673 MiB available memory on the printing compute node when the environment starts
 
     Reading input from /tmpu/isholek_g/isholek/MIGUEL/QE/Hydrogen/111_2x2/RELAX/Ni3Pd1_111-T2-relax.in

     Current dimensions of program PWSCF are:
     Max number of different atomic species (ntypx) = 10
     Max number of k-points (npk) =  40000
     Max angular momentum in pseudopotentials (lmaxx) =  4
     file Ni.upf: wavefunction(s)  4S 3D renormalized
     file Pd.upf: wavefunction(s)  5S 4D renormalized
     file H.upf: wavefunction(s)  1S renormalized

     IMPORTANT: XC functional enforced from input :
     Exchange-correlation= PBE
                           (   1   4   3   4   0   0   0)
     Any further DFT definition will be discarded
     Please, verify this is what you really want

     Message from routine find_sym:
     Not a group! Trying with lower acceptance parameter...
     Message from routine find_sym:
     Symmetry operations form a group
 
     K-points division:     npool     =       8
     R & G space division:  proc/nbgrp/npool/nimage =      16
     Subspace diagonalization in iterative solution of the eigenvalue problem:
     one sub-group per band group will be used
     scalapack distributed-memory algorithm (size of sub-group:  2*  2 procs)

 
     Parallelization info
     --------------------
     sticks:   dense  smooth     PW     G-vecs:    dense   smooth      PW
     Min         187      94     27                53151    18802    2927
     Max         188      95     28                53178    18817    2952
     Sum        3001    1507    433               850625   300931   46949
 
     Using Slab Decomposition
 

     Title: 
     Ni3Pd1_111-T2-relax                                                        


     bravais-lattice index     =            0
     lattice parameter (alat)  =       9.5206  a.u.
     unit-cell volume          =    4789.0025 (a.u.)^3
     number of atoms/cell      =           25
     number of atomic types    =            3
     number of electrons       =       241.00
     number of Kohn-Sham states=          145
     kinetic-energy cutoff     =      60.0000  Ry
     charge density cutoff     =     480.0000  Ry
     scf convergence threshold =      1.0E-08
     mixing beta               =       0.2000
     number of iterations used =           12  local-TF  mixing
     energy convergence thresh.=      1.8E-05
     force convergence thresh. =      7.8E-04
     Exchange-correlation= PBE
                           (   1   4   3   4   0   0   0)
     nstep                     =           50


     celldm(1)=   9.520593  celldm(2)=   0.000000  celldm(3)=   0.000000
     celldm(4)=   0.000000  celldm(5)=   0.000000  celldm(6)=   0.000000

     crystal axes: (cart. coord. in units of alat)
               a(1) = (   1.000000   0.000000   0.000000 )  
               a(2) = (   0.500000   0.866025   0.000000 )  
               a(3) = (   0.000000   0.000000   6.408000 )  

     reciprocal axes: (cart. coord. in units 2 pi/alat)
               b(1) = (  1.000000 -0.577350  0.000000 )  
               b(2) = (  0.000000  1.154701  0.000000 )  
               b(3) = (  0.000000  0.000000  0.156055 )  


     PseudoPot. # 1 for Ni read from file:
     /tmpu/isholek_g/isholek/MIGUEL/PP/PAW/Ni.upf
     MD5 check sum: d88365a95a5e142bd87181c2c8b16588
     Pseudo is Projector augmented-wave + core cor, Zval = 10.0
     Generated using "atomic" code by A. Dal Corso  v.5.0.2 svn rev. 9415
     Shape of augmentation charge: PSQ
     Using radial grid of 1195 points,  6 beta functions with: 
                l(1) =   0
                l(2) =   0
                l(3) =   1
                l(4) =   1
                l(5) =   2
                l(6) =   2
     Q(r) pseudized with 0 coefficients 


     PseudoPot. # 2 for Pd read from file:
     /tmpu/isholek_g/isholek/MIGUEL/PP/PAW/Pd.upf
     MD5 check sum: e9d6f14fd83b79f8105499163af174c9
     Pseudo is Projector augmented-wave + core cor, Zval = 10.0
     Generated using "atomic" code by A. Dal Corso  v.5.0.2 svn rev. 9415
     Shape of augmentation charge: PSQ
     Using radial grid of 1235 points,  6 beta functions with: 
                l(1) =   0
                l(2) =   0
                l(3) =   1
                l(4) =   1
                l(5) =   2
                l(6) =   2
     Q(r) pseudized with 0 coefficients 


     PseudoPot. # 3 for H  read from file:
     /tmpu/isholek_g/isholek/MIGUEL/PP/PAW/H.upf
     MD5 check sum: 4cbe42a24e15140179a93d5bf84f2220
     Pseudo is Projector augmented-wave, Zval =  1.0
     Generated using "atomic" code by A. Dal Corso  v.5.0.2 svn rev. 9415
     Shape of augmentation charge: PSQ
     Using radial grid of  929 points,  2 beta functions with: 
                l(1) =   0
                l(2) =   0
     Q(r) pseudized with 0 coefficients 


     atomic species   valence    mass     pseudopotential
     Ni               10.00    58.69340     Ni( 1.00)
     Pd               10.00   106.42000     Pd( 1.00)
     H                 1.00     1.00794     H ( 1.00)

     Starting magnetic structure 
     atomic species   magnetization
     Ni              0.650
     Pd              0.100
     H               0.000

     No symmetry found



   Cartesian axes

     site n.     atom                  positions (alat units)
         1        Ni     tau(   1) = (   1.0000055   0.5773497   2.1833712  )
         2        Ni     tau(   2) = (   0.2499946   0.1443334   2.1833775  )
         3        Pd     tau(   3) = (   0.5000045   0.5773498   2.1833823  )
         4        Ni     tau(   4) = (   0.7499961   0.1443432   2.1833870  )
         5        Ni     tau(   5) = (   0.5000055   0.2886746   2.5916194  )
         6        Ni     tau(   6) = (   1.2499946   0.7216837   2.5916258  )
         7        Pd     tau(   7) = (   1.0000045   0.2886747   2.5916306  )
         8        Ni     tau(   8) = (   0.7499961   0.7216934   2.5916353  )
         9        Ni     tau(   9) = (   0.5000001   0.8656035   2.9996417  )
        10        Ni     tau(  10) = (   0.7496345   0.4332248   2.9996403  )
        11        Pd     tau(  11) = (   1.0000009   0.8660278   2.9988887  )
        12        Ni     tau(  12) = (   1.2503687   0.4332260   2.9996406  )
        13        Ni     tau(  13) = (   1.0000011   0.5775760   3.4076330  )
        14        Ni     tau(  14) = (   0.2501945   0.1442245   3.4076341  )
        15        Pd     tau(  15) = (   0.5000006   0.5773503   3.4103187  )
        16        Ni     tau(  16) = (   0.7498054   0.1442258   3.4076350  )
        17        Ni     tau(  17) = (   0.5000008   0.2852883   3.8164077  )
        18        Ni     tau(  18) = (   1.2470663   0.7233808   3.8164079  )
        19        Pd     tau(  19) = (   1.0000003   0.2886755   3.8139684  )
        20        Ni     tau(  20) = (   0.7529338   0.7233824   3.8164085  )
        21        Ni     tau(  21) = (   0.5000002   0.8590908   4.2179755  )
        22        Ni     tau(  22) = (   0.7439943   0.4364798   4.2179755  )
        23        Pd     tau(  23) = (   1.0000001   0.8660255   4.2390566  )
        24        Ni     tau(  24) = (   1.2560056   0.4364803   4.2179754  )
        25        H      tau(  25) = (   1.0000001   0.8660255   4.5367890  )

     --------------------------------------------
     DFT-D3 Dispersion Correction (3-body terms):
     --------------------------------------------
       Reference C6 values for interpolation: 

         atom   Coordination number   C6
         H          0.912             6.05
         H          0.000            15.18
         Ni         0.000          1149.49
         Ni         1.794           356.66
         Ni         6.546           257.56
         Ni         6.292           283.75
         Pd         0.000          1217.01
         Pd         1.863           573.90
         Pd         5.710           531.75

       Values used:

         atom   Coordination number  R0_AB[au]  C6      C8
         Ni         6.658            3.162    267.12  22382.83
         Ni         6.659            3.162    267.12  22382.67
         Pd         7.596            3.168    531.75  48720.73
         Ni         6.659            3.162    267.12  22382.47
         Ni         8.918            3.162    257.72  21594.70
         Ni         8.918            3.162    257.72  21594.70
         Pd        10.217            3.168    531.75  48720.73
         Ni         8.918            3.162    257.72  21594.70
         Ni         8.915            3.162    257.72  21594.77
         Ni         8.915            3.162    257.72  21594.77
         Pd        10.236            3.168    531.75  48720.73
         Ni         8.915            3.162    257.72  21594.78
         Ni         8.934            3.162    257.71  21594.30
         Ni         8.934            3.162    257.71  21594.30
         Pd        10.203            3.168    531.75  48720.73
         Ni         8.934            3.162    257.71  21594.30
         Ni         8.950            3.162    257.71  21593.90
         Ni         8.950            3.162    257.71  21593.90
         Pd        10.216            3.168    531.75  48720.73
         Ni         8.950            3.162    257.71  21593.90
         Ni         6.731            3.162    266.25  22309.74
         Ni         6.731            3.162    266.25  22309.74
         Pd         8.371            3.168    531.75  48720.73
         Ni         6.731            3.162    266.25  22309.74
         H          0.991            2.062      6.19     74.82

         Molecular C6 ( Ry / a.u.^6 ) =    186069.31


     number of k points=   100  Marzari-Vanderbilt smearing, width (Ry)=  0.0147

     Number of k-points >= 100: set verbosity='high' to print them.

     Dense  grid:   850625 G-vectors     FFT dimensions: (  72,  72, 432)

     Smooth grid:   300931 G-vectors     FFT dimensions: (  48,  48, 320)

     Estimated max dynamical RAM per process >     258.29 MB

     Estimated total dynamical RAM >      28.03 GB
 ----2D----2D----2D----2D----2D----2D----2D----2D----2D----2D----2D----2D
  The code is running with the 2D cutoff
  Please refer to:
  Sohier, T., Calandra, M., & Mauri, F. (2017), 
  Density functional perturbation theory for gated two-dimensional heterostructu
 res:
  Theoretical developments and application to flexural phonons in graphene.
  Physical Review B, 96(7), 75448. https://doi.org/10.1103/PhysRevB.96.075448
 ----2D----2D----2D----2D----2D----2D----2D----2D----2D----2D----2D----2D

     Atomic positions and unit cell read from directory:
     /tmpu/isholek_g/isholek/MIGUEL/QE/Hydrogen/111_2x2/SAVE/Ni3Pd1_111-T2.save/
     Atomic positions from file used, from input discarded
 

     Check: negative core charge=   -0.000001
     Generating pointlists ...
     new r_m :   0.2007 (alat units)  1.9104 (a.u.) for type    1
     new r_m :   0.1287 (alat units)  1.2256 (a.u.) for type    2
     new r_m :   0.1287 (alat units)  1.2256 (a.u.) for type    3

     The initial density is read from file :
     /tmpu/isholek_g/isholek/MIGUEL/QE/Hydrogen/111_2x2/SAVE/Ni3Pd1_111-T2.save/charge-density


     negative rho (up, down):  2.417E-04 1.903E-04
     Cannot read wfcs: file not found
     Starting wfcs are  217 randomized atomic wfcs
     Checking if some PAW data can be deallocated... 

     total cpu time spent up to now is      441.1 secs

     Self-consistent Calculation

     iteration #  1     ecut=    60.00 Ry     beta= 0.20
     Davidson diagonalization with overlap
     c_bands:  1 eigenvalues not converged
     c_bands:  1 eigenvalues not converged
     c_bands:  1 eigenvalues not converged
     c_bands:  1 eigenvalues not converged
     ethr =  1.00E-05,  avg # of iterations = 17.1

     negative rho (up, down):  3.116E-04 2.691E-04

     total cpu time spent up to now is     3236.1 secs

     total energy              =   -5332.02542173 Ry
     estimated scf accuracy    <       4.44603498 Ry

     total magnetization       =    14.59 Bohr mag/cell
     absolute magnetization    =    16.46 Bohr mag/cell

     iteration #  2     ecut=    60.00 Ry     beta= 0.20
     Davidson diagonalization with overlap
     ethr =  1.84E-03,  avg # of iterations =  1.0

     negative rho (up, down):  3.232E-04 2.811E-04

     total cpu time spent up to now is     3803.1 secs

     total energy              =   -5332.03717541 Ry
     estimated scf accuracy    <       4.23863457 Ry

     total magnetization       =    14.36 Bohr mag/cell
     absolute magnetization    =    16.28 Bohr mag/cell

     iteration #  3     ecut=    60.00 Ry     beta= 0.20
     Davidson diagonalization with overlap
     ethr =  1.76E-03,  avg # of iterations =  1.0

     negative rho (up, down):  3.892E-04 3.535E-04

     total cpu time spent up to now is     4385.3 secs

     total energy              =   -5332.06693903 Ry
     estimated scf accuracy    <       0.58548231 Ry

     total magnetization       =    14.54 Bohr mag/cell
     absolute magnetization    =    16.42 Bohr mag/cell

     iteration #  4     ecut=    60.00 Ry     beta= 0.20
     Davidson diagonalization with overlap
     ethr =  2.43E-04,  avg # of iterations =  1.0

     negative rho (up, down):  8.195E-04 8.084E-04

     total cpu time spent up to now is     4959.4 secs

     total energy              =   -5332.06312208 Ry
     estimated scf accuracy    <       0.43930400 Ry

     total magnetization       =    14.53 Bohr mag/cell
     absolute magnetization    =    16.41 Bohr mag/cell

     iteration #  5     ecut=    60.00 Ry     beta= 0.20
     Davidson diagonalization with overlap
     ethr =  1.82E-04,  avg # of iterations =  1.0

     negative rho (up, down):  8.588E-04 8.494E-04

     total cpu time spent up to now is     5564.3 secs

     total energy              =   -5332.06475975 Ry
     estimated scf accuracy    <       0.00563831 Ry

     total magnetization       =    14.48 Bohr mag/cell
     absolute magnetization    =    16.37 Bohr mag/cell

     iteration #  6     ecut=    60.00 Ry     beta= 0.20
     Davidson diagonalization with overlap
     ethr =  2.34E-06,  avg # of iterations =  3.4

     negative rho (up, down):  9.147E-04 9.047E-04

     total cpu time spent up to now is     6210.5 secs

     total energy              =   -5332.06473785 Ry
     estimated scf accuracy    <       0.00130477 Ry

     total magnetization       =    14.47 Bohr mag/cell
     absolute magnetization    =    16.37 Bohr mag/cell

     iteration #  7     ecut=    60.00 Ry     beta= 0.20
     Davidson diagonalization with overlap
     ethr =  5.41E-07,  avg # of iterations =  3.4

     negative rho (up, down):  9.611E-04 9.510E-04

     total cpu time spent up to now is     6881.0 secs

     total energy              =   -5332.06477176 Ry
     estimated scf accuracy    <       0.00370569 Ry

     total magnetization       =    14.47 Bohr mag/cell
     absolute magnetization    =    16.37 Bohr mag/cell

     iteration #  8     ecut=    60.00 Ry     beta= 0.20
     Davidson diagonalization with overlap
     ethr =  5.41E-07,  avg # of iterations =  1.6

     negative rho (up, down):  9.973E-04 9.866E-04

     total cpu time spent up to now is     7496.1 secs

     total energy              =   -5332.06477825 Ry
     estimated scf accuracy    <       0.00408588 Ry

     total magnetization       =    14.47 Bohr mag/cell
     absolute magnetization    =    16.37 Bohr mag/cell

     iteration #  9     ecut=    60.00 Ry     beta= 0.20
     Davidson diagonalization with overlap
     ethr =  5.41E-07,  avg # of iterations =  1.5

     negative rho (up, down):  9.910E-04 9.735E-04

     total cpu time spent up to now is     8064.0 secs

     total energy              =   -5332.06475473 Ry
     estimated scf accuracy    <       0.00455851 Ry

     total magnetization       =    14.47 Bohr mag/cell
     absolute magnetization    =    16.37 Bohr mag/cell

     iteration # 10     ecut=    60.00 Ry     beta= 0.20
     Davidson diagonalization with overlap
     ethr =  5.41E-07,  avg # of iterations =  1.9

     negative rho (up, down):  9.490E-04 9.256E-04

     total cpu time spent up to now is     8642.3 secs

     total energy              =   -5332.06477278 Ry
     estimated scf accuracy    <       0.00100231 Ry

     total magnetization       =    14.47 Bohr mag/cell
     absolute magnetization    =    16.37 Bohr mag/cell

     iteration # 11     ecut=    60.00 Ry     beta= 0.20
     Davidson diagonalization with overlap
     ethr =  4.16E-07,  avg # of iterations =  1.2

     negative rho (up, down):  9.357E-04 9.110E-04

     total cpu time spent up to now is     9204.8 secs

     total energy              =   -5332.06477894 Ry
     estimated scf accuracy    <       0.00064737 Ry

     total magnetization       =    14.48 Bohr mag/cell
     absolute magnetization    =    16.38 Bohr mag/cell

     iteration # 12     ecut=    60.00 Ry     beta= 0.20
     Davidson diagonalization with overlap
     ethr =  2.69E-07,  avg # of iterations =  1.1

     negative rho (up, down):  8.470E-04 8.199E-04

     total cpu time spent up to now is     9759.6 secs

     total energy              =   -5332.06476869 Ry
     estimated scf accuracy    <       0.00059412 Ry

     total magnetization       =    14.48 Bohr mag/cell
     absolute magnetization    =    16.38 Bohr mag/cell

     iteration # 13     ecut=    60.00 Ry     beta= 0.20
     Davidson diagonalization with overlap
     ethr =  2.47E-07,  avg # of iterations =  1.9

     negative rho (up, down):  8.422E-04 8.150E-04

     total cpu time spent up to now is    10343.4 secs

     total energy              =   -5332.06477474 Ry
     estimated scf accuracy    <       0.00002338 Ry

     total magnetization       =    14.48 Bohr mag/cell
     absolute magnetization    =    16.38 Bohr mag/cell

     iteration # 14     ecut=    60.00 Ry     beta= 0.20
     Davidson diagonalization with overlap
     ethr =  9.70E-09,  avg # of iterations =  2.0

     negative rho (up, down):  7.928E-04 7.641E-04

     total cpu time spent up to now is    10897.4 secs

     total energy              =   -5332.06477410 Ry
     estimated scf accuracy    <       0.00001194 Ry

     total magnetization       =    14.48 Bohr mag/cell
     absolute magnetization    =    16.38 Bohr mag/cell

     iteration # 15     ecut=    60.00 Ry     beta= 0.20
     Davidson diagonalization with overlap
     ethr =  4.95E-09,  avg # of iterations =  2.3

     negative rho (up, down):  7.600E-04 7.304E-04

     total cpu time spent up to now is    11500.6 secs

     total energy              =   -5332.06477480 Ry
     estimated scf accuracy    <       0.00000571 Ry

     total magnetization       =    14.48 Bohr mag/cell
     absolute magnetization    =    16.38 Bohr mag/cell

     iteration # 16     ecut=    60.00 Ry     beta= 0.20
     Davidson diagonalization with overlap
     ethr =  2.37E-09,  avg # of iterations =  2.6

     negative rho (up, down):  7.257E-04 6.949E-04

     total cpu time spent up to now is    12078.1 secs

     total energy              =   -5332.06477479 Ry
     estimated scf accuracy    <       0.00000639 Ry

     total magnetization       =    14.48 Bohr mag/cell
     absolute magnetization    =    16.38 Bohr mag/cell

     iteration # 17     ecut=    60.00 Ry     beta= 0.20
     Davidson diagonalization with overlap
     ethr =  2.37E-09,  avg # of iterations =  1.4

     negative rho (up, down):  6.471E-04 6.135E-04

     total cpu time spent up to now is    12634.1 secs

     total energy              =   -5332.06477416 Ry
     estimated scf accuracy    <       0.00000803 Ry

     total magnetization       =    14.48 Bohr mag/cell
     absolute magnetization    =    16.38 Bohr mag/cell

     iteration # 18     ecut=    60.00 Ry     beta= 0.20
     Davidson diagonalization with overlap
     ethr =  2.37E-09,  avg # of iterations =  1.7

     negative rho (up, down):  6.082E-04 5.728E-04

     total cpu time spent up to now is    13206.6 secs

     total energy              =   -5332.06477403 Ry
     estimated scf accuracy    <       0.00001075 Ry

     total magnetization       =    14.47 Bohr mag/cell
     absolute magnetization    =    16.37 Bohr mag/cell

     iteration # 19     ecut=    60.00 Ry     beta= 0.20
     Davidson diagonalization with overlap
     ethr =  2.37E-09,  avg # of iterations =  1.0

     negative rho (up, down):  5.696E-04 5.327E-04

     total cpu time spent up to now is    13752.3 secs

     total energy              =   -5332.06477398 Ry
     estimated scf accuracy    <       0.00001091 Ry

     total magnetization       =    14.47 Bohr mag/cell
     absolute magnetization    =    16.37 Bohr mag/cell

     iteration # 20     ecut=    60.00 Ry     beta= 0.20
     Davidson diagonalization with overlap
     ethr =  2.37E-09,  avg # of iterations =  1.1

     negative rho (up, down):  5.472E-04 5.092E-04

     total cpu time spent up to now is    14308.6 secs

     total energy              =   -5332.06477401 Ry
     estimated scf accuracy    <       0.00000685 Ry

     total magnetization       =    14.47 Bohr mag/cell
     absolute magnetization    =    16.37 Bohr mag/cell

     iteration # 21     ecut=    60.00 Ry     beta= 0.20
     Davidson diagonalization with overlap
     ethr =  2.37E-09,  avg # of iterations =  1.0

     negative rho (up, down):  5.226E-04 4.834E-04

     total cpu time spent up to now is    14863.1 secs

     total energy              =   -5332.06477392 Ry
     estimated scf accuracy    <       0.00000723 Ry

     total magnetization       =    14.47 Bohr mag/cell
     absolute magnetization    =    16.37 Bohr mag/cell

     iteration # 22     ecut=    60.00 Ry     beta= 0.20
     Davidson diagonalization with overlap
     ethr =  2.37E-09,  avg # of iterations =  1.0

     negative rho (up, down):  4.677E-04 4.259E-04

     total cpu time spent up to now is    15412.1 secs

     total energy              =   -5332.06477356 Ry
     estimated scf accuracy    <       0.00000878 Ry

     total magnetization       =    14.47 Bohr mag/cell
     absolute magnetization    =    16.37 Bohr mag/cell

     iteration # 23     ecut=    60.00 Ry     beta= 0.20
     Davidson diagonalization with overlap
     ethr =  2.37E-09,  avg # of iterations =  1.1

     negative rho (up, down):  3.612E-04 3.147E-04

     total cpu time spent up to now is    15984.3 secs

     total energy              =   -5332.06477294 Ry
     estimated scf accuracy    <       0.00000903 Ry

     total magnetization       =    14.47 Bohr mag/cell
     absolute magnetization    =    16.37 Bohr mag/cell

     iteration # 24     ecut=    60.00 Ry     beta= 0.20
     Davidson diagonalization with overlap
     ethr =  2.37E-09,  avg # of iterations =  1.2

     negative rho (up, down):  3.027E-04 2.537E-04

     total cpu time spent up to now is    16541.8 secs

     total energy              =   -5332.06477270 Ry
     estimated scf accuracy    <       0.00000980 Ry

     total magnetization       =    14.47 Bohr mag/cell
     absolute magnetization    =    16.37 Bohr mag/cell

     iteration # 25     ecut=    60.00 Ry     beta= 0.20
     Davidson diagonalization with overlap
     ethr =  2.37E-09,  avg # of iterations =  1.0

     negative rho (up, down):  2.632E-04 2.133E-04

     total cpu time spent up to now is    17106.4 secs

     total energy              =   -5332.06477261 Ry
     estimated scf accuracy    <       0.00000463 Ry

     total magnetization       =    14.47 Bohr mag/cell
     absolute magnetization    =    16.37 Bohr mag/cell

     iteration # 26     ecut=    60.00 Ry     beta= 0.20
     Davidson diagonalization with overlap
     ethr =  1.92E-09,  avg # of iterations =  1.0

     negative rho (up, down):  2.447E-04 1.945E-04

     total cpu time spent up to now is    17663.4 secs

     total energy              =   -5332.06477258 Ry
     estimated scf accuracy    <       0.00000223 Ry

     total magnetization       =    14.47 Bohr mag/cell
     absolute magnetization    =    16.37 Bohr mag/cell

     iteration # 27     ecut=    60.00 Ry     beta= 0.20
     Davidson diagonalization with overlap
     ethr =  9.25E-10,  avg # of iterations =  1.1

     negative rho (up, down):  2.498E-04 1.990E-04

     total cpu time spent up to now is    18224.0 secs

     total energy              =   -5332.06477260 Ry
     estimated scf accuracy    <       0.00000052 Ry

     total magnetization       =    14.47 Bohr mag/cell
     absolute magnetization    =    16.37 Bohr mag/cell

     iteration # 28     ecut=    60.00 Ry     beta= 0.20
     Davidson diagonalization with overlap
     ethr =  2.17E-10,  avg # of iterations =  1.5

     negative rho (up, down):  2.444E-04 1.931E-04

     total cpu time spent up to now is    18784.0 secs

     total energy              =   -5332.06477259 Ry
     estimated scf accuracy    <       0.00000122 Ry

     total magnetization       =    14.47 Bohr mag/cell
     absolute magnetization    =    16.37 Bohr mag/cell

     iteration # 29     ecut=    60.00 Ry     beta= 0.20
     Davidson diagonalization with overlap
     ethr =  2.17E-10,  avg # of iterations =  1.1

     negative rho (up, down):  2.355E-04 1.841E-04

     total cpu time spent up to now is    19328.8 secs

     total energy              =   -5332.06477257 Ry
     estimated scf accuracy    <       0.00000016 Ry

     total magnetization       =    14.47 Bohr mag/cell
     absolute magnetization    =    16.37 Bohr mag/cell

     iteration # 30     ecut=    60.00 Ry     beta= 0.20
     Davidson diagonalization with overlap
     ethr =  6.47E-11,  avg # of iterations =  1.8

     negative rho (up, down):  2.381E-04 1.867E-04

     total cpu time spent up to now is    19881.5 secs

     total energy              =   -5332.06477259 Ry
     estimated scf accuracy    <       0.00000004 Ry

     total magnetization       =    14.47 Bohr mag/cell
     absolute magnetization    =    16.37 Bohr mag/cell

     iteration # 31     ecut=    60.00 Ry     beta= 0.20
     Davidson diagonalization with overlap
     ethr =  1.60E-11,  avg # of iterations =  3.7

     negative rho (up, down):  2.398E-04 1.884E-04

     total cpu time spent up to now is    20510.7 secs

     total energy              =   -5332.06477260 Ry
     estimated scf accuracy    <       0.00000004 Ry

     total magnetization       =    14.47 Bohr mag/cell
     absolute magnetization    =    16.37 Bohr mag/cell

     iteration # 32     ecut=    60.00 Ry     beta= 0.20
     Davidson diagonalization with overlap
     ethr =  1.60E-11,  avg # of iterations =  1.1

     negative rho (up, down):  2.441E-04 1.927E-04

     total cpu time spent up to now is    21063.6 secs

     total energy              =   -5332.06477261 Ry
     estimated scf accuracy    <       0.00000002 Ry

     total magnetization       =    14.47 Bohr mag/cell
     absolute magnetization    =    16.37 Bohr mag/cell

     iteration # 33     ecut=    60.00 Ry     beta= 0.20
     Davidson diagonalization with overlap
     ethr =  9.46E-12,  avg # of iterations =  1.9

     negative rho (up, down):  2.449E-04 1.935E-04

     total cpu time spent up to now is    21653.8 secs

     total energy              =   -5332.06477262 Ry
     estimated scf accuracy    <       0.00000001 Ry

     total magnetization       =    14.47 Bohr mag/cell
     absolute magnetization    =    16.37 Bohr mag/cell

     iteration # 34     ecut=    60.00 Ry     beta= 0.20
     Davidson diagonalization with overlap
     ethr =  5.25E-12,  avg # of iterations =  1.8

     negative rho (up, down):  2.417E-04 1.904E-04
 
     Magnetic moment per site  (integrated on atomic sphere of radius R)
     atom   1 (R=0.201)  charge=  8.5574  magn=  0.7820
     atom   2 (R=0.201)  charge=  8.5575  magn=  0.7820
     atom   3 (R=0.129)  charge=  4.5400  magn=  0.1892
     atom   4 (R=0.201)  charge=  8.5575  magn=  0.7820
     atom   5 (R=0.201)  charge=  8.6316  magn=  0.7889
     atom   6 (R=0.201)  charge=  8.6316  magn=  0.7889
     atom   7 (R=0.129)  charge=  4.5316  magn=  0.2339
     atom   8 (R=0.201)  charge=  8.6316  magn=  0.7889
     atom   9 (R=0.201)  charge=  8.6385  magn=  0.7474
     atom  10 (R=0.201)  charge=  8.6385  magn=  0.7474
     atom  11 (R=0.129)  charge=  4.5289  magn=  0.2234
     atom  12 (R=0.201)  charge=  8.6385  magn=  0.7474
     atom  13 (R=0.201)  charge=  8.6384  magn=  0.7316
     atom  14 (R=0.201)  charge=  8.6384  magn=  0.7316
     atom  15 (R=0.129)  charge=  4.5330  magn=  0.2196
     atom  16 (R=0.201)  charge=  8.6384  magn=  0.7316
     atom  17 (R=0.201)  charge=  8.6318  magn=  0.7214
     atom  18 (R=0.201)  charge=  8.6318  magn=  0.7214
     atom  19 (R=0.129)  charge=  4.5301  magn=  0.2277
     atom  20 (R=0.201)  charge=  8.6318  magn=  0.7214
     atom  21 (R=0.201)  charge=  8.5606  magn=  0.7584
     atom  22 (R=0.201)  charge=  8.5606  magn=  0.7584
     atom  23 (R=0.129)  charge=  4.5138  magn=  0.1071
     atom  24 (R=0.201)  charge=  8.5606  magn=  0.7584
     atom  25 (R=0.129)  charge=  0.7245  magn= -0.0071

     total cpu time spent up to now is    22227.9 secs

     End of self-consistent calculation

     Number of k-points >= 100: set verbosity='high' to print the bands.

     the Fermi energy is    -5.1597 ev

!    total energy              =   -5332.06477260 Ry
     total all-electron energy =   -115303.810914 Ry
     estimated scf accuracy    <          7.4E-09 Ry
     smearing contrib. (-TS)   =      -0.00269430 Ry
     internal energy E=F+TS    =   -5332.06207831 Ry

     The total energy is F=E-TS. E is the sum of the following terms:
     one-electron contribution =  -69937.45743262 Ry
     hartree contribution      =   35162.56886730 Ry
     xc contribution           =    -947.16736840 Ry
     ewald contribution        =   33463.58814073 Ry
     DFT-D3 Dispersion         =      -2.02405646 Ry
     one-center paw contrib.   =   -3071.57022887 Ry

     total magnetization       =    14.47 Bohr mag/cell
     absolute magnetization    =    16.37 Bohr mag/cell

     convergence has been achieved in  34 iterations

     negative rho (up, down):  2.417E-04 1.904E-04

     Forces acting on atoms (cartesian axes, Ry/au):

     atom    1 type  1   force =    -0.00000483    0.01359562    0.00376900
     atom    2 type  1   force =     0.01178233   -0.00678909    0.00375696
     atom    3 type  2   force =    -0.00001015    0.00000649   -0.01878050
     atom    4 type  1   force =    -0.01176686   -0.00681314    0.00374795
     atom    5 type  1   force =    -0.00000772    0.00083426    0.00030809
     atom    6 type  1   force =     0.00073270   -0.00040744    0.00029201
     atom    7 type  2   force =    -0.00001216    0.00000689    0.00343655
     atom    8 type  1   force =    -0.00071432   -0.00043569    0.00027584
     atom    9 type  1   force =    -0.00000091    0.00000302    0.00063535
     atom   10 type  1   force =     0.00000307   -0.00000152    0.00063614
     atom   11 type  2   force =     0.00000040   -0.00000004   -0.00029116
     atom   12 type  1   force =    -0.00000304   -0.00000083    0.00063436
     atom   13 type  1   force =     0.00000098    0.00050757    0.00013578
     atom   14 type  1   force =     0.00043965   -0.00025292    0.00013540
     atom   15 type  2   force =    -0.00000053    0.00000004    0.00015039
     atom   16 type  1   force =    -0.00043938   -0.00025437    0.00013574
     atom   17 type  1   force =     0.00000032    0.00034026    0.00001627
     atom   18 type  1   force =     0.00029495   -0.00016941    0.00001627
     atom   19 type  2   force =    -0.00000021   -0.00000002   -0.00018444
     atom   20 type  1   force =    -0.00029444   -0.00017011    0.00001683
     atom   21 type  1   force =    -0.00000036    0.00028712    0.00006180
     atom   22 type  1   force =     0.00024864   -0.00014345    0.00006167
     atom   23 type  2   force =     0.00000029   -0.00000007    0.00147538
     atom   24 type  1   force =    -0.00024845   -0.00014316    0.00006199
     atom   25 type  3   force =     0.00000002    0.00000000   -0.00050366

     Total force =     0.002284     Total SCF correction =     0.000403
     SCF correction compared to forces is large: reduce conv_thr to get better values


     Computing stress (Cartesian axis) and pressure


     negative rho (up, down):  2.417E-04 1.904E-04
          total   stress  (Ry/bohr**3)                   (kbar)     P=       -5.07
  -0.00005749   0.00000000   0.00000000           -8.46        0.00        0.00
   0.00000000  -0.00005749   0.00000000            0.00       -8.46        0.00
   0.00000000   0.00000000   0.00001163            0.00        0.00        1.71

     Energy error            =      9.7E-06 Ry
     Gradient error          =      1.5E-03 Ry/Bohr

     number of scf cycles    =  12
     number of bfgs steps    =  11

     energy             old  =   -5332.0647628695 Ry
     energy             new  =   -5332.0647726041 Ry

     CASE: energy            _new < energy            _old

     new trust radius        =       0.0063285593 bohr
     new conv_thr            =            1.0E-10 Ry


ATOMIC_POSITIONS (angstrom)
Ni               5.0381082178        2.9087344078       11.0000000000    0   0   0
Ni               1.2594928383        0.7271633007       11.0000321314    0   0   0
Pd               2.5190631929        2.9087349143       11.0000563881    0   0   0
Ni               3.7785410216        0.7272125305       11.0000798881    0   0   0
Ni               2.5190678846        1.4543657934       13.0567878192    0   0   0
Ni               6.2975735046        3.6359005296       13.0568199507    0   0   0
Pd               5.0381035260        1.4543662999       13.0568442073    0   0   0
Ni               3.7785410216        3.6359497594       13.0568677074    0   0   0
Ni               2.5190385022        4.3624535530       15.1039748623
Ni               3.7779969934        2.1818914907       15.1039650341
Pd               5.0380885206        4.3631199712       15.1079507774
Ni               6.2981852564        2.1818924175       15.1039625657
Ni               5.0380873545        2.9109015127       17.1673088796
Ni               1.2613939324        0.7261093921       17.1673111257
Pd               2.5190456036        2.9087399405       17.1522201911
Ni               3.7766930356        0.7261064980       17.1673147524
Ni               2.5190426751        1.4411748772       19.2161622333
Ni               6.2861760570        3.6425209036       19.2161625168
Pd               5.0380823288        1.4543709624       19.2123571480
Ni               3.7899907825        3.6425219875       19.2161621563
Ni               2.5190415576        4.3240794679       21.2471656316
Ni               3.7447628976        2.2010671006       21.2471670430
Pd               5.0380820176        4.3631065851       21.3783955127
Ni               6.3314011966        2.2010681852       21.2471668985
H                5.0380813998        4.3631063278       22.9509035853    0   0   1



     Writing config-only to output data dir /tmpu/isholek_g/isholek/MIGUEL/QE/Hydrogen/111_2x2/SAVE/Ni3Pd1_111-T2.save/ :
     XML data file
     NEW-OLD atomic charge density approx. for the potential

     Check: negative core charge=   -0.000001

     negative rho (up, down):  2.293E-04 2.104E-04
     Generating pointlists ...

     total cpu time spent up to now is    22459.5 secs

     Self-consistent Calculation

     iteration #  1     ecut=    60.00 Ry     beta= 0.20
     Davidson diagonalization with overlap
     ethr =  1.00E-06,  avg # of iterations =  4.8

     negative rho (up, down):  2.572E-04 2.233E-04

     total cpu time spent up to now is    23551.3 secs

     total energy              =   -5332.06474932 Ry
     estimated scf accuracy    <       0.00031839 Ry

     total magnetization       =    14.47 Bohr mag/cell
     absolute magnetization    =    16.37 Bohr mag/cell

     iteration #  2     ecut=    60.00 Ry     beta= 0.20
     Davidson diagonalization with overlap
     ethr =  1.32E-07,  avg # of iterations =  1.9

     negative rho (up, down):  2.518E-04 2.150E-04

     total cpu time spent up to now is    24132.4 secs

     total energy              =   -5332.06476454 Ry
     estimated scf accuracy    <       0.00043237 Ry

     total magnetization       =    14.48 Bohr mag/cell
     absolute magnetization    =    16.37 Bohr mag/cell

     iteration #  3     ecut=    60.00 Ry     beta= 0.20
     Davidson diagonalization with overlap
     ethr =  1.32E-07,  avg # of iterations =  1.0

     negative rho (up, down):  2.486E-04 2.075E-04

     total cpu time spent up to now is    24680.5 secs

     total energy              =   -5332.06477264 Ry
     estimated scf accuracy    <       0.00001844 Ry

     total magnetization       =    14.47 Bohr mag/cell
     absolute magnetization    =    16.37 Bohr mag/cell

     iteration #  4     ecut=    60.00 Ry     beta= 0.20
     Davidson diagonalization with overlap
     ethr =  7.65E-09,  avg # of iterations =  3.4

     negative rho (up, down):  2.466E-04 2.032E-04

     total cpu time spent up to now is    25325.3 secs

     total energy              =   -5332.06477672 Ry
     estimated scf accuracy    <       0.00001598 Ry

     total magnetization       =    14.47 Bohr mag/cell
     absolute magnetization    =    16.37 Bohr mag/cell

     iteration #  5     ecut=    60.00 Ry     beta= 0.20
     Davidson diagonalization with overlap
     ethr =  6.63E-09,  avg # of iterations =  1.3

     negative rho (up, down):  2.460E-04 2.005E-04

     total cpu time spent up to now is    25897.4 secs

     total energy              =   -5332.06477787 Ry
     estimated scf accuracy    <       0.00000751 Ry

     total magnetization       =    14.47 Bohr mag/cell
     absolute magnetization    =    16.37 Bohr mag/cell

     iteration #  6     ecut=    60.00 Ry     beta= 0.20
     Davidson diagonalization with overlap
     ethr =  3.12E-09,  avg # of iterations =  1.6

     negative rho (up, down):  2.490E-04 2.007E-04

     total cpu time spent up to now is    26478.6 secs

     total energy              =   -5332.06477866 Ry
     estimated scf accuracy    <       0.00000215 Ry

     total magnetization       =    14.47 Bohr mag/cell
     absolute magnetization    =    16.37 Bohr mag/cell

     iteration #  7     ecut=    60.00 Ry     beta= 0.20
     Davidson diagonalization with overlap
     ethr =  8.92E-10,  avg # of iterations =  3.8

     negative rho (up, down):  2.490E-04 1.998E-04

     total cpu time spent up to now is    27266.5 secs

     total energy              =   -5332.06477919 Ry
     estimated scf accuracy    <       0.00000146 Ry

     total magnetization       =    14.47 Bohr mag/cell
     absolute magnetization    =    16.37 Bohr mag/cell

     iteration #  8     ecut=    60.00 Ry     beta= 0.20
     Davidson diagonalization with overlap
     ethr =  6.05E-10,  avg # of iterations =  1.2

     negative rho (up, down):  2.484E-04 1.987E-04

     total cpu time spent up to now is    27832.4 secs

     total energy              =   -5332.06477926 Ry
     estimated scf accuracy    <       0.00000032 Ry

     total magnetization       =    14.47 Bohr mag/cell
     absolute magnetization    =    16.37 Bohr mag/cell

     iteration #  9     ecut=    60.00 Ry     beta= 0.20
     Davidson diagonalization with overlap
     ethr =  1.31E-10,  avg # of iterations =  2.2

     negative rho (up, down):  2.485E-04 1.986E-04

     total cpu time spent up to now is    28439.1 secs

     total energy              =   -5332.06477931 Ry
     estimated scf accuracy    <       0.00000035 Ry

     total magnetization       =    14.47 Bohr mag/cell
     absolute magnetization    =    16.37 Bohr mag/cell

     iteration # 10     ecut=    60.00 Ry     beta= 0.20
     Davidson diagonalization with overlap
     ethr =  1.31E-10,  avg # of iterations =  1.4

     negative rho (up, down):  2.494E-04 1.991E-04

     total cpu time spent up to now is    29021.3 secs

     total energy              =   -5332.06477933 Ry
     estimated scf accuracy    <       0.00000045 Ry

     total magnetization       =    14.47 Bohr mag/cell
     absolute magnetization    =    16.37 Bohr mag/cell

     iteration # 11     ecut=    60.00 Ry     beta= 0.20
     Davidson diagonalization with overlap
     ethr =  1.31E-10,  avg # of iterations =  1.0

     negative rho (up, down):  2.500E-04 1.994E-04

     total cpu time spent up to now is    29604.1 secs

     total energy              =   -5332.06477934 Ry
     estimated scf accuracy    <       0.00000018 Ry

     total magnetization       =    14.47 Bohr mag/cell
     absolute magnetization    =    16.37 Bohr mag/cell

     iteration # 12     ecut=    60.00 Ry     beta= 0.20
     Davidson diagonalization with overlap
     ethr =  7.46E-11,  avg # of iterations =  1.0

     negative rho (up, down):  2.502E-04 1.995E-04

     total cpu time spent up to now is    30196.4 secs

     total energy              =   -5332.06477935 Ry
     estimated scf accuracy    <       0.00000012 Ry

     total magnetization       =    14.47 Bohr mag/cell
     absolute magnetization    =    16.37 Bohr mag/cell

     iteration # 13     ecut=    60.00 Ry     beta= 0.20
     Davidson diagonalization with overlap
     ethr =  5.05E-11,  avg # of iterations =  1.0

     negative rho (up, down):  2.505E-04 1.996E-04

     total cpu time spent up to now is    30773.6 secs

     total energy              =   -5332.06477935 Ry
     estimated scf accuracy    <       0.00000008 Ry

     total magnetization       =    14.47 Bohr mag/cell
     absolute magnetization    =    16.37 Bohr mag/cell

     iteration # 14     ecut=    60.00 Ry     beta= 0.20
     Davidson diagonalization with overlap
     ethr =  3.13E-11,  avg # of iterations =  1.1

     negative rho (up, down):  2.505E-04 1.995E-04

     total cpu time spent up to now is    31328.6 secs

     total energy              =   -5332.06477936 Ry
     estimated scf accuracy    <       0.00000004 Ry

     total magnetization       =    14.47 Bohr mag/cell
     absolute magnetization    =    16.37 Bohr mag/cell

     iteration # 15     ecut=    60.00 Ry     beta= 0.20
     Davidson diagonalization with overlap
     ethr =  1.58E-11,  avg # of iterations =  1.1

     negative rho (up, down):  2.503E-04 1.992E-04

     total cpu time spent up to now is    31892.9 secs

     total energy              =   -5332.06477936 Ry
     estimated scf accuracy    <       0.00000005 Ry

     total magnetization       =    14.47 Bohr mag/cell
     absolute magnetization    =    16.37 Bohr mag/cell

     iteration # 16     ecut=    60.00 Ry     beta= 0.20
     Davidson diagonalization with overlap
     ethr =  1.58E-11,  avg # of iterations =  1.2

     negative rho (up, down):  2.499E-04 1.987E-04

     total cpu time spent up to now is    32467.8 secs

     total energy              =   -5332.06477936 Ry
     estimated scf accuracy    <       0.00000002 Ry

     total magnetization       =    14.47 Bohr mag/cell
     absolute magnetization    =    16.37 Bohr mag/cell

     iteration # 17     ecut=    60.00 Ry     beta= 0.20
     Davidson diagonalization with overlap
     ethr =  9.13E-12,  avg # of iterations =  1.0

     negative rho (up, down):  2.496E-04 1.983E-04

     total cpu time spent up to now is    33045.0 secs

     total energy              =   -5332.06477936 Ry
     estimated scf accuracy    <          6.6E-09 Ry

     total magnetization       =    14.47 Bohr mag/cell
     absolute magnetization    =    16.37 Bohr mag/cell

     iteration # 18     ecut=    60.00 Ry     beta= 0.20
     Davidson diagonalization with overlap
     ethr =  2.75E-12,  avg # of iterations =  1.6

     negative rho (up, down):  2.490E-04 1.978E-04

     total cpu time spent up to now is    33628.3 secs

     total energy              =   -5332.06477936 Ry
     estimated scf accuracy    <          4.4E-09 Ry

     total magnetization       =    14.47 Bohr mag/cell
     absolute magnetization    =    16.37 Bohr mag/cell

     iteration # 19     ecut=    60.00 Ry     beta= 0.20
     Davidson diagonalization with overlap
     ethr =  1.83E-12,  avg # of iterations =  1.9

     negative rho (up, down):  2.484E-04 1.971E-04

     total cpu time spent up to now is    34233.8 secs

     total energy              =   -5332.06477936 Ry
     estimated scf accuracy    <          4.7E-09 Ry

     total magnetization       =    14.47 Bohr mag/cell
     absolute magnetization    =    16.37 Bohr mag/cell

     iteration # 20     ecut=    60.00 Ry     beta= 0.20
     Davidson diagonalization with overlap
     ethr =  1.83E-12,  avg # of iterations =  1.1

     negative rho (up, down):  2.479E-04 1.966E-04

     total cpu time spent up to now is    34799.4 secs

     total energy              =   -5332.06477936 Ry
     estimated scf accuracy    <          3.3E-09 Ry

     total magnetization       =    14.47 Bohr mag/cell
     absolute magnetization    =    16.37 Bohr mag/cell

     iteration # 21     ecut=    60.00 Ry     beta= 0.20
     Davidson diagonalization with overlap
     ethr =  1.38E-12,  avg # of iterations =  1.3

     negative rho (up, down):  2.471E-04 1.957E-04

     total cpu time spent up to now is    35372.4 secs

     total energy              =   -5332.06477935 Ry
     estimated scf accuracy    <          9.2E-10 Ry

     total magnetization       =    14.47 Bohr mag/cell
     absolute magnetization    =    16.37 Bohr mag/cell

     iteration # 22     ecut=    60.00 Ry     beta= 0.20
     Davidson diagonalization with overlap
     ethr =  3.84E-13,  avg # of iterations =  2.2

     negative rho (up, down):  2.462E-04 1.948E-04

     total cpu time spent up to now is    35981.0 secs

     total energy              =   -5332.06477935 Ry
     estimated scf accuracy    <          1.9E-09 Ry

     total magnetization       =    14.47 Bohr mag/cell
     absolute magnetization    =    16.37 Bohr mag/cell

     iteration # 23     ecut=    60.00 Ry     beta= 0.20
     Davidson diagonalization with overlap
     ethr =  3.84E-13,  avg # of iterations =  1.5

     negative rho (up, down):  2.454E-04 1.941E-04

     total cpu time spent up to now is    36552.1 secs

     total energy              =   -5332.06477935 Ry
     estimated scf accuracy    <          1.3E-09 Ry

     total magnetization       =    14.47 Bohr mag/cell
     absolute magnetization    =    16.37 Bohr mag/cell

     iteration # 24     ecut=    60.00 Ry     beta= 0.20
     Davidson diagonalization with overlap
     ethr =  3.84E-13,  avg # of iterations =  1.2

     negative rho (up, down):  2.437E-04 1.924E-04

     total cpu time spent up to now is    37105.5 secs

     total energy              =   -5332.06477934 Ry
     estimated scf accuracy    <          7.8E-10 Ry

     total magnetization       =    14.47 Bohr mag/cell
     absolute magnetization    =    16.37 Bohr mag/cell

     iteration # 25     ecut=    60.00 Ry     beta= 0.20
     Davidson diagonalization with overlap
     ethr =  3.25E-13,  avg # of iterations =  1.9

     negative rho (up, down):  2.430E-04 1.916E-04

     total cpu time spent up to now is    37692.4 secs

     total energy              =   -5332.06477934 Ry
     estimated scf accuracy    <          2.9E-10 Ry

     total magnetization       =    14.47 Bohr mag/cell
     absolute magnetization    =    16.37 Bohr mag/cell

     iteration # 26     ecut=    60.00 Ry     beta= 0.20
     Davidson diagonalization with overlap
     ethr =  1.20E-13,  avg # of iterations =  2.3

     negative rho (up, down):  2.423E-04 1.910E-04

     total cpu time spent up to now is    38285.3 secs

     total energy              =   -5332.06477934 Ry
     estimated scf accuracy    <          3.3E-10 Ry

     total magnetization       =    14.47 Bohr mag/cell
     absolute magnetization    =    16.37 Bohr mag/cell

     iteration # 27     ecut=    60.00 Ry     beta= 0.20
     Davidson diagonalization with overlap
     ethr =  1.20E-13,  avg # of iterations =  1.8

     negative rho (up, down):  2.421E-04 1.908E-04

     total cpu time spent up to now is    38869.4 secs

     total energy              =   -5332.06477934 Ry
     estimated scf accuracy    <          4.6E-10 Ry

     total magnetization       =    14.47 Bohr mag/cell
     absolute magnetization    =    16.37 Bohr mag/cell

     iteration # 28     ecut=    60.00 Ry     beta= 0.20
     Davidson diagonalization with overlap
     ethr =  1.20E-13,  avg # of iterations =  1.6

     negative rho (up, down):  2.418E-04 1.905E-04
 
     Magnetic moment per site  (integrated on atomic sphere of radius R)
     atom   1 (R=0.201)  charge=  8.5574  magn=  0.7821
     atom   2 (R=0.201)  charge=  8.5575  magn=  0.7821
     atom   3 (R=0.129)  charge=  4.5400  magn=  0.1892
     atom   4 (R=0.201)  charge=  8.5575  magn=  0.7821
     atom   5 (R=0.201)  charge=  8.6315  magn=  0.7890
     atom   6 (R=0.201)  charge=  8.6315  magn=  0.7890
     atom   7 (R=0.129)  charge=  4.5316  magn=  0.2338
     atom   8 (R=0.201)  charge=  8.6315  magn=  0.7890
     atom   9 (R=0.201)  charge=  8.6383  magn=  0.7474
     atom  10 (R=0.201)  charge=  8.6383  magn=  0.7474
     atom  11 (R=0.129)  charge=  4.5289  magn=  0.2234
     atom  12 (R=0.201)  charge=  8.6383  magn=  0.7474
     atom  13 (R=0.201)  charge=  8.6385  magn=  0.7316
     atom  14 (R=0.201)  charge=  8.6385  magn=  0.7316
     atom  15 (R=0.129)  charge=  4.5330  magn=  0.2197
     atom  16 (R=0.201)  charge=  8.6385  magn=  0.7316
     atom  17 (R=0.201)  charge=  8.6318  magn=  0.7214
     atom  18 (R=0.201)  charge=  8.6318  magn=  0.7214
     atom  19 (R=0.129)  charge=  4.5302  magn=  0.2276
     atom  20 (R=0.201)  charge=  8.6318  magn=  0.7214
     atom  21 (R=0.201)  charge=  8.5605  magn=  0.7583
     atom  22 (R=0.201)  charge=  8.5605  magn=  0.7583
     atom  23 (R=0.129)  charge=  4.5137  magn=  0.1071
     atom  24 (R=0.201)  charge=  8.5605  magn=  0.7583
     atom  25 (R=0.129)  charge=  0.7243  magn= -0.0071

     total cpu time spent up to now is    39448.6 secs

     End of self-consistent calculation

     Number of k-points >= 100: set verbosity='high' to print the bands.

     the Fermi energy is    -5.1610 ev

!    total energy              =   -5332.06477933 Ry
     total all-electron energy =   -115303.810921 Ry
     estimated scf accuracy    <          6.6E-11 Ry
     smearing contrib. (-TS)   =      -0.00270173 Ry
     internal energy E=F+TS    =   -5332.06207761 Ry

     The total energy is F=E-TS. E is the sum of the following terms:
     one-electron contribution =  -69934.26212332 Ry
     hartree contribution      =   35160.96135700 Ry
     xc contribution           =    -947.16606450 Ry
     ewald contribution        =   33461.99874888 Ry
     DFT-D3 Dispersion         =      -2.02391904 Ry
     one-center paw contrib.   =   -3071.57007662 Ry

     total magnetization       =    14.47 Bohr mag/cell
     absolute magnetization    =    16.37 Bohr mag/cell

     convergence has been achieved in  28 iterations

     negative rho (up, down):  2.418E-04 1.905E-04

     Forces acting on atoms (cartesian axes, Ry/au):

     atom    1 type  1   force =    -0.00000544    0.01359502    0.00380676
     atom    2 type  1   force =     0.01178204   -0.00678894    0.00379520
     atom    3 type  2   force =    -0.00000988    0.00000621   -0.01879237
     atom    4 type  1   force =    -0.01176672   -0.00681221    0.00378511
     atom    5 type  1   force =    -0.00000662    0.00089886    0.00037920
     atom    6 type  1   force =     0.00079002   -0.00043847    0.00036373
     atom    7 type  2   force =    -0.00001269    0.00000621    0.00396090
     atom    8 type  1   force =    -0.00077159   -0.00046781    0.00034919
     atom    9 type  1   force =     0.00000086    0.00043465    0.00029244
     atom   10 type  1   force =     0.00037665   -0.00021687    0.00029240
     atom   11 type  2   force =    -0.00000109    0.00000021   -0.00032422
     atom   12 type  1   force =    -0.00037609   -0.00021771    0.00029258
     atom   13 type  1   force =    -0.00000091    0.00030654    0.00018490
     atom   14 type  1   force =     0.00026567   -0.00015354    0.00018486
     atom   15 type  2   force =     0.00000065   -0.00000004   -0.00028081
     atom   16 type  1   force =    -0.00026538   -0.00015261    0.00018430
     atom   17 type  1   force =    -0.00000028   -0.00000126    0.00018784
     atom   18 type  1   force =    -0.00000146    0.00000043    0.00018760
     atom   19 type  2   force =     0.00000056    0.00000054    0.00027151
     atom   20 type  1   force =     0.00000149    0.00000059    0.00018763
     atom   21 type  1   force =     0.00000024    0.00027123    0.00012705
     atom   22 type  1   force =     0.00023485   -0.00013541    0.00012689
     atom   23 type  2   force =    -0.00000006    0.00000010    0.00105486
     atom   24 type  1   force =    -0.00023483   -0.00013573    0.00012706
     atom   25 type  3   force =    -0.00000000    0.00000002   -0.00074462

     Total force =     0.001873     Total SCF correction =     0.000047


     Computing stress (Cartesian axis) and pressure


     negative rho (up, down):  2.418E-04 1.905E-04
          total   stress  (Ry/bohr**3)                   (kbar)     P=       -5.08
  -0.00005745   0.00000000   0.00000000           -8.45        0.00        0.00
   0.00000000  -0.00005745   0.00000000            0.00       -8.45        0.00
   0.00000000   0.00000000   0.00001138            0.00        0.00        1.67

     Energy error            =      6.7E-06 Ry
     Gradient error          =      1.1E-03 Ry/Bohr

     number of scf cycles    =  13
     number of bfgs steps    =  12

     energy             old  =   -5332.0647726041 Ry
     energy             new  =   -5332.0647793343 Ry

     CASE: energy            _new < energy            _old

     new trust radius        =       0.0014345221 bohr
     new conv_thr            =            1.0E-10 Ry


ATOMIC_POSITIONS (angstrom)
Ni               5.0381082178        2.9087344078       11.0000000000    0   0   0
Ni               1.2594928383        0.7271633007       11.0000321314    0   0   0
Pd               2.5190631929        2.9087349143       11.0000563881    0   0   0
Ni               3.7785410216        0.7272125305       11.0000798881    0   0   0
Ni               2.5190678846        1.4543657934       13.0567878192    0   0   0
Ni               6.2975735046        3.6359005296       13.0568199507    0   0   0
Pd               5.0381035260        1.4543662999       13.0568442073    0   0   0
Ni               3.7785410216        3.6359497594       13.0568677074    0   0   0
Ni               2.5190389029        4.3625716321       15.1044187813
Ni               3.7780995143        2.1818327412       15.1044090152
Pd               5.0380879432        4.3631201761       15.1076622822
Ni               6.2980831745        2.1818332249       15.1044063514
Ni               5.0380869140        2.9112638773       17.1674384713
Ni               1.2617078987        0.7259282453       17.1674406441
Pd               2.5190459910        2.9087399757       17.1523329895
Ni               3.7763793227        0.7259256419       17.1674438829
Ni               2.5190425539        1.4413223599       19.2163267552
Ni               6.2863036751        3.6424472257       19.2163268459
Pd               5.0380825937        1.4543712239       19.2122354491
Ni               3.7898633778        3.6424482525       19.2163265736
Ni               2.5190416879        4.3243226829       21.2472593177
Ni               3.7449734789        2.2009457011       21.2472605753
Pd               5.0380819319        4.3631066121       21.3791546291
Ni               6.3311906980        2.2009465692       21.2472606267
H                5.0380813998        4.3631063278       22.9507826693    0   0   1



     Writing config-only to output data dir /tmpu/isholek_g/isholek/MIGUEL/QE/Hydrogen/111_2x2/SAVE/Ni3Pd1_111-T2.save/ :
     XML data file
     NEW-OLD atomic charge density approx. for the potential

     Check: negative core charge=   -0.000001

     negative rho (up, down):  2.264E-04 2.064E-04
     Generating pointlists ...

     total cpu time spent up to now is    39681.8 secs

     Self-consistent Calculation

     iteration #  1     ecut=    60.00 Ry     beta= 0.20
     Davidson diagonalization with overlap
     ethr =  1.00E-06,  avg # of iterations =  2.2

     Threshold (ethr) on eigenvalues was too large:
     Diagonalizing with lowered threshold

     Davidson diagonalization with overlap
     ethr =  7.31E-09,  avg # of iterations =  5.2

     negative rho (up, down):  2.349E-04 1.992E-04

     total cpu time spent up to now is    41299.8 secs

     total energy              =   -5332.06478202 Ry
     estimated scf accuracy    <       0.00001788 Ry

     total magnetization       =    14.47 Bohr mag/cell
     absolute magnetization    =    16.37 Bohr mag/cell

     iteration #  2     ecut=    60.00 Ry     beta= 0.20
     Davidson diagonalization with overlap
     ethr =  7.42E-09,  avg # of iterations =  1.0

     negative rho (up, down):  2.359E-04 1.975E-04

     total cpu time spent up to now is    41854.1 secs

     total energy              =   -5332.06478216 Ry
     estimated scf accuracy    <       0.00001407 Ry

     total magnetization       =    14.47 Bohr mag/cell
     absolute magnetization    =    16.37 Bohr mag/cell

     iteration #  3     ecut=    60.00 Ry     beta= 0.20
     Davidson diagonalization with overlap
     ethr =  5.84E-09,  avg # of iterations =  1.0

     negative rho (up, down):  2.371E-04 1.955E-04

     total cpu time spent up to now is    42415.6 secs

     total energy              =   -5332.06478239 Ry
     estimated scf accuracy    <       0.00000472 Ry

     total magnetization       =    14.47 Bohr mag/cell
     absolute magnetization    =    16.37 Bohr mag/cell

     iteration #  4     ecut=    60.00 Ry     beta= 0.20
     Davidson diagonalization with overlap
     ethr =  1.96E-09,  avg # of iterations =  1.0

     negative rho (up, down):  2.378E-04 1.943E-04

     total cpu time spent up to now is    42984.5 secs

     total energy              =   -5332.06478247 Ry
     estimated scf accuracy    <       0.00000109 Ry

     total magnetization       =    14.47 Bohr mag/cell
     absolute magnetization    =    16.37 Bohr mag/cell

     iteration #  5     ecut=    60.00 Ry     beta= 0.20
     Davidson diagonalization with overlap
     ethr =  4.51E-10,  avg # of iterations =  1.1

     negative rho (up, down):  2.388E-04 1.927E-04

     total cpu time spent up to now is    43555.4 secs

     total energy              =   -5332.06478253 Ry
     estimated scf accuracy    <       0.00000051 Ry

     total magnetization       =    14.47 Bohr mag/cell
     absolute magnetization    =    16.37 Bohr mag/cell

     iteration #  6     ecut=    60.00 Ry     beta= 0.20
     Davidson diagonalization with overlap
     ethr =  2.11E-10,  avg # of iterations =  1.8

     negative rho (up, down):  2.396E-04 1.918E-04

     total cpu time spent up to now is    44132.5 secs

     total energy              =   -5332.06478255 Ry
     estimated scf accuracy    <       0.00000020 Ry

     total magnetization       =    14.47 Bohr mag/cell
     absolute magnetization    =    16.37 Bohr mag/cell

     iteration #  7     ecut=    60.00 Ry     beta= 0.20
     Davidson diagonalization with overlap
     ethr =  8.23E-11,  avg # of iterations =  1.3

     negative rho (up, down):  2.401E-04 1.913E-04

     total cpu time spent up to now is    44717.3 secs

     total energy              =   -5332.06478255 Ry
     estimated scf accuracy    <       0.00000007 Ry

     total magnetization       =    14.47 Bohr mag/cell
     absolute magnetization    =    16.37 Bohr mag/cell

     iteration #  8     ecut=    60.00 Ry     beta= 0.20
     Davidson diagonalization with overlap
     ethr =  2.98E-11,  avg # of iterations =  2.2

     negative rho (up, down):  2.404E-04 1.911E-04

     total cpu time spent up to now is    45309.0 secs

     total energy              =   -5332.06478256 Ry
     estimated scf accuracy    <          4.4E-09 Ry

     total magnetization       =    14.47 Bohr mag/cell
     absolute magnetization    =    16.37 Bohr mag/cell

     iteration #  9     ecut=    60.00 Ry     beta= 0.20
     Davidson diagonalization with overlap
     ethr =  1.81E-12,  avg # of iterations =  5.9

     negative rho (up, down):  2.406E-04 1.910E-04

     total cpu time spent up to now is    46566.2 secs

     total energy              =   -5332.06478257 Ry
     estimated scf accuracy    <          2.8E-09 Ry

     total magnetization       =    14.47 Bohr mag/cell
     absolute magnetization    =    16.37 Bohr mag/cell

     iteration # 10     ecut=    60.00 Ry     beta= 0.20
     Davidson diagonalization with overlap
     ethr =  1.15E-12,  avg # of iterations =  2.0

     negative rho (up, down):  2.408E-04 1.909E-04

     total cpu time spent up to now is    47205.0 secs

     total energy              =   -5332.06478257 Ry
     estimated scf accuracy    <          2.0E-09 Ry

     total magnetization       =    14.47 Bohr mag/cell
     absolute magnetization    =    16.37 Bohr mag/cell

     iteration # 11     ecut=    60.00 Ry     beta= 0.20
     Davidson diagonalization with overlap
     ethr =  8.20E-13,  avg # of iterations =  2.0

     negative rho (up, down):  2.410E-04 1.908E-04

     total cpu time spent up to now is    47833.3 secs

     total energy              =   -5332.06478257 Ry
     estimated scf accuracy    <          5.8E-10 Ry

     total magnetization       =    14.47 Bohr mag/cell
     absolute magnetization    =    16.37 Bohr mag/cell

     iteration # 12     ecut=    60.00 Ry     beta= 0.20
     Davidson diagonalization with overlap
     ethr =  2.40E-13,  avg # of iterations =  2.0

     negative rho (up, down):  2.412E-04 1.907E-04

     total cpu time spent up to now is    48456.4 secs

     total energy              =   -5332.06478257 Ry
     estimated scf accuracy    <          4.2E-10 Ry

     total magnetization       =    14.47 Bohr mag/cell
     absolute magnetization    =    16.37 Bohr mag/cell

     iteration # 13     ecut=    60.00 Ry     beta= 0.20
     Davidson diagonalization with overlap
     ethr =  1.74E-13,  avg # of iterations =  1.4

     negative rho (up, down):  2.413E-04 1.907E-04

     total cpu time spent up to now is    49052.9 secs

     total energy              =   -5332.06478257 Ry
     estimated scf accuracy    <          2.2E-10 Ry

     total magnetization       =    14.47 Bohr mag/cell
     absolute magnetization    =    16.37 Bohr mag/cell

     iteration # 14     ecut=    60.00 Ry     beta= 0.20
     Davidson diagonalization with overlap
     ethr =  1.00E-13,  avg # of iterations =  1.3

     negative rho (up, down):  2.414E-04 1.906E-04

     total cpu time spent up to now is    49646.1 secs

     total energy              =   -5332.06478257 Ry
     estimated scf accuracy    <          1.1E-10 Ry

     total magnetization       =    14.47 Bohr mag/cell
     absolute magnetization    =    16.37 Bohr mag/cell

     iteration # 15     ecut=    60.00 Ry     beta= 0.20
     Davidson diagonalization with overlap
     ethr =  1.00E-13,  avg # of iterations =  1.0

     negative rho (up, down):  2.419E-04 1.905E-04
 
     Magnetic moment per site  (integrated on atomic sphere of radius R)
     atom   1 (R=0.201)  charge=  8.5574  magn=  0.7821
     atom   2 (R=0.201)  charge=  8.5575  magn=  0.7821
     atom   3 (R=0.129)  charge=  4.5400  magn=  0.1892
     atom   4 (R=0.201)  charge=  8.5575  magn=  0.7821
     atom   5 (R=0.201)  charge=  8.6315  magn=  0.7890
     atom   6 (R=0.201)  charge=  8.6315  magn=  0.7890
     atom   7 (R=0.129)  charge=  4.5316  magn=  0.2338
     atom   8 (R=0.201)  charge=  8.6315  magn=  0.7890
     atom   9 (R=0.201)  charge=  8.6383  magn=  0.7474
     atom  10 (R=0.201)  charge=  8.6383  magn=  0.7474
     atom  11 (R=0.129)  charge=  4.5289  magn=  0.2234
     atom  12 (R=0.201)  charge=  8.6383  magn=  0.7474
     atom  13 (R=0.201)  charge=  8.6385  magn=  0.7316
     atom  14 (R=0.201)  charge=  8.6385  magn=  0.7316
     atom  15 (R=0.129)  charge=  4.5330  magn=  0.2197
     atom  16 (R=0.201)  charge=  8.6385  magn=  0.7316
     atom  17 (R=0.201)  charge=  8.6317  magn=  0.7213
     atom  18 (R=0.201)  charge=  8.6317  magn=  0.7213
     atom  19 (R=0.129)  charge=  4.5302  magn=  0.2276
     atom  20 (R=0.201)  charge=  8.6317  magn=  0.7214
     atom  21 (R=0.201)  charge=  8.5605  magn=  0.7582
     atom  22 (R=0.201)  charge=  8.5605  magn=  0.7582
     atom  23 (R=0.129)  charge=  4.5136  magn=  0.1070
     atom  24 (R=0.201)  charge=  8.5605  magn=  0.7582
     atom  25 (R=0.129)  charge=  0.7249  magn= -0.0071

     total cpu time spent up to now is    50224.1 secs

     End of self-consistent calculation

     Number of k-points >= 100: set verbosity='high' to print the bands.

     the Fermi energy is    -5.1610 ev

!    total energy              =   -5332.06478257 Ry
     total all-electron energy =   -115303.810924 Ry
     estimated scf accuracy    <          5.5E-11 Ry
     smearing contrib. (-TS)   =      -0.00270275 Ry
     internal energy E=F+TS    =   -5332.06207981 Ry

     The total energy is F=E-TS. E is the sum of the following terms:
     one-electron contribution =  -69932.89284164 Ry
     hartree contribution      =   35160.27732370 Ry
     xc contribution           =    -947.16594279 Ry
     ewald contribution        =   33461.31332046 Ry
     DFT-D3 Dispersion         =      -2.02387194 Ry
     one-center paw contrib.   =   -3071.57006760 Ry

     total magnetization       =    14.47 Bohr mag/cell
     absolute magnetization    =    16.37 Bohr mag/cell

     convergence has been achieved in  15 iterations

     negative rho (up, down):  2.419E-04 1.905E-04

     Forces acting on atoms (cartesian axes, Ry/au):

     atom    1 type  1   force =    -0.00000543    0.01359400    0.00380807
     atom    2 type  1   force =     0.01178117   -0.00678840    0.00379650
     atom    3 type  2   force =    -0.00000993    0.00000619   -0.01879164
     atom    4 type  1   force =    -0.01176588   -0.00681170    0.00378654
     atom    5 type  1   force =    -0.00000648    0.00094343    0.00039907
     atom    6 type  1   force =     0.00082870   -0.00046060    0.00038367
     atom    7 type  2   force =    -0.00001275    0.00000613    0.00408689
     atom    8 type  1   force =    -0.00081034   -0.00049014    0.00036921
     atom    9 type  1   force =     0.00000049    0.00040668    0.00015587
     atom   10 type  1   force =     0.00035228   -0.00020310    0.00015568
     atom   11 type  2   force =    -0.00000054    0.00000014   -0.00020228
     atom   12 type  1   force =    -0.00035184   -0.00020347    0.00015613
     atom   13 type  1   force =    -0.00000054    0.00016229    0.00019222
     atom   14 type  1   force =     0.00014064   -0.00008134    0.00019231
     atom   15 type  2   force =     0.00000029    0.00000003   -0.00021699
     atom   16 type  1   force =    -0.00014036   -0.00008067    0.00019180
     atom   17 type  1   force =    -0.00000010   -0.00011109    0.00024840
     atom   18 type  1   force =    -0.00009640    0.00005550    0.00024826
     atom   19 type  2   force =     0.00000037    0.00000028    0.00026497
     atom   20 type  1   force =     0.00009647    0.00005562    0.00024837
     atom   21 type  1   force =     0.00000013    0.00019277    0.00012276
     atom   22 type  1   force =     0.00016690   -0.00009625    0.00012263
     atom   23 type  2   force =     0.00000005    0.00000007    0.00044745
     atom   24 type  1   force =    -0.00016690   -0.00009640    0.00012275
     atom   25 type  3   force =    -0.00000000    0.00000002   -0.00028865

     Total force =     0.001257     Total SCF correction =     0.000060


     Computing stress (Cartesian axis) and pressure


     negative rho (up, down):  2.419E-04 1.905E-04
          total   stress  (Ry/bohr**3)                   (kbar)     P=       -5.08
  -0.00005755   0.00000000   0.00000000           -8.47        0.00        0.00
   0.00000000  -0.00005755   0.00000000            0.00       -8.47        0.00
   0.00000000   0.00000000   0.00001151            0.00        0.00        1.69

     Energy error            =      3.2E-06 Ry
     Gradient error          =      4.5E-04 Ry/Bohr

     bfgs converged in  14 scf cycles and  13 bfgs steps
     (criteria: energy <  1.8E-05 Ry, force <  7.8E-04 Ry/Bohr)

     End of BFGS Geometry Optimization

     Final energy             =   -5332.0647825677 Ry

     File /tmpu/isholek_g/isholek/MIGUEL/QE/Hydrogen/111_2x2/SAVE/Ni3Pd1_111-T2.bfgs deleted, as requested
Begin final coordinates

ATOMIC_POSITIONS (angstrom)
Ni               5.0381082178        2.9087344078       11.0000000000    0   0   0
Ni               1.2594928383        0.7271633007       11.0000321314    0   0   0
Pd               2.5190631929        2.9087349143       11.0000563881    0   0   0
Ni               3.7785410216        0.7272125305       11.0000798881    0   0   0
Ni               2.5190678846        1.4543657934       13.0567878192    0   0   0
Ni               6.2975735046        3.6359005296       13.0568199507    0   0   0
Pd               5.0381035260        1.4543662999       13.0568442073    0   0   0
Ni               3.7785410216        3.6359497594       13.0568677074    0   0   0
Ni               2.5190389029        4.3625716321       15.1044187813
Ni               3.7780995143        2.1818327412       15.1044090152
Pd               5.0380879432        4.3631201761       15.1076622822
Ni               6.2980831745        2.1818332249       15.1044063514
Ni               5.0380869140        2.9112638773       17.1674384713
Ni               1.2617078987        0.7259282453       17.1674406441
Pd               2.5190459910        2.9087399757       17.1523329895
Ni               3.7763793227        0.7259256419       17.1674438829
Ni               2.5190425539        1.4413223599       19.2163267552
Ni               6.2863036751        3.6424472257       19.2163268459
Pd               5.0380825937        1.4543712239       19.2122354491
Ni               3.7898633778        3.6424482525       19.2163265736
Ni               2.5190416879        4.3243226829       21.2472593177
Ni               3.7449734789        2.2009457011       21.2472605753
Pd               5.0380819319        4.3631066121       21.3791546291
Ni               6.3311906980        2.2009465692       21.2472606267
H                5.0380813998        4.3631063278       22.9507826693    0   0   1
End final coordinates



     Writing all to output data dir /tmpu/isholek_g/isholek/MIGUEL/QE/Hydrogen/111_2x2/SAVE/Ni3Pd1_111-T2.save/ :
     XML data file, charge density, pseudopotentials, collected wavefunctions
 
     init_run     :    414.78s CPU    415.92s WALL (       1 calls)
     electrons    :  49212.52s CPU  49319.05s WALL (       3 calls)
     update_pot   :      4.79s CPU      4.81s WALL (       2 calls)
     forces       :     74.51s CPU     74.66s WALL (       3 calls)
     force_dftd3  :      5.89s CPU      5.90s WALL (       3 calls)
     stress       :    589.32s CPU    591.52s WALL (       3 calls)
     stres_dftd3  :      6.95s CPU      6.96s WALL (       3 calls)

     Called by init_run:
     wfcinit      :     16.93s CPU     17.50s WALL (       1 calls)
     potinit      :      2.76s CPU      2.98s WALL (       1 calls)
     hinit0       :     98.49s CPU     98.63s WALL (       1 calls)

     Called by electrons:
     c_bands      :  41032.51s CPU  41119.73s WALL (      78 calls)
     sum_band     :   7959.00s CPU   7975.53s WALL (      78 calls)
     v_of_rho     :     19.57s CPU     20.20s WALL (      80 calls)
     newd         :     25.71s CPU     25.81s WALL (      80 calls)
     PAW_pot      :    138.99s CPU    139.13s WALL (      82 calls)
     mix_rho      :     27.22s CPU     28.47s WALL (      78 calls)
     energy_dftd3 :      1.23s CPU      1.23s WALL (       3 calls)

     Called by c_bands:
     init_us_2    :     40.57s CPU     40.81s WALL (    4125 calls)
     init_us_2:cp :     40.51s CPU     40.78s WALL (    4125 calls)
     cegterg      :   2032.91s CPU   2090.74s WALL (    1950 calls)

     Called by *egterg:
     cdiaghg      :    117.24s CPU    117.58s WALL (    5832 calls)
     h_psi        :   1317.79s CPU   1373.17s WALL (    5932 calls)
     s_psi        :    175.65s CPU    175.87s WALL (    5932 calls)
     g_psi        :      7.06s CPU      7.11s WALL (    3957 calls)

     Called by h_psi:
     h_psi:calbec :    167.45s CPU    168.04s WALL (    5932 calls)
     vloc_psi     :    952.68s CPU   1006.67s WALL (    5932 calls)
     add_vuspsi   :    180.03s CPU    180.33s WALL (    5932 calls)

     General routines
     calbec       :    257.27s CPU    258.00s WALL (    8307 calls)
     fft          :     12.29s CPU     13.20s WALL (    2118 calls)
     ffts         :      8.94s CPU      9.61s WALL (    9418 calls)
     fftw         :    655.28s CPU    692.33s WALL ( 1541072 calls)
     interpolate  :      0.90s CPU      1.00s WALL (     160 calls)
 
     Parallel routines
 
     PWSCF        :     14h21m CPU     14h23m WALL

 
   This run was terminated on:  10:58: 7  12May2026            

=------------------------------------------------------------------------------=
   JOB DONE.
=------------------------------------------------------------------------------=
