
     Program PWSCF v.7.3 starts on 25Mar2026 at  7:23:14 

     This program is part of the open-source Quantum ESPRESSO suite
     for quantum simulation of materials; please cite
         "P. Giannozzi et al., J. Phys.:Condens. Matter 21 395502 (2009);
         "P. Giannozzi et al., J. Phys.:Condens. Matter 29 465901 (2017);
         "P. Giannozzi et al., J. Chem. Phys. 152 154105 (2020);
          URL http://www.quantum-espresso.org", 
     in publications or presentations arising from this work. More details at
     http://www.quantum-espresso.org/quote

     Parallel version (MPI), running on    64 processors

     MPI processes distributed on     4 nodes
     58240 MiB available memory on the printing compute node when the environment starts
 
     Reading input from /tmpu/isholek_g/isholek/MIGUEL/QE/Hydrogen/111_2x2/RELAX/Ni3Pd1_111-H_fcc_1-relax.in

     Current dimensions of program PWSCF are:
     Max number of different atomic species (ntypx) = 10
     Max number of k-points (npk) =  40000
     Max angular momentum in pseudopotentials (lmaxx) =  4
     file Ni.upf: wavefunction(s)  4S 3D renormalized
     file Pd.upf: wavefunction(s)  5S 4D renormalized
     file H.upf: wavefunction(s)  1S renormalized

     IMPORTANT: XC functional enforced from input :
     Exchange-correlation= PBE
                           (   1   4   3   4   0   0   0)
     Any further DFT definition will be discarded
     Please, verify this is what you really want

 
     K-points division:     npool     =       8
     R & G space division:  proc/nbgrp/npool/nimage =       8
     Subspace diagonalization in iterative solution of the eigenvalue problem:
     one sub-group per band group will be used
     scalapack distributed-memory algorithm (size of sub-group:  2*  2 procs)

 
     Parallelization info
     --------------------
     sticks:   dense  smooth     PW     G-vecs:    dense   smooth      PW
     Min         375     188     54               106317    37608    5856
     Max         376     189     55               106344    37623    5881
     Sum        3001    1507    433               850625   300931   46949
 
     Using Slab Decomposition
 

     Title: 
     Ni3Pd1_111-H_fcc_1-relax                                                   


     bravais-lattice index     =            0
     lattice parameter (alat)  =       9.5206  a.u.
     unit-cell volume          =    4789.0025 (a.u.)^3
     number of atoms/cell      =           25
     number of atomic types    =            3
     number of electrons       =       241.00
     number of Kohn-Sham states=          145
     kinetic-energy cutoff     =      60.0000  Ry
     charge density cutoff     =     480.0000  Ry
     scf convergence threshold =      1.0E-08
     mixing beta               =       0.2000
     number of iterations used =           12  local-TF  mixing
     energy convergence thresh.=      1.8E-05
     force convergence thresh. =      7.8E-04
     Exchange-correlation= PBE
                           (   1   4   3   4   0   0   0)
     nstep                     =           50


     celldm(1)=   9.520593  celldm(2)=   0.000000  celldm(3)=   0.000000
     celldm(4)=   0.000000  celldm(5)=   0.000000  celldm(6)=   0.000000

     crystal axes: (cart. coord. in units of alat)
               a(1) = (   1.000000   0.000000   0.000000 )  
               a(2) = (   0.500000   0.866025   0.000000 )  
               a(3) = (   0.000000   0.000000   6.408000 )  

     reciprocal axes: (cart. coord. in units 2 pi/alat)
               b(1) = (  1.000000 -0.577350  0.000000 )  
               b(2) = (  0.000000  1.154701  0.000000 )  
               b(3) = (  0.000000  0.000000  0.156055 )  


     PseudoPot. # 1 for Ni read from file:
     /tmpu/isholek_g/isholek/MIGUEL/PP/PAW/Ni.upf
     MD5 check sum: d88365a95a5e142bd87181c2c8b16588
     Pseudo is Projector augmented-wave + core cor, Zval = 10.0
     Generated using "atomic" code by A. Dal Corso  v.5.0.2 svn rev. 9415
     Shape of augmentation charge: PSQ
     Using radial grid of 1195 points,  6 beta functions with: 
                l(1) =   0
                l(2) =   0
                l(3) =   1
                l(4) =   1
                l(5) =   2
                l(6) =   2
     Q(r) pseudized with 0 coefficients 


     PseudoPot. # 2 for Pd read from file:
     /tmpu/isholek_g/isholek/MIGUEL/PP/PAW/Pd.upf
     MD5 check sum: e9d6f14fd83b79f8105499163af174c9
     Pseudo is Projector augmented-wave + core cor, Zval = 10.0
     Generated using "atomic" code by A. Dal Corso  v.5.0.2 svn rev. 9415
     Shape of augmentation charge: PSQ
     Using radial grid of 1235 points,  6 beta functions with: 
                l(1) =   0
                l(2) =   0
                l(3) =   1
                l(4) =   1
                l(5) =   2
                l(6) =   2
     Q(r) pseudized with 0 coefficients 


     PseudoPot. # 3 for H  read from file:
     /tmpu/isholek_g/isholek/MIGUEL/PP/PAW/H.upf
     MD5 check sum: 4cbe42a24e15140179a93d5bf84f2220
     Pseudo is Projector augmented-wave, Zval =  1.0
     Generated using "atomic" code by A. Dal Corso  v.5.0.2 svn rev. 9415
     Shape of augmentation charge: PSQ
     Using radial grid of  929 points,  2 beta functions with: 
                l(1) =   0
                l(2) =   0
     Q(r) pseudized with 0 coefficients 


     atomic species   valence    mass     pseudopotential
     Ni               10.00    58.69340     Ni( 1.00)
     Pd               10.00   106.42000     Pd( 1.00)
     H                 1.00     1.00794     H ( 1.00)

     Starting magnetic structure 
     atomic species   magnetization
     Ni              0.650
     Pd              0.100
     H               0.000

     No symmetry found



   Cartesian axes

     site n.     atom                  positions (alat units)
         1        Ni     tau(   1) = (   1.0000055   0.5773497   2.1833712  )
         2        Ni     tau(   2) = (   0.2499946   0.1443334   2.1833775  )
         3        Pd     tau(   3) = (   0.5000045   0.5773498   2.1833823  )
         4        Ni     tau(   4) = (   0.7499961   0.1443432   2.1833870  )
         5        Ni     tau(   5) = (   0.5000055   0.2886746   2.5916194  )
         6        Ni     tau(   6) = (   1.2499946   0.7216837   2.5916258  )
         7        Pd     tau(   7) = (   1.0000045   0.2886747   2.5916306  )
         8        Ni     tau(   8) = (   0.7499961   0.7216934   2.5916353  )
         9        Ni     tau(   9) = (   0.5000001   0.8656035   2.9996417  )
        10        Ni     tau(  10) = (   0.7496345   0.4332248   2.9996403  )
        11        Pd     tau(  11) = (   1.0000009   0.8660278   2.9988887  )
        12        Ni     tau(  12) = (   1.2503687   0.4332260   2.9996406  )
        13        Ni     tau(  13) = (   1.0000011   0.5775760   3.4076330  )
        14        Ni     tau(  14) = (   0.2501945   0.1442245   3.4076341  )
        15        Pd     tau(  15) = (   0.5000006   0.5773503   3.4103187  )
        16        Ni     tau(  16) = (   0.7498054   0.1442258   3.4076350  )
        17        Ni     tau(  17) = (   0.5000008   0.2852883   3.8164077  )
        18        Ni     tau(  18) = (   1.2470663   0.7233808   3.8164079  )
        19        Pd     tau(  19) = (   1.0000003   0.2886755   3.8139684  )
        20        Ni     tau(  20) = (   0.7529338   0.7233824   3.8164085  )
        21        Ni     tau(  21) = (   0.5000002   0.8590908   4.2179755  )
        22        Ni     tau(  22) = (   0.7439943   0.4364798   4.2179755  )
        23        Pd     tau(  23) = (   1.0000001   0.8660255   4.2390566  )
        24        Ni     tau(  24) = (   1.2560056   0.4364803   4.2179754  )
        25        H      tau(  25) = (   0.5000008   0.2852883   4.4164636  )

     --------------------------------------------
     DFT-D3 Dispersion Correction (3-body terms):
     --------------------------------------------
       Reference C6 values for interpolation: 

         atom   Coordination number   C6
         H          0.912             6.05
         H          0.000            15.18
         Ni         0.000          1149.49
         Ni         1.794           356.66
         Ni         6.546           257.56
         Ni         6.292           283.75
         Pd         0.000          1217.01
         Pd         1.863           573.90
         Pd         5.710           531.75

       Values used:

         atom   Coordination number  R0_AB[au]  C6      C8
         Ni         6.658            3.162    267.12  22382.83
         Ni         6.659            3.162    267.12  22382.67
         Pd         7.596            3.168    531.75  48720.73
         Ni         6.659            3.162    267.12  22382.47
         Ni         8.918            3.162    257.72  21594.69
         Ni         8.918            3.162    257.72  21594.70
         Pd        10.217            3.168    531.75  48720.73
         Ni         8.918            3.162    257.72  21594.70
         Ni         8.915            3.162    257.72  21594.77
         Ni         8.915            3.162    257.72  21594.77
         Pd        10.236            3.168    531.75  48720.73
         Ni         8.915            3.162    257.72  21594.77
         Ni         8.934            3.162    257.71  21594.30
         Ni         8.934            3.162    257.71  21594.30
         Pd        10.203            3.168    531.75  48720.73
         Ni         8.934            3.162    257.71  21594.30
         Ni         8.951            3.162    257.71  21593.88
         Ni         8.950            3.162    257.71  21593.90
         Pd        10.216            3.168    531.75  48720.73
         Ni         8.950            3.162    257.71  21593.90
         Ni         6.731            3.162    266.25  22309.43
         Ni         7.202            3.162    261.75  21932.75
         Pd         8.229            3.168    531.75  48720.73
         Ni         7.202            3.162    261.75  21932.76
         H          1.794            2.062      6.05     73.18

         Molecular C6 ( Ry / a.u.^6 ) =    185812.03


     number of k points=   100  Marzari-Vanderbilt smearing, width (Ry)=  0.0147

     Number of k-points >= 100: set verbosity='high' to print them.

     Dense  grid:   850625 G-vectors     FFT dimensions: (  72,  72, 432)

     Smooth grid:   300931 G-vectors     FFT dimensions: (  48,  48, 320)

     Estimated max dynamical RAM per process >     509.42 MB

     Estimated total dynamical RAM >      27.58 GB
 ----2D----2D----2D----2D----2D----2D----2D----2D----2D----2D----2D----2D
  The code is running with the 2D cutoff
  Please refer to:
  Sohier, T., Calandra, M., & Mauri, F. (2017), 
  Density functional perturbation theory for gated two-dimensional heterostructu
 res:
  Theoretical developments and application to flexural phonons in graphene.
  Physical Review B, 96(7), 75448. https://doi.org/10.1103/PhysRevB.96.075448
 ----2D----2D----2D----2D----2D----2D----2D----2D----2D----2D----2D----2D

     Atomic positions and unit cell read from directory:
     /tmpu/isholek_g/isholek/MIGUEL/QE/Hydrogen/111_2x2/SAVE/Ni3Pd1_111-H_fcc_1.save/
     Atomic positions from file used, from input discarded
 

     Check: negative core charge=   -0.000001
     Generating pointlists ...
     new r_m :   0.1382 (alat units)  1.3154 (a.u.) for type    1
     new r_m :   0.1531 (alat units)  1.4574 (a.u.) for type    2
     new r_m :   0.1382 (alat units)  1.3154 (a.u.) for type    3

     The initial density is read from file :
     /tmpu/isholek_g/isholek/MIGUEL/QE/Hydrogen/111_2x2/SAVE/Ni3Pd1_111-H_fcc_1.save/charge-density


     negative rho (up, down):  2.464E-04 1.932E-04
     Starting wfcs from file
     Checking if some PAW data can be deallocated... 

     total cpu time spent up to now is       19.7 secs

     Self-consistent Calculation

     iteration #  1     ecut=    60.00 Ry     beta= 0.20
     Davidson diagonalization with overlap
     c_bands:  2 eigenvalues not converged
     c_bands:  1 eigenvalues not converged
     c_bands:  4 eigenvalues not converged
     c_bands:  4 eigenvalues not converged
     c_bands:  5 eigenvalues not converged
     c_bands:  2 eigenvalues not converged
     c_bands:  2 eigenvalues not converged
     c_bands:  5 eigenvalues not converged
     c_bands:  4 eigenvalues not converged
     c_bands:  5 eigenvalues not converged
     c_bands:  2 eigenvalues not converged
     c_bands:  2 eigenvalues not converged
     c_bands:  2 eigenvalues not converged
     c_bands:  2 eigenvalues not converged
     c_bands:  5 eigenvalues not converged
     ethr =  1.00E-05,  avg # of iterations = 25.9

     Threshold (ethr) on eigenvalues was too large:
     Diagonalizing with lowered threshold

     Davidson diagonalization with overlap
     c_bands:  2 eigenvalues not converged
     c_bands:  1 eigenvalues not converged
     ethr =  1.58E-07,  avg # of iterations =  5.7

     negative rho (up, down):  2.431E-04 1.901E-04

     total cpu time spent up to now is     1275.2 secs

     total energy              =   -5332.10670990 Ry
     estimated scf accuracy    <       0.00038198 Ry

     total magnetization       =    14.48 Bohr mag/cell
     absolute magnetization    =    16.33 Bohr mag/cell

     iteration #  2     ecut=    60.00 Ry     beta= 0.20
     Davidson diagonalization with overlap
     ethr =  1.58E-07,  avg # of iterations =  1.9

     negative rho (up, down):  2.424E-04 1.894E-04

     total cpu time spent up to now is     1429.3 secs

     total energy              =   -5332.10671606 Ry
     estimated scf accuracy    <       0.00030022 Ry

     total magnetization       =    14.48 Bohr mag/cell
     absolute magnetization    =    16.34 Bohr mag/cell

     iteration #  3     ecut=    60.00 Ry     beta= 0.20
     Davidson diagonalization with overlap
     ethr =  1.25E-07,  avg # of iterations =  1.0

     negative rho (up, down):  2.396E-04 1.869E-04

     total cpu time spent up to now is     1579.0 secs

     total energy              =   -5332.10672273 Ry
     estimated scf accuracy    <       0.00006173 Ry

     total magnetization       =    14.48 Bohr mag/cell
     absolute magnetization    =    16.34 Bohr mag/cell

     iteration #  4     ecut=    60.00 Ry     beta= 0.20
     Davidson diagonalization with overlap
     ethr =  2.56E-08,  avg # of iterations =  1.2

     negative rho (up, down):  2.360E-04 1.835E-04

     total cpu time spent up to now is     1730.7 secs

     total energy              =   -5332.10672416 Ry
     estimated scf accuracy    <       0.00002562 Ry

     total magnetization       =    14.49 Bohr mag/cell
     absolute magnetization    =    16.34 Bohr mag/cell

     iteration #  5     ecut=    60.00 Ry     beta= 0.20
     Davidson diagonalization with overlap
     ethr =  1.06E-08,  avg # of iterations =  1.2

     negative rho (up, down):  2.345E-04 1.820E-04

     total cpu time spent up to now is     1881.8 secs

     total energy              =   -5332.10672533 Ry
     estimated scf accuracy    <       0.00000356 Ry

     total magnetization       =    14.49 Bohr mag/cell
     absolute magnetization    =    16.35 Bohr mag/cell

     iteration #  6     ecut=    60.00 Ry     beta= 0.20
     Davidson diagonalization with overlap
     ethr =  1.48E-09,  avg # of iterations =  2.6

     negative rho (up, down):  2.322E-04 1.798E-04

     total cpu time spent up to now is     2047.3 secs

     total energy              =   -5332.10672617 Ry
     estimated scf accuracy    <       0.00000293 Ry

     total magnetization       =    14.49 Bohr mag/cell
     absolute magnetization    =    16.35 Bohr mag/cell

     iteration #  7     ecut=    60.00 Ry     beta= 0.20
     Davidson diagonalization with overlap
     ethr =  1.22E-09,  avg # of iterations =  1.2

     negative rho (up, down):  2.306E-04 1.782E-04

     total cpu time spent up to now is     2200.7 secs

     total energy              =   -5332.10672652 Ry
     estimated scf accuracy    <       0.00000336 Ry

     total magnetization       =    14.49 Bohr mag/cell
     absolute magnetization    =    16.35 Bohr mag/cell

     iteration #  8     ecut=    60.00 Ry     beta= 0.20
     Davidson diagonalization with overlap
     ethr =  1.22E-09,  avg # of iterations =  1.0

     negative rho (up, down):  2.296E-04 1.771E-04

     total cpu time spent up to now is     2351.6 secs

     total energy              =   -5332.10672667 Ry
     estimated scf accuracy    <       0.00000107 Ry

     total magnetization       =    14.49 Bohr mag/cell
     absolute magnetization    =    16.35 Bohr mag/cell

     iteration #  9     ecut=    60.00 Ry     beta= 0.20
     Davidson diagonalization with overlap
     ethr =  4.44E-10,  avg # of iterations =  1.4

     negative rho (up, down):  2.293E-04 1.768E-04

     total cpu time spent up to now is     2507.8 secs

     total energy              =   -5332.10672672 Ry
     estimated scf accuracy    <       0.00000036 Ry

     total magnetization       =    14.49 Bohr mag/cell
     absolute magnetization    =    16.35 Bohr mag/cell

     iteration # 10     ecut=    60.00 Ry     beta= 0.20
     Davidson diagonalization with overlap
     ethr =  1.51E-10,  avg # of iterations =  2.0

     negative rho (up, down):  2.292E-04 1.766E-04

     total cpu time spent up to now is     2666.8 secs

     total energy              =   -5332.10672674 Ry
     estimated scf accuracy    <       0.00000045 Ry

     total magnetization       =    14.49 Bohr mag/cell
     absolute magnetization    =    16.35 Bohr mag/cell

     iteration # 11     ecut=    60.00 Ry     beta= 0.20
     Davidson diagonalization with overlap
     ethr =  1.51E-10,  avg # of iterations =  1.2

     negative rho (up, down):  2.293E-04 1.767E-04

     total cpu time spent up to now is     2821.5 secs

     total energy              =   -5332.10672676 Ry
     estimated scf accuracy    <       0.00000027 Ry

     total magnetization       =    14.49 Bohr mag/cell
     absolute magnetization    =    16.35 Bohr mag/cell

     iteration # 12     ecut=    60.00 Ry     beta= 0.20
     Davidson diagonalization with overlap
     ethr =  1.10E-10,  avg # of iterations =  1.3

     negative rho (up, down):  2.299E-04 1.772E-04

     total cpu time spent up to now is     2978.6 secs

     total energy              =   -5332.10672677 Ry
     estimated scf accuracy    <       0.00000005 Ry

     total magnetization       =    14.49 Bohr mag/cell
     absolute magnetization    =    16.35 Bohr mag/cell

     iteration # 13     ecut=    60.00 Ry     beta= 0.20
     Davidson diagonalization with overlap
     ethr =  1.99E-11,  avg # of iterations =  3.6

     negative rho (up, down):  2.308E-04 1.780E-04

     total cpu time spent up to now is     3157.6 secs

     total energy              =   -5332.10672677 Ry
     estimated scf accuracy    <       0.00000004 Ry

     total magnetization       =    14.49 Bohr mag/cell
     absolute magnetization    =    16.35 Bohr mag/cell

     iteration # 14     ecut=    60.00 Ry     beta= 0.20
     Davidson diagonalization with overlap
     ethr =  1.75E-11,  avg # of iterations =  1.4

     negative rho (up, down):  2.314E-04 1.786E-04

     total cpu time spent up to now is     3310.4 secs

     total energy              =   -5332.10672678 Ry
     estimated scf accuracy    <       0.00000001 Ry

     total magnetization       =    14.49 Bohr mag/cell
     absolute magnetization    =    16.35 Bohr mag/cell

     iteration # 15     ecut=    60.00 Ry     beta= 0.20
     Davidson diagonalization with overlap
     ethr =  6.22E-12,  avg # of iterations =  2.2

     negative rho (up, down):  2.329E-04 1.800E-04

     total cpu time spent up to now is     3474.9 secs

     total energy              =   -5332.10672678 Ry
     estimated scf accuracy    <       0.00000002 Ry

     total magnetization       =    14.49 Bohr mag/cell
     absolute magnetization    =    16.35 Bohr mag/cell

     iteration # 16     ecut=    60.00 Ry     beta= 0.20
     Davidson diagonalization with overlap
     ethr =  6.22E-12,  avg # of iterations =  1.5

     negative rho (up, down):  2.354E-04 1.824E-04

     total cpu time spent up to now is     3634.7 secs

     total energy              =   -5332.10672679 Ry
     estimated scf accuracy    <       0.00000001 Ry

     total magnetization       =    14.49 Bohr mag/cell
     absolute magnetization    =    16.35 Bohr mag/cell

     iteration # 17     ecut=    60.00 Ry     beta= 0.20
     Davidson diagonalization with overlap
     ethr =  4.25E-12,  avg # of iterations =  1.7

     negative rho (up, down):  2.364E-04 1.833E-04

     total cpu time spent up to now is     3796.3 secs

     total energy              =   -5332.10672679 Ry
     estimated scf accuracy    <       0.00000001 Ry

     total magnetization       =    14.49 Bohr mag/cell
     absolute magnetization    =    16.35 Bohr mag/cell

     iteration # 18     ecut=    60.00 Ry     beta= 0.20
     Davidson diagonalization with overlap
     ethr =  4.23E-12,  avg # of iterations =  1.1

     negative rho (up, down):  2.365E-04 1.835E-04

     total cpu time spent up to now is     3941.4 secs

     total energy              =   -5332.10672679 Ry
     estimated scf accuracy    <       0.00000002 Ry

     total magnetization       =    14.49 Bohr mag/cell
     absolute magnetization    =    16.35 Bohr mag/cell

     iteration # 19     ecut=    60.00 Ry     beta= 0.20
     Davidson diagonalization with overlap
     ethr =  4.23E-12,  avg # of iterations =  1.0

     negative rho (up, down):  2.360E-04 1.830E-04

     total cpu time spent up to now is     4088.4 secs

     total energy              =   -5332.10672679 Ry
     estimated scf accuracy    <       0.00000002 Ry

     total magnetization       =    14.49 Bohr mag/cell
     absolute magnetization    =    16.35 Bohr mag/cell

     iteration # 20     ecut=    60.00 Ry     beta= 0.20
     Davidson diagonalization with overlap
     ethr =  4.23E-12,  avg # of iterations =  1.0

     negative rho (up, down):  2.352E-04 1.822E-04

     total cpu time spent up to now is     4237.2 secs

     total energy              =   -5332.10672679 Ry
     estimated scf accuracy    <       0.00000001 Ry

     total magnetization       =    14.49 Bohr mag/cell
     absolute magnetization    =    16.35 Bohr mag/cell

     iteration # 21     ecut=    60.00 Ry     beta= 0.20
     Davidson diagonalization with overlap
     ethr =  4.23E-12,  avg # of iterations =  1.0

     negative rho (up, down):  2.379E-04 1.848E-04

     total cpu time spent up to now is     4388.3 secs

     total energy              =   -5332.10672680 Ry
     estimated scf accuracy    <       0.00000001 Ry

     total magnetization       =    14.49 Bohr mag/cell
     absolute magnetization    =    16.35 Bohr mag/cell

     iteration # 22     ecut=    60.00 Ry     beta= 0.20
     Davidson diagonalization with overlap
     ethr =  4.23E-12,  avg # of iterations =  1.0

     negative rho (up, down):  2.400E-04 1.869E-04

     total cpu time spent up to now is     4538.2 secs

     total energy              =   -5332.10672680 Ry
     estimated scf accuracy    <       0.00000001 Ry

     total magnetization       =    14.49 Bohr mag/cell
     absolute magnetization    =    16.35 Bohr mag/cell

     iteration # 23     ecut=    60.00 Ry     beta= 0.20
     Davidson diagonalization with overlap
     ethr =  4.23E-12,  avg # of iterations =  1.0

     negative rho (up, down):  2.463E-04 1.932E-04
 
     Magnetic moment per site  (integrated on atomic sphere of radius R)
     atom   1 (R=0.138)  charge=  6.8352  magn=  0.7295
     atom   2 (R=0.138)  charge=  6.8355  magn=  0.7245
     atom   3 (R=0.153)  charge=  5.8255  magn=  0.2372
     atom   4 (R=0.138)  charge=  6.8355  magn=  0.7245
     atom   5 (R=0.138)  charge=  6.8309  magn=  0.7437
     atom   6 (R=0.138)  charge=  6.8316  magn=  0.7359
     atom   7 (R=0.153)  charge=  5.8130  magn=  0.2918
     atom   8 (R=0.138)  charge=  6.8316  magn=  0.7359
     atom   9 (R=0.138)  charge=  6.8312  magn=  0.6928
     atom  10 (R=0.138)  charge=  6.8309  magn=  0.7075
     atom  11 (R=0.153)  charge=  5.8099  magn=  0.2814
     atom  12 (R=0.138)  charge=  6.8309  magn=  0.7075
     atom  13 (R=0.138)  charge=  6.8323  magn=  0.6808
     atom  14 (R=0.138)  charge=  6.8309  magn=  0.7112
     atom  15 (R=0.153)  charge=  5.8090  magn=  0.2806
     atom  16 (R=0.138)  charge=  6.8309  magn=  0.7112
     atom  17 (R=0.138)  charge=  6.8307  magn=  0.7324
     atom  18 (R=0.138)  charge=  6.8311  magn=  0.7248
     atom  19 (R=0.153)  charge=  5.8123  magn=  0.2728
     atom  20 (R=0.138)  charge=  6.8311  magn=  0.7248
     atom  21 (R=0.138)  charge=  6.8368  magn=  0.7283
     atom  22 (R=0.138)  charge=  6.8384  magn=  0.5540
     atom  23 (R=0.153)  charge=  5.8250  magn=  0.1826
     atom  24 (R=0.138)  charge=  6.8384  magn=  0.5540
     atom  25 (R=0.138)  charge=  0.8900  magn= -0.0051

     total cpu time spent up to now is     4684.3 secs

     End of self-consistent calculation

     Number of k-points >= 100: set verbosity='high' to print the bands.

     the Fermi energy is    -5.0847 ev

!    total energy              =   -5332.10672682 Ry
     total all-electron energy =   -115303.852868 Ry
     estimated scf accuracy    <          9.0E-09 Ry
     smearing contrib. (-TS)   =      -0.00232934 Ry
     internal energy E=F+TS    =   -5332.10439748 Ry

     The total energy is F=E-TS. E is the sum of the following terms:
     one-electron contribution =  -70017.04771041 Ry
     hartree contribution      =   35203.08781474 Ry
     xc contribution           =    -947.25896147 Ry
     ewald contribution        =   33502.71811040 Ry
     DFT-D3 Dispersion         =      -2.02342041 Ry
     one-center paw contrib.   =   -3071.58023033 Ry

     total magnetization       =    14.49 Bohr mag/cell
     absolute magnetization    =    16.35 Bohr mag/cell

     convergence has been achieved in  23 iterations

     negative rho (up, down):  2.463E-04 1.932E-04

     Forces acting on atoms (cartesian axes, Ry/au):

     atom    1 type  1   force =    -0.00000547    0.01343910    0.00385595
     atom    2 type  1   force =     0.01176155   -0.00664199    0.00371933
     atom    3 type  2   force =    -0.00000992   -0.00007377   -0.01864440
     atom    4 type  1   force =    -0.01174629   -0.00666538    0.00370939
     atom    5 type  1   force =    -0.00000650    0.00179826    0.00102179
     atom    6 type  1   force =     0.00141744   -0.00130134    0.00152518
     atom    7 type  2   force =    -0.00001257    0.00028798    0.00462561
     atom    8 type  1   force =    -0.00139905   -0.00133076    0.00151055
     atom    9 type  1   force =     0.00000013    0.00008699   -0.00041650
     atom   10 type  1   force =    -0.00002770   -0.00022325   -0.00024810
     atom   11 type  2   force =     0.00000010   -0.00011195    0.00011210
     atom   12 type  1   force =     0.00002756   -0.00022275   -0.00024790
     atom   13 type  1   force =     0.00000030   -0.00044382   -0.00048452
     atom   14 type  1   force =    -0.00030276    0.00003168    0.00024609
     atom   15 type  2   force =     0.00000005   -0.00021202   -0.00010288
     atom   16 type  1   force =     0.00030261    0.00003244    0.00024622
     atom   17 type  1   force =     0.00000026   -0.00050513    0.00017489
     atom   18 type  1   force =     0.00031958   -0.00009062    0.00009677
     atom   19 type  2   force =     0.00000007    0.00037215    0.00021194
     atom   20 type  1   force =    -0.00031972   -0.00009008    0.00009683
     atom   21 type  1   force =     0.00000014    0.00060856    0.00012145
     atom   22 type  1   force =     0.00025128    0.00044664   -0.00043638
     atom   23 type  2   force =     0.00000008    0.00008777   -0.00053680
     atom   24 type  1   force =    -0.00025125    0.00044677   -0.00043644
     atom   25 type  3   force =     0.00000008    0.00027452    0.00027982

     Total force =     0.001917     Total SCF correction =     0.000474
     SCF correction compared to forces is large: reduce conv_thr to get better values


     Computing stress (Cartesian axis) and pressure


     negative rho (up, down):  2.463E-04 1.932E-04
          total   stress  (Ry/bohr**3)                   (kbar)     P=       -4.94
  -0.00005409   0.00000000   0.00000000           -7.96        0.00        0.00
   0.00000000  -0.00004999   0.00000392            0.00       -7.35        0.58
   0.00000000   0.00000392   0.00000329            0.00        0.58        0.48


     BFGS Geometry Optimization
     Energy error            =      0.0E+00 Ry
     Gradient error          =      6.1E-04 Ry/Bohr

     bfgs converged in   1 scf cycles and   0 bfgs steps
     (criteria: energy <  1.8E-05 Ry, force <  7.8E-04 Ry/Bohr)

     End of BFGS Geometry Optimization

     Final energy             =   -5332.1067268202 Ry
Begin final coordinates

ATOMIC_POSITIONS (angstrom)
Ni               5.0381082178        2.9087344078       11.0000000000    0   0   0
Ni               1.2594928383        0.7271633007       11.0000321314    0   0   0
Pd               2.5190631929        2.9087349143       11.0000563881    0   0   0
Ni               3.7785410216        0.7272125305       11.0000798881    0   0   0
Ni               2.5190678846        1.4543657934       13.0567878192    0   0   0
Ni               6.2975735046        3.6359005296       13.0568199507    0   0   0
Pd               5.0381035260        1.4543662999       13.0568442073    0   0   0
Ni               3.7785410216        3.6359497594       13.0568677074    0   0   0
Ni               2.5190402455        4.3590213780       15.1120562367
Ni               3.7768742395        2.1808852495       15.1113235003
Pd               5.0380883759        4.3612797536       15.1041277253
Ni               6.2993100422        2.1808838934       15.1113220177
Ni               5.0380855400        2.9079686690       17.1678559535
Ni               1.2622902576        0.7230185047       17.1598319592
Pd               2.5190459455        2.9049450393       17.1766951199
Ni               3.7758001568        0.7230167220       17.1598327864
Ni               2.5190431344        1.4264224016       19.2242611752
Ni               6.2802308772        3.6320703206       19.2215111942
Pd               5.0380841118        1.4442278176       19.2103969191
Ni               3.7959378572        3.6320695683       19.2215116692
Ni               2.5190426962        4.3066858362       21.2258251372
Ni               3.7594284199        2.1768721925       21.2624436649
Pd               5.0380831496        4.3258126482       21.3751700317
Ni               6.3167374043        2.1768722313       21.2624438618
H                2.5190415730        1.6113582169       22.2570471295
End final coordinates



     Writing all to output data dir /tmpu/isholek_g/isholek/MIGUEL/QE/Hydrogen/111_2x2/SAVE/Ni3Pd1_111-H_fcc_1.save/ :
     XML data file, charge density, pseudopotentials, collected wavefunctions
 
     init_run     :      7.35s CPU     18.02s WALL (       1 calls)
     electrons    :   4313.34s CPU   4665.09s WALL (       1 calls)
     forces       :     23.52s CPU     26.38s WALL (       1 calls)
     force_dftd3  :      0.24s CPU      0.25s WALL (       1 calls)
     stress       :    194.92s CPU    214.63s WALL (       1 calls)
     stres_dftd3  :      0.47s CPU      0.47s WALL (       1 calls)

     Called by init_run:
     wfcinit      :      3.55s CPU     12.54s WALL (       1 calls)
     potinit      :      1.01s CPU      1.58s WALL (       1 calls)
     hinit0       :      2.27s CPU      3.27s WALL (       1 calls)

     Called by electrons:
     c_bands      :   3595.39s CPU   3884.53s WALL (      24 calls)
     sum_band     :    654.80s CPU    710.14s WALL (      24 calls)
     v_of_rho     :     16.81s CPU     18.84s WALL (      24 calls)
     newd         :      4.51s CPU      5.33s WALL (      24 calls)
     PAW_pot      :      7.64s CPU      8.32s WALL (      24 calls)
     mix_rho      :     32.17s CPU     35.35s WALL (      24 calls)
     energy_dftd3 :      0.04s CPU      0.08s WALL (       1 calls)

     Called by c_bands:
     init_us_2    :     19.03s CPU     22.08s WALL (    1250 calls)
     init_us_2:cp :     19.01s CPU     22.06s WALL (    1250 calls)
     cegterg      :   3169.01s CPU   3431.24s WALL (     605 calls)

     Called by *egterg:
     cdiaghg      :     77.45s CPU     83.85s WALL (    2116 calls)
     h_psi        :   2110.13s CPU   2303.26s WALL (    2171 calls)
     s_psi        :    180.79s CPU    191.49s WALL (    2171 calls)
     g_psi        :      7.06s CPU      7.60s WALL (    1566 calls)

     Called by h_psi:
     h_psi:calbec :    266.25s CPU    285.25s WALL (    2171 calls)
     vloc_psi     :   1652.92s CPU   1806.51s WALL (    2171 calls)
     add_vuspsi   :    183.31s CPU    198.66s WALL (    2171 calls)

     General routines
     calbec       :    393.50s CPU    422.90s WALL (    2896 calls)
     fft          :     14.36s CPU     15.92s WALL (     640 calls)
     ffts         :     10.21s CPU     11.30s WALL (    2802 calls)
     fftw         :   1530.41s CPU   1637.67s WALL (  527266 calls)
     interpolate  :      1.09s CPU      1.22s WALL (      48 calls)
 
     Parallel routines
 
     PWSCF        :      1h15m CPU      1h22m WALL

 
   This run was terminated on:   8:45:29  25Mar2026            

=------------------------------------------------------------------------------=
   JOB DONE.
=------------------------------------------------------------------------------=
