
     Program PWSCF v.7.3 starts on  6Sep2025 at  0:51:41 

     This program is part of the open-source Quantum ESPRESSO suite
     for quantum simulation of materials; please cite
         "P. Giannozzi et al., J. Phys.:Condens. Matter 21 395502 (2009);
         "P. Giannozzi et al., J. Phys.:Condens. Matter 29 465901 (2017);
         "P. Giannozzi et al., J. Chem. Phys. 152 154105 (2020);
          URL http://www.quantum-espresso.org", 
     in publications or presentations arising from this work. More details at
     http://www.quantum-espresso.org/quote

     Parallel version (MPI), running on    30 processors

     MPI processes distributed on     1 nodes
     222186 MiB available memory on the printing compute node when the environment starts
 
     Waiting for input...
     Reading input from standard input

     Current dimensions of program PWSCF are:
     Max number of different atomic species (ntypx) = 10
     Max number of k-points (npk) =  40000
     Max angular momentum in pseudopotentials (lmaxx) =  4
     file Pd.upf: wavefunction(s)  5S 4D renormalized

     IMPORTANT: XC functional enforced from input :
     Exchange-correlation= PBE
                           (   1   4   3   4   0   0   0)
     Any further DFT definition will be discarded
     Please, verify this is what you really want

     Message from routine setup:
     using ibrav=0 with symmetry is DISCOURAGED, use correct ibrav instead
 
     K-points division:     npool     =       2
     R & G space division:  proc/nbgrp/npool/nimage =      15
     Subspace diagonalization in iterative solution of the eigenvalue problem:
     a serial algorithm will be used

 
     Parallelization info
     --------------------
     sticks:   dense  smooth     PW     G-vecs:    dense   smooth      PW
     Min         107      53     16                 3258     1151     196
     Max         109      55     17                 3260     1152     201
     Sum        1617     805    241                48885    17269    2945
 
     Using Slab Decomposition
 

     Title: 
     Pd_k_8                                                                     


     bravais-lattice index     =            0
     lattice parameter (alat)  =       6.5025  a.u.
     unit-cell volume          =     274.9107 (a.u.)^3
     number of atoms/cell      =            4
     number of atomic types    =            1
     number of electrons       =        40.00
     number of Kohn-Sham states=           24
     kinetic-energy cutoff     =      60.0000  Ry
     charge density cutoff     =     480.0000  Ry
     scf convergence threshold =      6.4E-09
     mixing beta               =       0.5000
     number of iterations used =           10  local-TF  mixing
     Exchange-correlation= PBE
                           (   1   4   3   4   0   0   0)

     celldm(1)=   6.502548  celldm(2)=   0.000000  celldm(3)=   0.000000
     celldm(4)=   0.000000  celldm(5)=   0.000000  celldm(6)=   0.000000

     crystal axes: (cart. coord. in units of alat)
               a(1) = (   0.999955   0.000000   0.000000 )  
               a(2) = (   0.000000   0.999955   0.000000 )  
               a(3) = (   0.000000   0.000000   0.999955 )  

     reciprocal axes: (cart. coord. in units 2 pi/alat)
               b(1) = (  1.000045  0.000000  0.000000 )  
               b(2) = (  0.000000  1.000045  0.000000 )  
               b(3) = (  0.000000  0.000000  1.000045 )  


     PseudoPot. # 1 for Pd read from file:
     /tmpu/mdach_g/mdach/PP/Pd.upf
     MD5 check sum: e9d6f14fd83b79f8105499163af174c9
     Pseudo is Projector augmented-wave + core cor, Zval = 10.0
     Generated using "atomic" code by A. Dal Corso  v.5.0.2 svn rev. 9415
     Shape of augmentation charge: PSQ
     Using radial grid of 1235 points,  6 beta functions with: 
                l(1) =   0
                l(2) =   0
                l(3) =   1
                l(4) =   1
                l(5) =   2
                l(6) =   2
     Q(r) pseudized with 0 coefficients 


     atomic species   valence    mass     pseudopotential
     Pd               10.00   106.42000     Pd( 1.00)

     Starting magnetic structure 
     atomic species   magnetization
     Pd              0.200

      6 Sym. Ops. (no inversion) found



   Cartesian axes

     site n.     atom                  positions (alat units)
         1        Pd     tau(   1) = (  -0.0054534  -0.0054534  -0.0054534  )
         2        Pd     tau(   2) = (  -0.0054550   0.5513882   0.5513882  )
         3        Pd     tau(   3) = (   0.5513882  -0.0054550   0.5513882  )
         4        Pd     tau(   4) = (   0.5513882   0.5513882  -0.0054550  )

     --------------------------------------------
     DFT-D3 Dispersion Correction (3-body terms):
     --------------------------------------------
       Reference C6 values for interpolation: 

         atom   Coordination number   C6
         Pd         0.000          1217.01
         Pd         1.863           573.90
         Pd         5.710           531.75

       Values used:

         atom   Coordination number  R0_AB[au]  C6      C8
         Pd        11.468            3.168    531.75  48720.73
         Pd        11.468            3.168    531.75  48720.73
         Pd        11.468            3.168    531.75  48720.73
         Pd        11.468            3.168    531.75  48720.73

         Molecular C6 ( Ry / a.u.^6 ) =      8507.99


     number of k points=    65  Methfessel-Paxton smearing, width (Ry)=  0.0147
                       cart. coord. in units 2pi/alat
        k(    1) = (   0.0000000   0.0000000   0.0000000), wk =   0.0019531
        k(    2) = (   0.0000000   0.0000000   0.1250057), wk =   0.0117188
        k(    3) = (   0.0000000   0.0000000   0.2500113), wk =   0.0117188
        k(    4) = (   0.0000000   0.0000000   0.3750170), wk =   0.0117188
        k(    5) = (   0.0000000   0.0000000  -0.5000226), wk =   0.0058594
        k(    6) = (   0.0000000   0.1250057   0.1250057), wk =   0.0117188
        k(    7) = (   0.0000000   0.1250057   0.2500113), wk =   0.0234375
        k(    8) = (   0.0000000   0.1250057   0.3750170), wk =   0.0234375
        k(    9) = (   0.0000000   0.1250057  -0.5000226), wk =   0.0234375
        k(   10) = (   0.0000000   0.2500113   0.2500113), wk =   0.0117188
        k(   11) = (   0.0000000   0.2500113   0.3750170), wk =   0.0234375
        k(   12) = (   0.0000000   0.2500113  -0.5000226), wk =   0.0234375
        k(   13) = (   0.0000000   0.3750170   0.3750170), wk =   0.0117188
        k(   14) = (   0.0000000   0.3750170  -0.5000226), wk =   0.0234375
        k(   15) = (   0.0000000  -0.5000226  -0.5000226), wk =   0.0058594
        k(   16) = (   0.1250057   0.1250057   0.1250057), wk =   0.0039062
        k(   17) = (   0.1250057   0.1250057   0.2500113), wk =   0.0117188
        k(   18) = (   0.1250057   0.1250057   0.3750170), wk =   0.0117188
        k(   19) = (   0.1250057   0.1250057  -0.5000226), wk =   0.0117188
        k(   20) = (   0.1250057   0.2500113   0.2500113), wk =   0.0117188
        k(   21) = (   0.1250057   0.2500113   0.3750170), wk =   0.0234375
        k(   22) = (   0.1250057   0.2500113  -0.5000226), wk =   0.0234375
        k(   23) = (   0.1250057   0.3750170   0.3750170), wk =   0.0117188
        k(   24) = (   0.1250057   0.3750170  -0.5000226), wk =   0.0234375
        k(   25) = (   0.1250057  -0.5000226  -0.5000226), wk =   0.0117188
        k(   26) = (   0.2500113   0.2500113   0.2500113), wk =   0.0039062
        k(   27) = (   0.2500113   0.2500113   0.3750170), wk =   0.0117188
        k(   28) = (   0.2500113   0.2500113  -0.5000226), wk =   0.0117188
        k(   29) = (   0.2500113   0.3750170   0.3750170), wk =   0.0117188
        k(   30) = (   0.2500113   0.3750170  -0.5000226), wk =   0.0234375
        k(   31) = (   0.2500113  -0.5000226  -0.5000226), wk =   0.0117188
        k(   32) = (   0.3750170   0.3750170   0.3750170), wk =   0.0039062
        k(   33) = (   0.3750170   0.3750170  -0.5000226), wk =   0.0117188
        k(   34) = (   0.3750170  -0.5000226  -0.5000226), wk =   0.0117188
        k(   35) = (  -0.5000226  -0.5000226  -0.5000226), wk =   0.0019531
        k(   36) = (  -0.1250057   0.0000000   0.1250057), wk =   0.0117188
        k(   37) = (  -0.1250057   0.0000000   0.2500113), wk =   0.0234375
        k(   38) = (  -0.1250057   0.0000000   0.3750170), wk =   0.0234375
        k(   39) = (  -0.2500113   0.0000000   0.2500113), wk =   0.0117188
        k(   40) = (  -0.2500113   0.0000000   0.3750170), wk =   0.0234375
        k(   41) = (  -0.3750170   0.0000000   0.3750170), wk =   0.0117188
        k(   42) = (   0.1250057  -0.1250057   0.1250057), wk =   0.0117188
        k(   43) = (   0.1250057  -0.1250057   0.2500113), wk =   0.0234375
        k(   44) = (  -0.2500113   0.1250057   0.1250057), wk =   0.0117188
        k(   45) = (   0.1250057  -0.1250057   0.3750170), wk =   0.0234375
        k(   46) = (  -0.3750170   0.1250057   0.1250057), wk =   0.0117188
        k(   47) = (   0.1250057  -0.1250057  -0.5000226), wk =   0.0117188
        k(   48) = (   0.2500113  -0.1250057   0.2500113), wk =   0.0117188
        k(   49) = (  -0.2500113   0.1250057   0.2500113), wk =   0.0234375
        k(   50) = (   0.2500113  -0.1250057   0.3750170), wk =   0.0234375
        k(   51) = (  -0.2500113   0.1250057   0.3750170), wk =   0.0234375
        k(   52) = (  -0.3750170   0.2500113   0.1250057), wk =   0.0234375
        k(   53) = (   0.2500113  -0.1250057  -0.5000226), wk =   0.0234375
        k(   54) = (   0.3750170  -0.1250057   0.3750170), wk =   0.0117188
        k(   55) = (  -0.3750170   0.1250057   0.3750170), wk =   0.0234375
        k(   56) = (   0.3750170  -0.1250057  -0.5000226), wk =   0.0234375
        k(   57) = (   0.2500113  -0.2500113   0.2500113), wk =   0.0117188
        k(   58) = (   0.2500113  -0.2500113   0.3750170), wk =   0.0234375
        k(   59) = (  -0.3750170   0.2500113   0.2500113), wk =   0.0117188
        k(   60) = (   0.2500113  -0.2500113  -0.5000226), wk =   0.0117188
        k(   61) = (   0.3750170  -0.2500113   0.3750170), wk =   0.0117188
        k(   62) = (  -0.3750170   0.2500113   0.3750170), wk =   0.0234375
        k(   63) = (   0.3750170  -0.2500113  -0.5000226), wk =   0.0234375
        k(   64) = (   0.3750170  -0.3750170   0.3750170), wk =   0.0117188
        k(   65) = (   0.3750170  -0.3750170  -0.5000226), wk =   0.0117188

     Dense  grid:    48885 G-vectors     FFT dimensions: (  45,  45,  45)

     Smooth grid:    17269 G-vectors     FFT dimensions: (  36,  36,  36)

     Estimated max dynamical RAM per process >      14.46 MB

     Estimated total dynamical RAM >     403.96 MB
     Generating pointlists ...
     new r_m :   0.2585 (alat units)  1.6809 (a.u.) for type    1

     Initial potential from superposition of free atoms

     starting charge      39.9979, renormalised to      40.0000
     Starting wfcs are   36 atomic wfcs
     Checking if some PAW data can be deallocated... 

     total cpu time spent up to now is        1.4 secs

     Self-consistent Calculation

     iteration #  1     ecut=    60.00 Ry     beta= 0.50
     Davidson diagonalization with overlap
     ethr =  1.00E-02,  avg # of iterations =  4.0

     Threshold (ethr) on eigenvalues was too large:
     Diagonalizing with lowered threshold

     Davidson diagonalization with overlap
     ethr =  6.11E-04,  avg # of iterations =  2.9

     total cpu time spent up to now is        6.0 secs

     total energy              =   -1324.00619019 Ry
     estimated scf accuracy    <       0.27998985 Ry

     total magnetization       =     2.23 Bohr mag/cell
     absolute magnetization    =     2.23 Bohr mag/cell

     iteration #  2     ecut=    60.00 Ry     beta= 0.50
     Davidson diagonalization with overlap
     ethr =  7.00E-04,  avg # of iterations =  1.0

     total cpu time spent up to now is        7.6 secs

     total energy              =   -1324.03092857 Ry
     estimated scf accuracy    <       0.08686564 Ry

     total magnetization       =     1.58 Bohr mag/cell
     absolute magnetization    =     1.58 Bohr mag/cell

     iteration #  3     ecut=    60.00 Ry     beta= 0.50
     Davidson diagonalization with overlap
     ethr =  2.17E-04,  avg # of iterations =  2.0

     total cpu time spent up to now is        9.7 secs

     total energy              =   -1324.05828358 Ry
     estimated scf accuracy    <       0.00875558 Ry

     total magnetization       =     0.53 Bohr mag/cell
     absolute magnetization    =     0.62 Bohr mag/cell

     iteration #  4     ecut=    60.00 Ry     beta= 0.50
     Davidson diagonalization with overlap
     ethr =  2.19E-05,  avg # of iterations =  2.6

     total cpu time spent up to now is       11.8 secs

     total energy              =   -1324.06076258 Ry
     estimated scf accuracy    <       0.00332530 Ry

     total magnetization       =     0.45 Bohr mag/cell
     absolute magnetization    =     0.51 Bohr mag/cell

     iteration #  5     ecut=    60.00 Ry     beta= 0.50
     Davidson diagonalization with overlap
     ethr =  8.31E-06,  avg # of iterations =  1.4

     total cpu time spent up to now is       13.5 secs

     total energy              =   -1324.06222847 Ry
     estimated scf accuracy    <       0.00027930 Ry

     total magnetization       =     0.12 Bohr mag/cell
     absolute magnetization    =     0.17 Bohr mag/cell

     iteration #  6     ecut=    60.00 Ry     beta= 0.50
     Davidson diagonalization with overlap
     ethr =  6.98E-07,  avg # of iterations =  3.1

     total cpu time spent up to now is       16.1 secs

     total energy              =   -1324.06234531 Ry
     estimated scf accuracy    <       0.00009364 Ry

     total magnetization       =     0.10 Bohr mag/cell
     absolute magnetization    =     0.13 Bohr mag/cell

     iteration #  7     ecut=    60.00 Ry     beta= 0.50
     Davidson diagonalization with overlap
     ethr =  2.34E-07,  avg # of iterations =  1.0

     total cpu time spent up to now is       17.7 secs

     total energy              =   -1324.06240329 Ry
     estimated scf accuracy    <       0.00008818 Ry

     total magnetization       =     0.09 Bohr mag/cell
     absolute magnetization    =     0.12 Bohr mag/cell

     iteration #  8     ecut=    60.00 Ry     beta= 0.50
     Davidson diagonalization with overlap
     ethr =  2.20E-07,  avg # of iterations =  2.6

     total cpu time spent up to now is       20.3 secs

     total energy              =   -1324.06253930 Ry
     estimated scf accuracy    <       0.00000783 Ry

     total magnetization       =     0.01 Bohr mag/cell
     absolute magnetization    =     0.02 Bohr mag/cell

     iteration #  9     ecut=    60.00 Ry     beta= 0.50
     Davidson diagonalization with overlap
     ethr =  1.96E-08,  avg # of iterations =  1.6

     total cpu time spent up to now is       22.1 secs

     total energy              =   -1324.06254094 Ry
     estimated scf accuracy    <       0.00001035 Ry

     total magnetization       =     0.01 Bohr mag/cell
     absolute magnetization    =     0.01 Bohr mag/cell

     iteration # 10     ecut=    60.00 Ry     beta= 0.50
     Davidson diagonalization with overlap
     ethr =  1.96E-08,  avg # of iterations =  2.3

     total cpu time spent up to now is       24.0 secs

     total energy              =   -1324.06254251 Ry
     estimated scf accuracy    <       0.00000061 Ry

     total magnetization       =     0.01 Bohr mag/cell
     absolute magnetization    =     0.01 Bohr mag/cell

     iteration # 11     ecut=    60.00 Ry     beta= 0.50
     Davidson diagonalization with overlap
     ethr =  1.54E-09,  avg # of iterations =  3.0

     total cpu time spent up to now is       26.6 secs

     total energy              =   -1324.06254316 Ry
     estimated scf accuracy    <       0.00000022 Ry

     total magnetization       =     0.00 Bohr mag/cell
     absolute magnetization    =     0.00 Bohr mag/cell

     iteration # 12     ecut=    60.00 Ry     beta= 0.50
     Davidson diagonalization with overlap
     ethr =  5.61E-10,  avg # of iterations =  2.1

     total cpu time spent up to now is       28.4 secs

     total energy              =   -1324.06254318 Ry
     estimated scf accuracy    <       0.00000002 Ry

     total magnetization       =    -0.00 Bohr mag/cell
     absolute magnetization    =     0.00 Bohr mag/cell

     iteration # 13     ecut=    60.00 Ry     beta= 0.50
     Davidson diagonalization with overlap
     ethr =  4.35E-11,  avg # of iterations =  3.0

     total cpu time spent up to now is       30.9 secs

     total energy              =   -1324.06254320 Ry
     estimated scf accuracy    <          7.6E-09 Ry

     total magnetization       =    -0.00 Bohr mag/cell
     absolute magnetization    =     0.00 Bohr mag/cell

     iteration # 14     ecut=    60.00 Ry     beta= 0.50
     Davidson diagonalization with overlap
     ethr =  1.91E-11,  avg # of iterations =  1.1
 
     Magnetic moment per site  (integrated on atomic sphere of radius R)
     atom   1 (R=0.258)  charge=  7.1585  magn= -0.0000
     atom   2 (R=0.258)  charge=  7.1586  magn= -0.0000
     atom   3 (R=0.258)  charge=  7.1586  magn= -0.0000
     atom   4 (R=0.258)  charge=  7.1586  magn= -0.0000

     total cpu time spent up to now is       32.4 secs

     End of self-consistent calculation

     Number of k-points >= 100: set verbosity='high' to print the bands.

     the Fermi energy is    23.8621 ev

!    total energy              =   -1324.06254320 Ry
     total all-electron energy =    -40367.859508 Ry
     estimated scf accuracy    <          1.5E-09 Ry
     smearing contrib. (-TS)   =       0.00011557 Ry
     internal energy E=F+TS    =   -1324.06265876 Ry

     The total energy is F=E-TS. E is the sum of the following terms:
     one-electron contribution =      82.83965910 Ry
     hartree contribution      =      30.32781378 Ry
     xc contribution           =    -132.08215791 Ry
     ewald contribution        =    -276.84078315 Ry
     DFT-D3 Dispersion         =      -0.70720743 Ry
     one-center paw contrib.   =   -1027.59998315 Ry

     total magnetization       =    -0.00 Bohr mag/cell
     absolute magnetization    =     0.00 Bohr mag/cell

     convergence has been achieved in  14 iterations

     Writing all to output data dir ./Pd_k_8.save/ :
     XML data file, charge density, pseudopotentials, collected wavefunctions
 
     init_run     :      1.11s CPU      1.18s WALL (       1 calls)
     electrons    :     21.62s CPU     31.01s WALL (       1 calls)

     Called by init_run:
     wfcinit      :      0.68s CPU      0.72s WALL (       1 calls)
     potinit      :      0.30s CPU      0.32s WALL (       1 calls)
     hinit0       :      0.09s CPU      0.09s WALL (       1 calls)

     Called by electrons:
     c_bands      :     15.72s CPU     23.83s WALL (      15 calls)
     sum_band     :      2.29s CPU      3.22s WALL (      15 calls)
     v_of_rho     :      0.14s CPU      0.15s WALL (      15 calls)
     newd         :      0.10s CPU      0.11s WALL (      15 calls)
     PAW_pot      :      3.06s CPU      3.32s WALL (      15 calls)
     mix_rho      :      0.09s CPU      0.12s WALL (      15 calls)
     energy_dftd3 :      0.31s CPU      0.31s WALL (       1 calls)

     Called by c_bands:
     init_us_2    :      0.14s CPU      0.20s WALL (    2015 calls)
     init_us_2:cp :      0.13s CPU      0.19s WALL (    2015 calls)
     cegterg      :     13.89s CPU     17.34s WALL (     975 calls)

     Called by *egterg:
     cdiaghg      :      2.94s CPU      4.81s WALL (    3107 calls)
     h_psi        :      9.67s CPU     10.91s WALL (    3237 calls)
     s_psi        :      0.21s CPU      0.25s WALL (    3237 calls)
     g_psi        :      0.03s CPU      0.04s WALL (    2197 calls)

     Called by h_psi:
     h_psi:calbec :      0.56s CPU      0.61s WALL (    3237 calls)
     vloc_psi     :      8.84s CPU      9.98s WALL (    3237 calls)
     add_vuspsi   :      0.23s CPU      0.25s WALL (    3237 calls)

     General routines
     calbec       :      0.77s CPU      0.87s WALL (    4212 calls)
     fft          :      0.12s CPU      0.13s WALL (     371 calls)
     ffts         :      0.04s CPU      0.04s WALL (     285 calls)
     fftw         :      9.55s CPU     11.16s WALL (  148316 calls)
     interpolate  :      0.03s CPU      0.03s WALL (      30 calls)
 
     Parallel routines
 
     PWSCF        :     22.96s CPU     32.99s WALL

 
   This run was terminated on:   0:52:14   6Sep2025            

=------------------------------------------------------------------------------=
   JOB DONE.
=------------------------------------------------------------------------------=
