
     Program PWSCF v.7.3 starts on  6Sep2025 at  1:24:28 

     This program is part of the open-source Quantum ESPRESSO suite
     for quantum simulation of materials; please cite
         "P. Giannozzi et al., J. Phys.:Condens. Matter 21 395502 (2009);
         "P. Giannozzi et al., J. Phys.:Condens. Matter 29 465901 (2017);
         "P. Giannozzi et al., J. Chem. Phys. 152 154105 (2020);
          URL http://www.quantum-espresso.org", 
     in publications or presentations arising from this work. More details at
     http://www.quantum-espresso.org/quote

     Parallel version (MPI), running on    30 processors

     MPI processes distributed on     1 nodes
     226013 MiB available memory on the printing compute node when the environment starts
 
     Waiting for input...
     Reading input from standard input

     Current dimensions of program PWSCF are:
     Max number of different atomic species (ntypx) = 10
     Max number of k-points (npk) =  40000
     Max angular momentum in pseudopotentials (lmaxx) =  4
     file Pd.upf: wavefunction(s)  5S 4D renormalized

     IMPORTANT: XC functional enforced from input :
     Exchange-correlation= PBE
                           (   1   4   3   4   0   0   0)
     Any further DFT definition will be discarded
     Please, verify this is what you really want

     Message from routine setup:
     using ibrav=0 with symmetry is DISCOURAGED, use correct ibrav instead
 
     K-points division:     npool     =       2
     R & G space division:  proc/nbgrp/npool/nimage =      15
     Subspace diagonalization in iterative solution of the eigenvalue problem:
     a serial algorithm will be used

 
     Parallelization info
     --------------------
     sticks:   dense  smooth     PW     G-vecs:    dense   smooth      PW
     Min         107      53     16                 3258     1151     196
     Max         109      55     17                 3260     1152     201
     Sum        1617     805    241                48885    17269    2945
 
     Using Slab Decomposition
 

     Title: 
     Pd_k_19                                                                    


     bravais-lattice index     =            0
     lattice parameter (alat)  =       6.5025  a.u.
     unit-cell volume          =     274.9107 (a.u.)^3
     number of atoms/cell      =            4
     number of atomic types    =            1
     number of electrons       =        40.00
     number of Kohn-Sham states=           24
     kinetic-energy cutoff     =      60.0000  Ry
     charge density cutoff     =     480.0000  Ry
     scf convergence threshold =      6.4E-09
     mixing beta               =       0.5000
     number of iterations used =           10  local-TF  mixing
     Exchange-correlation= PBE
                           (   1   4   3   4   0   0   0)

     celldm(1)=   6.502548  celldm(2)=   0.000000  celldm(3)=   0.000000
     celldm(4)=   0.000000  celldm(5)=   0.000000  celldm(6)=   0.000000

     crystal axes: (cart. coord. in units of alat)
               a(1) = (   0.999955   0.000000   0.000000 )  
               a(2) = (   0.000000   0.999955   0.000000 )  
               a(3) = (   0.000000   0.000000   0.999955 )  

     reciprocal axes: (cart. coord. in units 2 pi/alat)
               b(1) = (  1.000045  0.000000  0.000000 )  
               b(2) = (  0.000000  1.000045  0.000000 )  
               b(3) = (  0.000000  0.000000  1.000045 )  


     PseudoPot. # 1 for Pd read from file:
     /tmpu/mdach_g/mdach/PP/Pd.upf
     MD5 check sum: e9d6f14fd83b79f8105499163af174c9
     Pseudo is Projector augmented-wave + core cor, Zval = 10.0
     Generated using "atomic" code by A. Dal Corso  v.5.0.2 svn rev. 9415
     Shape of augmentation charge: PSQ
     Using radial grid of 1235 points,  6 beta functions with: 
                l(1) =   0
                l(2) =   0
                l(3) =   1
                l(4) =   1
                l(5) =   2
                l(6) =   2
     Q(r) pseudized with 0 coefficients 


     atomic species   valence    mass     pseudopotential
     Pd               10.00   106.42000     Pd( 1.00)

     Starting magnetic structure 
     atomic species   magnetization
     Pd              0.200

      6 Sym. Ops. (no inversion) found



   Cartesian axes

     site n.     atom                  positions (alat units)
         1        Pd     tau(   1) = (  -0.0054534  -0.0054534  -0.0054534  )
         2        Pd     tau(   2) = (  -0.0054550   0.5513882   0.5513882  )
         3        Pd     tau(   3) = (   0.5513882  -0.0054550   0.5513882  )
         4        Pd     tau(   4) = (   0.5513882   0.5513882  -0.0054550  )

     --------------------------------------------
     DFT-D3 Dispersion Correction (3-body terms):
     --------------------------------------------
       Reference C6 values for interpolation: 

         atom   Coordination number   C6
         Pd         0.000          1217.01
         Pd         1.863           573.90
         Pd         5.710           531.75

       Values used:

         atom   Coordination number  R0_AB[au]  C6      C8
         Pd        11.468            3.168    531.75  48720.73
         Pd        11.468            3.168    531.75  48720.73
         Pd        11.468            3.168    531.75  48720.73
         Pd        11.468            3.168    531.75  48720.73

         Molecular C6 ( Ry / a.u.^6 ) =      8507.99


     number of k points=   670  Methfessel-Paxton smearing, width (Ry)=  0.0147

     Number of k-points >= 100: set verbosity='high' to print them.

     Dense  grid:    48885 G-vectors     FFT dimensions: (  45,  45,  45)

     Smooth grid:    17269 G-vectors     FFT dimensions: (  36,  36,  36)

     Estimated max dynamical RAM per process >      46.14 MB

     Estimated total dynamical RAM >       1.32 GB
     Generating pointlists ...
     new r_m :   0.2585 (alat units)  1.6809 (a.u.) for type    1

     Initial potential from superposition of free atoms

     starting charge      39.9979, renormalised to      40.0000
     Starting wfcs are   36 atomic wfcs
     Checking if some PAW data can be deallocated... 

     total cpu time spent up to now is        7.7 secs

     Self-consistent Calculation

     iteration #  1     ecut=    60.00 Ry     beta= 0.50
     Davidson diagonalization with overlap
     ethr =  1.00E-02,  avg # of iterations =  4.2

     Threshold (ethr) on eigenvalues was too large:
     Diagonalizing with lowered threshold

     Davidson diagonalization with overlap
     ethr =  6.14E-04,  avg # of iterations =  2.7

     total cpu time spent up to now is       48.3 secs

     total energy              =   -1324.00831466 Ry
     estimated scf accuracy    <       0.27989967 Ry

     total magnetization       =     2.17 Bohr mag/cell
     absolute magnetization    =     2.17 Bohr mag/cell

     iteration #  2     ecut=    60.00 Ry     beta= 0.50
     Davidson diagonalization with overlap
     ethr =  7.00E-04,  avg # of iterations =  1.1

     total cpu time spent up to now is       62.2 secs

     total energy              =   -1324.02929755 Ry
     estimated scf accuracy    <       0.08727890 Ry

     total magnetization       =     1.60 Bohr mag/cell
     absolute magnetization    =     1.61 Bohr mag/cell

     iteration #  3     ecut=    60.00 Ry     beta= 0.50
     Davidson diagonalization with overlap
     ethr =  2.18E-04,  avg # of iterations =  2.3

     total cpu time spent up to now is       81.7 secs

     total energy              =   -1324.05831040 Ry
     estimated scf accuracy    <       0.00949204 Ry

     total magnetization       =     0.55 Bohr mag/cell
     absolute magnetization    =     0.63 Bohr mag/cell

     iteration #  4     ecut=    60.00 Ry     beta= 0.50
     Davidson diagonalization with overlap
     ethr =  2.37E-05,  avg # of iterations =  2.8

     total cpu time spent up to now is       99.0 secs

     total energy              =   -1324.06317135 Ry
     estimated scf accuracy    <       0.00844580 Ry

     total magnetization       =     0.54 Bohr mag/cell
     absolute magnetization    =     0.61 Bohr mag/cell

     iteration #  5     ecut=    60.00 Ry     beta= 0.50
     Davidson diagonalization with overlap
     ethr =  2.11E-05,  avg # of iterations =  1.0

     total cpu time spent up to now is      112.8 secs

     total energy              =   -1324.06089612 Ry
     estimated scf accuracy    <       0.00913865 Ry

     total magnetization       =     0.36 Bohr mag/cell
     absolute magnetization    =     0.42 Bohr mag/cell

     iteration #  6     ecut=    60.00 Ry     beta= 0.50
     Davidson diagonalization with overlap
     ethr =  2.11E-05,  avg # of iterations =  1.5

     total cpu time spent up to now is      130.7 secs

     total energy              =   -1324.06230724 Ry
     estimated scf accuracy    <       0.00158686 Ry

     total magnetization       =     0.11 Bohr mag/cell
     absolute magnetization    =     0.13 Bohr mag/cell

     iteration #  7     ecut=    60.00 Ry     beta= 0.50
     Davidson diagonalization with overlap
     ethr =  3.97E-06,  avg # of iterations =  1.4

     total cpu time spent up to now is      145.0 secs

     total energy              =   -1324.06239817 Ry
     estimated scf accuracy    <       0.00086591 Ry

     total magnetization       =     0.08 Bohr mag/cell
     absolute magnetization    =     0.09 Bohr mag/cell

     iteration #  8     ecut=    60.00 Ry     beta= 0.50
     Davidson diagonalization with overlap
     ethr =  2.16E-06,  avg # of iterations =  1.0

     total cpu time spent up to now is      158.3 secs

     total energy              =   -1324.06237262 Ry
     estimated scf accuracy    <       0.00087729 Ry

     total magnetization       =     0.08 Bohr mag/cell
     absolute magnetization    =     0.09 Bohr mag/cell

     iteration #  9     ecut=    60.00 Ry     beta= 0.50
     Davidson diagonalization with overlap
     ethr =  2.16E-06,  avg # of iterations =  1.0

     total cpu time spent up to now is      172.5 secs

     total energy              =   -1324.06215865 Ry
     estimated scf accuracy    <       0.00091259 Ry

     total magnetization       =     0.07 Bohr mag/cell
     absolute magnetization    =     0.09 Bohr mag/cell

     iteration # 10     ecut=    60.00 Ry     beta= 0.50
     Davidson diagonalization with overlap
     ethr =  2.16E-06,  avg # of iterations =  1.5

     total cpu time spent up to now is      190.1 secs

     total energy              =   -1324.06220707 Ry
     estimated scf accuracy    <       0.00017242 Ry

     total magnetization       =     0.05 Bohr mag/cell
     absolute magnetization    =     0.06 Bohr mag/cell

     iteration # 11     ecut=    60.00 Ry     beta= 0.50
     Davidson diagonalization with overlap
     ethr =  4.31E-07,  avg # of iterations =  3.1

     total cpu time spent up to now is      218.0 secs

     total energy              =   -1324.06264494 Ry
     estimated scf accuracy    <       0.00150371 Ry

     total magnetization       =     0.01 Bohr mag/cell
     absolute magnetization    =     0.02 Bohr mag/cell

     iteration # 12     ecut=    60.00 Ry     beta= 0.50
     Davidson diagonalization with overlap
     ethr =  4.31E-07,  avg # of iterations =  1.0

     total cpu time spent up to now is      231.6 secs

     total energy              =   -1324.06229436 Ry
     estimated scf accuracy    <       0.00168112 Ry

     total magnetization       =     0.00 Bohr mag/cell
     absolute magnetization    =     0.02 Bohr mag/cell

     iteration # 13     ecut=    60.00 Ry     beta= 0.50
     Davidson diagonalization with overlap
     ethr =  4.31E-07,  avg # of iterations =  2.6

     total cpu time spent up to now is      253.6 secs

     total energy              =   -1324.06212055 Ry
     estimated scf accuracy    <       0.00062950 Ry

     total magnetization       =     0.00 Bohr mag/cell
     absolute magnetization    =     0.01 Bohr mag/cell

     iteration # 14     ecut=    60.00 Ry     beta= 0.50
     Davidson diagonalization with overlap
     ethr =  4.31E-07,  avg # of iterations =  3.0

     total cpu time spent up to now is      279.9 secs

     total energy              =   -1324.06228330 Ry
     estimated scf accuracy    <       0.00002667 Ry

     total magnetization       =     0.01 Bohr mag/cell
     absolute magnetization    =     0.01 Bohr mag/cell

     iteration # 15     ecut=    60.00 Ry     beta= 0.50
     Davidson diagonalization with overlap
     ethr =  6.67E-08,  avg # of iterations =  1.5

     total cpu time spent up to now is      294.6 secs

     total energy              =   -1324.06228487 Ry
     estimated scf accuracy    <       0.00000425 Ry

     total magnetization       =     0.00 Bohr mag/cell
     absolute magnetization    =     0.00 Bohr mag/cell

     iteration # 16     ecut=    60.00 Ry     beta= 0.50
     Davidson diagonalization with overlap
     ethr =  1.06E-08,  avg # of iterations =  2.5

     total cpu time spent up to now is      317.4 secs

     total energy              =   -1324.06228597 Ry
     estimated scf accuracy    <       0.00000013 Ry

     total magnetization       =     0.00 Bohr mag/cell
     absolute magnetization    =     0.00 Bohr mag/cell

     iteration # 17     ecut=    60.00 Ry     beta= 0.50
     Davidson diagonalization with overlap
     ethr =  3.34E-10,  avg # of iterations =  2.5

     total cpu time spent up to now is      334.6 secs

     total energy              =   -1324.06228599 Ry
     estimated scf accuracy    <       0.00000006 Ry

     total magnetization       =     0.00 Bohr mag/cell
     absolute magnetization    =     0.00 Bohr mag/cell

     iteration # 18     ecut=    60.00 Ry     beta= 0.50
     Davidson diagonalization with overlap
     ethr =  1.62E-10,  avg # of iterations =  1.3

     total cpu time spent up to now is      348.5 secs

     total energy              =   -1324.06228599 Ry
     estimated scf accuracy    <       0.00000002 Ry

     total magnetization       =     0.00 Bohr mag/cell
     absolute magnetization    =     0.00 Bohr mag/cell

     iteration # 19     ecut=    60.00 Ry     beta= 0.50
     Davidson diagonalization with overlap
     ethr =  5.32E-11,  avg # of iterations =  2.9

     total cpu time spent up to now is      370.2 secs

     total energy              =   -1324.06228600 Ry
     estimated scf accuracy    <          8.3E-09 Ry

     total magnetization       =     0.00 Bohr mag/cell
     absolute magnetization    =     0.00 Bohr mag/cell

     iteration # 20     ecut=    60.00 Ry     beta= 0.50
     Davidson diagonalization with overlap
     ethr =  2.07E-11,  avg # of iterations =  1.6
 
     Magnetic moment per site  (integrated on atomic sphere of radius R)
     atom   1 (R=0.258)  charge=  7.1585  magn=  0.0000
     atom   2 (R=0.258)  charge=  7.1586  magn=  0.0000
     atom   3 (R=0.258)  charge=  7.1586  magn=  0.0000
     atom   4 (R=0.258)  charge=  7.1586  magn=  0.0000

     total cpu time spent up to now is      384.5 secs

     End of self-consistent calculation

     Number of k-points >= 100: set verbosity='high' to print the bands.

     the Fermi energy is    23.8682 ev

!    total energy              =   -1324.06228599 Ry
     total all-electron energy =    -40367.859251 Ry
     estimated scf accuracy    <          1.7E-09 Ry
     smearing contrib. (-TS)   =      -0.00005757 Ry
     internal energy E=F+TS    =   -1324.06222843 Ry

     The total energy is F=E-TS. E is the sum of the following terms:
     one-electron contribution =      82.83922788 Ry
     hartree contribution      =      30.32872414 Ry
     xc contribution           =    -132.08217459 Ry
     ewald contribution        =    -276.84078315 Ry
     DFT-D3 Dispersion         =      -0.70720743 Ry
     one-center paw contrib.   =   -1027.60001529 Ry

     total magnetization       =     0.00 Bohr mag/cell
     absolute magnetization    =     0.00 Bohr mag/cell

     convergence has been achieved in  20 iterations

     Writing all to output data dir ./Pd_k_19.save/ :
     XML data file, charge density, pseudopotentials, collected wavefunctions
 
     init_run     :      6.95s CPU      7.46s WALL (       1 calls)
     electrons    :    247.09s CPU    376.89s WALL (       1 calls)

     Called by init_run:
     wfcinit      :      6.72s CPU      7.08s WALL (       1 calls)
     potinit      :      0.14s CPU      0.27s WALL (       1 calls)
     hinit0       :      0.05s CPU      0.06s WALL (       1 calls)

     Called by electrons:
     c_bands      :    205.27s CPU    329.99s WALL (      21 calls)
     sum_band     :     36.88s CPU     41.35s WALL (      21 calls)
     v_of_rho     :      0.22s CPU      0.28s WALL (      21 calls)
     newd         :      0.16s CPU      0.21s WALL (      21 calls)
     PAW_pot      :      4.09s CPU      4.55s WALL (      21 calls)
     mix_rho      :      0.07s CPU      0.11s WALL (      21 calls)
     energy_dftd3 :      0.30s CPU      0.31s WALL (       1 calls)

     Called by c_bands:
     init_us_2    :      1.94s CPU      2.45s WALL (   28810 calls)
     init_us_2:cp :      1.85s CPU      2.36s WALL (   28810 calls)
     cegterg      :    182.88s CPU    247.95s WALL (   14070 calls)

     Called by *egterg:
     cdiaghg      :     38.48s CPU     61.96s WALL (   42483 calls)
     h_psi        :    125.57s CPU    161.71s WALL (   43823 calls)
     s_psi        :      2.94s CPU      4.04s WALL (   43823 calls)
     g_psi        :      0.47s CPU      0.55s WALL (   29083 calls)

     Called by h_psi:
     h_psi:calbec :      5.82s CPU      7.53s WALL (   43823 calls)
     vloc_psi     :    115.95s CPU    149.15s WALL (   43823 calls)
     add_vuspsi   :      3.10s CPU      4.13s WALL (   43823 calls)

     General routines
     calbec       :      8.46s CPU     10.40s WALL (   57893 calls)
     fft          :      0.15s CPU      0.20s WALL (     521 calls)
     ffts         :      0.07s CPU      0.09s WALL (     417 calls)
     fftw         :    133.86s CPU    166.15s WALL ( 2048116 calls)
     interpolate  :      0.03s CPU      0.03s WALL (      42 calls)
 
     Parallel routines
 
     PWSCF        :   4m15.53s CPU   6m29.23s WALL

 
   This run was terminated on:   1:30:58   6Sep2025            

=------------------------------------------------------------------------------=
   JOB DONE.
=------------------------------------------------------------------------------=
