
     Program PWSCF v.7.3 starts on  6Sep2025 at  1:38:41 

     This program is part of the open-source Quantum ESPRESSO suite
     for quantum simulation of materials; please cite
         "P. Giannozzi et al., J. Phys.:Condens. Matter 21 395502 (2009);
         "P. Giannozzi et al., J. Phys.:Condens. Matter 29 465901 (2017);
         "P. Giannozzi et al., J. Chem. Phys. 152 154105 (2020);
          URL http://www.quantum-espresso.org", 
     in publications or presentations arising from this work. More details at
     http://www.quantum-espresso.org/quote

     Parallel version (MPI), running on    30 processors

     MPI processes distributed on     1 nodes
     227366 MiB available memory on the printing compute node when the environment starts
 
     Waiting for input...
     Reading input from standard input

     Current dimensions of program PWSCF are:
     Max number of different atomic species (ntypx) = 10
     Max number of k-points (npk) =  40000
     Max angular momentum in pseudopotentials (lmaxx) =  4
     file Pd.upf: wavefunction(s)  5S 4D renormalized

     IMPORTANT: XC functional enforced from input :
     Exchange-correlation= PBE
                           (   1   4   3   4   0   0   0)
     Any further DFT definition will be discarded
     Please, verify this is what you really want

     Message from routine setup:
     using ibrav=0 with symmetry is DISCOURAGED, use correct ibrav instead
 
     K-points division:     npool     =       2
     R & G space division:  proc/nbgrp/npool/nimage =      15
     Subspace diagonalization in iterative solution of the eigenvalue problem:
     a serial algorithm will be used

 
     Parallelization info
     --------------------
     sticks:   dense  smooth     PW     G-vecs:    dense   smooth      PW
     Min         107      53     16                 3258     1151     196
     Max         109      55     17                 3260     1152     201
     Sum        1617     805    241                48885    17269    2945
 
     Using Slab Decomposition
 

     Title: 
     Pd_k_21                                                                    


     bravais-lattice index     =            0
     lattice parameter (alat)  =       6.5025  a.u.
     unit-cell volume          =     274.9107 (a.u.)^3
     number of atoms/cell      =            4
     number of atomic types    =            1
     number of electrons       =        40.00
     number of Kohn-Sham states=           24
     kinetic-energy cutoff     =      60.0000  Ry
     charge density cutoff     =     480.0000  Ry
     scf convergence threshold =      6.4E-09
     mixing beta               =       0.5000
     number of iterations used =           10  local-TF  mixing
     Exchange-correlation= PBE
                           (   1   4   3   4   0   0   0)

     celldm(1)=   6.502548  celldm(2)=   0.000000  celldm(3)=   0.000000
     celldm(4)=   0.000000  celldm(5)=   0.000000  celldm(6)=   0.000000

     crystal axes: (cart. coord. in units of alat)
               a(1) = (   0.999955   0.000000   0.000000 )  
               a(2) = (   0.000000   0.999955   0.000000 )  
               a(3) = (   0.000000   0.000000   0.999955 )  

     reciprocal axes: (cart. coord. in units 2 pi/alat)
               b(1) = (  1.000045  0.000000  0.000000 )  
               b(2) = (  0.000000  1.000045  0.000000 )  
               b(3) = (  0.000000  0.000000  1.000045 )  


     PseudoPot. # 1 for Pd read from file:
     /tmpu/mdach_g/mdach/PP/Pd.upf
     MD5 check sum: e9d6f14fd83b79f8105499163af174c9
     Pseudo is Projector augmented-wave + core cor, Zval = 10.0
     Generated using "atomic" code by A. Dal Corso  v.5.0.2 svn rev. 9415
     Shape of augmentation charge: PSQ
     Using radial grid of 1235 points,  6 beta functions with: 
                l(1) =   0
                l(2) =   0
                l(3) =   1
                l(4) =   1
                l(5) =   2
                l(6) =   2
     Q(r) pseudized with 0 coefficients 


     atomic species   valence    mass     pseudopotential
     Pd               10.00   106.42000     Pd( 1.00)

     Starting magnetic structure 
     atomic species   magnetization
     Pd              0.200

      6 Sym. Ops. (no inversion) found



   Cartesian axes

     site n.     atom                  positions (alat units)
         1        Pd     tau(   1) = (  -0.0054534  -0.0054534  -0.0054534  )
         2        Pd     tau(   2) = (  -0.0054550   0.5513882   0.5513882  )
         3        Pd     tau(   3) = (   0.5513882  -0.0054550   0.5513882  )
         4        Pd     tau(   4) = (   0.5513882   0.5513882  -0.0054550  )

     --------------------------------------------
     DFT-D3 Dispersion Correction (3-body terms):
     --------------------------------------------
       Reference C6 values for interpolation: 

         atom   Coordination number   C6
         Pd         0.000          1217.01
         Pd         1.863           573.90
         Pd         5.710           531.75

       Values used:

         atom   Coordination number  R0_AB[au]  C6      C8
         Pd        11.468            3.168    531.75  48720.73
         Pd        11.468            3.168    531.75  48720.73
         Pd        11.468            3.168    531.75  48720.73
         Pd        11.468            3.168    531.75  48720.73

         Molecular C6 ( Ry / a.u.^6 ) =      8507.99


     number of k points=   891  Methfessel-Paxton smearing, width (Ry)=  0.0147

     Number of k-points >= 100: set verbosity='high' to print them.

     Dense  grid:    48885 G-vectors     FFT dimensions: (  45,  45,  45)

     Smooth grid:    17269 G-vectors     FFT dimensions: (  36,  36,  36)

     Estimated max dynamical RAM per process >      57.72 MB

     Estimated total dynamical RAM >       1.66 GB
     Generating pointlists ...
     new r_m :   0.2585 (alat units)  1.6809 (a.u.) for type    1

     Initial potential from superposition of free atoms

     starting charge      39.9979, renormalised to      40.0000
     Starting wfcs are   36 atomic wfcs
     Checking if some PAW data can be deallocated... 

     total cpu time spent up to now is        8.0 secs

     Self-consistent Calculation

     iteration #  1     ecut=    60.00 Ry     beta= 0.50
     Davidson diagonalization with overlap
     ethr =  1.00E-02,  avg # of iterations =  4.2

     Threshold (ethr) on eigenvalues was too large:
     Diagonalizing with lowered threshold

     Davidson diagonalization with overlap
     ethr =  6.14E-04,  avg # of iterations =  2.7

     total cpu time spent up to now is       63.6 secs

     total energy              =   -1324.00820071 Ry
     estimated scf accuracy    <       0.27996787 Ry

     total magnetization       =     2.17 Bohr mag/cell
     absolute magnetization    =     2.17 Bohr mag/cell

     iteration #  2     ecut=    60.00 Ry     beta= 0.50
     Davidson diagonalization with overlap
     ethr =  7.00E-04,  avg # of iterations =  1.1

     total cpu time spent up to now is       82.0 secs

     total energy              =   -1324.02920744 Ry
     estimated scf accuracy    <       0.08724115 Ry

     total magnetization       =     1.61 Bohr mag/cell
     absolute magnetization    =     1.61 Bohr mag/cell

     iteration #  3     ecut=    60.00 Ry     beta= 0.50
     Davidson diagonalization with overlap
     ethr =  2.18E-04,  avg # of iterations =  2.3

     total cpu time spent up to now is      107.9 secs

     total energy              =   -1324.05829784 Ry
     estimated scf accuracy    <       0.00956112 Ry

     total magnetization       =     0.55 Bohr mag/cell
     absolute magnetization    =     0.63 Bohr mag/cell

     iteration #  4     ecut=    60.00 Ry     beta= 0.50
     Davidson diagonalization with overlap
     ethr =  2.39E-05,  avg # of iterations =  2.8

     total cpu time spent up to now is      130.4 secs

     total energy              =   -1324.06339854 Ry
     estimated scf accuracy    <       0.00862158 Ry

     total magnetization       =     0.54 Bohr mag/cell
     absolute magnetization    =     0.61 Bohr mag/cell

     iteration #  5     ecut=    60.00 Ry     beta= 0.50
     Davidson diagonalization with overlap
     ethr =  2.16E-05,  avg # of iterations =  1.0

     total cpu time spent up to now is      148.9 secs

     total energy              =   -1324.06119408 Ry
     estimated scf accuracy    <       0.01021699 Ry

     total magnetization       =     0.37 Bohr mag/cell
     absolute magnetization    =     0.44 Bohr mag/cell

     iteration #  6     ecut=    60.00 Ry     beta= 0.50
     Davidson diagonalization with overlap
     ethr =  2.16E-05,  avg # of iterations =  1.8

     total cpu time spent up to now is      174.5 secs

     total energy              =   -1324.06245742 Ry
     estimated scf accuracy    <       0.00241756 Ry

     total magnetization       =     0.11 Bohr mag/cell
     absolute magnetization    =     0.13 Bohr mag/cell

     iteration #  7     ecut=    60.00 Ry     beta= 0.50
     Davidson diagonalization with overlap
     ethr =  6.04E-06,  avg # of iterations =  1.1

     total cpu time spent up to now is      193.0 secs

     total energy              =   -1324.06257561 Ry
     estimated scf accuracy    <       0.00125840 Ry

     total magnetization       =     0.07 Bohr mag/cell
     absolute magnetization    =     0.09 Bohr mag/cell

     iteration #  8     ecut=    60.00 Ry     beta= 0.50
     Davidson diagonalization with overlap
     ethr =  3.15E-06,  avg # of iterations =  1.0

     total cpu time spent up to now is      211.6 secs

     total energy              =   -1324.06252092 Ry
     estimated scf accuracy    <       0.00128561 Ry

     total magnetization       =     0.07 Bohr mag/cell
     absolute magnetization    =     0.08 Bohr mag/cell

     iteration #  9     ecut=    60.00 Ry     beta= 0.50
     Davidson diagonalization with overlap
     ethr =  3.15E-06,  avg # of iterations =  1.0

     total cpu time spent up to now is      229.7 secs

     total energy              =   -1324.06251646 Ry
     estimated scf accuracy    <       0.00136704 Ry

     total magnetization       =     0.06 Bohr mag/cell
     absolute magnetization    =     0.07 Bohr mag/cell

     iteration # 10     ecut=    60.00 Ry     beta= 0.50
     Davidson diagonalization with overlap
     ethr =  3.15E-06,  avg # of iterations =  1.0

     total cpu time spent up to now is      248.2 secs

     total energy              =   -1324.06240950 Ry
     estimated scf accuracy    <       0.00156140 Ry

     total magnetization       =     0.06 Bohr mag/cell
     absolute magnetization    =     0.07 Bohr mag/cell

     iteration # 11     ecut=    60.00 Ry     beta= 0.50
     Davidson diagonalization with overlap
     ethr =  3.15E-06,  avg # of iterations =  1.5

     total cpu time spent up to now is      269.4 secs

     total energy              =   -1324.06232667 Ry
     estimated scf accuracy    <       0.00083665 Ry

     total magnetization       =     0.03 Bohr mag/cell
     absolute magnetization    =     0.04 Bohr mag/cell

     iteration # 12     ecut=    60.00 Ry     beta= 0.50
     Davidson diagonalization with overlap
     ethr =  2.09E-06,  avg # of iterations =  1.0

     total cpu time spent up to now is      287.4 secs

     total energy              =   -1324.06023658 Ry
     estimated scf accuracy    <       0.00061157 Ry

     total magnetization       =     0.07 Bohr mag/cell
     absolute magnetization    =     0.07 Bohr mag/cell

     iteration # 13     ecut=    60.00 Ry     beta= 0.50
     Davidson diagonalization with overlap
     ethr =  1.53E-06,  avg # of iterations =  3.3

     total cpu time spent up to now is      326.9 secs

     total energy              =   -1324.06091093 Ry
     estimated scf accuracy    <       0.01174470 Ry

     total magnetization       =     0.17 Bohr mag/cell
     absolute magnetization    =     0.26 Bohr mag/cell

     iteration # 14     ecut=    60.00 Ry     beta= 0.50
     Davidson diagonalization with overlap
     ethr =  1.53E-06,  avg # of iterations =  2.1

     total cpu time spent up to now is      353.2 secs

     total energy              =   -1324.06048090 Ry
     estimated scf accuracy    <       0.01795589 Ry

     total magnetization       =     0.22 Bohr mag/cell
     absolute magnetization    =     0.34 Bohr mag/cell

     iteration # 15     ecut=    60.00 Ry     beta= 0.50
     Davidson diagonalization with overlap
     ethr =  1.53E-06,  avg # of iterations =  1.0

     total cpu time spent up to now is      371.2 secs

     total energy              =   -1324.06075181 Ry
     estimated scf accuracy    <       0.01989063 Ry

     total magnetization       =     0.22 Bohr mag/cell
     absolute magnetization    =     0.35 Bohr mag/cell

     iteration # 16     ecut=    60.00 Ry     beta= 0.50
     Davidson diagonalization with overlap
     ethr =  1.53E-06,  avg # of iterations =  2.2

     total cpu time spent up to now is      397.6 secs

     total energy              =   -1324.06115098 Ry
     estimated scf accuracy    <       0.01219504 Ry

     total magnetization       =     0.18 Bohr mag/cell
     absolute magnetization    =     0.29 Bohr mag/cell

     iteration # 17     ecut=    60.00 Ry     beta= 0.50
     Davidson diagonalization with overlap
     ethr =  1.53E-06,  avg # of iterations =  1.0

     total cpu time spent up to now is      416.4 secs

     total energy              =   -1324.06109428 Ry
     estimated scf accuracy    <       0.00931212 Ry

     total magnetization       =     0.16 Bohr mag/cell
     absolute magnetization    =     0.26 Bohr mag/cell

     iteration # 18     ecut=    60.00 Ry     beta= 0.50
     Davidson diagonalization with overlap
     ethr =  1.53E-06,  avg # of iterations =  1.0

     total cpu time spent up to now is      434.9 secs

     total energy              =   -1324.06059221 Ry
     estimated scf accuracy    <       0.00982043 Ry

     total magnetization       =     0.16 Bohr mag/cell
     absolute magnetization    =     0.27 Bohr mag/cell

     iteration # 19     ecut=    60.00 Ry     beta= 0.50
     Davidson diagonalization with overlap
     ethr =  1.53E-06,  avg # of iterations =  3.3

     total cpu time spent up to now is      474.8 secs

     total energy              =   -1324.06231543 Ry
     estimated scf accuracy    <       0.00003209 Ry

     total magnetization       =     0.04 Bohr mag/cell
     absolute magnetization    =     0.05 Bohr mag/cell

     iteration # 20     ecut=    60.00 Ry     beta= 0.50
     Davidson diagonalization with overlap
     ethr =  8.02E-08,  avg # of iterations =  2.0

     total cpu time spent up to now is      495.8 secs

     total energy              =   -1324.06233097 Ry
     estimated scf accuracy    <       0.00001142 Ry

     total magnetization       =     0.02 Bohr mag/cell
     absolute magnetization    =     0.03 Bohr mag/cell

     iteration # 21     ecut=    60.00 Ry     beta= 0.50
     Davidson diagonalization with overlap
     ethr =  2.86E-08,  avg # of iterations =  2.1

     total cpu time spent up to now is      522.1 secs

     total energy              =   -1324.06233543 Ry
     estimated scf accuracy    <       0.00001912 Ry

     total magnetization       =     0.01 Bohr mag/cell
     absolute magnetization    =     0.01 Bohr mag/cell

     iteration # 22     ecut=    60.00 Ry     beta= 0.50
     Davidson diagonalization with overlap
     ethr =  2.86E-08,  avg # of iterations =  1.0

     total cpu time spent up to now is      540.5 secs

     total energy              =   -1324.06233411 Ry
     estimated scf accuracy    <       0.00001626 Ry

     total magnetization       =     0.00 Bohr mag/cell
     absolute magnetization    =     0.00 Bohr mag/cell

     iteration # 23     ecut=    60.00 Ry     beta= 0.50
     Davidson diagonalization with overlap
     ethr =  2.86E-08,  avg # of iterations =  1.0

     total cpu time spent up to now is      558.8 secs

     total energy              =   -1324.06233472 Ry
     estimated scf accuracy    <       0.00001095 Ry

     total magnetization       =     0.00 Bohr mag/cell
     absolute magnetization    =     0.01 Bohr mag/cell

     iteration # 24     ecut=    60.00 Ry     beta= 0.50
     Davidson diagonalization with overlap
     ethr =  2.74E-08,  avg # of iterations =  1.0

     total cpu time spent up to now is      576.5 secs

     total energy              =   -1324.06233084 Ry
     estimated scf accuracy    <       0.00000869 Ry

     total magnetization       =     0.00 Bohr mag/cell
     absolute magnetization    =     0.00 Bohr mag/cell

     iteration # 25     ecut=    60.00 Ry     beta= 0.50
     Davidson diagonalization with overlap
     ethr =  2.17E-08,  avg # of iterations =  1.2

     total cpu time spent up to now is      595.8 secs

     total energy              =   -1324.06233390 Ry
     estimated scf accuracy    <       0.00000714 Ry

     total magnetization       =    -0.00 Bohr mag/cell
     absolute magnetization    =     0.00 Bohr mag/cell

     iteration # 26     ecut=    60.00 Ry     beta= 0.50
     Davidson diagonalization with overlap
     ethr =  1.79E-08,  avg # of iterations =  1.0

     total cpu time spent up to now is      614.2 secs

     total energy              =   -1324.06233292 Ry
     estimated scf accuracy    <       0.00000854 Ry

     total magnetization       =     0.00 Bohr mag/cell
     absolute magnetization    =     0.00 Bohr mag/cell

     iteration # 27     ecut=    60.00 Ry     beta= 0.50
     Davidson diagonalization with overlap
     ethr =  1.79E-08,  avg # of iterations =  2.0

     total cpu time spent up to now is      634.5 secs

     total energy              =   -1324.06233349 Ry
     estimated scf accuracy    <       0.00000128 Ry

     total magnetization       =     0.00 Bohr mag/cell
     absolute magnetization    =     0.00 Bohr mag/cell

     iteration # 28     ecut=    60.00 Ry     beta= 0.50
     Davidson diagonalization with overlap
     ethr =  3.20E-09,  avg # of iterations =  3.0

     total cpu time spent up to now is      670.0 secs

     total energy              =   -1324.06233442 Ry
     estimated scf accuracy    <       0.00000257 Ry

     total magnetization       =    -0.00 Bohr mag/cell
     absolute magnetization    =     0.00 Bohr mag/cell

     iteration # 29     ecut=    60.00 Ry     beta= 0.50
     Davidson diagonalization with overlap
     ethr =  3.20E-09,  avg # of iterations =  2.9

     total cpu time spent up to now is      697.8 secs

     total energy              =   -1324.06233487 Ry
     estimated scf accuracy    <       0.00000003 Ry

     total magnetization       =     0.00 Bohr mag/cell
     absolute magnetization    =     0.00 Bohr mag/cell

     iteration # 30     ecut=    60.00 Ry     beta= 0.50
     Davidson diagonalization with overlap
     ethr =  7.82E-11,  avg # of iterations =  2.8
 
     Magnetic moment per site  (integrated on atomic sphere of radius R)
     atom   1 (R=0.258)  charge=  7.1585  magn=  0.0001
     atom   2 (R=0.258)  charge=  7.1586  magn=  0.0001
     atom   3 (R=0.258)  charge=  7.1586  magn=  0.0001
     atom   4 (R=0.258)  charge=  7.1586  magn=  0.0001

     total cpu time spent up to now is      729.1 secs

     End of self-consistent calculation

     Number of k-points >= 100: set verbosity='high' to print the bands.

     the Fermi energy is    23.8669 ev

!    total energy              =   -1324.06233489 Ry
     total all-electron energy =    -40367.859300 Ry
     estimated scf accuracy    <          1.0E-09 Ry
     smearing contrib. (-TS)   =       0.00004685 Ry
     internal energy E=F+TS    =   -1324.06238174 Ry

     The total energy is F=E-TS. E is the sum of the following terms:
     one-electron contribution =      82.83923169 Ry
     hartree contribution      =      30.32849753 Ry
     xc contribution           =    -132.08213485 Ry
     ewald contribution        =    -276.84078315 Ry
     DFT-D3 Dispersion         =      -0.70720743 Ry
     one-center paw contrib.   =   -1027.59998553 Ry

     total magnetization       =     0.00 Bohr mag/cell
     absolute magnetization    =     0.00 Bohr mag/cell

     convergence has been achieved in  30 iterations

     Writing all to output data dir ./Pd_k_21.save/ :
     XML data file, charge density, pseudopotentials, collected wavefunctions
 
     init_run     :      7.47s CPU      7.80s WALL (       1 calls)
     electrons    :    478.62s CPU    721.16s WALL (       1 calls)

     Called by init_run:
     wfcinit      :      7.04s CPU      7.31s WALL (       1 calls)
     potinit      :      0.28s CPU      0.31s WALL (       1 calls)
     hinit0       :      0.08s CPU      0.09s WALL (       1 calls)

     Called by electrons:
     c_bands      :    395.06s CPU    627.25s WALL (      31 calls)
     sum_band     :     76.32s CPU     85.30s WALL (      31 calls)
     v_of_rho     :      0.39s CPU      0.46s WALL (      31 calls)
     newd         :      0.21s CPU      0.29s WALL (      31 calls)
     PAW_pot      :      6.07s CPU      7.05s WALL (      31 calls)
     mix_rho      :      0.24s CPU      0.25s WALL (      31 calls)
     energy_dftd3 :      0.30s CPU      0.30s WALL (       1 calls)

     Called by c_bands:
     init_us_2    :      3.84s CPU      4.82s WALL (   56133 calls)
     init_us_2:cp :      3.67s CPU      4.65s WALL (   56133 calls)
     cegterg      :    350.16s CPU    452.29s WALL (   27621 calls)

     Called by *egterg:
     cdiaghg      :     70.18s CPU    108.85s WALL (   78381 calls)
     h_psi        :    240.92s CPU    294.94s WALL (   80163 calls)
     s_psi        :      5.54s CPU      7.09s WALL (   80163 calls)
     g_psi        :      0.89s CPU      1.05s WALL (   51651 calls)

     Called by h_psi:
     h_psi:calbec :     11.02s CPU     13.53s WALL (   80163 calls)
     vloc_psi     :    222.79s CPU    272.30s WALL (   80163 calls)
     add_vuspsi   :      5.83s CPU      7.52s WALL (   80163 calls)

     General routines
     calbec       :     16.34s CPU     19.44s WALL (  107784 calls)
     fft          :      0.27s CPU      0.28s WALL (     771 calls)
     ffts         :      0.13s CPU      0.14s WALL (     639 calls)
     fftw         :    261.72s CPU    311.69s WALL ( 3938536 calls)
     interpolate  :      0.03s CPU      0.03s WALL (      62 calls)
 
     Parallel routines
 
     PWSCF        :   8m 7.77s CPU  12m15.23s WALL

 
   This run was terminated on:   1:50:56   6Sep2025            

=------------------------------------------------------------------------------=
   JOB DONE.
=------------------------------------------------------------------------------=
