
     Program PWSCF v.7.3 starts on  6Sep2025 at  0:54:35 

     This program is part of the open-source Quantum ESPRESSO suite
     for quantum simulation of materials; please cite
         "P. Giannozzi et al., J. Phys.:Condens. Matter 21 395502 (2009);
         "P. Giannozzi et al., J. Phys.:Condens. Matter 29 465901 (2017);
         "P. Giannozzi et al., J. Chem. Phys. 152 154105 (2020);
          URL http://www.quantum-espresso.org", 
     in publications or presentations arising from this work. More details at
     http://www.quantum-espresso.org/quote

     Parallel version (MPI), running on    30 processors

     MPI processes distributed on     1 nodes
     222786 MiB available memory on the printing compute node when the environment starts
 
     Waiting for input...
     Reading input from standard input

     Current dimensions of program PWSCF are:
     Max number of different atomic species (ntypx) = 10
     Max number of k-points (npk) =  40000
     Max angular momentum in pseudopotentials (lmaxx) =  4
     file Pd.upf: wavefunction(s)  5S 4D renormalized

     IMPORTANT: XC functional enforced from input :
     Exchange-correlation= PBE
                           (   1   4   3   4   0   0   0)
     Any further DFT definition will be discarded
     Please, verify this is what you really want

     Message from routine setup:
     using ibrav=0 with symmetry is DISCOURAGED, use correct ibrav instead
 
     K-points division:     npool     =       2
     R & G space division:  proc/nbgrp/npool/nimage =      15
     Subspace diagonalization in iterative solution of the eigenvalue problem:
     a serial algorithm will be used

 
     Parallelization info
     --------------------
     sticks:   dense  smooth     PW     G-vecs:    dense   smooth      PW
     Min         107      53     16                 3258     1151     192
     Max         109      55     17                 3260     1152     195
     Sum        1617     805    241                48885    17269    2897
 
     Using Slab Decomposition
 

     Title: 
     Pd_k_11                                                                    


     bravais-lattice index     =            0
     lattice parameter (alat)  =       6.5025  a.u.
     unit-cell volume          =     274.9107 (a.u.)^3
     number of atoms/cell      =            4
     number of atomic types    =            1
     number of electrons       =        40.00
     number of Kohn-Sham states=           24
     kinetic-energy cutoff     =      60.0000  Ry
     charge density cutoff     =     480.0000  Ry
     scf convergence threshold =      6.4E-09
     mixing beta               =       0.5000
     number of iterations used =           10  local-TF  mixing
     Exchange-correlation= PBE
                           (   1   4   3   4   0   0   0)

     celldm(1)=   6.502548  celldm(2)=   0.000000  celldm(3)=   0.000000
     celldm(4)=   0.000000  celldm(5)=   0.000000  celldm(6)=   0.000000

     crystal axes: (cart. coord. in units of alat)
               a(1) = (   0.999955   0.000000   0.000000 )  
               a(2) = (   0.000000   0.999955   0.000000 )  
               a(3) = (   0.000000   0.000000   0.999955 )  

     reciprocal axes: (cart. coord. in units 2 pi/alat)
               b(1) = (  1.000045  0.000000  0.000000 )  
               b(2) = (  0.000000  1.000045  0.000000 )  
               b(3) = (  0.000000  0.000000  1.000045 )  


     PseudoPot. # 1 for Pd read from file:
     /tmpu/mdach_g/mdach/PP/Pd.upf
     MD5 check sum: e9d6f14fd83b79f8105499163af174c9
     Pseudo is Projector augmented-wave + core cor, Zval = 10.0
     Generated using "atomic" code by A. Dal Corso  v.5.0.2 svn rev. 9415
     Shape of augmentation charge: PSQ
     Using radial grid of 1235 points,  6 beta functions with: 
                l(1) =   0
                l(2) =   0
                l(3) =   1
                l(4) =   1
                l(5) =   2
                l(6) =   2
     Q(r) pseudized with 0 coefficients 


     atomic species   valence    mass     pseudopotential
     Pd               10.00   106.42000     Pd( 1.00)

     Starting magnetic structure 
     atomic species   magnetization
     Pd              0.200

      6 Sym. Ops. (no inversion) found



   Cartesian axes

     site n.     atom                  positions (alat units)
         1        Pd     tau(   1) = (  -0.0054534  -0.0054534  -0.0054534  )
         2        Pd     tau(   2) = (  -0.0054550   0.5513882   0.5513882  )
         3        Pd     tau(   3) = (   0.5513882  -0.0054550   0.5513882  )
         4        Pd     tau(   4) = (   0.5513882   0.5513882  -0.0054550  )

     --------------------------------------------
     DFT-D3 Dispersion Correction (3-body terms):
     --------------------------------------------
       Reference C6 values for interpolation: 

         atom   Coordination number   C6
         Pd         0.000          1217.01
         Pd         1.863           573.90
         Pd         5.710           531.75

       Values used:

         atom   Coordination number  R0_AB[au]  C6      C8
         Pd        11.468            3.168    531.75  48720.73
         Pd        11.468            3.168    531.75  48720.73
         Pd        11.468            3.168    531.75  48720.73
         Pd        11.468            3.168    531.75  48720.73

         Molecular C6 ( Ry / a.u.^6 ) =      8507.99


     number of k points=   146  Methfessel-Paxton smearing, width (Ry)=  0.0147

     Number of k-points >= 100: set verbosity='high' to print them.

     Dense  grid:    48885 G-vectors     FFT dimensions: (  45,  45,  45)

     Smooth grid:    17269 G-vectors     FFT dimensions: (  36,  36,  36)

     Estimated max dynamical RAM per process >      18.70 MB

     Estimated total dynamical RAM >     531.21 MB
     Generating pointlists ...
     new r_m :   0.2585 (alat units)  1.6809 (a.u.) for type    1

     Initial potential from superposition of free atoms

     starting charge      39.9979, renormalised to      40.0000
     Starting wfcs are   36 atomic wfcs
     Checking if some PAW data can be deallocated... 

     total cpu time spent up to now is        2.3 secs

     Self-consistent Calculation

     iteration #  1     ecut=    60.00 Ry     beta= 0.50
     Davidson diagonalization with overlap
     ethr =  1.00E-02,  avg # of iterations =  4.2

     Threshold (ethr) on eigenvalues was too large:
     Diagonalizing with lowered threshold

     Davidson diagonalization with overlap
     ethr =  6.17E-04,  avg # of iterations =  2.9

     total cpu time spent up to now is       11.3 secs

     total energy              =   -1324.00956396 Ry
     estimated scf accuracy    <       0.28102139 Ry

     total magnetization       =     2.13 Bohr mag/cell
     absolute magnetization    =     2.13 Bohr mag/cell

     iteration #  2     ecut=    60.00 Ry     beta= 0.50
     Davidson diagonalization with overlap
     ethr =  7.03E-04,  avg # of iterations =  1.0

     total cpu time spent up to now is       14.4 secs

     total energy              =   -1324.02940880 Ry
     estimated scf accuracy    <       0.08704019 Ry

     total magnetization       =     1.60 Bohr mag/cell
     absolute magnetization    =     1.60 Bohr mag/cell

     iteration #  3     ecut=    60.00 Ry     beta= 0.50
     Davidson diagonalization with overlap
     ethr =  2.18E-04,  avg # of iterations =  2.1

     total cpu time spent up to now is       19.0 secs

     total energy              =   -1324.05793675 Ry
     estimated scf accuracy    <       0.00928557 Ry

     total magnetization       =     0.59 Bohr mag/cell
     absolute magnetization    =     0.66 Bohr mag/cell

     iteration #  4     ecut=    60.00 Ry     beta= 0.50
     Davidson diagonalization with overlap
     ethr =  2.32E-05,  avg # of iterations =  2.6

     total cpu time spent up to now is       22.8 secs

     total energy              =   -1324.06331602 Ry
     estimated scf accuracy    <       0.00871584 Ry

     total magnetization       =     0.58 Bohr mag/cell
     absolute magnetization    =     0.65 Bohr mag/cell

     iteration #  5     ecut=    60.00 Ry     beta= 0.50
     Davidson diagonalization with overlap
     ethr =  2.18E-05,  avg # of iterations =  1.0

     total cpu time spent up to now is       26.2 secs

     total energy              =   -1324.07052314 Ry
     estimated scf accuracy    <       0.01446987 Ry

     total magnetization       =     0.50 Bohr mag/cell
     absolute magnetization    =     0.56 Bohr mag/cell

     iteration #  6     ecut=    60.00 Ry     beta= 0.50
     Davidson diagonalization with overlap
     ethr =  2.18E-05,  avg # of iterations =  2.5

     total cpu time spent up to now is       31.1 secs

     total energy              =   -1324.06405550 Ry
     estimated scf accuracy    <       0.02120539 Ry

     total magnetization       =     0.26 Bohr mag/cell
     absolute magnetization    =     0.27 Bohr mag/cell

     iteration #  7     ecut=    60.00 Ry     beta= 0.50
     Davidson diagonalization with overlap
     ethr =  2.18E-05,  avg # of iterations =  1.5

     total cpu time spent up to now is       35.2 secs

     total energy              =   -1324.06358436 Ry
     estimated scf accuracy    <       0.01095100 Ry

     total magnetization       =     0.06 Bohr mag/cell
     absolute magnetization    =     0.07 Bohr mag/cell

     iteration #  8     ecut=    60.00 Ry     beta= 0.50
     Davidson diagonalization with overlap
     ethr =  2.18E-05,  avg # of iterations =  1.0

     total cpu time spent up to now is       38.4 secs

     total energy              =   -1324.06358061 Ry
     estimated scf accuracy    <       0.00657138 Ry

     total magnetization       =     0.07 Bohr mag/cell
     absolute magnetization    =     0.08 Bohr mag/cell

     iteration #  9     ecut=    60.00 Ry     beta= 0.50
     Davidson diagonalization with overlap
     ethr =  1.64E-05,  avg # of iterations =  1.0

     total cpu time spent up to now is       41.8 secs

     total energy              =   -1324.06104842 Ry
     estimated scf accuracy    <       0.00552894 Ry

     total magnetization       =     0.08 Bohr mag/cell
     absolute magnetization    =     0.09 Bohr mag/cell

     iteration # 10     ecut=    60.00 Ry     beta= 0.50
     Davidson diagonalization with overlap
     ethr =  1.38E-05,  avg # of iterations =  2.1

     total cpu time spent up to now is       45.8 secs

     total energy              =   -1324.06166442 Ry
     estimated scf accuracy    <       0.00045665 Ry

     total magnetization       =     0.06 Bohr mag/cell
     absolute magnetization    =     0.07 Bohr mag/cell

     iteration # 11     ecut=    60.00 Ry     beta= 0.50
     Davidson diagonalization with overlap
     ethr =  1.14E-06,  avg # of iterations =  3.1

     total cpu time spent up to now is       50.6 secs

     total energy              =   -1324.06174551 Ry
     estimated scf accuracy    <       0.00027354 Ry

     total magnetization       =     0.05 Bohr mag/cell
     absolute magnetization    =     0.05 Bohr mag/cell

     iteration # 12     ecut=    60.00 Ry     beta= 0.50
     Davidson diagonalization with overlap
     ethr =  6.84E-07,  avg # of iterations =  1.0

     total cpu time spent up to now is       53.8 secs

     total energy              =   -1324.06171318 Ry
     estimated scf accuracy    <       0.00011891 Ry

     total magnetization       =     0.03 Bohr mag/cell
     absolute magnetization    =     0.04 Bohr mag/cell

     iteration # 13     ecut=    60.00 Ry     beta= 0.50
     Davidson diagonalization with overlap
     ethr =  2.97E-07,  avg # of iterations =  2.7

     total cpu time spent up to now is       58.7 secs

     total energy              =   -1324.06174475 Ry
     estimated scf accuracy    <       0.00008592 Ry

     total magnetization       =     0.01 Bohr mag/cell
     absolute magnetization    =     0.01 Bohr mag/cell

     iteration # 14     ecut=    60.00 Ry     beta= 0.50
     Davidson diagonalization with overlap
     ethr =  2.15E-07,  avg # of iterations =  1.0

     total cpu time spent up to now is       61.7 secs

     total energy              =   -1324.06172188 Ry
     estimated scf accuracy    <       0.00004661 Ry

     total magnetization       =     0.01 Bohr mag/cell
     absolute magnetization    =     0.01 Bohr mag/cell

     iteration # 15     ecut=    60.00 Ry     beta= 0.50
     Davidson diagonalization with overlap
     ethr =  1.17E-07,  avg # of iterations =  2.2

     total cpu time spent up to now is       65.9 secs

     total energy              =   -1324.06172707 Ry
     estimated scf accuracy    <       0.00000677 Ry

     total magnetization       =     0.00 Bohr mag/cell
     absolute magnetization    =     0.00 Bohr mag/cell

     iteration # 16     ecut=    60.00 Ry     beta= 0.50
     Davidson diagonalization with overlap
     ethr =  1.69E-08,  avg # of iterations =  2.9

     total cpu time spent up to now is       70.9 secs

     total energy              =   -1324.06172884 Ry
     estimated scf accuracy    <       0.00000059 Ry

     total magnetization       =     0.00 Bohr mag/cell
     absolute magnetization    =     0.00 Bohr mag/cell

     iteration # 17     ecut=    60.00 Ry     beta= 0.50
     Davidson diagonalization with overlap
     ethr =  1.48E-09,  avg # of iterations =  1.8

     total cpu time spent up to now is       73.9 secs

     total energy              =   -1324.06172884 Ry
     estimated scf accuracy    <       0.00000012 Ry

     total magnetization       =     0.00 Bohr mag/cell
     absolute magnetization    =     0.00 Bohr mag/cell

     iteration # 18     ecut=    60.00 Ry     beta= 0.50
     Davidson diagonalization with overlap
     ethr =  3.11E-10,  avg # of iterations =  2.9

     total cpu time spent up to now is       79.0 secs

     total energy              =   -1324.06172891 Ry
     estimated scf accuracy    <       0.00000006 Ry

     total magnetization       =     0.00 Bohr mag/cell
     absolute magnetization    =     0.00 Bohr mag/cell

     iteration # 19     ecut=    60.00 Ry     beta= 0.50
     Davidson diagonalization with overlap
     ethr =  1.62E-10,  avg # of iterations =  1.7
 
     Magnetic moment per site  (integrated on atomic sphere of radius R)
     atom   1 (R=0.258)  charge=  7.1585  magn= -0.0000
     atom   2 (R=0.258)  charge=  7.1586  magn= -0.0000
     atom   3 (R=0.258)  charge=  7.1586  magn= -0.0000
     atom   4 (R=0.258)  charge=  7.1586  magn= -0.0000

     total cpu time spent up to now is       83.2 secs

     End of self-consistent calculation

     Number of k-points >= 100: set verbosity='high' to print the bands.

     the Fermi energy is    23.8601 ev

!    total energy              =   -1324.06172892 Ry
     total all-electron energy =    -40367.858694 Ry
     estimated scf accuracy    <          5.0E-09 Ry
     smearing contrib. (-TS)   =      -0.00032102 Ry
     internal energy E=F+TS    =   -1324.06140790 Ry

     The total energy is F=E-TS. E is the sum of the following terms:
     one-electron contribution =      82.84081364 Ry
     hartree contribution      =      30.32794246 Ry
     xc contribution           =    -132.08205006 Ry
     ewald contribution        =    -276.84078315 Ry
     DFT-D3 Dispersion         =      -0.70720743 Ry
     one-center paw contrib.   =   -1027.60012336 Ry

     total magnetization       =    -0.00 Bohr mag/cell
     absolute magnetization    =     0.00 Bohr mag/cell

     convergence has been achieved in  19 iterations

     Writing all to output data dir ./Pd_k_11.save/ :
     XML data file, charge density, pseudopotentials, collected wavefunctions
 
     init_run     :      1.05s CPU      2.07s WALL (       1 calls)
     electrons    :     56.82s CPU     80.96s WALL (       1 calls)

     Called by init_run:
     wfcinit      :      0.80s CPU      1.64s WALL (       1 calls)
     potinit      :      0.13s CPU      0.30s WALL (       1 calls)
     hinit0       :      0.08s CPU      0.08s WALL (       1 calls)

     Called by electrons:
     c_bands      :     44.44s CPU     66.49s WALL (      20 calls)
     sum_band     :      7.67s CPU      9.27s WALL (      20 calls)
     v_of_rho     :      0.19s CPU      0.21s WALL (      20 calls)
     newd         :      0.15s CPU      0.16s WALL (      20 calls)
     PAW_pot      :      3.92s CPU      4.41s WALL (      20 calls)
     mix_rho      :      0.07s CPU      0.10s WALL (      20 calls)
     energy_dftd3 :      0.30s CPU      0.30s WALL (       1 calls)

     Called by c_bands:
     init_us_2    :      0.41s CPU      0.59s WALL (    5986 calls)
     init_us_2:cp :      0.39s CPU      0.58s WALL (    5986 calls)
     cegterg      :     38.36s CPU     47.64s WALL (    2920 calls)

     Called by *egterg:
     cdiaghg      :      7.98s CPU     13.31s WALL (    8982 calls)
     h_psi        :     25.98s CPU     29.44s WALL (    9274 calls)
     s_psi        :      0.60s CPU      0.83s WALL (    9274 calls)
     g_psi        :      0.09s CPU      0.11s WALL (    6208 calls)

     Called by h_psi:
     h_psi:calbec :      1.32s CPU      1.55s WALL (    9274 calls)
     vloc_psi     :     23.89s CPU     26.94s WALL (    9274 calls)
     add_vuspsi   :      0.63s CPU      0.80s WALL (    9274 calls)

     General routines
     calbec       :      1.85s CPU      2.13s WALL (   12194 calls)
     fft          :      0.11s CPU      0.13s WALL (     496 calls)
     ffts         :      0.09s CPU      0.11s WALL (     400 calls)
     fftw         :     27.26s CPU     31.13s WALL (  419842 calls)
     interpolate  :      0.01s CPU      0.02s WALL (      40 calls)
 
     Parallel routines
 
     PWSCF        :     58.32s CPU   1m24.29s WALL

 
   This run was terminated on:   0:56: 0   6Sep2025            

=------------------------------------------------------------------------------=
   JOB DONE.
=------------------------------------------------------------------------------=
