
     Program PWSCF v.7.3 starts on  6Sep2025 at  0:50: 4 

     This program is part of the open-source Quantum ESPRESSO suite
     for quantum simulation of materials; please cite
         "P. Giannozzi et al., J. Phys.:Condens. Matter 21 395502 (2009);
         "P. Giannozzi et al., J. Phys.:Condens. Matter 29 465901 (2017);
         "P. Giannozzi et al., J. Chem. Phys. 152 154105 (2020);
          URL http://www.quantum-espresso.org", 
     in publications or presentations arising from this work. More details at
     http://www.quantum-espresso.org/quote

     Parallel version (MPI), running on    30 processors

     MPI processes distributed on     1 nodes
     222012 MiB available memory on the printing compute node when the environment starts
 
     Waiting for input...
     Reading input from standard input

     Current dimensions of program PWSCF are:
     Max number of different atomic species (ntypx) = 10
     Max number of k-points (npk) =  40000
     Max angular momentum in pseudopotentials (lmaxx) =  4
     file Pd.upf: wavefunction(s)  5S 4D renormalized

     IMPORTANT: XC functional enforced from input :
     Exchange-correlation= PBE
                           (   1   4   3   4   0   0   0)
     Any further DFT definition will be discarded
     Please, verify this is what you really want

     Message from routine setup:
     using ibrav=0 with symmetry is DISCOURAGED, use correct ibrav instead
 
     K-points division:     npool     =       2
     R & G space division:  proc/nbgrp/npool/nimage =      15
     Subspace diagonalization in iterative solution of the eigenvalue problem:
     a serial algorithm will be used

 
     Parallelization info
     --------------------
     sticks:   dense  smooth     PW     G-vecs:    dense   smooth      PW
     Min         107      53     16                 3258     1151     196
     Max         109      55     17                 3260     1152     201
     Sum        1617     805    241                48885    17269    2945
 
     Using Slab Decomposition
 

     Title: 
     Pd_k_2                                                                     


     bravais-lattice index     =            0
     lattice parameter (alat)  =       6.5025  a.u.
     unit-cell volume          =     274.9107 (a.u.)^3
     number of atoms/cell      =            4
     number of atomic types    =            1
     number of electrons       =        40.00
     number of Kohn-Sham states=           24
     kinetic-energy cutoff     =      60.0000  Ry
     charge density cutoff     =     480.0000  Ry
     scf convergence threshold =      6.4E-09
     mixing beta               =       0.5000
     number of iterations used =           10  local-TF  mixing
     Exchange-correlation= PBE
                           (   1   4   3   4   0   0   0)

     celldm(1)=   6.502548  celldm(2)=   0.000000  celldm(3)=   0.000000
     celldm(4)=   0.000000  celldm(5)=   0.000000  celldm(6)=   0.000000

     crystal axes: (cart. coord. in units of alat)
               a(1) = (   0.999955   0.000000   0.000000 )  
               a(2) = (   0.000000   0.999955   0.000000 )  
               a(3) = (   0.000000   0.000000   0.999955 )  

     reciprocal axes: (cart. coord. in units 2 pi/alat)
               b(1) = (  1.000045  0.000000  0.000000 )  
               b(2) = (  0.000000  1.000045  0.000000 )  
               b(3) = (  0.000000  0.000000  1.000045 )  


     PseudoPot. # 1 for Pd read from file:
     /tmpu/mdach_g/mdach/PP/Pd.upf
     MD5 check sum: e9d6f14fd83b79f8105499163af174c9
     Pseudo is Projector augmented-wave + core cor, Zval = 10.0
     Generated using "atomic" code by A. Dal Corso  v.5.0.2 svn rev. 9415
     Shape of augmentation charge: PSQ
     Using radial grid of 1235 points,  6 beta functions with: 
                l(1) =   0
                l(2) =   0
                l(3) =   1
                l(4) =   1
                l(5) =   2
                l(6) =   2
     Q(r) pseudized with 0 coefficients 


     atomic species   valence    mass     pseudopotential
     Pd               10.00   106.42000     Pd( 1.00)

     Starting magnetic structure 
     atomic species   magnetization
     Pd              0.200

      6 Sym. Ops. (no inversion) found



   Cartesian axes

     site n.     atom                  positions (alat units)
         1        Pd     tau(   1) = (  -0.0054534  -0.0054534  -0.0054534  )
         2        Pd     tau(   2) = (  -0.0054550   0.5513882   0.5513882  )
         3        Pd     tau(   3) = (   0.5513882  -0.0054550   0.5513882  )
         4        Pd     tau(   4) = (   0.5513882   0.5513882  -0.0054550  )

     --------------------------------------------
     DFT-D3 Dispersion Correction (3-body terms):
     --------------------------------------------
       Reference C6 values for interpolation: 

         atom   Coordination number   C6
         Pd         0.000          1217.01
         Pd         1.863           573.90
         Pd         5.710           531.75

       Values used:

         atom   Coordination number  R0_AB[au]  C6      C8
         Pd        11.468            3.168    531.75  48720.73
         Pd        11.468            3.168    531.75  48720.73
         Pd        11.468            3.168    531.75  48720.73
         Pd        11.468            3.168    531.75  48720.73

         Molecular C6 ( Ry / a.u.^6 ) =      8507.99


     number of k points=     4  Methfessel-Paxton smearing, width (Ry)=  0.0147
                       cart. coord. in units 2pi/alat
        k(    1) = (   0.0000000   0.0000000   0.0000000), wk =   0.1250000
        k(    2) = (   0.0000000   0.0000000  -0.5000226), wk =   0.3750000
        k(    3) = (   0.0000000  -0.5000226  -0.5000226), wk =   0.3750000
        k(    4) = (  -0.5000226  -0.5000226  -0.5000226), wk =   0.1250000

     Dense  grid:    48885 G-vectors     FFT dimensions: (  45,  45,  45)

     Smooth grid:    17269 G-vectors     FFT dimensions: (  36,  36,  36)

     Estimated max dynamical RAM per process >      11.27 MB

     Estimated total dynamical RAM >     308.12 MB
     Generating pointlists ...
     new r_m :   0.2585 (alat units)  1.6809 (a.u.) for type    1

     Initial potential from superposition of free atoms

     starting charge      39.9979, renormalised to      40.0000
     Starting wfcs are   36 atomic wfcs
     Checking if some PAW data can be deallocated... 

     total cpu time spent up to now is        0.7 secs

     Self-consistent Calculation

     iteration #  1     ecut=    60.00 Ry     beta= 0.50
     Davidson diagonalization with overlap
     ethr =  1.00E-02,  avg # of iterations =  2.8

     Threshold (ethr) on eigenvalues was too large:
     Diagonalizing with lowered threshold

     Davidson diagonalization with overlap
     ethr =  6.00E-04,  avg # of iterations =  2.8

     total cpu time spent up to now is        1.6 secs

     total energy              =   -1323.97428936 Ry
     estimated scf accuracy    <       0.28797476 Ry

     total magnetization       =     2.83 Bohr mag/cell
     absolute magnetization    =     2.83 Bohr mag/cell

     iteration #  2     ecut=    60.00 Ry     beta= 0.50
     Davidson diagonalization with overlap
     ethr =  7.20E-04,  avg # of iterations =  1.0

     total cpu time spent up to now is        2.0 secs

     total energy              =   -1324.01526830 Ry
     estimated scf accuracy    <       0.07583792 Ry

     total magnetization       =     1.86 Bohr mag/cell
     absolute magnetization    =     1.86 Bohr mag/cell

     iteration #  3     ecut=    60.00 Ry     beta= 0.50
     Davidson diagonalization with overlap
     ethr =  1.90E-04,  avg # of iterations =  2.0

     total cpu time spent up to now is        2.4 secs

     total energy              =   -1324.03732950 Ry
     estimated scf accuracy    <       0.00890607 Ry

     total magnetization       =     1.10 Bohr mag/cell
     absolute magnetization    =     1.15 Bohr mag/cell

     iteration #  4     ecut=    60.00 Ry     beta= 0.50
     Davidson diagonalization with overlap
     ethr =  2.23E-05,  avg # of iterations =  2.1

     total cpu time spent up to now is        2.6 secs

     total energy              =   -1324.04005015 Ry
     estimated scf accuracy    <       0.00239821 Ry

     total magnetization       =     0.91 Bohr mag/cell
     absolute magnetization    =     0.94 Bohr mag/cell

     iteration #  5     ecut=    60.00 Ry     beta= 0.50
     Davidson diagonalization with overlap
     ethr =  6.00E-06,  avg # of iterations =  1.4

     total cpu time spent up to now is        3.1 secs

     total energy              =   -1324.04151416 Ry
     estimated scf accuracy    <       0.00058911 Ry

     total magnetization       =     0.55 Bohr mag/cell
     absolute magnetization    =     0.62 Bohr mag/cell

     iteration #  6     ecut=    60.00 Ry     beta= 0.50
     Davidson diagonalization with overlap
     ethr =  1.47E-06,  avg # of iterations =  2.6

     total cpu time spent up to now is        3.5 secs

     total energy              =   -1324.04182726 Ry
     estimated scf accuracy    <       0.00013334 Ry

     total magnetization       =     0.47 Bohr mag/cell
     absolute magnetization    =     0.54 Bohr mag/cell

     iteration #  7     ecut=    60.00 Ry     beta= 0.50
     Davidson diagonalization with overlap
     ethr =  3.33E-07,  avg # of iterations =  2.5

     total cpu time spent up to now is        4.0 secs

     total energy              =   -1324.04187143 Ry
     estimated scf accuracy    <       0.00004741 Ry

     total magnetization       =     0.43 Bohr mag/cell
     absolute magnetization    =     0.47 Bohr mag/cell

     iteration #  8     ecut=    60.00 Ry     beta= 0.50
     Davidson diagonalization with overlap
     ethr =  1.19E-07,  avg # of iterations =  2.5

     total cpu time spent up to now is        4.4 secs

     total energy              =   -1324.04199439 Ry
     estimated scf accuracy    <       0.00002827 Ry

     total magnetization       =     0.32 Bohr mag/cell
     absolute magnetization    =     0.35 Bohr mag/cell

     iteration #  9     ecut=    60.00 Ry     beta= 0.50
     Davidson diagonalization with overlap
     ethr =  7.07E-08,  avg # of iterations =  1.5

     total cpu time spent up to now is        4.8 secs

     total energy              =   -1324.04197597 Ry
     estimated scf accuracy    <       0.00001505 Ry

     total magnetization       =     0.28 Bohr mag/cell
     absolute magnetization    =     0.31 Bohr mag/cell

     iteration # 10     ecut=    60.00 Ry     beta= 0.50
     Davidson diagonalization with overlap
     ethr =  3.76E-08,  avg # of iterations =  2.6

     total cpu time spent up to now is        5.2 secs

     total energy              =   -1324.04202842 Ry
     estimated scf accuracy    <       0.00000095 Ry

     total magnetization       =     0.20 Bohr mag/cell
     absolute magnetization    =     0.22 Bohr mag/cell

     iteration # 11     ecut=    60.00 Ry     beta= 0.50
     Davidson diagonalization with overlap
     ethr =  2.37E-09,  avg # of iterations =  3.1

     total cpu time spent up to now is        5.7 secs

     total energy              =   -1324.04199398 Ry
     estimated scf accuracy    <       0.00000058 Ry

     total magnetization       =     0.18 Bohr mag/cell
     absolute magnetization    =     0.19 Bohr mag/cell

     iteration # 12     ecut=    60.00 Ry     beta= 0.50
     Davidson diagonalization with overlap
     ethr =  1.46E-09,  avg # of iterations =  3.9

     total cpu time spent up to now is        6.2 secs

     total energy              =   -1324.04203918 Ry
     estimated scf accuracy    <       0.00000014 Ry

     total magnetization       =     0.10 Bohr mag/cell
     absolute magnetization    =     0.11 Bohr mag/cell

     iteration # 13     ecut=    60.00 Ry     beta= 0.50
     Davidson diagonalization with overlap
     ethr =  3.60E-10,  avg # of iterations =  1.2

     total cpu time spent up to now is        6.5 secs

     total energy              =   -1324.04202765 Ry
     estimated scf accuracy    <       0.00000015 Ry

     total magnetization       =     0.10 Bohr mag/cell
     absolute magnetization    =     0.11 Bohr mag/cell

     iteration # 14     ecut=    60.00 Ry     beta= 0.50
     Davidson diagonalization with overlap
     ethr =  3.60E-10,  avg # of iterations =  4.1

     total cpu time spent up to now is        7.0 secs

     total energy              =   -1324.04204069 Ry
     estimated scf accuracy    <       0.00000005 Ry

     total magnetization       =     0.06 Bohr mag/cell
     absolute magnetization    =     0.06 Bohr mag/cell

     iteration # 15     ecut=    60.00 Ry     beta= 0.50
     Davidson diagonalization with overlap
     ethr =  1.21E-10,  avg # of iterations =  2.5

     total cpu time spent up to now is        7.5 secs

     total energy              =   -1324.04203953 Ry
     estimated scf accuracy    <       0.00000003 Ry

     total magnetization       =     0.05 Bohr mag/cell
     absolute magnetization    =     0.05 Bohr mag/cell

     iteration # 16     ecut=    60.00 Ry     beta= 0.50
     Davidson diagonalization with overlap
     ethr =  7.25E-11,  avg # of iterations =  3.6

     total cpu time spent up to now is        7.9 secs

     total energy              =   -1324.04203791 Ry
     estimated scf accuracy    <       0.00000001 Ry

     total magnetization       =     0.04 Bohr mag/cell
     absolute magnetization    =     0.04 Bohr mag/cell

     iteration # 17     ecut=    60.00 Ry     beta= 0.50
     Davidson diagonalization with overlap
     ethr =  2.58E-11,  avg # of iterations =  4.5
 
     Magnetic moment per site  (integrated on atomic sphere of radius R)
     atom   1 (R=0.258)  charge=  7.1750  magn=  0.0032
     atom   2 (R=0.258)  charge=  7.1751  magn=  0.0032
     atom   3 (R=0.258)  charge=  7.1751  magn=  0.0032
     atom   4 (R=0.258)  charge=  7.1751  magn=  0.0032

     total cpu time spent up to now is        8.4 secs

     End of self-consistent calculation

 ------ SPIN UP ------------


          k = 0.0000 0.0000 0.0000 (  2109 PWs)   bands (ev):

    13.2700  13.5771  13.7263  13.7263  13.7263  14.3324  14.3324  18.2997
    18.2997  18.2997  20.7583  20.7583  23.5456  23.5456  23.5456  23.6355
    23.6355  23.6355  24.2774  24.2774  24.2774  27.8989  27.8989  27.9223

          k = 0.0000 0.0000-0.5000 (  2168 PWs)   bands (ev):

    14.5078  14.9878  15.3901  15.3901  15.6340  16.6232  16.6405  16.7214
    18.0434  18.5617  19.0722  19.0722  19.8835  20.9857  20.9857  21.4064
    21.8917  22.1231  22.1231  22.9017  24.3950  24.3951  34.4068  34.5784

          k = 0.0000-0.5000-0.5000 (  2160 PWs)   bands (ev):

    15.0009  16.0104  16.1960  16.1960  17.0522  17.4204  17.4204  17.6308
    17.9545  17.9546  18.3323  18.6476  18.9159  19.7092  19.7092  19.7451
    21.3695  21.8806  21.8807  23.2962  26.8700  27.2006  27.2006  27.2492

          k =-0.5000-0.5000-0.5000 (  2176 PWs)   bands (ev):

    13.7850  14.4770  14.4771  14.4771  17.3661  17.3662  17.3662  17.9317
    17.9317  18.5499  18.5499  18.5499  22.3829  22.3829  22.3830  23.4308
    23.4308  23.9900  23.9900  23.9900  24.3484  24.8924  24.8924  24.8924

 ------ SPIN DOWN ----------


          k = 0.0000 0.0000 0.0000 (  2109 PWs)   bands (ev):

    13.2707  13.5787  13.7274  13.7274  13.7274  14.3356  14.3356  18.3030
    18.3030  18.3030  20.7598  20.7598  23.5473  23.5473  23.5473  23.6384
    23.6384  23.6385  24.2821  24.2821  24.2821  27.8997  27.8997  27.9230

          k = 0.0000 0.0000-0.5000 (  2168 PWs)   bands (ev):

    14.5097  14.9889  15.3913  15.3913  15.6358  16.6263  16.6436  16.7237
    18.0448  18.5650  19.0753  19.0753  19.8849  20.9880  20.9880  21.4081
    21.8930  22.1256  22.1256  22.9033  24.3992  24.3992  34.4080  34.5798

          k = 0.0000-0.5000-0.5000 (  2160 PWs)   bands (ev):

    15.0026  16.0130  16.1981  16.1981  17.0551  17.4222  17.4223  17.6320
    17.9571  17.9571  18.3334  18.6511  18.9180  19.7109  19.7109  19.7467
    21.3716  21.8832  21.8832  23.3005  26.8717  27.2031  27.2031  27.2512

          k =-0.5000-0.5000-0.5000 (  2176 PWs)   bands (ev):

    13.7865  14.4795  14.4795  14.4795  17.3679  17.3679  17.3679  17.9347
    17.9347  18.5518  18.5518  18.5519  22.3845  22.3845  22.3845  23.4335
    23.4335  23.9939  23.9939  23.9939  24.3489  24.8935  24.8936  24.8936

     the Fermi energy is    24.2680 ev

!    total energy              =   -1324.04204140 Ry
     total all-electron energy =    -40367.839006 Ry
     estimated scf accuracy    <          2.5E-09 Ry
     smearing contrib. (-TS)   =      -0.00152391 Ry
     internal energy E=F+TS    =   -1324.04051749 Ry

     The total energy is F=E-TS. E is the sum of the following terms:
     one-electron contribution =      82.77209676 Ry
     hartree contribution      =      30.48330624 Ry
     xc contribution           =    -132.13948960 Ry
     ewald contribution        =    -276.84078315 Ry
     DFT-D3 Dispersion         =      -0.70720743 Ry
     one-center paw contrib.   =   -1027.60844031 Ry

     total magnetization       =     0.01 Bohr mag/cell
     absolute magnetization    =     0.01 Bohr mag/cell

     convergence has been achieved in  17 iterations

     Writing all to output data dir ./Pd_k_2.save/ :
     XML data file, charge density, pseudopotentials, collected wavefunctions
 
     init_run     :      0.50s CPU      0.55s WALL (       1 calls)
     electrons    :      6.11s CPU      7.78s WALL (       1 calls)

     Called by init_run:
     wfcinit      :      0.05s CPU      0.05s WALL (       1 calls)
     potinit      :      0.28s CPU      0.30s WALL (       1 calls)
     hinit0       :      0.11s CPU      0.11s WALL (       1 calls)

     Called by electrons:
     c_bands      :      1.38s CPU      2.01s WALL (      18 calls)
     sum_band     :      0.44s CPU      0.61s WALL (      18 calls)
     v_of_rho     :      0.17s CPU      0.26s WALL (      18 calls)
     newd         :      0.20s CPU      0.24s WALL (      18 calls)
     PAW_pot      :      3.67s CPU      4.31s WALL (      18 calls)
     mix_rho      :      0.08s CPU      0.10s WALL (      18 calls)
     energy_dftd3 :      0.30s CPU      0.30s WALL (       1 calls)

     Called by c_bands:
     init_us_2    :      0.01s CPU      0.02s WALL (     148 calls)
     init_us_2:cp :      0.01s CPU      0.02s WALL (     148 calls)
     cegterg      :      1.25s CPU      1.71s WALL (      72 calls)

     Called by *egterg:
     cdiaghg      :      0.27s CPU      0.43s WALL (     257 calls)
     h_psi        :      0.81s CPU      1.10s WALL (     265 calls)
     s_psi        :      0.02s CPU      0.02s WALL (     265 calls)
     g_psi        :      0.00s CPU      0.00s WALL (     189 calls)

     Called by h_psi:
     h_psi:calbec :      0.06s CPU      0.07s WALL (     265 calls)
     vloc_psi     :      0.73s CPU      1.01s WALL (     265 calls)
     add_vuspsi   :      0.02s CPU      0.02s WALL (     265 calls)

     General routines
     calbec       :      0.08s CPU      0.09s WALL (     337 calls)
     fft          :      0.14s CPU      0.16s WALL (     446 calls)
     ffts         :      0.02s CPU      0.03s WALL (     356 calls)
     fftw         :      0.78s CPU      1.05s WALL (   11740 calls)
     interpolate  :      0.02s CPU      0.02s WALL (      36 calls)
 
     Parallel routines
 
     PWSCF        :      6.78s CPU      8.59s WALL

 
   This run was terminated on:   0:50:12   6Sep2025            

=------------------------------------------------------------------------------=
   JOB DONE.
=------------------------------------------------------------------------------=
