
     Program PWSCF v.7.3 starts on  6Sep2025 at  1:51: 0 

     This program is part of the open-source Quantum ESPRESSO suite
     for quantum simulation of materials; please cite
         "P. Giannozzi et al., J. Phys.:Condens. Matter 21 395502 (2009);
         "P. Giannozzi et al., J. Phys.:Condens. Matter 29 465901 (2017);
         "P. Giannozzi et al., J. Chem. Phys. 152 154105 (2020);
          URL http://www.quantum-espresso.org", 
     in publications or presentations arising from this work. More details at
     http://www.quantum-espresso.org/quote

     Parallel version (MPI), running on    30 processors

     MPI processes distributed on     1 nodes
     230861 MiB available memory on the printing compute node when the environment starts
 
     Waiting for input...
     Reading input from standard input

     Current dimensions of program PWSCF are:
     Max number of different atomic species (ntypx) = 10
     Max number of k-points (npk) =  40000
     Max angular momentum in pseudopotentials (lmaxx) =  4
     file Pd.upf: wavefunction(s)  5S 4D renormalized

     IMPORTANT: XC functional enforced from input :
     Exchange-correlation= PBE
                           (   1   4   3   4   0   0   0)
     Any further DFT definition will be discarded
     Please, verify this is what you really want

     Message from routine setup:
     using ibrav=0 with symmetry is DISCOURAGED, use correct ibrav instead
 
     K-points division:     npool     =       2
     R & G space division:  proc/nbgrp/npool/nimage =      15
     Subspace diagonalization in iterative solution of the eigenvalue problem:
     a serial algorithm will be used

 
     Parallelization info
     --------------------
     sticks:   dense  smooth     PW     G-vecs:    dense   smooth      PW
     Min         107      53     16                 3258     1151     196
     Max         109      55     17                 3260     1152     201
     Sum        1617     805    241                48885    17269    2945
 
     Using Slab Decomposition
 

     Title: 
     Pd_k_22                                                                    


     bravais-lattice index     =            0
     lattice parameter (alat)  =       6.5025  a.u.
     unit-cell volume          =     274.9107 (a.u.)^3
     number of atoms/cell      =            4
     number of atomic types    =            1
     number of electrons       =        40.00
     number of Kohn-Sham states=           24
     kinetic-energy cutoff     =      60.0000  Ry
     charge density cutoff     =     480.0000  Ry
     scf convergence threshold =      6.4E-09
     mixing beta               =       0.5000
     number of iterations used =           10  local-TF  mixing
     Exchange-correlation= PBE
                           (   1   4   3   4   0   0   0)

     celldm(1)=   6.502548  celldm(2)=   0.000000  celldm(3)=   0.000000
     celldm(4)=   0.000000  celldm(5)=   0.000000  celldm(6)=   0.000000

     crystal axes: (cart. coord. in units of alat)
               a(1) = (   0.999955   0.000000   0.000000 )  
               a(2) = (   0.000000   0.999955   0.000000 )  
               a(3) = (   0.000000   0.000000   0.999955 )  

     reciprocal axes: (cart. coord. in units 2 pi/alat)
               b(1) = (  1.000045  0.000000  0.000000 )  
               b(2) = (  0.000000  1.000045  0.000000 )  
               b(3) = (  0.000000  0.000000  1.000045 )  


     PseudoPot. # 1 for Pd read from file:
     /tmpu/mdach_g/mdach/PP/Pd.upf
     MD5 check sum: e9d6f14fd83b79f8105499163af174c9
     Pseudo is Projector augmented-wave + core cor, Zval = 10.0
     Generated using "atomic" code by A. Dal Corso  v.5.0.2 svn rev. 9415
     Shape of augmentation charge: PSQ
     Using radial grid of 1235 points,  6 beta functions with: 
                l(1) =   0
                l(2) =   0
                l(3) =   1
                l(4) =   1
                l(5) =   2
                l(6) =   2
     Q(r) pseudized with 0 coefficients 


     atomic species   valence    mass     pseudopotential
     Pd               10.00   106.42000     Pd( 1.00)

     Starting magnetic structure 
     atomic species   magnetization
     Pd              0.200

      6 Sym. Ops. (no inversion) found



   Cartesian axes

     site n.     atom                  positions (alat units)
         1        Pd     tau(   1) = (  -0.0054534  -0.0054534  -0.0054534  )
         2        Pd     tau(   2) = (  -0.0054550   0.5513882   0.5513882  )
         3        Pd     tau(   3) = (   0.5513882  -0.0054550   0.5513882  )
         4        Pd     tau(   4) = (   0.5513882   0.5513882  -0.0054550  )

     --------------------------------------------
     DFT-D3 Dispersion Correction (3-body terms):
     --------------------------------------------
       Reference C6 values for interpolation: 

         atom   Coordination number   C6
         Pd         0.000          1217.01
         Pd         1.863           573.90
         Pd         5.710           531.75

       Values used:

         atom   Coordination number  R0_AB[au]  C6      C8
         Pd        11.468            3.168    531.75  48720.73
         Pd        11.468            3.168    531.75  48720.73
         Pd        11.468            3.168    531.75  48720.73
         Pd        11.468            3.168    531.75  48720.73

         Molecular C6 ( Ry / a.u.^6 ) =      8507.99


     number of k points=  1024  Methfessel-Paxton smearing, width (Ry)=  0.0147

     Number of k-points >= 100: set verbosity='high' to print them.

     Dense  grid:    48885 G-vectors     FFT dimensions: (  45,  45,  45)

     Smooth grid:    17269 G-vectors     FFT dimensions: (  36,  36,  36)

     Estimated max dynamical RAM per process >      64.68 MB

     Estimated total dynamical RAM >       1.87 GB
     Generating pointlists ...
     new r_m :   0.2585 (alat units)  1.6809 (a.u.) for type    1

     Initial potential from superposition of free atoms

     starting charge      39.9979, renormalised to      40.0000
     Starting wfcs are   36 atomic wfcs
     Checking if some PAW data can be deallocated... 

     total cpu time spent up to now is        9.9 secs

     Self-consistent Calculation

     iteration #  1     ecut=    60.00 Ry     beta= 0.50
     Davidson diagonalization with overlap
     ethr =  1.00E-02,  avg # of iterations =  4.2

     Threshold (ethr) on eigenvalues was too large:
     Diagonalizing with lowered threshold

     Davidson diagonalization with overlap
     ethr =  6.13E-04,  avg # of iterations =  2.8

     total cpu time spent up to now is       72.5 secs

     total energy              =   -1324.00796892 Ry
     estimated scf accuracy    <       0.28007278 Ry

     total magnetization       =     2.18 Bohr mag/cell
     absolute magnetization    =     2.18 Bohr mag/cell

     iteration #  2     ecut=    60.00 Ry     beta= 0.50
     Davidson diagonalization with overlap
     ethr =  7.00E-04,  avg # of iterations =  1.1

     total cpu time spent up to now is       93.5 secs

     total energy              =   -1324.02937331 Ry
     estimated scf accuracy    <       0.08711238 Ry

     total magnetization       =     1.61 Bohr mag/cell
     absolute magnetization    =     1.61 Bohr mag/cell

     iteration #  3     ecut=    60.00 Ry     beta= 0.50
     Davidson diagonalization with overlap
     ethr =  2.18E-04,  avg # of iterations =  2.2

     total cpu time spent up to now is      123.2 secs

     total energy              =   -1324.05817893 Ry
     estimated scf accuracy    <       0.00942927 Ry

     total magnetization       =     0.55 Bohr mag/cell
     absolute magnetization    =     0.63 Bohr mag/cell

     iteration #  4     ecut=    60.00 Ry     beta= 0.50
     Davidson diagonalization with overlap
     ethr =  2.36E-05,  avg # of iterations =  2.9

     total cpu time spent up to now is      151.5 secs

     total energy              =   -1324.06221583 Ry
     estimated scf accuracy    <       0.00796819 Ry

     total magnetization       =     0.54 Bohr mag/cell
     absolute magnetization    =     0.61 Bohr mag/cell

     iteration #  5     ecut=    60.00 Ry     beta= 0.50
     Davidson diagonalization with overlap
     ethr =  1.99E-05,  avg # of iterations =  1.0

     total cpu time spent up to now is      172.3 secs

     total energy              =   -1324.06094793 Ry
     estimated scf accuracy    <       0.00566281 Ry

     total magnetization       =     0.31 Bohr mag/cell
     absolute magnetization    =     0.37 Bohr mag/cell

     iteration #  6     ecut=    60.00 Ry     beta= 0.50
     Davidson diagonalization with overlap
     ethr =  1.42E-05,  avg # of iterations =  1.5

     total cpu time spent up to now is      200.1 secs

     total energy              =   -1324.06214627 Ry
     estimated scf accuracy    <       0.00051723 Ry

     total magnetization       =     0.11 Bohr mag/cell
     absolute magnetization    =     0.13 Bohr mag/cell

     iteration #  7     ecut=    60.00 Ry     beta= 0.50
     Davidson diagonalization with overlap
     ethr =  1.29E-06,  avg # of iterations =  2.4

     total cpu time spent up to now is      224.3 secs

     total energy              =   -1324.06218946 Ry
     estimated scf accuracy    <       0.00036330 Ry

     total magnetization       =     0.10 Bohr mag/cell
     absolute magnetization    =     0.12 Bohr mag/cell

     iteration #  8     ecut=    60.00 Ry     beta= 0.50
     Davidson diagonalization with overlap
     ethr =  9.08E-07,  avg # of iterations =  1.0

     total cpu time spent up to now is      245.2 secs

     total energy              =   -1324.06220239 Ry
     estimated scf accuracy    <       0.00035211 Ry

     total magnetization       =     0.10 Bohr mag/cell
     absolute magnetization    =     0.12 Bohr mag/cell

     iteration #  9     ecut=    60.00 Ry     beta= 0.50
     Davidson diagonalization with overlap
     ethr =  8.80E-07,  avg # of iterations =  1.0

     total cpu time spent up to now is      266.3 secs

     total energy              =   -1324.06219980 Ry
     estimated scf accuracy    <       0.00033670 Ry

     total magnetization       =     0.09 Bohr mag/cell
     absolute magnetization    =     0.11 Bohr mag/cell

     iteration # 10     ecut=    60.00 Ry     beta= 0.50
     Davidson diagonalization with overlap
     ethr =  8.42E-07,  avg # of iterations =  3.0

     total cpu time spent up to now is      304.4 secs

     total energy              =   -1324.06232425 Ry
     estimated scf accuracy    <       0.00076726 Ry

     total magnetization       =     0.02 Bohr mag/cell
     absolute magnetization    =     0.03 Bohr mag/cell

     iteration # 11     ecut=    60.00 Ry     beta= 0.50
     Davidson diagonalization with overlap
     ethr =  8.42E-07,  avg # of iterations =  1.8

     total cpu time spent up to now is      329.1 secs

     total energy              =   -1324.06233278 Ry
     estimated scf accuracy    <       0.00047005 Ry

     total magnetization       =     0.01 Bohr mag/cell
     absolute magnetization    =     0.02 Bohr mag/cell

     iteration # 12     ecut=    60.00 Ry     beta= 0.50
     Davidson diagonalization with overlap
     ethr =  8.42E-07,  avg # of iterations =  1.0

     total cpu time spent up to now is      350.8 secs

     total energy              =   -1324.06229245 Ry
     estimated scf accuracy    <       0.00038123 Ry

     total magnetization       =     0.01 Bohr mag/cell
     absolute magnetization    =     0.02 Bohr mag/cell

     iteration # 13     ecut=    60.00 Ry     beta= 0.50
     Davidson diagonalization with overlap
     ethr =  8.42E-07,  avg # of iterations =  1.0

     total cpu time spent up to now is      372.0 secs

     total energy              =   -1324.06218645 Ry
     estimated scf accuracy    <       0.00024767 Ry

     total magnetization       =     0.00 Bohr mag/cell
     absolute magnetization    =     0.01 Bohr mag/cell

     iteration # 14     ecut=    60.00 Ry     beta= 0.50
     Davidson diagonalization with overlap
     ethr =  6.19E-07,  avg # of iterations =  2.5

     total cpu time spent up to now is      404.2 secs

     total energy              =   -1324.06225466 Ry
     estimated scf accuracy    <       0.00000822 Ry

     total magnetization       =    -0.00 Bohr mag/cell
     absolute magnetization    =     0.00 Bohr mag/cell

     iteration # 15     ecut=    60.00 Ry     beta= 0.50
     Davidson diagonalization with overlap
     ethr =  2.06E-08,  avg # of iterations =  2.7

     total cpu time spent up to now is      433.9 secs

     total energy              =   -1324.06225494 Ry
     estimated scf accuracy    <       0.00001289 Ry

     total magnetization       =     0.00 Bohr mag/cell
     absolute magnetization    =     0.00 Bohr mag/cell

     iteration # 16     ecut=    60.00 Ry     beta= 0.50
     Davidson diagonalization with overlap
     ethr =  2.06E-08,  avg # of iterations =  1.4

     total cpu time spent up to now is      457.2 secs

     total energy              =   -1324.06225298 Ry
     estimated scf accuracy    <       0.00000474 Ry

     total magnetization       =     0.00 Bohr mag/cell
     absolute magnetization    =     0.00 Bohr mag/cell

     iteration # 17     ecut=    60.00 Ry     beta= 0.50
     Davidson diagonalization with overlap
     ethr =  1.18E-08,  avg # of iterations =  2.5

     total cpu time spent up to now is      490.6 secs

     total energy              =   -1324.06225495 Ry
     estimated scf accuracy    <       0.00000059 Ry

     total magnetization       =     0.00 Bohr mag/cell
     absolute magnetization    =     0.00 Bohr mag/cell

     iteration # 18     ecut=    60.00 Ry     beta= 0.50
     Davidson diagonalization with overlap
     ethr =  1.48E-09,  avg # of iterations =  2.3

     total cpu time spent up to now is      520.8 secs

     total energy              =   -1324.06225450 Ry
     estimated scf accuracy    <       0.00000123 Ry

     total magnetization       =    -0.00 Bohr mag/cell
     absolute magnetization    =     0.00 Bohr mag/cell

     iteration # 19     ecut=    60.00 Ry     beta= 0.50
     Davidson diagonalization with overlap
     ethr =  1.48E-09,  avg # of iterations =  2.4

     total cpu time spent up to now is      553.1 secs

     total energy              =   -1324.06225465 Ry
     estimated scf accuracy    <       0.00000007 Ry

     total magnetization       =     0.00 Bohr mag/cell
     absolute magnetization    =     0.00 Bohr mag/cell

     iteration # 20     ecut=    60.00 Ry     beta= 0.50
     Davidson diagonalization with overlap
     ethr =  1.73E-10,  avg # of iterations =  2.2

     total cpu time spent up to now is      577.8 secs

     total energy              =   -1324.06225465 Ry
     estimated scf accuracy    <       0.00000002 Ry

     total magnetization       =     0.00 Bohr mag/cell
     absolute magnetization    =     0.00 Bohr mag/cell

     iteration # 21     ecut=    60.00 Ry     beta= 0.50
     Davidson diagonalization with overlap
     ethr =  3.82E-11,  avg # of iterations =  2.5

     total cpu time spent up to now is      604.0 secs

     total energy              =   -1324.06225466 Ry
     estimated scf accuracy    <          9.6E-09 Ry

     total magnetization       =     0.00 Bohr mag/cell
     absolute magnetization    =     0.00 Bohr mag/cell

     iteration # 22     ecut=    60.00 Ry     beta= 0.50
     Davidson diagonalization with overlap
     ethr =  2.40E-11,  avg # of iterations =  1.0

     total cpu time spent up to now is      624.2 secs

     total energy              =   -1324.06225465 Ry
     estimated scf accuracy    <          6.6E-09 Ry

     total magnetization       =     0.00 Bohr mag/cell
     absolute magnetization    =     0.00 Bohr mag/cell

     iteration # 23     ecut=    60.00 Ry     beta= 0.50
     Davidson diagonalization with overlap
     ethr =  1.64E-11,  avg # of iterations =  1.3
 
     Magnetic moment per site  (integrated on atomic sphere of radius R)
     atom   1 (R=0.258)  charge=  7.1585  magn=  0.0000
     atom   2 (R=0.258)  charge=  7.1586  magn=  0.0000
     atom   3 (R=0.258)  charge=  7.1586  magn=  0.0000
     atom   4 (R=0.258)  charge=  7.1586  magn=  0.0000

     total cpu time spent up to now is      646.2 secs

     End of self-consistent calculation

     Number of k-points >= 100: set verbosity='high' to print the bands.

     the Fermi energy is    23.8665 ev

!    total energy              =   -1324.06225465 Ry
     total all-electron energy =    -40367.859219 Ry
     estimated scf accuracy    <          2.2E-09 Ry
     smearing contrib. (-TS)   =      -0.00006217 Ry
     internal energy E=F+TS    =   -1324.06219248 Ry

     The total energy is F=E-TS. E is the sum of the following terms:
     one-electron contribution =      82.83969812 Ry
     hartree contribution      =      30.32795216 Ry
     xc contribution           =    -132.08189458 Ry
     ewald contribution        =    -276.84078315 Ry
     DFT-D3 Dispersion         =      -0.70720743 Ry
     one-center paw contrib.   =   -1027.59995761 Ry

     total magnetization       =     0.00 Bohr mag/cell
     absolute magnetization    =     0.00 Bohr mag/cell

     convergence has been achieved in  23 iterations

     Writing all to output data dir ./Pd_k_22.save/ :
     XML data file, charge density, pseudopotentials, collected wavefunctions
 
     init_run     :      8.18s CPU      9.67s WALL (       1 calls)
     electrons    :    418.72s CPU    636.25s WALL (       1 calls)

     Called by init_run:
     wfcinit      :      7.89s CPU      9.19s WALL (       1 calls)
     potinit      :      0.14s CPU      0.31s WALL (       1 calls)
     hinit0       :      0.11s CPU      0.12s WALL (       1 calls)

     Called by electrons:
     c_bands      :    348.97s CPU    556.62s WALL (      24 calls)
     sum_band     :     64.07s CPU     73.36s WALL (      24 calls)
     v_of_rho     :      0.26s CPU      0.29s WALL (      24 calls)
     newd         :      0.19s CPU      0.20s WALL (      24 calls)
     PAW_pot      :      4.66s CPU      5.10s WALL (      24 calls)
     mix_rho      :      0.16s CPU      0.19s WALL (      24 calls)
     energy_dftd3 :      0.29s CPU      0.31s WALL (       1 calls)

     Called by c_bands:
     init_us_2    :      3.35s CPU      3.99s WALL (   50176 calls)
     init_us_2:cp :      3.20s CPU      3.86s WALL (   50176 calls)
     cegterg      :    305.65s CPU    412.44s WALL (   24576 calls)

     Called by *egterg:
     cdiaghg      :     62.73s CPU    102.60s WALL (   72805 calls)
     h_psi        :    209.77s CPU    268.35s WALL (   74853 calls)
     s_psi        :      4.92s CPU      6.40s WALL (   74853 calls)
     g_psi        :      0.77s CPU      1.07s WALL (   49253 calls)

     Called by h_psi:
     h_psi:calbec :      9.55s CPU     12.10s WALL (   74853 calls)
     vloc_psi     :    193.82s CPU    247.72s WALL (   74853 calls)
     add_vuspsi   :      5.22s CPU      7.06s WALL (   74853 calls)

     General routines
     calbec       :     13.67s CPU     16.70s WALL (   99429 calls)
     fft          :      0.28s CPU      0.30s WALL (     596 calls)
     ffts         :      0.07s CPU      0.08s WALL (     466 calls)
     fftw         :    223.54s CPU    277.70s WALL ( 3470118 calls)
     interpolate  :      0.04s CPU      0.05s WALL (      48 calls)
 
     Parallel routines
 
     PWSCF        :   7m 8.74s CPU  10m53.60s WALL

 
   This run was terminated on:   2: 1:53   6Sep2025            

=------------------------------------------------------------------------------=
   JOB DONE.
=------------------------------------------------------------------------------=
