
     Program PWSCF v.7.3 starts on  6Sep2025 at  0:57:36 

     This program is part of the open-source Quantum ESPRESSO suite
     for quantum simulation of materials; please cite
         "P. Giannozzi et al., J. Phys.:Condens. Matter 21 395502 (2009);
         "P. Giannozzi et al., J. Phys.:Condens. Matter 29 465901 (2017);
         "P. Giannozzi et al., J. Chem. Phys. 152 154105 (2020);
          URL http://www.quantum-espresso.org", 
     in publications or presentations arising from this work. More details at
     http://www.quantum-espresso.org/quote

     Parallel version (MPI), running on    30 processors

     MPI processes distributed on     1 nodes
     222716 MiB available memory on the printing compute node when the environment starts
 
     Waiting for input...
     Reading input from standard input

     Current dimensions of program PWSCF are:
     Max number of different atomic species (ntypx) = 10
     Max number of k-points (npk) =  40000
     Max angular momentum in pseudopotentials (lmaxx) =  4
     file Pd.upf: wavefunction(s)  5S 4D renormalized

     IMPORTANT: XC functional enforced from input :
     Exchange-correlation= PBE
                           (   1   4   3   4   0   0   0)
     Any further DFT definition will be discarded
     Please, verify this is what you really want

     Message from routine setup:
     using ibrav=0 with symmetry is DISCOURAGED, use correct ibrav instead
 
     K-points division:     npool     =       2
     R & G space division:  proc/nbgrp/npool/nimage =      15
     Subspace diagonalization in iterative solution of the eigenvalue problem:
     a serial algorithm will be used

 
     Parallelization info
     --------------------
     sticks:   dense  smooth     PW     G-vecs:    dense   smooth      PW
     Min         107      53     16                 3258     1151     192
     Max         109      55     17                 3260     1152     195
     Sum        1617     805    241                48885    17269    2897
 
     Using Slab Decomposition
 

     Title: 
     Pd_k_13                                                                    


     bravais-lattice index     =            0
     lattice parameter (alat)  =       6.5025  a.u.
     unit-cell volume          =     274.9107 (a.u.)^3
     number of atoms/cell      =            4
     number of atomic types    =            1
     number of electrons       =        40.00
     number of Kohn-Sham states=           24
     kinetic-energy cutoff     =      60.0000  Ry
     charge density cutoff     =     480.0000  Ry
     scf convergence threshold =      6.4E-09
     mixing beta               =       0.5000
     number of iterations used =           10  local-TF  mixing
     Exchange-correlation= PBE
                           (   1   4   3   4   0   0   0)

     celldm(1)=   6.502548  celldm(2)=   0.000000  celldm(3)=   0.000000
     celldm(4)=   0.000000  celldm(5)=   0.000000  celldm(6)=   0.000000

     crystal axes: (cart. coord. in units of alat)
               a(1) = (   0.999955   0.000000   0.000000 )  
               a(2) = (   0.000000   0.999955   0.000000 )  
               a(3) = (   0.000000   0.000000   0.999955 )  

     reciprocal axes: (cart. coord. in units 2 pi/alat)
               b(1) = (  1.000045  0.000000  0.000000 )  
               b(2) = (  0.000000  1.000045  0.000000 )  
               b(3) = (  0.000000  0.000000  1.000045 )  


     PseudoPot. # 1 for Pd read from file:
     /tmpu/mdach_g/mdach/PP/Pd.upf
     MD5 check sum: e9d6f14fd83b79f8105499163af174c9
     Pseudo is Projector augmented-wave + core cor, Zval = 10.0
     Generated using "atomic" code by A. Dal Corso  v.5.0.2 svn rev. 9415
     Shape of augmentation charge: PSQ
     Using radial grid of 1235 points,  6 beta functions with: 
                l(1) =   0
                l(2) =   0
                l(3) =   1
                l(4) =   1
                l(5) =   2
                l(6) =   2
     Q(r) pseudized with 0 coefficients 


     atomic species   valence    mass     pseudopotential
     Pd               10.00   106.42000     Pd( 1.00)

     Starting magnetic structure 
     atomic species   magnetization
     Pd              0.200

      6 Sym. Ops. (no inversion) found



   Cartesian axes

     site n.     atom                  positions (alat units)
         1        Pd     tau(   1) = (  -0.0054534  -0.0054534  -0.0054534  )
         2        Pd     tau(   2) = (  -0.0054550   0.5513882   0.5513882  )
         3        Pd     tau(   3) = (   0.5513882  -0.0054550   0.5513882  )
         4        Pd     tau(   4) = (   0.5513882   0.5513882  -0.0054550  )

     --------------------------------------------
     DFT-D3 Dispersion Correction (3-body terms):
     --------------------------------------------
       Reference C6 values for interpolation: 

         atom   Coordination number   C6
         Pd         0.000          1217.01
         Pd         1.863           573.90
         Pd         5.710           531.75

       Values used:

         atom   Coordination number  R0_AB[au]  C6      C8
         Pd        11.468            3.168    531.75  48720.73
         Pd        11.468            3.168    531.75  48720.73
         Pd        11.468            3.168    531.75  48720.73
         Pd        11.468            3.168    531.75  48720.73

         Molecular C6 ( Ry / a.u.^6 ) =      8507.99


     number of k points=   231  Methfessel-Paxton smearing, width (Ry)=  0.0147

     Number of k-points >= 100: set verbosity='high' to print them.

     Dense  grid:    48885 G-vectors     FFT dimensions: (  45,  45,  45)

     Smooth grid:    17269 G-vectors     FFT dimensions: (  36,  36,  36)

     Estimated max dynamical RAM per process >      23.15 MB

     Estimated total dynamical RAM >     664.75 MB
     Generating pointlists ...
     new r_m :   0.2585 (alat units)  1.6809 (a.u.) for type    1

     Initial potential from superposition of free atoms

     starting charge      39.9979, renormalised to      40.0000
     Starting wfcs are   36 atomic wfcs
     Checking if some PAW data can be deallocated... 

     total cpu time spent up to now is        2.7 secs

     Self-consistent Calculation

     iteration #  1     ecut=    60.00 Ry     beta= 0.50
     Davidson diagonalization with overlap
     ethr =  1.00E-02,  avg # of iterations =  4.2

     Threshold (ethr) on eigenvalues was too large:
     Diagonalizing with lowered threshold

     Davidson diagonalization with overlap
     ethr =  6.14E-04,  avg # of iterations =  2.7

     total cpu time spent up to now is       16.9 secs

     total energy              =   -1324.00811905 Ry
     estimated scf accuracy    <       0.27950801 Ry

     total magnetization       =     2.19 Bohr mag/cell
     absolute magnetization    =     2.19 Bohr mag/cell

     iteration #  2     ecut=    60.00 Ry     beta= 0.50
     Davidson diagonalization with overlap
     ethr =  6.99E-04,  avg # of iterations =  1.2

     total cpu time spent up to now is       21.8 secs

     total energy              =   -1324.02895272 Ry
     estimated scf accuracy    <       0.08691728 Ry

     total magnetization       =     1.63 Bohr mag/cell
     absolute magnetization    =     1.63 Bohr mag/cell

     iteration #  3     ecut=    60.00 Ry     beta= 0.50
     Davidson diagonalization with overlap
     ethr =  2.17E-04,  avg # of iterations =  2.1

     total cpu time spent up to now is       28.4 secs

     total energy              =   -1324.05811343 Ry
     estimated scf accuracy    <       0.00964499 Ry

     total magnetization       =     0.56 Bohr mag/cell
     absolute magnetization    =     0.63 Bohr mag/cell

     iteration #  4     ecut=    60.00 Ry     beta= 0.50
     Davidson diagonalization with overlap
     ethr =  2.41E-05,  avg # of iterations =  2.8

     total cpu time spent up to now is       34.5 secs

     total energy              =   -1324.06347812 Ry
     estimated scf accuracy    <       0.00882067 Ry

     total magnetization       =     0.55 Bohr mag/cell
     absolute magnetization    =     0.62 Bohr mag/cell

     iteration #  5     ecut=    60.00 Ry     beta= 0.50
     Davidson diagonalization with overlap
     ethr =  2.21E-05,  avg # of iterations =  1.0

     total cpu time spent up to now is       39.3 secs

     total energy              =   -1324.06199717 Ry
     estimated scf accuracy    <       0.01181331 Ry

     total magnetization       =     0.42 Bohr mag/cell
     absolute magnetization    =     0.48 Bohr mag/cell

     iteration #  6     ecut=    60.00 Ry     beta= 0.50
     Davidson diagonalization with overlap
     ethr =  2.21E-05,  avg # of iterations =  2.2

     total cpu time spent up to now is       46.2 secs

     total energy              =   -1324.06265684 Ry
     estimated scf accuracy    <       0.00480457 Ry

     total magnetization       =     0.14 Bohr mag/cell
     absolute magnetization    =     0.15 Bohr mag/cell

     iteration #  7     ecut=    60.00 Ry     beta= 0.50
     Davidson diagonalization with overlap
     ethr =  1.20E-05,  avg # of iterations =  1.0

     total cpu time spent up to now is       51.1 secs

     total energy              =   -1324.06287516 Ry
     estimated scf accuracy    <       0.00253738 Ry

     total magnetization       =     0.07 Bohr mag/cell
     absolute magnetization    =     0.09 Bohr mag/cell

     iteration #  8     ecut=    60.00 Ry     beta= 0.50
     Davidson diagonalization with overlap
     ethr =  6.34E-06,  avg # of iterations =  1.0

     total cpu time spent up to now is       56.0 secs

     total energy              =   -1324.06290287 Ry
     estimated scf accuracy    <       0.00260485 Ry

     total magnetization       =     0.07 Bohr mag/cell
     absolute magnetization    =     0.08 Bohr mag/cell

     iteration #  9     ecut=    60.00 Ry     beta= 0.50
     Davidson diagonalization with overlap
     ethr =  6.34E-06,  avg # of iterations =  1.0

     total cpu time spent up to now is       60.8 secs

     total energy              =   -1324.06255234 Ry
     estimated scf accuracy    <       0.00268698 Ry

     total magnetization       =     0.07 Bohr mag/cell
     absolute magnetization    =     0.08 Bohr mag/cell

     iteration # 10     ecut=    60.00 Ry     beta= 0.50
     Davidson diagonalization with overlap
     ethr =  6.34E-06,  avg # of iterations =  1.0

     total cpu time spent up to now is       65.4 secs

     total energy              =   -1324.06080825 Ry
     estimated scf accuracy    <       0.00275089 Ry

     total magnetization       =     0.03 Bohr mag/cell
     absolute magnetization    =     0.04 Bohr mag/cell

     iteration # 11     ecut=    60.00 Ry     beta= 0.50
     Davidson diagonalization with overlap
     ethr =  6.34E-06,  avg # of iterations =  3.0

     total cpu time spent up to now is       73.4 secs

     total energy              =   -1324.06197094 Ry
     estimated scf accuracy    <       0.00186502 Ry

     total magnetization       =     0.04 Bohr mag/cell
     absolute magnetization    =     0.06 Bohr mag/cell

     iteration # 12     ecut=    60.00 Ry     beta= 0.50
     Davidson diagonalization with overlap
     ethr =  4.66E-06,  avg # of iterations =  1.0

     total cpu time spent up to now is       78.6 secs

     total energy              =   -1324.06180045 Ry
     estimated scf accuracy    <       0.00098428 Ry

     total magnetization       =     0.04 Bohr mag/cell
     absolute magnetization    =     0.06 Bohr mag/cell

     iteration # 13     ecut=    60.00 Ry     beta= 0.50
     Davidson diagonalization with overlap
     ethr =  2.46E-06,  avg # of iterations =  1.0

     total cpu time spent up to now is       83.7 secs

     total energy              =   -1324.06201486 Ry
     estimated scf accuracy    <       0.00107262 Ry

     total magnetization       =     0.04 Bohr mag/cell
     absolute magnetization    =     0.06 Bohr mag/cell

     iteration # 14     ecut=    60.00 Ry     beta= 0.50
     Davidson diagonalization with overlap
     ethr =  2.46E-06,  avg # of iterations =  1.0

     total cpu time spent up to now is       88.8 secs

     total energy              =   -1324.06217011 Ry
     estimated scf accuracy    <       0.00080613 Ry

     total magnetization       =     0.04 Bohr mag/cell
     absolute magnetization    =     0.05 Bohr mag/cell

     iteration # 15     ecut=    60.00 Ry     beta= 0.50
     Davidson diagonalization with overlap
     ethr =  2.02E-06,  avg # of iterations =  1.0

     total cpu time spent up to now is       93.7 secs

     total energy              =   -1324.06217497 Ry
     estimated scf accuracy    <       0.00017544 Ry

     total magnetization       =     0.02 Bohr mag/cell
     absolute magnetization    =     0.03 Bohr mag/cell

     iteration # 16     ecut=    60.00 Ry     beta= 0.50
     Davidson diagonalization with overlap
     ethr =  4.39E-07,  avg # of iterations =  1.0

     total cpu time spent up to now is       98.6 secs

     total energy              =   -1324.06217497 Ry
     estimated scf accuracy    <       0.00001911 Ry

     total magnetization       =     0.01 Bohr mag/cell
     absolute magnetization    =     0.02 Bohr mag/cell

     iteration # 17     ecut=    60.00 Ry     beta= 0.50
     Davidson diagonalization with overlap
     ethr =  4.78E-08,  avg # of iterations =  1.3

     total cpu time spent up to now is      103.4 secs

     total energy              =   -1324.06217496 Ry
     estimated scf accuracy    <       0.00006354 Ry

     total magnetization       =     0.01 Bohr mag/cell
     absolute magnetization    =     0.02 Bohr mag/cell

     iteration # 18     ecut=    60.00 Ry     beta= 0.50
     Davidson diagonalization with overlap
     ethr =  4.78E-08,  avg # of iterations =  1.0

     total cpu time spent up to now is      108.1 secs

     total energy              =   -1324.06217693 Ry
     estimated scf accuracy    <       0.00004808 Ry

     total magnetization       =     0.01 Bohr mag/cell
     absolute magnetization    =     0.01 Bohr mag/cell

     iteration # 19     ecut=    60.00 Ry     beta= 0.50
     Davidson diagonalization with overlap
     ethr =  4.78E-08,  avg # of iterations =  2.3

     total cpu time spent up to now is      113.9 secs

     total energy              =   -1324.06218132 Ry
     estimated scf accuracy    <       0.00000013 Ry

     total magnetization       =    -0.00 Bohr mag/cell
     absolute magnetization    =     0.00 Bohr mag/cell

     iteration # 20     ecut=    60.00 Ry     beta= 0.50
     Davidson diagonalization with overlap
     ethr =  3.16E-10,  avg # of iterations =  3.7

     total cpu time spent up to now is      124.5 secs

     total energy              =   -1324.06218133 Ry
     estimated scf accuracy    <       0.00000047 Ry

     total magnetization       =     0.00 Bohr mag/cell
     absolute magnetization    =     0.00 Bohr mag/cell

     iteration # 21     ecut=    60.00 Ry     beta= 0.50
     Davidson diagonalization with overlap
     ethr =  3.16E-10,  avg # of iterations =  2.6

     total cpu time spent up to now is      131.9 secs

     total energy              =   -1324.06218135 Ry
     estimated scf accuracy    <       0.00000014 Ry

     total magnetization       =    -0.00 Bohr mag/cell
     absolute magnetization    =     0.00 Bohr mag/cell

     iteration # 22     ecut=    60.00 Ry     beta= 0.50
     Davidson diagonalization with overlap
     ethr =  3.16E-10,  avg # of iterations =  1.5

     total cpu time spent up to now is      138.0 secs

     total energy              =   -1324.06218130 Ry
     estimated scf accuracy    <       0.00000021 Ry

     total magnetization       =    -0.00 Bohr mag/cell
     absolute magnetization    =     0.00 Bohr mag/cell

     iteration # 23     ecut=    60.00 Ry     beta= 0.50
     Davidson diagonalization with overlap
     ethr =  3.16E-10,  avg # of iterations =  3.0

     total cpu time spent up to now is      146.8 secs

     total energy              =   -1324.06218142 Ry
     estimated scf accuracy    <       0.00000012 Ry

     total magnetization       =    -0.00 Bohr mag/cell
     absolute magnetization    =     0.00 Bohr mag/cell

     iteration # 24     ecut=    60.00 Ry     beta= 0.50
     Davidson diagonalization with overlap
     ethr =  3.12E-10,  avg # of iterations =  1.2

     total cpu time spent up to now is      151.9 secs

     total energy              =   -1324.06218143 Ry
     estimated scf accuracy    <          9.1E-09 Ry

     total magnetization       =    -0.00 Bohr mag/cell
     absolute magnetization    =     0.00 Bohr mag/cell

     iteration # 25     ecut=    60.00 Ry     beta= 0.50
     Davidson diagonalization with overlap
     ethr =  2.27E-11,  avg # of iterations =  2.7
 
     Magnetic moment per site  (integrated on atomic sphere of radius R)
     atom   1 (R=0.258)  charge=  7.1587  magn= -0.0000
     atom   2 (R=0.258)  charge=  7.1588  magn= -0.0000
     atom   3 (R=0.258)  charge=  7.1588  magn= -0.0000
     atom   4 (R=0.258)  charge=  7.1588  magn= -0.0000

     total cpu time spent up to now is      158.6 secs

     End of self-consistent calculation

     Number of k-points >= 100: set verbosity='high' to print the bands.

     the Fermi energy is    23.8710 ev

!    total energy              =   -1324.06218143 Ry
     total all-electron energy =    -40367.859146 Ry
     estimated scf accuracy    <          5.1E-09 Ry
     smearing contrib. (-TS)   =      -0.00007621 Ry
     internal energy E=F+TS    =   -1324.06210522 Ry

     The total energy is F=E-TS. E is the sum of the following terms:
     one-electron contribution =      82.83833008 Ry
     hartree contribution      =      30.33086305 Ry
     xc contribution           =    -132.08300235 Ry
     ewald contribution        =    -276.84078315 Ry
     DFT-D3 Dispersion         =      -0.70720743 Ry
     one-center paw contrib.   =   -1027.60030541 Ry

     total magnetization       =    -0.00 Bohr mag/cell
     absolute magnetization    =     0.00 Bohr mag/cell

     convergence has been achieved in  25 iterations

     Writing all to output data dir ./Pd_k_13.save/ :
     XML data file, charge density, pseudopotentials, collected wavefunctions
 
     init_run     :      2.24s CPU      2.41s WALL (       1 calls)
     electrons    :    102.32s CPU    155.93s WALL (       1 calls)

     Called by init_run:
     wfcinit      :      2.02s CPU      2.14s WALL (       1 calls)
     potinit      :      0.14s CPU      0.17s WALL (       1 calls)
     hinit0       :      0.04s CPU      0.05s WALL (       1 calls)

     Called by electrons:
     c_bands      :     80.02s CPU    130.19s WALL (      26 calls)
     sum_band     :     16.25s CPU     19.12s WALL (      26 calls)
     v_of_rho     :      0.22s CPU      0.23s WALL (      26 calls)
     newd         :      0.24s CPU      0.24s WALL (      26 calls)
     PAW_pot      :      5.16s CPU      5.48s WALL (      26 calls)
     mix_rho      :      0.18s CPU      0.20s WALL (      26 calls)
     energy_dftd3 :      0.22s CPU      0.30s WALL (       1 calls)

     Called by c_bands:
     init_us_2    :      0.79s CPU      1.01s WALL (   12243 calls)
     init_us_2:cp :      0.76s CPU      0.97s WALL (   12243 calls)
     cegterg      :     71.35s CPU     87.72s WALL (    6006 calls)

     Called by *egterg:
     cdiaghg      :     13.89s CPU     21.68s WALL (   16656 calls)
     h_psi        :     49.47s CPU     56.21s WALL (   17118 calls)
     s_psi        :      1.16s CPU      1.48s WALL (   17118 calls)
     g_psi        :      0.18s CPU      0.20s WALL (   10881 calls)

     Called by h_psi:
     h_psi:calbec :      2.33s CPU      2.87s WALL (   17118 calls)
     vloc_psi     :     45.68s CPU     51.59s WALL (   17118 calls)
     add_vuspsi   :      1.21s CPU      1.48s WALL (   17118 calls)

     General routines
     calbec       :      3.48s CPU      4.16s WALL (   23124 calls)
     fft          :      0.16s CPU      0.18s WALL (     646 calls)
     ffts         :      0.12s CPU      0.13s WALL (     540 calls)
     fftw         :     53.74s CPU     60.84s WALL (  830638 calls)
     interpolate  :      0.01s CPU      0.02s WALL (      52 calls)
 
     Parallel routines
 
     PWSCF        :   1m45.07s CPU   2m40.24s WALL

 
   This run was terminated on:   1: 0:16   6Sep2025            

=------------------------------------------------------------------------------=
   JOB DONE.
=------------------------------------------------------------------------------=
