
     Program PWSCF v.7.3 starts on  6Sep2025 at  1:12:26 

     This program is part of the open-source Quantum ESPRESSO suite
     for quantum simulation of materials; please cite
         "P. Giannozzi et al., J. Phys.:Condens. Matter 21 395502 (2009);
         "P. Giannozzi et al., J. Phys.:Condens. Matter 29 465901 (2017);
         "P. Giannozzi et al., J. Chem. Phys. 152 154105 (2020);
          URL http://www.quantum-espresso.org", 
     in publications or presentations arising from this work. More details at
     http://www.quantum-espresso.org/quote

     Parallel version (MPI), running on    30 processors

     MPI processes distributed on     1 nodes
     224939 MiB available memory on the printing compute node when the environment starts
 
     Waiting for input...
     Reading input from standard input

     Current dimensions of program PWSCF are:
     Max number of different atomic species (ntypx) = 10
     Max number of k-points (npk) =  40000
     Max angular momentum in pseudopotentials (lmaxx) =  4
     file Pd.upf: wavefunction(s)  5S 4D renormalized

     IMPORTANT: XC functional enforced from input :
     Exchange-correlation= PBE
                           (   1   4   3   4   0   0   0)
     Any further DFT definition will be discarded
     Please, verify this is what you really want

     Message from routine setup:
     using ibrav=0 with symmetry is DISCOURAGED, use correct ibrav instead
 
     K-points division:     npool     =       2
     R & G space division:  proc/nbgrp/npool/nimage =      15
     Subspace diagonalization in iterative solution of the eigenvalue problem:
     a serial algorithm will be used

 
     Parallelization info
     --------------------
     sticks:   dense  smooth     PW     G-vecs:    dense   smooth      PW
     Min         107      53     16                 3258     1151     192
     Max         109      55     17                 3260     1152     195
     Sum        1617     805    241                48885    17269    2897
 
     Using Slab Decomposition
 

     Title: 
     Pd_k_17                                                                    


     bravais-lattice index     =            0
     lattice parameter (alat)  =       6.5025  a.u.
     unit-cell volume          =     274.9107 (a.u.)^3
     number of atoms/cell      =            4
     number of atomic types    =            1
     number of electrons       =        40.00
     number of Kohn-Sham states=           24
     kinetic-energy cutoff     =      60.0000  Ry
     charge density cutoff     =     480.0000  Ry
     scf convergence threshold =      6.4E-09
     mixing beta               =       0.5000
     number of iterations used =           10  local-TF  mixing
     Exchange-correlation= PBE
                           (   1   4   3   4   0   0   0)

     celldm(1)=   6.502548  celldm(2)=   0.000000  celldm(3)=   0.000000
     celldm(4)=   0.000000  celldm(5)=   0.000000  celldm(6)=   0.000000

     crystal axes: (cart. coord. in units of alat)
               a(1) = (   0.999955   0.000000   0.000000 )  
               a(2) = (   0.000000   0.999955   0.000000 )  
               a(3) = (   0.000000   0.000000   0.999955 )  

     reciprocal axes: (cart. coord. in units 2 pi/alat)
               b(1) = (  1.000045  0.000000  0.000000 )  
               b(2) = (  0.000000  1.000045  0.000000 )  
               b(3) = (  0.000000  0.000000  1.000045 )  


     PseudoPot. # 1 for Pd read from file:
     /tmpu/mdach_g/mdach/PP/Pd.upf
     MD5 check sum: e9d6f14fd83b79f8105499163af174c9
     Pseudo is Projector augmented-wave + core cor, Zval = 10.0
     Generated using "atomic" code by A. Dal Corso  v.5.0.2 svn rev. 9415
     Shape of augmentation charge: PSQ
     Using radial grid of 1235 points,  6 beta functions with: 
                l(1) =   0
                l(2) =   0
                l(3) =   1
                l(4) =   1
                l(5) =   2
                l(6) =   2
     Q(r) pseudized with 0 coefficients 


     atomic species   valence    mass     pseudopotential
     Pd               10.00   106.42000     Pd( 1.00)

     Starting magnetic structure 
     atomic species   magnetization
     Pd              0.200

      6 Sym. Ops. (no inversion) found



   Cartesian axes

     site n.     atom                  positions (alat units)
         1        Pd     tau(   1) = (  -0.0054534  -0.0054534  -0.0054534  )
         2        Pd     tau(   2) = (  -0.0054550   0.5513882   0.5513882  )
         3        Pd     tau(   3) = (   0.5513882  -0.0054550   0.5513882  )
         4        Pd     tau(   4) = (   0.5513882   0.5513882  -0.0054550  )

     --------------------------------------------
     DFT-D3 Dispersion Correction (3-body terms):
     --------------------------------------------
       Reference C6 values for interpolation: 

         atom   Coordination number   C6
         Pd         0.000          1217.01
         Pd         1.863           573.90
         Pd         5.710           531.75

       Values used:

         atom   Coordination number  R0_AB[au]  C6      C8
         Pd        11.468            3.168    531.75  48720.73
         Pd        11.468            3.168    531.75  48720.73
         Pd        11.468            3.168    531.75  48720.73
         Pd        11.468            3.168    531.75  48720.73

         Molecular C6 ( Ry / a.u.^6 ) =      8507.99


     number of k points=   489  Methfessel-Paxton smearing, width (Ry)=  0.0147

     Number of k-points >= 100: set verbosity='high' to print them.

     Dense  grid:    48885 G-vectors     FFT dimensions: (  45,  45,  45)

     Smooth grid:    17269 G-vectors     FFT dimensions: (  36,  36,  36)

     Estimated max dynamical RAM per process >      36.66 MB

     Estimated total dynamical RAM >       1.04 GB
     Generating pointlists ...
     new r_m :   0.2585 (alat units)  1.6809 (a.u.) for type    1

     Initial potential from superposition of free atoms

     starting charge      39.9979, renormalised to      40.0000
     Starting wfcs are   36 atomic wfcs
     Checking if some PAW data can be deallocated... 

     total cpu time spent up to now is        6.0 secs

     Self-consistent Calculation

     iteration #  1     ecut=    60.00 Ry     beta= 0.50
     Davidson diagonalization with overlap
     ethr =  1.00E-02,  avg # of iterations =  4.2

     Threshold (ethr) on eigenvalues was too large:
     Diagonalizing with lowered threshold

     Davidson diagonalization with overlap
     ethr =  6.14E-04,  avg # of iterations =  2.8

     total cpu time spent up to now is       36.5 secs

     total energy              =   -1324.00821900 Ry
     estimated scf accuracy    <       0.28001902 Ry

     total magnetization       =     2.17 Bohr mag/cell
     absolute magnetization    =     2.17 Bohr mag/cell

     iteration #  2     ecut=    60.00 Ry     beta= 0.50
     Davidson diagonalization with overlap
     ethr =  7.00E-04,  avg # of iterations =  1.1

     total cpu time spent up to now is       46.3 secs

     total energy              =   -1324.02911723 Ry
     estimated scf accuracy    <       0.08715732 Ry

     total magnetization       =     1.61 Bohr mag/cell
     absolute magnetization    =     1.62 Bohr mag/cell

     iteration #  3     ecut=    60.00 Ry     beta= 0.50
     Davidson diagonalization with overlap
     ethr =  2.18E-04,  avg # of iterations =  2.2

     total cpu time spent up to now is       61.6 secs

     total energy              =   -1324.05828787 Ry
     estimated scf accuracy    <       0.00967609 Ry

     total magnetization       =     0.54 Bohr mag/cell
     absolute magnetization    =     0.63 Bohr mag/cell

     iteration #  4     ecut=    60.00 Ry     beta= 0.50
     Davidson diagonalization with overlap
     ethr =  2.42E-05,  avg # of iterations =  2.7

     total cpu time spent up to now is       74.2 secs

     total energy              =   -1324.06390752 Ry
     estimated scf accuracy    <       0.00894222 Ry

     total magnetization       =     0.54 Bohr mag/cell
     absolute magnetization    =     0.61 Bohr mag/cell

     iteration #  5     ecut=    60.00 Ry     beta= 0.50
     Davidson diagonalization with overlap
     ethr =  2.24E-05,  avg # of iterations =  1.0

     total cpu time spent up to now is       84.5 secs

     total energy              =   -1324.06394610 Ry
     estimated scf accuracy    <       0.01319013 Ry

     total magnetization       =     0.42 Bohr mag/cell
     absolute magnetization    =     0.49 Bohr mag/cell

     iteration #  6     ecut=    60.00 Ry     beta= 0.50
     Davidson diagonalization with overlap
     ethr =  2.24E-05,  avg # of iterations =  2.3

     total cpu time spent up to now is       98.8 secs

     total energy              =   -1324.06325856 Ry
     estimated scf accuracy    <       0.00812759 Ry

     total magnetization       =     0.13 Bohr mag/cell
     absolute magnetization    =     0.14 Bohr mag/cell

     iteration #  7     ecut=    60.00 Ry     beta= 0.50
     Davidson diagonalization with overlap
     ethr =  2.03E-05,  avg # of iterations =  1.0

     total cpu time spent up to now is      109.0 secs

     total energy              =   -1324.06364614 Ry
     estimated scf accuracy    <       0.00406097 Ry

     total magnetization       =     0.06 Bohr mag/cell
     absolute magnetization    =     0.07 Bohr mag/cell

     iteration #  8     ecut=    60.00 Ry     beta= 0.50
     Davidson diagonalization with overlap
     ethr =  1.02E-05,  avg # of iterations =  1.0

     total cpu time spent up to now is      118.8 secs

     total energy              =   -1324.06367147 Ry
     estimated scf accuracy    <       0.00414267 Ry

     total magnetization       =     0.06 Bohr mag/cell
     absolute magnetization    =     0.07 Bohr mag/cell

     iteration #  9     ecut=    60.00 Ry     beta= 0.50
     Davidson diagonalization with overlap
     ethr =  1.02E-05,  avg # of iterations =  1.0

     total cpu time spent up to now is      129.0 secs

     total energy              =   -1324.06364899 Ry
     estimated scf accuracy    <       0.00403660 Ry

     total magnetization       =     0.06 Bohr mag/cell
     absolute magnetization    =     0.07 Bohr mag/cell

     iteration # 10     ecut=    60.00 Ry     beta= 0.50
     Davidson diagonalization with overlap
     ethr =  1.01E-05,  avg # of iterations =  1.0

     total cpu time spent up to now is      139.1 secs

     total energy              =   -1324.06339714 Ry
     estimated scf accuracy    <       0.00392702 Ry

     total magnetization       =     0.06 Bohr mag/cell
     absolute magnetization    =     0.07 Bohr mag/cell

     iteration # 11     ecut=    60.00 Ry     beta= 0.50
     Davidson diagonalization with overlap
     ethr =  9.82E-06,  avg # of iterations =  1.0

     total cpu time spent up to now is      149.0 secs

     total energy              =   -1324.06161389 Ry
     estimated scf accuracy    <       0.00248339 Ry

     total magnetization       =     0.08 Bohr mag/cell
     absolute magnetization    =     0.09 Bohr mag/cell

     iteration # 12     ecut=    60.00 Ry     beta= 0.50
     Davidson diagonalization with overlap
     ethr =  6.21E-06,  avg # of iterations =  2.8

     total cpu time spent up to now is      165.3 secs

     total energy              =   -1324.06256686 Ry
     estimated scf accuracy    <       0.00040439 Ry

     total magnetization       =     0.03 Bohr mag/cell
     absolute magnetization    =     0.04 Bohr mag/cell

     iteration # 13     ecut=    60.00 Ry     beta= 0.50
     Davidson diagonalization with overlap
     ethr =  1.01E-06,  avg # of iterations =  3.0

     total cpu time spent up to now is      182.0 secs

     total energy              =   -1324.06269634 Ry
     estimated scf accuracy    <       0.00117694 Ry

     total magnetization       =     0.02 Bohr mag/cell
     absolute magnetization    =     0.02 Bohr mag/cell

     iteration # 14     ecut=    60.00 Ry     beta= 0.50
     Davidson diagonalization with overlap
     ethr =  1.01E-06,  avg # of iterations =  1.0

     total cpu time spent up to now is      192.1 secs

     total energy              =   -1324.06259823 Ry
     estimated scf accuracy    <       0.00118014 Ry

     total magnetization       =     0.02 Bohr mag/cell
     absolute magnetization    =     0.02 Bohr mag/cell

     iteration # 15     ecut=    60.00 Ry     beta= 0.50
     Davidson diagonalization with overlap
     ethr =  1.01E-06,  avg # of iterations =  1.0

     total cpu time spent up to now is      202.2 secs

     total energy              =   -1324.06250011 Ry
     estimated scf accuracy    <       0.00102652 Ry

     total magnetization       =     0.02 Bohr mag/cell
     absolute magnetization    =     0.02 Bohr mag/cell

     iteration # 16     ecut=    60.00 Ry     beta= 0.50
     Davidson diagonalization with overlap
     ethr =  1.01E-06,  avg # of iterations =  1.0

     total cpu time spent up to now is      212.4 secs

     total energy              =   -1324.06233284 Ry
     estimated scf accuracy    <       0.00064386 Ry

     total magnetization       =     0.01 Bohr mag/cell
     absolute magnetization    =     0.02 Bohr mag/cell

     iteration # 17     ecut=    60.00 Ry     beta= 0.50
     Davidson diagonalization with overlap
     ethr =  1.01E-06,  avg # of iterations =  2.0

     total cpu time spent up to now is      224.0 secs

     total energy              =   -1324.06233362 Ry
     estimated scf accuracy    <       0.00022334 Ry

     total magnetization       =     0.01 Bohr mag/cell
     absolute magnetization    =     0.01 Bohr mag/cell

     iteration # 18     ecut=    60.00 Ry     beta= 0.50
     Davidson diagonalization with overlap
     ethr =  5.58E-07,  avg # of iterations =  1.4

     total cpu time spent up to now is      234.3 secs

     total energy              =   -1324.06236017 Ry
     estimated scf accuracy    <       0.00011908 Ry

     total magnetization       =     0.01 Bohr mag/cell
     absolute magnetization    =     0.01 Bohr mag/cell

     iteration # 19     ecut=    60.00 Ry     beta= 0.50
     Davidson diagonalization with overlap
     ethr =  2.98E-07,  avg # of iterations =  1.3

     total cpu time spent up to now is      244.2 secs

     total energy              =   -1324.06236480 Ry
     estimated scf accuracy    <       0.00012964 Ry

     total magnetization       =     0.01 Bohr mag/cell
     absolute magnetization    =     0.01 Bohr mag/cell

     iteration # 20     ecut=    60.00 Ry     beta= 0.50
     Davidson diagonalization with overlap
     ethr =  2.98E-07,  avg # of iterations =  1.0

     total cpu time spent up to now is      254.1 secs

     total energy              =   -1324.06239876 Ry
     estimated scf accuracy    <       0.00011763 Ry

     total magnetization       =     0.01 Bohr mag/cell
     absolute magnetization    =     0.01 Bohr mag/cell

     iteration # 21     ecut=    60.00 Ry     beta= 0.50
     Davidson diagonalization with overlap
     ethr =  2.94E-07,  avg # of iterations =  1.9

     total cpu time spent up to now is      265.4 secs

     total energy              =   -1324.06249614 Ry
     estimated scf accuracy    <       0.00019809 Ry

     total magnetization       =     0.01 Bohr mag/cell
     absolute magnetization    =     0.01 Bohr mag/cell

     iteration # 22     ecut=    60.00 Ry     beta= 0.50
     Davidson diagonalization with overlap
     ethr =  2.94E-07,  avg # of iterations =  2.0

     total cpu time spent up to now is      279.2 secs

     total energy              =   -1324.06243412 Ry
     estimated scf accuracy    <       0.00046030 Ry

     total magnetization       =     0.01 Bohr mag/cell
     absolute magnetization    =     0.02 Bohr mag/cell

     iteration # 23     ecut=    60.00 Ry     beta= 0.50
     Davidson diagonalization with overlap
     ethr =  2.94E-07,  avg # of iterations =  1.0

     total cpu time spent up to now is      289.4 secs

     total energy              =   -1324.06228648 Ry
     estimated scf accuracy    <       0.00028253 Ry

     total magnetization       =     0.02 Bohr mag/cell
     absolute magnetization    =     0.02 Bohr mag/cell

     iteration # 24     ecut=    60.00 Ry     beta= 0.50
     Davidson diagonalization with overlap
     ethr =  2.94E-07,  avg # of iterations =  3.0

     total cpu time spent up to now is      307.5 secs

     total energy              =   -1324.06235940 Ry
     estimated scf accuracy    <       0.00004351 Ry

     total magnetization       =     0.02 Bohr mag/cell
     absolute magnetization    =     0.02 Bohr mag/cell

     iteration # 25     ecut=    60.00 Ry     beta= 0.50
     Davidson diagonalization with overlap
     ethr =  1.09E-07,  avg # of iterations =  1.0

     total cpu time spent up to now is      318.0 secs

     total energy              =   -1324.06233754 Ry
     estimated scf accuracy    <       0.00003967 Ry

     total magnetization       =     0.02 Bohr mag/cell
     absolute magnetization    =     0.02 Bohr mag/cell

     iteration # 26     ecut=    60.00 Ry     beta= 0.50
     Davidson diagonalization with overlap
     ethr =  9.92E-08,  avg # of iterations =  3.0

     total cpu time spent up to now is      334.1 secs

     total energy              =   -1324.06234928 Ry
     estimated scf accuracy    <       0.00001234 Ry

     total magnetization       =     0.00 Bohr mag/cell
     absolute magnetization    =     0.00 Bohr mag/cell

     iteration # 27     ecut=    60.00 Ry     beta= 0.50
     Davidson diagonalization with overlap
     ethr =  3.08E-08,  avg # of iterations =  2.3

     total cpu time spent up to now is      347.7 secs

     total energy              =   -1324.06235233 Ry
     estimated scf accuracy    <       0.00000022 Ry

     total magnetization       =    -0.00 Bohr mag/cell
     absolute magnetization    =     0.00 Bohr mag/cell

     iteration # 28     ecut=    60.00 Ry     beta= 0.50
     Davidson diagonalization with overlap
     ethr =  5.56E-10,  avg # of iterations =  3.3

     total cpu time spent up to now is      367.4 secs

     total energy              =   -1324.06235262 Ry
     estimated scf accuracy    <       0.00000079 Ry

     total magnetization       =     0.00 Bohr mag/cell
     absolute magnetization    =     0.00 Bohr mag/cell

     iteration # 29     ecut=    60.00 Ry     beta= 0.50
     Davidson diagonalization with overlap
     ethr =  5.56E-10,  avg # of iterations =  3.0

     total cpu time spent up to now is      385.8 secs

     total energy              =   -1324.06235277 Ry
     estimated scf accuracy    <       0.00000017 Ry

     total magnetization       =    -0.00 Bohr mag/cell
     absolute magnetization    =     0.00 Bohr mag/cell

     iteration # 30     ecut=    60.00 Ry     beta= 0.50
     Davidson diagonalization with overlap
     ethr =  4.15E-10,  avg # of iterations =  2.0
 
     Magnetic moment per site  (integrated on atomic sphere of radius R)
     atom   1 (R=0.258)  charge=  7.1587  magn=  0.0000
     atom   2 (R=0.258)  charge=  7.1588  magn=  0.0000
     atom   3 (R=0.258)  charge=  7.1588  magn=  0.0000
     atom   4 (R=0.258)  charge=  7.1588  magn=  0.0000

     total cpu time spent up to now is      398.7 secs

     End of self-consistent calculation

     Number of k-points >= 100: set verbosity='high' to print the bands.

     the Fermi energy is    23.8704 ev

!    total energy              =   -1324.06235279 Ry
     total all-electron energy =    -40367.859318 Ry
     estimated scf accuracy    <          4.3E-09 Ry
     smearing contrib. (-TS)   =       0.00009179 Ry
     internal energy E=F+TS    =   -1324.06244458 Ry

     The total energy is F=E-TS. E is the sum of the following terms:
     one-electron contribution =      82.83796025 Ry
     hartree contribution      =      30.33073532 Ry
     xc contribution           =    -132.08296608 Ry
     ewald contribution        =    -276.84078315 Ry
     DFT-D3 Dispersion         =      -0.70720743 Ry
     one-center paw contrib.   =   -1027.60018349 Ry

     total magnetization       =     0.00 Bohr mag/cell
     absolute magnetization    =     0.00 Bohr mag/cell

     convergence has been achieved in  30 iterations

     Writing all to output data dir ./Pd_k_17.save/ :
     XML data file, charge density, pseudopotentials, collected wavefunctions
 
     init_run     :      5.30s CPU      5.76s WALL (       1 calls)
     electrons    :    262.75s CPU    392.68s WALL (       1 calls)

     Called by init_run:
     wfcinit      :      4.90s CPU      5.31s WALL (       1 calls)
     potinit      :      0.25s CPU      0.27s WALL (       1 calls)
     hinit0       :      0.10s CPU      0.11s WALL (       1 calls)

     Called by electrons:
     c_bands      :    215.37s CPU    339.32s WALL (      31 calls)
     sum_band     :     40.03s CPU     45.45s WALL (      31 calls)
     v_of_rho     :      0.32s CPU      0.34s WALL (      31 calls)
     newd         :      0.25s CPU      0.27s WALL (      31 calls)
     PAW_pot      :      6.25s CPU      6.52s WALL (      31 calls)
     mix_rho      :      0.19s CPU      0.22s WALL (      31 calls)
     energy_dftd3 :      0.30s CPU      0.30s WALL (       1 calls)

     Called by c_bands:
     init_us_2    :      2.11s CPU      2.74s WALL (   30807 calls)
     init_us_2:cp :      2.02s CPU      2.66s WALL (   30807 calls)
     cegterg      :    190.12s CPU    235.78s WALL (   15159 calls)

     Called by *egterg:
     cdiaghg      :     37.59s CPU     61.61s WALL (   43135 calls)
     h_psi        :    131.25s CPU    149.02s WALL (   44113 calls)
     s_psi        :      2.98s CPU      3.76s WALL (   44113 calls)
     g_psi        :      0.47s CPU      0.52s WALL (   28465 calls)

     Called by h_psi:
     h_psi:calbec :      6.00s CPU      7.24s WALL (   44113 calls)
     vloc_psi     :    121.40s CPU    137.09s WALL (   44113 calls)
     add_vuspsi   :      3.15s CPU      3.89s WALL (   44113 calls)

     General routines
     calbec       :      8.84s CPU     10.32s WALL (   59272 calls)
     fft          :      0.29s CPU      0.31s WALL (     771 calls)
     ffts         :      0.14s CPU      0.15s WALL (     643 calls)
     fftw         :    140.34s CPU    157.71s WALL ( 2139526 calls)
     interpolate  :      0.04s CPU      0.04s WALL (      62 calls)
 
     Parallel routines
 
     PWSCF        :   4m29.06s CPU   6m42.14s WALL

 
   This run was terminated on:   1:19: 9   6Sep2025            

=------------------------------------------------------------------------------=
   JOB DONE.
=------------------------------------------------------------------------------=
