
     Program PWSCF v.7.3 starts on  6Sep2025 at  0:50:54 

     This program is part of the open-source Quantum ESPRESSO suite
     for quantum simulation of materials; please cite
         "P. Giannozzi et al., J. Phys.:Condens. Matter 21 395502 (2009);
         "P. Giannozzi et al., J. Phys.:Condens. Matter 29 465901 (2017);
         "P. Giannozzi et al., J. Chem. Phys. 152 154105 (2020);
          URL http://www.quantum-espresso.org", 
     in publications or presentations arising from this work. More details at
     http://www.quantum-espresso.org/quote

     Parallel version (MPI), running on    30 processors

     MPI processes distributed on     1 nodes
     222124 MiB available memory on the printing compute node when the environment starts
 
     Waiting for input...
     Reading input from standard input

     Current dimensions of program PWSCF are:
     Max number of different atomic species (ntypx) = 10
     Max number of k-points (npk) =  40000
     Max angular momentum in pseudopotentials (lmaxx) =  4
     file Pd.upf: wavefunction(s)  5S 4D renormalized

     IMPORTANT: XC functional enforced from input :
     Exchange-correlation= PBE
                           (   1   4   3   4   0   0   0)
     Any further DFT definition will be discarded
     Please, verify this is what you really want

     Message from routine setup:
     using ibrav=0 with symmetry is DISCOURAGED, use correct ibrav instead
 
     K-points division:     npool     =       2
     R & G space division:  proc/nbgrp/npool/nimage =      15
     Subspace diagonalization in iterative solution of the eigenvalue problem:
     a serial algorithm will be used

 
     Parallelization info
     --------------------
     sticks:   dense  smooth     PW     G-vecs:    dense   smooth      PW
     Min         107      53     16                 3258     1151     196
     Max         109      55     17                 3260     1152     201
     Sum        1617     805    241                48885    17269    2945
 
     Using Slab Decomposition
 

     Title: 
     Pd_k_6                                                                     


     bravais-lattice index     =            0
     lattice parameter (alat)  =       6.5025  a.u.
     unit-cell volume          =     274.9107 (a.u.)^3
     number of atoms/cell      =            4
     number of atomic types    =            1
     number of electrons       =        40.00
     number of Kohn-Sham states=           24
     kinetic-energy cutoff     =      60.0000  Ry
     charge density cutoff     =     480.0000  Ry
     scf convergence threshold =      6.4E-09
     mixing beta               =       0.5000
     number of iterations used =           10  local-TF  mixing
     Exchange-correlation= PBE
                           (   1   4   3   4   0   0   0)

     celldm(1)=   6.502548  celldm(2)=   0.000000  celldm(3)=   0.000000
     celldm(4)=   0.000000  celldm(5)=   0.000000  celldm(6)=   0.000000

     crystal axes: (cart. coord. in units of alat)
               a(1) = (   0.999955   0.000000   0.000000 )  
               a(2) = (   0.000000   0.999955   0.000000 )  
               a(3) = (   0.000000   0.000000   0.999955 )  

     reciprocal axes: (cart. coord. in units 2 pi/alat)
               b(1) = (  1.000045  0.000000  0.000000 )  
               b(2) = (  0.000000  1.000045  0.000000 )  
               b(3) = (  0.000000  0.000000  1.000045 )  


     PseudoPot. # 1 for Pd read from file:
     /tmpu/mdach_g/mdach/PP/Pd.upf
     MD5 check sum: e9d6f14fd83b79f8105499163af174c9
     Pseudo is Projector augmented-wave + core cor, Zval = 10.0
     Generated using "atomic" code by A. Dal Corso  v.5.0.2 svn rev. 9415
     Shape of augmentation charge: PSQ
     Using radial grid of 1235 points,  6 beta functions with: 
                l(1) =   0
                l(2) =   0
                l(3) =   1
                l(4) =   1
                l(5) =   2
                l(6) =   2
     Q(r) pseudized with 0 coefficients 


     atomic species   valence    mass     pseudopotential
     Pd               10.00   106.42000     Pd( 1.00)

     Starting magnetic structure 
     atomic species   magnetization
     Pd              0.200

      6 Sym. Ops. (no inversion) found



   Cartesian axes

     site n.     atom                  positions (alat units)
         1        Pd     tau(   1) = (  -0.0054534  -0.0054534  -0.0054534  )
         2        Pd     tau(   2) = (  -0.0054550   0.5513882   0.5513882  )
         3        Pd     tau(   3) = (   0.5513882  -0.0054550   0.5513882  )
         4        Pd     tau(   4) = (   0.5513882   0.5513882  -0.0054550  )

     --------------------------------------------
     DFT-D3 Dispersion Correction (3-body terms):
     --------------------------------------------
       Reference C6 values for interpolation: 

         atom   Coordination number   C6
         Pd         0.000          1217.01
         Pd         1.863           573.90
         Pd         5.710           531.75

       Values used:

         atom   Coordination number  R0_AB[au]  C6      C8
         Pd        11.468            3.168    531.75  48720.73
         Pd        11.468            3.168    531.75  48720.73
         Pd        11.468            3.168    531.75  48720.73
         Pd        11.468            3.168    531.75  48720.73

         Molecular C6 ( Ry / a.u.^6 ) =      8507.99


     number of k points=    32  Methfessel-Paxton smearing, width (Ry)=  0.0147
                       cart. coord. in units 2pi/alat
        k(    1) = (   0.0000000   0.0000000   0.0000000), wk =   0.0046296
        k(    2) = (   0.0000000   0.0000000   0.1666742), wk =   0.0277778
        k(    3) = (   0.0000000   0.0000000   0.3333484), wk =   0.0277778
        k(    4) = (   0.0000000   0.0000000  -0.5000226), wk =   0.0138889
        k(    5) = (   0.0000000   0.1666742   0.1666742), wk =   0.0277778
        k(    6) = (   0.0000000   0.1666742   0.3333484), wk =   0.0555556
        k(    7) = (   0.0000000   0.1666742  -0.5000226), wk =   0.0555556
        k(    8) = (   0.0000000   0.3333484   0.3333484), wk =   0.0277778
        k(    9) = (   0.0000000   0.3333484  -0.5000226), wk =   0.0555556
        k(   10) = (   0.0000000  -0.5000226  -0.5000226), wk =   0.0138889
        k(   11) = (   0.1666742   0.1666742   0.1666742), wk =   0.0092593
        k(   12) = (   0.1666742   0.1666742   0.3333484), wk =   0.0277778
        k(   13) = (   0.1666742   0.1666742  -0.5000226), wk =   0.0277778
        k(   14) = (   0.1666742   0.3333484   0.3333484), wk =   0.0277778
        k(   15) = (   0.1666742   0.3333484  -0.5000226), wk =   0.0555556
        k(   16) = (   0.1666742  -0.5000226  -0.5000226), wk =   0.0277778
        k(   17) = (   0.3333484   0.3333484   0.3333484), wk =   0.0092593
        k(   18) = (   0.3333484   0.3333484  -0.5000226), wk =   0.0277778
        k(   19) = (   0.3333484  -0.5000226  -0.5000226), wk =   0.0277778
        k(   20) = (  -0.5000226  -0.5000226  -0.5000226), wk =   0.0046296
        k(   21) = (  -0.1666742   0.0000000   0.1666742), wk =   0.0277778
        k(   22) = (  -0.1666742   0.0000000   0.3333484), wk =   0.0555556
        k(   23) = (  -0.3333484   0.0000000   0.3333484), wk =   0.0277778
        k(   24) = (   0.1666742  -0.1666742   0.1666742), wk =   0.0277778
        k(   25) = (   0.1666742  -0.1666742   0.3333484), wk =   0.0555556
        k(   26) = (  -0.3333484   0.1666742   0.1666742), wk =   0.0277778
        k(   27) = (   0.1666742  -0.1666742  -0.5000226), wk =   0.0277778
        k(   28) = (   0.3333484  -0.1666742   0.3333484), wk =   0.0277778
        k(   29) = (  -0.3333484   0.1666742   0.3333484), wk =   0.0555556
        k(   30) = (   0.3333484  -0.1666742  -0.5000226), wk =   0.0555556
        k(   31) = (   0.3333484  -0.3333484   0.3333484), wk =   0.0277778
        k(   32) = (   0.3333484  -0.3333484  -0.5000226), wk =   0.0277778

     Dense  grid:    48885 G-vectors     FFT dimensions: (  45,  45,  45)

     Smooth grid:    17269 G-vectors     FFT dimensions: (  36,  36,  36)

     Estimated max dynamical RAM per process >      12.73 MB

     Estimated total dynamical RAM >     352.11 MB
     Generating pointlists ...
     new r_m :   0.2585 (alat units)  1.6809 (a.u.) for type    1

     Initial potential from superposition of free atoms

     starting charge      39.9979, renormalised to      40.0000
     Starting wfcs are   36 atomic wfcs
     Checking if some PAW data can be deallocated... 

     total cpu time spent up to now is        1.0 secs

     Self-consistent Calculation

     iteration #  1     ecut=    60.00 Ry     beta= 0.50
     Davidson diagonalization with overlap
     ethr =  1.00E-02,  avg # of iterations =  3.9

     Threshold (ethr) on eigenvalues was too large:
     Diagonalizing with lowered threshold

     Davidson diagonalization with overlap
     ethr =  6.19E-04,  avg # of iterations =  3.0

     total cpu time spent up to now is        3.6 secs

     total energy              =   -1324.00563654 Ry
     estimated scf accuracy    <       0.28167330 Ry

     total magnetization       =     2.19 Bohr mag/cell
     absolute magnetization    =     2.19 Bohr mag/cell

     iteration #  2     ecut=    60.00 Ry     beta= 0.50
     Davidson diagonalization with overlap
     ethr =  7.04E-04,  avg # of iterations =  1.0

     total cpu time spent up to now is        4.5 secs

     total energy              =   -1324.03121662 Ry
     estimated scf accuracy    <       0.08807705 Ry

     total magnetization       =     1.52 Bohr mag/cell
     absolute magnetization    =     1.52 Bohr mag/cell

     iteration #  3     ecut=    60.00 Ry     beta= 0.50
     Davidson diagonalization with overlap
     ethr =  2.20E-04,  avg # of iterations =  2.0

     total cpu time spent up to now is        5.6 secs

     total energy              =   -1324.06113068 Ry
     estimated scf accuracy    <       0.00982868 Ry

     total magnetization       =     0.44 Bohr mag/cell
     absolute magnetization    =     0.54 Bohr mag/cell

     iteration #  4     ecut=    60.00 Ry     beta= 0.50
     Davidson diagonalization with overlap
     ethr =  2.46E-05,  avg # of iterations =  2.3

     total cpu time spent up to now is        6.6 secs

     total energy              =   -1324.06380274 Ry
     estimated scf accuracy    <       0.00400836 Ry

     total magnetization       =     0.38 Bohr mag/cell
     absolute magnetization    =     0.46 Bohr mag/cell

     iteration #  5     ecut=    60.00 Ry     beta= 0.50
     Davidson diagonalization with overlap
     ethr =  1.00E-05,  avg # of iterations =  1.2

     total cpu time spent up to now is        7.6 secs

     total energy              =   -1324.06504275 Ry
     estimated scf accuracy    <       0.00040578 Ry

     total magnetization       =     0.11 Bohr mag/cell
     absolute magnetization    =     0.17 Bohr mag/cell

     iteration #  6     ecut=    60.00 Ry     beta= 0.50
     Davidson diagonalization with overlap
     ethr =  1.01E-06,  avg # of iterations =  2.9

     total cpu time spent up to now is        8.6 secs

     total energy              =   -1324.06523208 Ry
     estimated scf accuracy    <       0.00008244 Ry

     total magnetization       =     0.09 Bohr mag/cell
     absolute magnetization    =     0.12 Bohr mag/cell

     iteration #  7     ecut=    60.00 Ry     beta= 0.50
     Davidson diagonalization with overlap
     ethr =  2.06E-07,  avg # of iterations =  1.6

     total cpu time spent up to now is        9.6 secs

     total energy              =   -1324.06527033 Ry
     estimated scf accuracy    <       0.00008933 Ry

     total magnetization       =     0.07 Bohr mag/cell
     absolute magnetization    =     0.09 Bohr mag/cell

     iteration #  8     ecut=    60.00 Ry     beta= 0.50
     Davidson diagonalization with overlap
     ethr =  2.06E-07,  avg # of iterations =  2.6

     total cpu time spent up to now is       10.6 secs

     total energy              =   -1324.06535440 Ry
     estimated scf accuracy    <       0.00001710 Ry

     total magnetization       =     0.01 Bohr mag/cell
     absolute magnetization    =     0.02 Bohr mag/cell

     iteration #  9     ecut=    60.00 Ry     beta= 0.50
     Davidson diagonalization with overlap
     ethr =  4.27E-08,  avg # of iterations =  1.1

     total cpu time spent up to now is       11.7 secs

     total energy              =   -1324.06535653 Ry
     estimated scf accuracy    <       0.00001047 Ry

     total magnetization       =     0.01 Bohr mag/cell
     absolute magnetization    =     0.01 Bohr mag/cell

     iteration # 10     ecut=    60.00 Ry     beta= 0.50
     Davidson diagonalization with overlap
     ethr =  2.62E-08,  avg # of iterations =  2.5

     total cpu time spent up to now is       12.7 secs

     total energy              =   -1324.06535929 Ry
     estimated scf accuracy    <       0.00000039 Ry

     total magnetization       =     0.00 Bohr mag/cell
     absolute magnetization    =     0.00 Bohr mag/cell

     iteration # 11     ecut=    60.00 Ry     beta= 0.50
     Davidson diagonalization with overlap
     ethr =  9.87E-10,  avg # of iterations =  2.7

     total cpu time spent up to now is       14.0 secs

     total energy              =   -1324.06535937 Ry
     estimated scf accuracy    <       0.00000031 Ry

     total magnetization       =     0.00 Bohr mag/cell
     absolute magnetization    =     0.00 Bohr mag/cell

     iteration # 12     ecut=    60.00 Ry     beta= 0.50
     Davidson diagonalization with overlap
     ethr =  7.80E-10,  avg # of iterations =  1.1

     total cpu time spent up to now is       14.9 secs

     total energy              =   -1324.06535937 Ry
     estimated scf accuracy    <       0.00000006 Ry

     total magnetization       =    -0.00 Bohr mag/cell
     absolute magnetization    =     0.00 Bohr mag/cell

     iteration # 13     ecut=    60.00 Ry     beta= 0.50
     Davidson diagonalization with overlap
     ethr =  1.57E-10,  avg # of iterations =  2.5
 
     Magnetic moment per site  (integrated on atomic sphere of radius R)
     atom   1 (R=0.258)  charge=  7.1607  magn= -0.0000
     atom   2 (R=0.258)  charge=  7.1608  magn= -0.0000
     atom   3 (R=0.258)  charge=  7.1608  magn= -0.0000
     atom   4 (R=0.258)  charge=  7.1608  magn= -0.0000

     total cpu time spent up to now is       16.1 secs

     End of self-consistent calculation

 ------ SPIN UP ------------


          k = 0.0000 0.0000 0.0000 (  2109 PWs)   bands (ev):

    13.2602  13.5663  13.6809  13.6810  13.6810  14.2971  14.2971  18.2588
    18.2589  18.2589  20.6994  20.6994  23.4752  23.4752  23.4752  23.5898
    23.5898  23.5898  24.2189  24.2189  24.2189  27.8831  27.8831  27.9237

          k = 0.0000 0.0000 0.1667 (  2140 PWs)   bands (ev):

    13.5338  13.7989  14.0069  14.0069  14.0614  14.6377  14.6464  18.0027
    18.4493  18.4493  20.0566  20.7652  22.4649  22.5803  22.6802  22.6802
    23.3412  23.3799  23.3799  24.3180  24.3180  26.2098  29.5029  29.7168

          k = 0.0000 0.0000 0.3333 (  2156 PWs)   bands (ev):

    14.0620  14.5669  14.8064  14.8065  14.9366  15.6071  15.6289  17.3776
    18.6652  18.8693  18.8693  19.9427  20.8392  21.2446  21.4334  21.4334
    22.6347  22.6347  23.0280  23.3311  24.3379  24.3379  32.2870  32.5676

          k = 0.0000 0.0000-0.5000 (  2168 PWs)   bands (ev):

    14.4883  14.9524  15.3395  15.3395  15.6009  16.5833  16.6000  16.6904
    18.0233  18.5289  19.0217  19.0217  19.8675  20.9467  20.9467  21.3395
    21.8427  22.0713  22.0714  22.8347  24.3377  24.3377  34.3824  34.5575

          k = 0.0000 0.1667 0.1667 (  2155 PWs)   bands (ev):

    13.6721  14.1931  14.2148  14.2900  14.4751  14.9208  15.0369  17.9584
    18.4596  18.4979  19.8222  20.4690  21.6000  21.8371  21.9111  22.5264
    22.8879  23.1973  23.4098  23.4928  24.2464  27.8615  27.9662  30.8824

          k = 0.0000 0.1667 0.3333 (  2157 PWs)   bands (ev):

    14.1427  14.8287  15.0141  15.1588  15.2836  15.7899  15.9773  17.4712
    18.1993  18.6829  18.9016  19.8380  20.1562  20.8903  21.1116  21.5390
    22.1134  22.6220  22.8049  23.4708  24.1142  25.2854  30.3657  33.3688

          k = 0.0000 0.1667-0.5000 (  2144 PWs)   bands (ev):

    14.5271  15.2471  15.5860  15.6964  15.9820  16.6340  16.7285  16.7634
    17.5388  18.1508  18.9719  19.0082  19.9360  20.2205  20.9180  21.1105
    21.7668  21.9150  23.0820  23.1639  24.0504  24.0902  32.2031  32.9359

          k = 0.0000 0.3333 0.3333 (  2152 PWs)   bands (ev):

    14.4689  15.4527  15.5894  15.8949  16.0425  16.3953  16.7178  17.5003
    17.8543  17.9103  18.6731  18.9307  19.7123  20.1305  20.7865  20.8181
    21.8171  22.4620  22.4946  23.4028  23.7139  27.3469  27.4429  31.7647

          k = 0.0000 0.3333-0.5000 (  2148 PWs)   bands (ev):

    14.7652  15.7157  16.1949  16.4269  16.5494  16.8221  16.9169  17.0623
    17.4145  17.9423  18.6464  18.9701  19.1530  19.9409  19.9765  20.4617
    21.5790  21.8824  22.4263  23.5267  24.8086  25.2678  29.2137  29.8541

          k = 0.0000-0.5000-0.5000 (  2160 PWs)   bands (ev):

    14.9823  15.9638  16.1643  16.1643  17.0093  17.3612  17.3612  17.6013
    17.9276  17.9277  18.2898  18.5842  18.8957  19.6660  19.6660  19.6942
    21.3185  21.8376  21.8376  23.2381  26.8188  27.1503  27.1503  27.2177

          k = 0.1667 0.1667 0.1667 (  2148 PWs)   bands (ev):

    13.7649  14.4399  14.4399  14.5112  14.9642  15.2988  15.2988  18.0700
    18.3924  18.3924  19.9959  19.9959  20.8647  21.4464  21.4464  21.8797
    22.5112  22.5112  23.6481  23.6481  24.1869  28.8116  29.0123  29.0123

          k = 0.1667 0.1667 0.3333 (  2166 PWs)   bands (ev):

    14.1257  14.9740  15.1285  15.3107  15.7120  16.0928  16.1225  17.7144
    18.1215  18.2920  19.1366  19.7802  20.0015  20.2393  20.8498  21.0470
    22.0505  22.3653  23.3475  23.4407  24.0775  25.8621  30.7659  30.9840

          k = 0.1667 0.1667-0.5000 (  2142 PWs)   bands (ev):

    14.4108  15.4604  15.8009  15.8472  16.2239  16.3501  16.4971  17.1398
    17.7578  18.2770  18.7641  19.4086  19.6596  19.7007  20.5731  20.7444
    22.3070  22.8071  22.8644  23.0933  23.9358  24.1584  32.0831  32.1986

          k = 0.1667 0.3333 0.3333 (  2170 PWs)   bands (ev):

    14.2518  15.4145  15.4332  15.6573  16.3058  16.5450  16.5718  17.8582
    18.0005  18.4623  18.9513  19.0283  19.7647  19.9317  20.1763  20.4532
    21.8738  22.9678  22.9840  23.2795  23.9636  27.3559  27.5629  30.9715

          k = 0.1667 0.3333-0.5000 (  2160 PWs)   bands (ev):

    14.4036  15.5346  15.8219  15.8910  16.4626  16.5220  16.8209  17.7547
    18.3230  18.4685  18.8160  18.9744  19.5346  19.6771  19.8574  20.2867
    22.0760  22.5281  22.8357  23.7675  24.5803  25.0038  29.0680  29.5548

          k = 0.1667-0.5000-0.5000 (  2164 PWs)   bands (ev):

    14.4844  15.5719  15.5719  15.6478  16.8567  17.0818  17.0818  17.8490
    18.2719  18.7155  18.7917  18.7918  19.4714  19.7874  19.7874  20.2381
    21.7071  22.3704  22.3704  23.5922  26.4230  26.8400  26.8400  26.9760

          k = 0.3333 0.3333 0.3333 (  2151 PWs)   bands (ev):

    14.0301  15.2043  15.2043  15.2990  16.5694  16.7941  16.7941  18.2945
    18.2945  18.6600  18.6600  19.4951  19.6036  20.1654  20.1654  20.8825
    22.6910  22.6910  23.4266  23.4266  24.0093  27.4754  27.8591  27.8591

          k = 0.3333 0.3333-0.5000 (  2178 PWs)   bands (ev):

    14.0172  14.9645  15.1116  15.1508  16.7786  16.9602  17.0390  18.1118
    18.1947  18.6056  18.6806  19.1547  19.9744  20.3670  20.7045  21.3675
    22.9518  23.2331  23.3730  23.9581  24.3102  24.6855  27.8829  28.0059

          k = 0.3333-0.5000-0.5000 (  2160 PWs)   bands (ev):

    13.9326  14.7549  14.7549  14.8440  17.1050  17.2532  17.2533  17.8525
    17.9392  18.5799  18.5799  18.8450  20.7122  21.3728  21.3728  22.1624
    22.7007  23.2448  23.2448  23.9764  25.2383  25.8841  25.8841  26.1276

          k =-0.5000-0.5000-0.5000 (  2176 PWs)   bands (ev):

    13.7757  14.4493  14.4493  14.4493  17.3153  17.3153  17.3153  17.8698
    17.8698  18.5076  18.5076  18.5076  22.3426  22.3426  22.3426  23.3756
    23.3756  23.9189  23.9189  23.9189  24.3350  24.8659  24.8660  24.8660

          k =-0.1667 0.0000 0.1667 (  2155 PWs)   bands (ev):

    13.6721  14.1931  14.2148  14.2900  14.4751  14.9208  15.0369  17.9584
    18.4596  18.4979  19.8222  20.4689  21.6001  21.8371  21.9111  22.5264
    22.8879  23.1973  23.4098  23.4928  24.2464  27.8615  27.9662  30.8824

          k =-0.1667 0.0000 0.3333 (  2157 PWs)   bands (ev):

    14.1427  14.8287  15.0141  15.1588  15.2836  15.7899  15.9773  17.4712
    18.1993  18.6829  18.9016  19.8380  20.1563  20.8903  21.1116  21.5390
    22.1134  22.6220  22.8049  23.4708  24.1142  25.2854  30.3657  33.3688

          k =-0.3333 0.0000 0.3333 (  2152 PWs)   bands (ev):

    14.4689  15.4527  15.5894  15.8949  16.0425  16.3953  16.7178  17.5003
    17.8543  17.9103  18.6731  18.9307  19.7123  20.1305  20.7865  20.8181
    21.8171  22.4620  22.4946  23.4028  23.7139  27.3469  27.4429  31.7647

          k = 0.1667-0.1667 0.1667 (  2148 PWs)   bands (ev):

    13.7650  14.4399  14.4399  14.5112  14.9642  15.2988  15.2988  18.0701
    18.3923  18.3924  19.9959  19.9959  20.8647  21.4464  21.4464  21.8797
    22.5112  22.5112  23.6481  23.6481  24.1869  28.8116  29.0123  29.0124

          k = 0.1667-0.1667 0.3333 (  2166 PWs)   bands (ev):

    14.1257  14.9740  15.1285  15.3107  15.7120  16.0928  16.1225  17.7144
    18.1215  18.2920  19.1366  19.7802  20.0015  20.2393  20.8498  21.0470
    22.0505  22.3653  23.3475  23.4407  24.0775  25.8621  30.7660  30.9840

          k =-0.3333 0.1667 0.1667 (  2166 PWs)   bands (ev):

    14.1257  14.9740  15.1285  15.3107  15.7120  16.0928  16.1225  17.7144
    18.1215  18.2920  19.1366  19.7802  20.0015  20.2393  20.8498  21.0470
    22.0505  22.3653  23.3475  23.4407  24.0775  25.8621  30.7659  30.9840

          k = 0.1667-0.1667-0.5000 (  2142 PWs)   bands (ev):

    14.4108  15.4604  15.8009  15.8472  16.2239  16.3501  16.4971  17.1398
    17.7578  18.2769  18.7641  19.4086  19.6596  19.7007  20.5731  20.7444
    22.3070  22.8071  22.8644  23.0933  23.9358  24.1584  32.0831  32.1986

          k = 0.3333-0.1667 0.3333 (  2170 PWs)   bands (ev):

    14.2518  15.4145  15.4332  15.6573  16.3058  16.5450  16.5718  17.8582
    18.0005  18.4623  18.9513  19.0283  19.7648  19.9317  20.1763  20.4532
    21.8738  22.9678  22.9840  23.2794  23.9636  27.3559  27.5629  30.9716

          k =-0.3333 0.1667 0.3333 (  2170 PWs)   bands (ev):

    14.2518  15.4145  15.4332  15.6573  16.3058  16.5450  16.5718  17.8582
    18.0005  18.4623  18.9512  19.0283  19.7648  19.9317  20.1763  20.4532
    21.8738  22.9678  22.9840  23.2795  23.9636  27.3559  27.5629  30.9716

          k = 0.3333-0.1667-0.5000 (  2160 PWs)   bands (ev):

    14.4036  15.5346  15.8219  15.8910  16.4626  16.5220  16.8209  17.7547
    18.3230  18.4684  18.8160  18.9744  19.5346  19.6771  19.8574  20.2867
    22.0760  22.5281  22.8357  23.7675  24.5803  25.0038  29.0680  29.5548

          k = 0.3333-0.3333 0.3333 (  2151 PWs)   bands (ev):

    14.0301  15.2043  15.2043  15.2990  16.5695  16.7941  16.7941  18.2944
    18.2944  18.6600  18.6600  19.4951  19.6035  20.1654  20.1654  20.8826
    22.6910  22.6910  23.4266  23.4266  24.0093  27.4754  27.8591  27.8591

          k = 0.3333-0.3333-0.5000 (  2178 PWs)   bands (ev):

    14.0172  14.9645  15.1116  15.1508  16.7786  16.9601  17.0390  18.1118
    18.1947  18.6056  18.6806  19.1547  19.9744  20.3670  20.7045  21.3675
    22.9518  23.2331  23.3730  23.9581  24.3102  24.6855  27.8829  28.0059

 ------ SPIN DOWN ----------


          k = 0.0000 0.0000 0.0000 (  2109 PWs)   bands (ev):

    13.2601  13.5662  13.6809  13.6809  13.6809  14.2970  14.2970  18.2588
    18.2588  18.2588  20.6993  20.6993  23.4751  23.4751  23.4751  23.5897
    23.5897  23.5898  24.2189  24.2189  24.2189  27.8830  27.8830  27.9236

          k = 0.0000 0.0000 0.1667 (  2140 PWs)   bands (ev):

    13.5337  13.7988  14.0068  14.0069  14.0613  14.6376  14.6464  18.0026
    18.4492  18.4492  20.0565  20.7652  22.4648  22.5802  22.6801  22.6801
    23.3411  23.3798  23.3798  24.3180  24.3180  26.2097  29.5028  29.7168

          k = 0.0000 0.0000 0.3333 (  2156 PWs)   bands (ev):

    14.0619  14.5668  14.8064  14.8064  14.9366  15.6070  15.6289  17.3776
    18.6651  18.8692  18.8692  19.9426  20.8392  21.2446  21.4334  21.4334
    22.6346  22.6346  23.0280  23.3310  24.3378  24.3378  32.2870  32.5676

          k = 0.0000 0.0000-0.5000 (  2168 PWs)   bands (ev):

    14.4882  14.9523  15.3394  15.3394  15.6008  16.5832  16.5999  16.6903
    18.0232  18.5288  19.0216  19.0216  19.8675  20.9466  20.9467  21.3394
    21.8427  22.0713  22.0713  22.8346  24.3376  24.3376  34.3823  34.5574

          k = 0.0000 0.1667 0.1667 (  2155 PWs)   bands (ev):

    13.6720  14.1931  14.2147  14.2899  14.4750  14.9207  15.0369  17.9583
    18.4596  18.4978  19.8221  20.4689  21.6000  21.8371  21.9110  22.5263
    22.8879  23.1972  23.4098  23.4928  24.2464  27.8614  27.9661  30.8823

          k = 0.0000 0.1667 0.3333 (  2157 PWs)   bands (ev):

    14.1426  14.8286  15.0140  15.1588  15.2836  15.7899  15.9773  17.4712
    18.1992  18.6828  18.9016  19.8379  20.1562  20.8902  21.1116  21.5389
    22.1134  22.6219  22.8048  23.4708  24.1141  25.2853  30.3657  33.3688

          k = 0.0000 0.1667-0.5000 (  2144 PWs)   bands (ev):

    14.5271  15.2470  15.5859  15.6963  15.9820  16.6339  16.7284  16.7633
    17.5388  18.1508  18.9719  19.0081  19.9359  20.2204  20.9179  21.1104
    21.7668  21.9149  23.0820  23.1639  24.0503  24.0902  32.2030  32.9359

          k = 0.0000 0.3333 0.3333 (  2152 PWs)   bands (ev):

    14.4688  15.4526  15.5893  15.8949  16.0424  16.3953  16.7177  17.5003
    17.8542  17.9102  18.6731  18.9307  19.7122  20.1305  20.7865  20.8180
    21.8170  22.4620  22.4946  23.4028  23.7138  27.3468  27.4429  31.7647

          k = 0.0000 0.3333-0.5000 (  2148 PWs)   bands (ev):

    14.7652  15.7156  16.1948  16.4269  16.5494  16.8221  16.9168  17.0623
    17.4144  17.9423  18.6463  18.9700  19.1529  19.9409  19.9764  20.4617
    21.5790  21.8823  22.4262  23.5266  24.8085  25.2677  29.2136  29.8541

          k = 0.0000-0.5000-0.5000 (  2160 PWs)   bands (ev):

    14.9823  15.9638  16.1643  16.1643  17.0092  17.3612  17.3612  17.6013
    17.9276  17.9276  18.2898  18.5841  18.8956  19.6659  19.6659  19.6942
    21.3185  21.8375  21.8375  23.2381  26.8187  27.1502  27.1502  27.2177

          k = 0.1667 0.1667 0.1667 (  2148 PWs)   bands (ev):

    13.7649  14.4399  14.4399  14.5111  14.9642  15.2988  15.2988  18.0700
    18.3923  18.3923  19.9959  19.9959  20.8646  21.4464  21.4464  21.8796
    22.5111  22.5111  23.6481  23.6481  24.1868  28.8116  29.0123  29.0123

          k = 0.1667 0.1667 0.3333 (  2166 PWs)   bands (ev):

    14.1256  14.9739  15.1284  15.3106  15.7120  16.0927  16.1224  17.7143
    18.1214  18.2920  19.1365  19.7801  20.0014  20.2392  20.8498  21.0470
    22.0505  22.3652  23.3475  23.4406  24.0774  25.8620  30.7659  30.9840

          k = 0.1667 0.1667-0.5000 (  2142 PWs)   bands (ev):

    14.4107  15.4603  15.8009  15.8471  16.2238  16.3501  16.4970  17.1398
    17.7577  18.2769  18.7640  19.4086  19.6596  19.7006  20.5730  20.7443
    22.3070  22.8070  22.8644  23.0933  23.9358  24.1584  32.0831  32.1986

          k = 0.1667 0.3333 0.3333 (  2170 PWs)   bands (ev):

    14.2518  15.4145  15.4331  15.6573  16.3058  16.5450  16.5717  17.8582
    18.0005  18.4623  18.9512  19.0283  19.7647  19.9317  20.1762  20.4532
    21.8738  22.9678  22.9839  23.2794  23.9636  27.3558  27.5628  30.9715

          k = 0.1667 0.3333-0.5000 (  2160 PWs)   bands (ev):

    14.4036  15.5346  15.8219  15.8909  16.4626  16.5219  16.8209  17.7546
    18.3229  18.4684  18.8159  18.9743  19.5346  19.6770  19.8574  20.2867
    22.0760  22.5280  22.8357  23.7674  24.5802  25.0038  29.0680  29.5547

          k = 0.1667-0.5000-0.5000 (  2164 PWs)   bands (ev):

    14.4844  15.5718  15.5719  15.6477  16.8566  17.0818  17.0818  17.8489
    18.2719  18.7154  18.7917  18.7917  19.4714  19.7873  19.7873  20.2380
    21.7071  22.3703  22.3704  23.5921  26.4229  26.8399  26.8399  26.9760

          k = 0.3333 0.3333 0.3333 (  2151 PWs)   bands (ev):

    14.0300  15.2043  15.2043  15.2989  16.5694  16.7941  16.7941  18.2944
    18.2944  18.6599  18.6599  19.4950  19.6035  20.1654  20.1654  20.8825
    22.6910  22.6910  23.4265  23.4265  24.0092  27.4754  27.8590  27.8590

          k = 0.3333 0.3333-0.5000 (  2178 PWs)   bands (ev):

    14.0171  14.9644  15.1115  15.1508  16.7786  16.9601  17.0389  18.1118
    18.1947  18.6055  18.6805  19.1547  19.9743  20.3669  20.7045  21.3674
    22.9517  23.2330  23.3730  23.9581  24.3102  24.6854  27.8828  28.0059

          k = 0.3333-0.5000-0.5000 (  2160 PWs)   bands (ev):

    13.9326  14.7548  14.7548  14.8439  17.1049  17.2532  17.2532  17.8524
    17.9391  18.5798  18.5798  18.8449  20.7121  21.3727  21.3727  22.1623
    22.7007  23.2447  23.2447  23.9764  25.2383  25.8840  25.8840  26.1276

          k =-0.5000-0.5000-0.5000 (  2176 PWs)   bands (ev):

    13.7756  14.4493  14.4493  14.4493  17.3152  17.3153  17.3153  17.8698
    17.8698  18.5075  18.5075  18.5075  22.3425  22.3425  22.3425  23.3755
    23.3755  23.9188  23.9188  23.9188  24.3350  24.8659  24.8659  24.8659

          k =-0.1667 0.0000 0.1667 (  2155 PWs)   bands (ev):

    13.6720  14.1931  14.2147  14.2899  14.4750  14.9207  15.0369  17.9584
    18.4596  18.4979  19.8221  20.4689  21.6000  21.8371  21.9110  22.5263
    22.8879  23.1972  23.4098  23.4928  24.2464  27.8614  27.9661  30.8823

          k =-0.1667 0.0000 0.3333 (  2157 PWs)   bands (ev):

    14.1426  14.8286  15.0140  15.1588  15.2836  15.7899  15.9773  17.4712
    18.1992  18.6828  18.9016  19.8379  20.1562  20.8902  21.1116  21.5389
    22.1134  22.6219  22.8048  23.4708  24.1141  25.2853  30.3657  33.3688

          k =-0.3333 0.0000 0.3333 (  2152 PWs)   bands (ev):

    14.4689  15.4526  15.5893  15.8949  16.0424  16.3953  16.7177  17.5003
    17.8542  17.9102  18.6731  18.9306  19.7122  20.1304  20.7865  20.8180
    21.8170  22.4620  22.4946  23.4028  23.7138  27.3468  27.4429  31.7647

          k = 0.1667-0.1667 0.1667 (  2148 PWs)   bands (ev):

    13.7649  14.4399  14.4399  14.5111  14.9642  15.2988  15.2988  18.0700
    18.3923  18.3923  19.9959  19.9959  20.8646  21.4464  21.4464  21.8796
    22.5111  22.5112  23.6481  23.6481  24.1868  28.8116  29.0123  29.0123

          k = 0.1667-0.1667 0.3333 (  2166 PWs)   bands (ev):

    14.1256  14.9739  15.1284  15.3106  15.7120  16.0927  16.1224  17.7143
    18.1214  18.2919  19.1365  19.7801  20.0014  20.2392  20.8497  21.0470
    22.0505  22.3652  23.3475  23.4406  24.0774  25.8620  30.7659  30.9840

          k =-0.3333 0.1667 0.1667 (  2166 PWs)   bands (ev):

    14.1256  14.9739  15.1284  15.3106  15.7120  16.0927  16.1224  17.7143
    18.1214  18.2920  19.1365  19.7801  20.0014  20.2392  20.8497  21.0470
    22.0505  22.3652  23.3475  23.4406  24.0774  25.8620  30.7659  30.9840

          k = 0.1667-0.1667-0.5000 (  2142 PWs)   bands (ev):

    14.4107  15.4603  15.8009  15.8471  16.2238  16.3501  16.4970  17.1398
    17.7577  18.2769  18.7640  19.4086  19.6596  19.7006  20.5730  20.7443
    22.3070  22.8070  22.8644  23.0933  23.9358  24.1584  32.0831  32.1986

          k = 0.3333-0.1667 0.3333 (  2170 PWs)   bands (ev):

    14.2518  15.4145  15.4331  15.6573  16.3058  16.5450  16.5717  17.8582
    18.0005  18.4623  18.9512  19.0283  19.7647  19.9317  20.1762  20.4532
    21.8738  22.9677  22.9839  23.2794  23.9636  27.3558  27.5628  30.9715

          k =-0.3333 0.1667 0.3333 (  2170 PWs)   bands (ev):

    14.2518  15.4145  15.4331  15.6573  16.3058  16.5450  16.5717  17.8582
    18.0005  18.4623  18.9512  19.0283  19.7647  19.9317  20.1762  20.4532
    21.8737  22.9678  22.9839  23.2794  23.9636  27.3558  27.5628  30.9715

          k = 0.3333-0.1667-0.5000 (  2160 PWs)   bands (ev):

    14.4036  15.5346  15.8219  15.8909  16.4626  16.5219  16.8209  17.7546
    18.3229  18.4684  18.8159  18.9743  19.5346  19.6770  19.8574  20.2867
    22.0760  22.5280  22.8357  23.7674  24.5802  25.0038  29.0680  29.5547

          k = 0.3333-0.3333 0.3333 (  2151 PWs)   bands (ev):

    14.0300  15.2043  15.2043  15.2989  16.5694  16.7940  16.7941  18.2944
    18.2944  18.6599  18.6600  19.4950  19.6035  20.1654  20.1654  20.8825
    22.6909  22.6910  23.4265  23.4265  24.0092  27.4754  27.8590  27.8590

          k = 0.3333-0.3333-0.5000 (  2178 PWs)   bands (ev):

    14.0171  14.9644  15.1115  15.1508  16.7786  16.9601  17.0389  18.1118
    18.1947  18.6055  18.6805  19.1546  19.9743  20.3669  20.7045  21.3675
    22.9517  23.2330  23.3730  23.9580  24.3102  24.6854  27.8829  28.0059

     the Fermi energy is    23.9069 ev

!    total energy              =   -1324.06535939 Ry
     total all-electron energy =    -40367.862324 Ry
     estimated scf accuracy    <          1.9E-09 Ry
     smearing contrib. (-TS)   =       0.00014494 Ry
     internal energy E=F+TS    =   -1324.06550433 Ry

     The total energy is F=E-TS. E is the sum of the following terms:
     one-electron contribution =      82.82275654 Ry
     hartree contribution      =      30.35114340 Ry
     xc contribution           =    -132.09016603 Ry
     ewald contribution        =    -276.84078315 Ry
     DFT-D3 Dispersion         =      -0.70720743 Ry
     one-center paw contrib.   =   -1027.60124766 Ry

     total magnetization       =    -0.00 Bohr mag/cell
     absolute magnetization    =     0.00 Bohr mag/cell

     convergence has been achieved in  13 iterations

     Writing all to output data dir ./Pd_k_6.save/ :
     XML data file, charge density, pseudopotentials, collected wavefunctions
 
     init_run     :      0.79s CPU      0.84s WALL (       1 calls)
     electrons    :     14.65s CPU     15.12s WALL (       1 calls)

     Called by init_run:
     wfcinit      :      0.18s CPU      0.19s WALL (       1 calls)
     potinit      :      0.31s CPU      0.33s WALL (       1 calls)
     hinit0       :      0.04s CPU      0.05s WALL (       1 calls)

     Called by electrons:
     c_bands      :      9.28s CPU      9.61s WALL (      14 calls)
     sum_band     :      1.69s CPU      1.74s WALL (      14 calls)
     v_of_rho     :      0.13s CPU      0.14s WALL (      14 calls)
     newd         :      0.13s CPU      0.14s WALL (      14 calls)
     PAW_pot      :      3.25s CPU      3.28s WALL (      14 calls)
     mix_rho      :      0.04s CPU      0.04s WALL (      14 calls)
     energy_dftd3 :      0.30s CPU      0.30s WALL (       1 calls)

     Called by c_bands:
     init_us_2    :      0.07s CPU      0.07s WALL (     928 calls)
     init_us_2:cp :      0.07s CPU      0.07s WALL (     928 calls)
     cegterg      :      4.86s CPU      5.05s WALL (     448 calls)

     Called by *egterg:
     cdiaghg      :      1.29s CPU      1.32s WALL (    1411 calls)
     h_psi        :      3.24s CPU      3.40s WALL (    1475 calls)
     s_psi        :      0.10s CPU      0.10s WALL (    1475 calls)
     g_psi        :      0.02s CPU      0.02s WALL (     995 calls)

     Called by h_psi:
     h_psi:calbec :      0.16s CPU      0.17s WALL (    1475 calls)
     vloc_psi     :      2.96s CPU      3.10s WALL (    1475 calls)
     add_vuspsi   :      0.10s CPU      0.11s WALL (    1475 calls)

     General routines
     calbec       :      0.22s CPU      0.23s WALL (    1923 calls)
     fft          :      0.04s CPU      0.05s WALL (     346 calls)
     ffts         :      0.02s CPU      0.02s WALL (     268 calls)
     fftw         :      3.12s CPU      3.28s WALL (   66846 calls)
     interpolate  :      0.01s CPU      0.01s WALL (      28 calls)
 
     Parallel routines
 
     PWSCF        :     15.68s CPU     16.47s WALL

 
   This run was terminated on:   0:51:11   6Sep2025            

=------------------------------------------------------------------------------=
   JOB DONE.
=------------------------------------------------------------------------------=
