
     Program PWSCF v.7.3 starts on  6Sep2025 at  0:49:56 

     This program is part of the open-source Quantum ESPRESSO suite
     for quantum simulation of materials; please cite
         "P. Giannozzi et al., J. Phys.:Condens. Matter 21 395502 (2009);
         "P. Giannozzi et al., J. Phys.:Condens. Matter 29 465901 (2017);
         "P. Giannozzi et al., J. Chem. Phys. 152 154105 (2020);
          URL http://www.quantum-espresso.org", 
     in publications or presentations arising from this work. More details at
     http://www.quantum-espresso.org/quote

     Parallel version (MPI), running on    30 processors

     MPI processes distributed on     1 nodes
     222013 MiB available memory on the printing compute node when the environment starts
 
     Waiting for input...
     Reading input from standard input

     Current dimensions of program PWSCF are:
     Max number of different atomic species (ntypx) = 10
     Max number of k-points (npk) =  40000
     Max angular momentum in pseudopotentials (lmaxx) =  4
     file Pd.upf: wavefunction(s)  5S 4D renormalized

     IMPORTANT: XC functional enforced from input :
     Exchange-correlation= PBE
                           (   1   4   3   4   0   0   0)
     Any further DFT definition will be discarded
     Please, verify this is what you really want

     Message from routine setup:
     using ibrav=0 with symmetry is DISCOURAGED, use correct ibrav instead
 
     K-points division:     npool     =       2
     R & G space division:  proc/nbgrp/npool/nimage =      15
     Subspace diagonalization in iterative solution of the eigenvalue problem:
     a serial algorithm will be used

 
     Parallelization info
     --------------------
     sticks:   dense  smooth     PW     G-vecs:    dense   smooth      PW
     Min         107      53     13                 3258     1151     139
     Max         109      55     14                 3260     1152     141
     Sum        1617     805    197                48885    17269    2109
 
     Using Slab Decomposition
 

     Title: 
     Pd_k_1                                                                     


     bravais-lattice index     =            0
     lattice parameter (alat)  =       6.5025  a.u.
     unit-cell volume          =     274.9107 (a.u.)^3
     number of atoms/cell      =            4
     number of atomic types    =            1
     number of electrons       =        40.00
     number of Kohn-Sham states=           24
     kinetic-energy cutoff     =      60.0000  Ry
     charge density cutoff     =     480.0000  Ry
     scf convergence threshold =      6.4E-09
     mixing beta               =       0.5000
     number of iterations used =           10  local-TF  mixing
     Exchange-correlation= PBE
                           (   1   4   3   4   0   0   0)

     celldm(1)=   6.502548  celldm(2)=   0.000000  celldm(3)=   0.000000
     celldm(4)=   0.000000  celldm(5)=   0.000000  celldm(6)=   0.000000

     crystal axes: (cart. coord. in units of alat)
               a(1) = (   0.999955   0.000000   0.000000 )  
               a(2) = (   0.000000   0.999955   0.000000 )  
               a(3) = (   0.000000   0.000000   0.999955 )  

     reciprocal axes: (cart. coord. in units 2 pi/alat)
               b(1) = (  1.000045  0.000000  0.000000 )  
               b(2) = (  0.000000  1.000045  0.000000 )  
               b(3) = (  0.000000  0.000000  1.000045 )  


     PseudoPot. # 1 for Pd read from file:
     /tmpu/mdach_g/mdach/PP/Pd.upf
     MD5 check sum: e9d6f14fd83b79f8105499163af174c9
     Pseudo is Projector augmented-wave + core cor, Zval = 10.0
     Generated using "atomic" code by A. Dal Corso  v.5.0.2 svn rev. 9415
     Shape of augmentation charge: PSQ
     Using radial grid of 1235 points,  6 beta functions with: 
                l(1) =   0
                l(2) =   0
                l(3) =   1
                l(4) =   1
                l(5) =   2
                l(6) =   2
     Q(r) pseudized with 0 coefficients 


     atomic species   valence    mass     pseudopotential
     Pd               10.00   106.42000     Pd( 1.00)

     Starting magnetic structure 
     atomic species   magnetization
     Pd              0.200

      6 Sym. Ops. (no inversion) found



   Cartesian axes

     site n.     atom                  positions (alat units)
         1        Pd     tau(   1) = (  -0.0054534  -0.0054534  -0.0054534  )
         2        Pd     tau(   2) = (  -0.0054550   0.5513882   0.5513882  )
         3        Pd     tau(   3) = (   0.5513882  -0.0054550   0.5513882  )
         4        Pd     tau(   4) = (   0.5513882   0.5513882  -0.0054550  )

     --------------------------------------------
     DFT-D3 Dispersion Correction (3-body terms):
     --------------------------------------------
       Reference C6 values for interpolation: 

         atom   Coordination number   C6
         Pd         0.000          1217.01
         Pd         1.863           573.90
         Pd         5.710           531.75

       Values used:

         atom   Coordination number  R0_AB[au]  C6      C8
         Pd        11.468            3.168    531.75  48720.73
         Pd        11.468            3.168    531.75  48720.73
         Pd        11.468            3.168    531.75  48720.73
         Pd        11.468            3.168    531.75  48720.73

         Molecular C6 ( Ry / a.u.^6 ) =      8507.99


     number of k points=     1  Methfessel-Paxton smearing, width (Ry)=  0.0147
                       cart. coord. in units 2pi/alat
        k(    1) = (   0.0000000   0.0000000   0.0000000), wk =   1.0000000

     Dense  grid:    48885 G-vectors     FFT dimensions: (  45,  45,  45)

     Smooth grid:    17269 G-vectors     FFT dimensions: (  36,  36,  36)

     Estimated max dynamical RAM per process >      11.06 MB

     Estimated total dynamical RAM >     301.84 MB
     Generating pointlists ...
     new r_m :   0.2585 (alat units)  1.6809 (a.u.) for type    1

     Initial potential from superposition of free atoms

     starting charge      39.9979, renormalised to      40.0000
     Starting wfcs are   36 atomic wfcs
     Checking if some PAW data can be deallocated... 

     total cpu time spent up to now is        0.9 secs

     Self-consistent Calculation

     iteration #  1     ecut=    60.00 Ry     beta= 0.50
     Davidson diagonalization with overlap
     ethr =  1.00E-02,  avg # of iterations =  3.0

     Threshold (ethr) on eigenvalues was too large:
     Diagonalizing with lowered threshold

     Davidson diagonalization with overlap
     ethr =  6.44E-04,  avg # of iterations =  3.0

     total cpu time spent up to now is        1.7 secs

     total energy              =   -1322.78356005 Ry
     estimated scf accuracy    <       0.25461860 Ry

     total magnetization       =     2.00 Bohr mag/cell
     absolute magnetization    =     2.02 Bohr mag/cell

     iteration #  2     ecut=    60.00 Ry     beta= 0.50
     Davidson diagonalization with overlap
     ethr =  6.37E-04,  avg # of iterations =  1.0

     total cpu time spent up to now is        2.0 secs

     total energy              =   -1322.78254747 Ry
     estimated scf accuracy    <       0.08507754 Ry

     total magnetization       =     2.00 Bohr mag/cell
     absolute magnetization    =     2.02 Bohr mag/cell

     iteration #  3     ecut=    60.00 Ry     beta= 0.50
     Davidson diagonalization with overlap
     ethr =  2.13E-04,  avg # of iterations =  2.0

     total cpu time spent up to now is        2.3 secs

     total energy              =   -1322.79416741 Ry
     estimated scf accuracy    <       0.00112812 Ry

     total magnetization       =     2.00 Bohr mag/cell
     absolute magnetization    =     2.05 Bohr mag/cell

     iteration #  4     ecut=    60.00 Ry     beta= 0.50
     Davidson diagonalization with overlap
     ethr =  2.82E-06,  avg # of iterations =  3.0

     total cpu time spent up to now is        2.6 secs

     total energy              =   -1322.79540418 Ry
     estimated scf accuracy    <       0.00025651 Ry

     total magnetization       =     2.00 Bohr mag/cell
     absolute magnetization    =     2.05 Bohr mag/cell

     iteration #  5     ecut=    60.00 Ry     beta= 0.50
     Davidson diagonalization with overlap
     ethr =  6.41E-07,  avg # of iterations =  2.0

     total cpu time spent up to now is        2.9 secs

     total energy              =   -1322.79542896 Ry
     estimated scf accuracy    <       0.00004377 Ry

     total magnetization       =     2.00 Bohr mag/cell
     absolute magnetization    =     2.05 Bohr mag/cell

     iteration #  6     ecut=    60.00 Ry     beta= 0.50
     Davidson diagonalization with overlap
     ethr =  1.09E-07,  avg # of iterations =  2.0

     total cpu time spent up to now is        3.3 secs

     total energy              =   -1322.79543895 Ry
     estimated scf accuracy    <       0.00000438 Ry

     total magnetization       =     2.00 Bohr mag/cell
     absolute magnetization    =     2.05 Bohr mag/cell

     iteration #  7     ecut=    60.00 Ry     beta= 0.50
     Davidson diagonalization with overlap
     ethr =  1.09E-08,  avg # of iterations =  3.0

     total cpu time spent up to now is        3.6 secs

     total energy              =   -1322.79544225 Ry
     estimated scf accuracy    <       0.00000060 Ry

     total magnetization       =     2.00 Bohr mag/cell
     absolute magnetization    =     2.05 Bohr mag/cell

     iteration #  8     ecut=    60.00 Ry     beta= 0.50
     Davidson diagonalization with overlap
     ethr =  1.49E-09,  avg # of iterations =  2.0

     total cpu time spent up to now is        3.9 secs

     total energy              =   -1322.79544234 Ry
     estimated scf accuracy    <       0.00000004 Ry

     total magnetization       =     2.00 Bohr mag/cell
     absolute magnetization    =     2.05 Bohr mag/cell

     iteration #  9     ecut=    60.00 Ry     beta= 0.50
     Davidson diagonalization with overlap
     ethr =  9.51E-11,  avg # of iterations =  3.0

     total cpu time spent up to now is        4.3 secs

     total energy              =   -1322.79544236 Ry
     estimated scf accuracy    <       0.00000002 Ry

     total magnetization       =     2.00 Bohr mag/cell
     absolute magnetization    =     2.05 Bohr mag/cell

     iteration # 10     ecut=    60.00 Ry     beta= 0.50
     Davidson diagonalization with overlap
     ethr =  3.83E-11,  avg # of iterations =  2.0
 
     Magnetic moment per site  (integrated on atomic sphere of radius R)
     atom   1 (R=0.258)  charge=  7.4811  magn=  0.4622
     atom   2 (R=0.258)  charge=  7.4811  magn=  0.4621
     atom   3 (R=0.258)  charge=  7.4811  magn=  0.4621
     atom   4 (R=0.258)  charge=  7.4811  magn=  0.4621

     total cpu time spent up to now is        4.6 secs

     End of self-consistent calculation

 ------ SPIN UP ------------


          k = 0.0000 0.0000 0.0000 (  2109 PWs)   bands (ev):

    13.3633  14.3778  14.3778  14.3778  14.5900  15.0592  15.0592  19.3606
    19.3606  19.3606  22.0019  22.0019  25.0444  25.0444  25.0444  25.1707
    25.1707  25.1707  25.5811  25.5811  25.5811  28.2233  28.2233  28.4031

 ------ SPIN DOWN ----------


          k = 0.0000 0.0000 0.0000 (  2109 PWs)   bands (ev):

    13.4596  14.5134  14.5134  14.5134  14.7388  15.5165  15.5165  19.8076
    19.8077  19.8077  22.2164  22.2164  25.2767  25.2767  25.2767  25.5242
    25.5242  25.5242  26.2555  26.2555  26.2555  28.3895  28.3895  28.4409

     the Fermi energy is    26.2152 ev

!    total energy              =   -1322.79544235 Ry
     total all-electron energy =    -40366.592407 Ry
     estimated scf accuracy    <          3.2E-09 Ry
     smearing contrib. (-TS)   =      -0.00548187 Ry
     internal energy E=F+TS    =   -1322.78996049 Ry

     The total energy is F=E-TS. E is the sum of the following terms:
     one-electron contribution =      82.34655546 Ry
     hartree contribution      =      34.52004688 Ry
     xc contribution           =    -133.75077443 Ry
     ewald contribution        =    -276.84078315 Ry
     DFT-D3 Dispersion         =      -0.70720743 Ry
     one-center paw contrib.   =   -1028.35779781 Ry

     total magnetization       =     2.00 Bohr mag/cell
     absolute magnetization    =     2.05 Bohr mag/cell

     convergence has been achieved in  10 iterations

     Writing all to output data dir ./Pd_k_1.save/ :
     XML data file, charge density, pseudopotentials, collected wavefunctions
 
     init_run     :      0.45s CPU      0.50s WALL (       1 calls)
     electrons    :      3.33s CPU      3.72s WALL (       1 calls)

     Called by init_run:
     wfcinit      :      0.02s CPU      0.02s WALL (       1 calls)
     potinit      :      0.28s CPU      0.31s WALL (       1 calls)
     hinit0       :      0.11s CPU      0.11s WALL (       1 calls)

     Called by electrons:
     c_bands      :      0.27s CPU      0.30s WALL (      11 calls)
     sum_band     :      0.23s CPU      0.27s WALL (      11 calls)
     v_of_rho     :      0.15s CPU      0.18s WALL (      11 calls)
     newd         :      0.12s CPU      0.14s WALL (      11 calls)
     PAW_pot      :      2.41s CPU      2.67s WALL (      11 calls)
     mix_rho      :      0.03s CPU      0.03s WALL (      11 calls)
     energy_dftd3 :      0.30s CPU      0.31s WALL (       1 calls)

     Called by c_bands:
     init_us_2    :      0.00s CPU      0.00s WALL (      23 calls)
     init_us_2:cp :      0.00s CPU      0.00s WALL (      23 calls)
     cegterg      :      0.24s CPU      0.26s WALL (      11 calls)

     Called by *egterg:
     cdiaghg      :      0.03s CPU      0.05s WALL (      36 calls)
     h_psi        :      0.13s CPU      0.14s WALL (      38 calls)
     s_psi        :      0.00s CPU      0.00s WALL (      38 calls)
     g_psi        :      0.00s CPU      0.00s WALL (      26 calls)

     Called by h_psi:
     h_psi:calbec :      0.01s CPU      0.01s WALL (      38 calls)
     vloc_psi     :      0.12s CPU      0.12s WALL (      38 calls)
     add_vuspsi   :      0.00s CPU      0.00s WALL (      38 calls)

     General routines
     calbec       :      0.01s CPU      0.01s WALL (      49 calls)
     fft          :      0.12s CPU      0.12s WALL (     271 calls)
     ffts         :      0.01s CPU      0.02s WALL (     215 calls)
     fftw         :      0.12s CPU      0.13s WALL (    1708 calls)
     interpolate  :      0.01s CPU      0.01s WALL (      22 calls)
 
     Parallel routines
 
     PWSCF        :      3.92s CPU      4.70s WALL

 
   This run was terminated on:   0:50: 0   6Sep2025            

=------------------------------------------------------------------------------=
   JOB DONE.
=------------------------------------------------------------------------------=
