
     Program PWSCF v.7.3 starts on  6Sep2025 at  0:50:26 

     This program is part of the open-source Quantum ESPRESSO suite
     for quantum simulation of materials; please cite
         "P. Giannozzi et al., J. Phys.:Condens. Matter 21 395502 (2009);
         "P. Giannozzi et al., J. Phys.:Condens. Matter 29 465901 (2017);
         "P. Giannozzi et al., J. Chem. Phys. 152 154105 (2020);
          URL http://www.quantum-espresso.org", 
     in publications or presentations arising from this work. More details at
     http://www.quantum-espresso.org/quote

     Parallel version (MPI), running on    30 processors

     MPI processes distributed on     1 nodes
     222169 MiB available memory on the printing compute node when the environment starts
 
     Waiting for input...
     Reading input from standard input

     Current dimensions of program PWSCF are:
     Max number of different atomic species (ntypx) = 10
     Max number of k-points (npk) =  40000
     Max angular momentum in pseudopotentials (lmaxx) =  4
     file Pd.upf: wavefunction(s)  5S 4D renormalized

     IMPORTANT: XC functional enforced from input :
     Exchange-correlation= PBE
                           (   1   4   3   4   0   0   0)
     Any further DFT definition will be discarded
     Please, verify this is what you really want

     Message from routine setup:
     using ibrav=0 with symmetry is DISCOURAGED, use correct ibrav instead
 
     K-points division:     npool     =       2
     R & G space division:  proc/nbgrp/npool/nimage =      15
     Subspace diagonalization in iterative solution of the eigenvalue problem:
     a serial algorithm will be used

 
     Parallelization info
     --------------------
     sticks:   dense  smooth     PW     G-vecs:    dense   smooth      PW
     Min         107      53     16                 3258     1151     196
     Max         109      55     17                 3260     1152     201
     Sum        1617     805    241                48885    17269    2945
 
     Using Slab Decomposition
 

     Title: 
     Pd_k_4                                                                     


     bravais-lattice index     =            0
     lattice parameter (alat)  =       6.5025  a.u.
     unit-cell volume          =     274.9107 (a.u.)^3
     number of atoms/cell      =            4
     number of atomic types    =            1
     number of electrons       =        40.00
     number of Kohn-Sham states=           24
     kinetic-energy cutoff     =      60.0000  Ry
     charge density cutoff     =     480.0000  Ry
     scf convergence threshold =      6.4E-09
     mixing beta               =       0.5000
     number of iterations used =           10  local-TF  mixing
     Exchange-correlation= PBE
                           (   1   4   3   4   0   0   0)

     celldm(1)=   6.502548  celldm(2)=   0.000000  celldm(3)=   0.000000
     celldm(4)=   0.000000  celldm(5)=   0.000000  celldm(6)=   0.000000

     crystal axes: (cart. coord. in units of alat)
               a(1) = (   0.999955   0.000000   0.000000 )  
               a(2) = (   0.000000   0.999955   0.000000 )  
               a(3) = (   0.000000   0.000000   0.999955 )  

     reciprocal axes: (cart. coord. in units 2 pi/alat)
               b(1) = (  1.000045  0.000000  0.000000 )  
               b(2) = (  0.000000  1.000045  0.000000 )  
               b(3) = (  0.000000  0.000000  1.000045 )  


     PseudoPot. # 1 for Pd read from file:
     /tmpu/mdach_g/mdach/PP/Pd.upf
     MD5 check sum: e9d6f14fd83b79f8105499163af174c9
     Pseudo is Projector augmented-wave + core cor, Zval = 10.0
     Generated using "atomic" code by A. Dal Corso  v.5.0.2 svn rev. 9415
     Shape of augmentation charge: PSQ
     Using radial grid of 1235 points,  6 beta functions with: 
                l(1) =   0
                l(2) =   0
                l(3) =   1
                l(4) =   1
                l(5) =   2
                l(6) =   2
     Q(r) pseudized with 0 coefficients 


     atomic species   valence    mass     pseudopotential
     Pd               10.00   106.42000     Pd( 1.00)

     Starting magnetic structure 
     atomic species   magnetization
     Pd              0.200

      6 Sym. Ops. (no inversion) found



   Cartesian axes

     site n.     atom                  positions (alat units)
         1        Pd     tau(   1) = (  -0.0054534  -0.0054534  -0.0054534  )
         2        Pd     tau(   2) = (  -0.0054550   0.5513882   0.5513882  )
         3        Pd     tau(   3) = (   0.5513882  -0.0054550   0.5513882  )
         4        Pd     tau(   4) = (   0.5513882   0.5513882  -0.0054550  )

     --------------------------------------------
     DFT-D3 Dispersion Correction (3-body terms):
     --------------------------------------------
       Reference C6 values for interpolation: 

         atom   Coordination number   C6
         Pd         0.000          1217.01
         Pd         1.863           573.90
         Pd         5.710           531.75

       Values used:

         atom   Coordination number  R0_AB[au]  C6      C8
         Pd        11.468            3.168    531.75  48720.73
         Pd        11.468            3.168    531.75  48720.73
         Pd        11.468            3.168    531.75  48720.73
         Pd        11.468            3.168    531.75  48720.73

         Molecular C6 ( Ry / a.u.^6 ) =      8507.99


     number of k points=    13  Methfessel-Paxton smearing, width (Ry)=  0.0147
                       cart. coord. in units 2pi/alat
        k(    1) = (   0.0000000   0.0000000   0.0000000), wk =   0.0156250
        k(    2) = (   0.0000000   0.0000000   0.2500113), wk =   0.0937500
        k(    3) = (   0.0000000   0.0000000  -0.5000226), wk =   0.0468750
        k(    4) = (   0.0000000   0.2500113   0.2500113), wk =   0.0937500
        k(    5) = (   0.0000000   0.2500113  -0.5000226), wk =   0.1875000
        k(    6) = (   0.0000000  -0.5000226  -0.5000226), wk =   0.0468750
        k(    7) = (   0.2500113   0.2500113   0.2500113), wk =   0.0312500
        k(    8) = (   0.2500113   0.2500113  -0.5000226), wk =   0.0937500
        k(    9) = (   0.2500113  -0.5000226  -0.5000226), wk =   0.0937500
        k(   10) = (  -0.5000226  -0.5000226  -0.5000226), wk =   0.0156250
        k(   11) = (  -0.2500113   0.0000000   0.2500113), wk =   0.0937500
        k(   12) = (   0.2500113  -0.2500113   0.2500113), wk =   0.0937500
        k(   13) = (   0.2500113  -0.2500113  -0.5000226), wk =   0.0937500

     Dense  grid:    48885 G-vectors     FFT dimensions: (  45,  45,  45)

     Smooth grid:    17269 G-vectors     FFT dimensions: (  36,  36,  36)

     Estimated max dynamical RAM per process >      11.74 MB

     Estimated total dynamical RAM >     322.26 MB
     Generating pointlists ...
     new r_m :   0.2585 (alat units)  1.6809 (a.u.) for type    1

     Initial potential from superposition of free atoms

     starting charge      39.9979, renormalised to      40.0000
     Starting wfcs are   36 atomic wfcs
     Checking if some PAW data can be deallocated... 

     total cpu time spent up to now is        0.8 secs

     Self-consistent Calculation

     iteration #  1     ecut=    60.00 Ry     beta= 0.50
     Davidson diagonalization with overlap
     ethr =  1.00E-02,  avg # of iterations =  3.6

     Threshold (ethr) on eigenvalues was too large:
     Diagonalizing with lowered threshold

     Davidson diagonalization with overlap
     ethr =  6.07E-04,  avg # of iterations =  2.8

     total cpu time spent up to now is        2.2 secs

     total energy              =   -1323.98868204 Ry
     estimated scf accuracy    <       0.27675317 Ry

     total magnetization       =     2.52 Bohr mag/cell
     absolute magnetization    =     2.52 Bohr mag/cell

     iteration #  2     ecut=    60.00 Ry     beta= 0.50
     Davidson diagonalization with overlap
     ethr =  6.92E-04,  avg # of iterations =  1.0

     total cpu time spent up to now is        2.6 secs

     total energy              =   -1324.02339004 Ry
     estimated scf accuracy    <       0.08972644 Ry

     total magnetization       =     1.52 Bohr mag/cell
     absolute magnetization    =     1.52 Bohr mag/cell

     iteration #  3     ecut=    60.00 Ry     beta= 0.50
     Davidson diagonalization with overlap
     ethr =  2.24E-04,  avg # of iterations =  2.1

     total cpu time spent up to now is        3.2 secs

     total energy              =   -1324.04775319 Ry
     estimated scf accuracy    <       0.00721881 Ry

     total magnetization       =     0.68 Bohr mag/cell
     absolute magnetization    =     0.73 Bohr mag/cell

     iteration #  4     ecut=    60.00 Ry     beta= 0.50
     Davidson diagonalization with overlap
     ethr =  1.80E-05,  avg # of iterations =  2.9

     total cpu time spent up to now is        4.0 secs

     total energy              =   -1324.05018875 Ry
     estimated scf accuracy    <       0.00202474 Ry

     total magnetization       =     0.61 Bohr mag/cell
     absolute magnetization    =     0.65 Bohr mag/cell

     iteration #  5     ecut=    60.00 Ry     beta= 0.50
     Davidson diagonalization with overlap
     ethr =  5.06E-06,  avg # of iterations =  1.3

     total cpu time spent up to now is        4.4 secs

     total energy              =   -1324.05135328 Ry
     estimated scf accuracy    <       0.00014591 Ry

     total magnetization       =     0.29 Bohr mag/cell
     absolute magnetization    =     0.32 Bohr mag/cell

     iteration #  6     ecut=    60.00 Ry     beta= 0.50
     Davidson diagonalization with overlap
     ethr =  3.65E-07,  avg # of iterations =  2.9

     total cpu time spent up to now is        5.1 secs

     total energy              =   -1324.05156900 Ry
     estimated scf accuracy    <       0.00011155 Ry

     total magnetization       =     0.25 Bohr mag/cell
     absolute magnetization    =     0.28 Bohr mag/cell

     iteration #  7     ecut=    60.00 Ry     beta= 0.50
     Davidson diagonalization with overlap
     ethr =  2.79E-07,  avg # of iterations =  2.0

     total cpu time spent up to now is        5.8 secs

     total energy              =   -1324.05154432 Ry
     estimated scf accuracy    <       0.00005835 Ry

     total magnetization       =     0.19 Bohr mag/cell
     absolute magnetization    =     0.21 Bohr mag/cell

     iteration #  8     ecut=    60.00 Ry     beta= 0.50
     Davidson diagonalization with overlap
     ethr =  1.46E-07,  avg # of iterations =  2.6

     total cpu time spent up to now is        6.5 secs

     total energy              =   -1324.05173934 Ry
     estimated scf accuracy    <       0.00000848 Ry

     total magnetization       =     0.04 Bohr mag/cell
     absolute magnetization    =     0.05 Bohr mag/cell

     iteration #  9     ecut=    60.00 Ry     beta= 0.50
     Davidson diagonalization with overlap
     ethr =  2.12E-08,  avg # of iterations =  2.7

     total cpu time spent up to now is        7.3 secs

     total energy              =   -1324.05176114 Ry
     estimated scf accuracy    <       0.00000103 Ry

     total magnetization       =    -0.00 Bohr mag/cell
     absolute magnetization    =     0.01 Bohr mag/cell

     iteration # 10     ecut=    60.00 Ry     beta= 0.50
     Davidson diagonalization with overlap
     ethr =  2.58E-09,  avg # of iterations =  3.0

     total cpu time spent up to now is        8.1 secs

     total energy              =   -1324.05176626 Ry
     estimated scf accuracy    <       0.00000040 Ry

     total magnetization       =     0.02 Bohr mag/cell
     absolute magnetization    =     0.02 Bohr mag/cell

     iteration # 11     ecut=    60.00 Ry     beta= 0.50
     Davidson diagonalization with overlap
     ethr =  9.90E-10,  avg # of iterations =  2.0

     total cpu time spent up to now is        8.8 secs

     total energy              =   -1324.05176739 Ry
     estimated scf accuracy    <       0.00000003 Ry

     total magnetization       =     0.01 Bohr mag/cell
     absolute magnetization    =     0.01 Bohr mag/cell

     iteration # 12     ecut=    60.00 Ry     beta= 0.50
     Davidson diagonalization with overlap
     ethr =  7.69E-11,  avg # of iterations =  2.9

     total cpu time spent up to now is        9.5 secs

     total energy              =   -1324.05176755 Ry
     estimated scf accuracy    <          6.8E-09 Ry

     total magnetization       =     0.00 Bohr mag/cell
     absolute magnetization    =     0.00 Bohr mag/cell

     iteration # 13     ecut=    60.00 Ry     beta= 0.50
     Davidson diagonalization with overlap
     ethr =  1.70E-11,  avg # of iterations =  2.7
 
     Magnetic moment per site  (integrated on atomic sphere of radius R)
     atom   1 (R=0.258)  charge=  7.1597  magn= -0.0001
     atom   2 (R=0.258)  charge=  7.1598  magn= -0.0001
     atom   3 (R=0.258)  charge=  7.1598  magn= -0.0001
     atom   4 (R=0.258)  charge=  7.1598  magn= -0.0001

     total cpu time spent up to now is       10.1 secs

     End of self-consistent calculation

 ------ SPIN UP ------------


          k = 0.0000 0.0000 0.0000 (  2109 PWs)   bands (ev):

    13.2559  13.5672  13.6759  13.6759  13.6759  14.2863  14.2863  18.2503
    18.2504  18.2504  20.6928  20.6928  23.4683  23.4683  23.4683  23.5854
    23.5854  23.5854  24.2081  24.2081  24.2081  27.8761  27.8761  27.9315

          k = 0.0000 0.0000 0.2500 (  2160 PWs)   bands (ev):

    13.7528  14.2589  14.3614  14.3703  14.3703  15.0574  15.0587  17.7116
    18.6466  18.6466  19.3656  20.6925  21.5211  21.6329  22.0292  22.0292
    23.0463  23.0464  23.1868  24.3265  24.3265  24.7404  30.8646  31.1309

          k = 0.0000 0.0000-0.5000 (  2168 PWs)   bands (ev):

    14.4819  14.9497  15.3337  15.3337  15.5968  16.5722  16.5865  16.6797
    18.0182  18.5224  19.0116  19.0117  19.8783  20.9411  20.9411  21.3322
    21.8353  22.0670  22.0670  22.8284  24.3293  24.3293  34.3802  34.5477

          k = 0.0000 0.2500 0.2500 (  2157 PWs)   bands (ev):

    14.0310  14.8331  14.8616  15.0596  15.1803  15.6018  15.8841  17.7224
    18.3314  18.5278  19.0166  19.5916  20.5155  20.8776  21.2561  21.6729
    22.4331  22.4487  23.0099  23.1714  24.0292  27.6867  27.6950  33.1294

          k = 0.0000 0.2500-0.5000 (  2142 PWs)   bands (ev):

    14.6156  15.4971  15.9314  15.9973  16.4039  16.6902  16.7485  16.8518
    17.2835  18.0066  18.8450  18.9967  19.4407  20.1616  20.4542  20.8972
    21.6982  21.8978  22.9135  23.7015  23.9260  24.4945  30.6274  31.3287

          k = 0.0000-0.5000-0.5000 (  2160 PWs)   bands (ev):

    14.9779  15.9575  16.1536  16.1536  16.9976  17.3521  17.3521  17.6015
    17.9230  17.9231  18.2836  18.5733  18.9002  19.6589  19.6589  19.6867
    21.3102  21.8356  21.8356  23.2306  26.8083  27.1466  27.1466  27.2171

          k = 0.2500 0.2500 0.2500 (  2169 PWs)   bands (ev):

    14.0316  15.0796  15.0796  15.2826  15.9910  16.2740  16.2740  18.0538
    18.0538  18.5675  19.3470  19.3470  19.7026  20.4142  20.4142  20.5922
    22.1428  22.1428  23.5424  23.5424  24.0923  28.5113  28.8859  28.8859

          k = 0.2500 0.2500-0.5000 (  2166 PWs)   bands (ev):

    14.2407  15.3707  15.7400  15.7653  16.2744  16.4030  16.7583  17.7845
    18.5138  18.5735  18.9042  18.9552  19.5151  19.8813  19.9175  20.3558
    22.7435  23.0585  23.2108  23.5076  23.8918  24.4609  29.9729  30.0971

          k = 0.2500-0.5000-0.5000 (  2176 PWs)   bands (ev):

    14.1617  15.1076  15.1076  15.2346  16.9389  17.1540  17.1540  17.8220
    18.0631  18.7067  18.7067  19.1561  19.6668  20.5201  20.5201  21.1785
    22.1703  22.8099  22.8099  23.8273  25.9114  26.4346  26.4346  26.6424

          k =-0.5000-0.5000-0.5000 (  2176 PWs)   bands (ev):

    13.7776  14.4398  14.4398  14.4398  17.3100  17.3100  17.3100  17.8618
    17.8618  18.4986  18.4986  18.4986  22.3383  22.3383  22.3383  23.3651
    23.3651  23.9113  23.9113  23.9113  24.3395  24.8624  24.8625  24.8625

          k =-0.2500 0.0000 0.2500 (  2157 PWs)   bands (ev):

    14.0310  14.8331  14.8616  15.0596  15.1803  15.6018  15.8841  17.7224
    18.3314  18.5277  19.0166  19.5915  20.5155  20.8775  21.2561  21.6729
    22.4331  22.4487  23.0099  23.1714  24.0292  27.6867  27.6950  33.1294

          k = 0.2500-0.2500 0.2500 (  2169 PWs)   bands (ev):

    14.0316  15.0796  15.0796  15.2826  15.9910  16.2739  16.2740  18.0538
    18.0538  18.5675  19.3470  19.3470  19.7026  20.4142  20.4142  20.5922
    22.1427  22.1428  23.5424  23.5425  24.0923  28.5113  28.8859  28.8859

          k = 0.2500-0.2500-0.5000 (  2166 PWs)   bands (ev):

    14.2407  15.3707  15.7400  15.7653  16.2744  16.4030  16.7584  17.7844
    18.5138  18.5735  18.9042  18.9552  19.5151  19.8813  19.9175  20.3558
    22.7435  23.0585  23.2108  23.5076  23.8918  24.4609  29.9729  30.0971

 ------ SPIN DOWN ----------


          k = 0.0000 0.0000 0.0000 (  2109 PWs)   bands (ev):

    13.2559  13.5672  13.6758  13.6758  13.6758  14.2862  14.2862  18.2502
    18.2502  18.2502  20.6926  20.6926  23.4682  23.4682  23.4682  23.5852
    23.5852  23.5853  24.2079  24.2079  24.2079  27.8761  27.8761  27.9315

          k = 0.0000 0.0000 0.2500 (  2160 PWs)   bands (ev):

    13.7527  14.2589  14.3614  14.3702  14.3702  15.0573  15.0585  17.7115
    18.6464  18.6465  19.3655  20.6924  21.5210  21.6328  22.0291  22.0291
    23.0462  23.0462  23.1867  24.3263  24.3263  24.7404  30.8646  31.1308

          k = 0.0000 0.0000-0.5000 (  2168 PWs)   bands (ev):

    14.4818  14.9496  15.3336  15.3336  15.5966  16.5720  16.5864  16.6796
    18.0181  18.5222  19.0115  19.0115  19.8782  20.9410  20.9410  21.3321
    21.8352  22.0668  22.0668  22.8283  24.3291  24.3291  34.3801  34.5477

          k = 0.0000 0.2500 0.2500 (  2157 PWs)   bands (ev):

    14.0310  14.8330  14.8615  15.0595  15.1802  15.6016  15.8840  17.7223
    18.3312  18.5276  19.0165  19.5914  20.5154  20.8774  21.2559  21.6728
    22.4329  22.4486  23.0098  23.1712  24.0290  27.6866  27.6949  33.1294

          k = 0.0000 0.2500-0.5000 (  2142 PWs)   bands (ev):

    14.6156  15.4970  15.9313  15.9972  16.4037  16.6901  16.7483  16.8517
    17.2834  18.0065  18.8448  18.9966  19.4406  20.1615  20.4540  20.8971
    21.6981  21.8976  22.9133  23.7013  23.9258  24.4944  30.6273  31.3286

          k = 0.0000-0.5000-0.5000 (  2160 PWs)   bands (ev):

    14.9778  15.9573  16.1535  16.1535  16.9974  17.3519  17.3520  17.6015
    17.9229  17.9229  18.2836  18.5731  18.9001  19.6588  19.6588  19.6866
    21.3101  21.8354  21.8354  23.2303  26.8083  27.1464  27.1464  27.2170

          k = 0.2500 0.2500 0.2500 (  2169 PWs)   bands (ev):

    14.0316  15.0794  15.0794  15.2825  15.9909  16.2738  16.2738  18.0536
    18.0536  18.5674  19.3468  19.3468  19.7025  20.4141  20.4141  20.5921
    22.1426  22.1426  23.5423  23.5423  24.0920  28.5113  28.8858  28.8858

          k = 0.2500 0.2500-0.5000 (  2166 PWs)   bands (ev):

    14.2406  15.3706  15.7399  15.7652  16.2743  16.4029  16.7582  17.7843
    18.5138  18.5733  18.9041  18.9551  19.5150  19.8812  19.9175  20.3557
    22.7434  23.0584  23.2106  23.5075  23.8915  24.4607  29.9728  30.0971

          k = 0.2500-0.5000-0.5000 (  2176 PWs)   bands (ev):

    14.1617  15.1075  15.1075  15.2344  16.9388  17.1538  17.1539  17.8218
    18.0629  18.7065  18.7066  19.1560  19.6668  20.5200  20.5200  21.1784
    22.1702  22.8097  22.8098  23.8270  25.9114  26.4345  26.4345  26.6423

          k =-0.5000-0.5000-0.5000 (  2176 PWs)   bands (ev):

    13.7776  14.4397  14.4397  14.4397  17.3098  17.3099  17.3099  17.8616
    17.8616  18.4985  18.4985  18.4985  22.3382  22.3382  22.3382  23.3650
    23.3650  23.9110  23.9110  23.9110  24.3395  24.8624  24.8624  24.8624

          k =-0.2500 0.0000 0.2500 (  2157 PWs)   bands (ev):

    14.0310  14.8330  14.8615  15.0595  15.1802  15.6016  15.8840  17.7223
    18.3312  18.5276  19.0165  19.5914  20.5154  20.8774  21.2559  21.6728
    22.4329  22.4486  23.0098  23.1712  24.0290  27.6866  27.6949  33.1294

          k = 0.2500-0.2500 0.2500 (  2169 PWs)   bands (ev):

    14.0316  15.0794  15.0794  15.2826  15.9910  16.2738  16.2738  18.0536
    18.0536  18.5674  19.3468  19.3468  19.7025  20.4140  20.4141  20.5921
    22.1426  22.1426  23.5423  23.5423  24.0920  28.5113  28.8858  28.8858

          k = 0.2500-0.2500-0.5000 (  2166 PWs)   bands (ev):

    14.2406  15.3706  15.7399  15.7652  16.2743  16.4029  16.7582  17.7843
    18.5138  18.5733  18.9041  18.9551  19.5150  19.8812  19.9175  20.3557
    22.7434  23.0584  23.2106  23.5075  23.8915  24.4607  29.9728  30.0971

     the Fermi energy is    23.8918 ev

!    total energy              =   -1324.05176757 Ry
     total all-electron energy =    -40367.848732 Ry
     estimated scf accuracy    <          4.3E-10 Ry
     smearing contrib. (-TS)   =      -0.00091484 Ry
     internal energy E=F+TS    =   -1324.05085273 Ry

     The total energy is F=E-TS. E is the sum of the following terms:
     one-electron contribution =      82.85475875 Ry
     hartree contribution      =      30.33231343 Ry
     xc contribution           =    -132.08778908 Ry
     ewald contribution        =    -276.84078315 Ry
     DFT-D3 Dispersion         =      -0.70720743 Ry
     one-center paw contrib.   =   -1027.60214525 Ry

     total magnetization       =    -0.00 Bohr mag/cell
     absolute magnetization    =     0.00 Bohr mag/cell

     convergence has been achieved in  13 iterations

     Writing all to output data dir ./Pd_k_4.save/ :
     XML data file, charge density, pseudopotentials, collected wavefunctions
 
     init_run     :      0.59s CPU      0.64s WALL (       1 calls)
     electrons    :      7.50s CPU      9.33s WALL (       1 calls)

     Called by init_run:
     wfcinit      :      0.09s CPU      0.09s WALL (       1 calls)
     potinit      :      0.33s CPU      0.35s WALL (       1 calls)
     hinit0       :      0.05s CPU      0.06s WALL (       1 calls)

     Called by electrons:
     c_bands      :      3.43s CPU      4.70s WALL (      14 calls)
     sum_band     :      0.76s CPU      0.88s WALL (      14 calls)
     v_of_rho     :      0.12s CPU      0.17s WALL (      14 calls)
     newd         :      0.15s CPU      0.15s WALL (      14 calls)
     PAW_pot      :      2.87s CPU      3.18s WALL (      14 calls)
     mix_rho      :      0.06s CPU      0.06s WALL (      14 calls)
     energy_dftd3 :      0.31s CPU      0.31s WALL (       1 calls)

     Called by c_bands:
     init_us_2    :      0.03s CPU      0.04s WALL (     377 calls)
     init_us_2:cp :      0.03s CPU      0.04s WALL (     377 calls)
     cegterg      :      2.69s CPU      3.39s WALL (     182 calls)

     Called by *egterg:
     cdiaghg      :      0.60s CPU      0.99s WALL (     618 calls)
     h_psi        :      1.81s CPU      2.06s WALL (     644 calls)
     s_psi        :      0.04s CPU      0.05s WALL (     644 calls)
     g_psi        :      0.01s CPU      0.01s WALL (     449 calls)

     Called by h_psi:
     h_psi:calbec :      0.08s CPU      0.11s WALL (     644 calls)
     vloc_psi     :      1.67s CPU      1.89s WALL (     644 calls)
     add_vuspsi   :      0.04s CPU      0.05s WALL (     644 calls)

     General routines
     calbec       :      0.11s CPU      0.13s WALL (     826 calls)
     fft          :      0.12s CPU      0.13s WALL (     346 calls)
     ffts         :      0.03s CPU      0.03s WALL (     268 calls)
     fftw         :      1.83s CPU      2.06s WALL (   29296 calls)
     interpolate  :      0.02s CPU      0.02s WALL (      28 calls)
 
     Parallel routines
 
     PWSCF        :      8.28s CPU     10.32s WALL

 
   This run was terminated on:   0:50:36   6Sep2025            

=------------------------------------------------------------------------------=
   JOB DONE.
=------------------------------------------------------------------------------=
