
     Program PWSCF v.7.3 starts on  6Sep2025 at  0:56: 3 

     This program is part of the open-source Quantum ESPRESSO suite
     for quantum simulation of materials; please cite
         "P. Giannozzi et al., J. Phys.:Condens. Matter 21 395502 (2009);
         "P. Giannozzi et al., J. Phys.:Condens. Matter 29 465901 (2017);
         "P. Giannozzi et al., J. Chem. Phys. 152 154105 (2020);
          URL http://www.quantum-espresso.org", 
     in publications or presentations arising from this work. More details at
     http://www.quantum-espresso.org/quote

     Parallel version (MPI), running on    30 processors

     MPI processes distributed on     1 nodes
     222518 MiB available memory on the printing compute node when the environment starts
 
     Waiting for input...
     Reading input from standard input

     Current dimensions of program PWSCF are:
     Max number of different atomic species (ntypx) = 10
     Max number of k-points (npk) =  40000
     Max angular momentum in pseudopotentials (lmaxx) =  4
     file Pd.upf: wavefunction(s)  5S 4D renormalized

     IMPORTANT: XC functional enforced from input :
     Exchange-correlation= PBE
                           (   1   4   3   4   0   0   0)
     Any further DFT definition will be discarded
     Please, verify this is what you really want

     Message from routine setup:
     using ibrav=0 with symmetry is DISCOURAGED, use correct ibrav instead
 
     K-points division:     npool     =       2
     R & G space division:  proc/nbgrp/npool/nimage =      15
     Subspace diagonalization in iterative solution of the eigenvalue problem:
     a serial algorithm will be used

 
     Parallelization info
     --------------------
     sticks:   dense  smooth     PW     G-vecs:    dense   smooth      PW
     Min         107      53     16                 3258     1151     196
     Max         109      55     17                 3260     1152     201
     Sum        1617     805    241                48885    17269    2945
 
     Using Slab Decomposition
 

     Title: 
     Pd_k_12                                                                    


     bravais-lattice index     =            0
     lattice parameter (alat)  =       6.5025  a.u.
     unit-cell volume          =     274.9107 (a.u.)^3
     number of atoms/cell      =            4
     number of atomic types    =            1
     number of electrons       =        40.00
     number of Kohn-Sham states=           24
     kinetic-energy cutoff     =      60.0000  Ry
     charge density cutoff     =     480.0000  Ry
     scf convergence threshold =      6.4E-09
     mixing beta               =       0.5000
     number of iterations used =           10  local-TF  mixing
     Exchange-correlation= PBE
                           (   1   4   3   4   0   0   0)

     celldm(1)=   6.502548  celldm(2)=   0.000000  celldm(3)=   0.000000
     celldm(4)=   0.000000  celldm(5)=   0.000000  celldm(6)=   0.000000

     crystal axes: (cart. coord. in units of alat)
               a(1) = (   0.999955   0.000000   0.000000 )  
               a(2) = (   0.000000   0.999955   0.000000 )  
               a(3) = (   0.000000   0.000000   0.999955 )  

     reciprocal axes: (cart. coord. in units 2 pi/alat)
               b(1) = (  1.000045  0.000000  0.000000 )  
               b(2) = (  0.000000  1.000045  0.000000 )  
               b(3) = (  0.000000  0.000000  1.000045 )  


     PseudoPot. # 1 for Pd read from file:
     /tmpu/mdach_g/mdach/PP/Pd.upf
     MD5 check sum: e9d6f14fd83b79f8105499163af174c9
     Pseudo is Projector augmented-wave + core cor, Zval = 10.0
     Generated using "atomic" code by A. Dal Corso  v.5.0.2 svn rev. 9415
     Shape of augmentation charge: PSQ
     Using radial grid of 1235 points,  6 beta functions with: 
                l(1) =   0
                l(2) =   0
                l(3) =   1
                l(4) =   1
                l(5) =   2
                l(6) =   2
     Q(r) pseudized with 0 coefficients 


     atomic species   valence    mass     pseudopotential
     Pd               10.00   106.42000     Pd( 1.00)

     Starting magnetic structure 
     atomic species   magnetization
     Pd              0.200

      6 Sym. Ops. (no inversion) found



   Cartesian axes

     site n.     atom                  positions (alat units)
         1        Pd     tau(   1) = (  -0.0054534  -0.0054534  -0.0054534  )
         2        Pd     tau(   2) = (  -0.0054550   0.5513882   0.5513882  )
         3        Pd     tau(   3) = (   0.5513882  -0.0054550   0.5513882  )
         4        Pd     tau(   4) = (   0.5513882   0.5513882  -0.0054550  )

     --------------------------------------------
     DFT-D3 Dispersion Correction (3-body terms):
     --------------------------------------------
       Reference C6 values for interpolation: 

         atom   Coordination number   C6
         Pd         0.000          1217.01
         Pd         1.863           573.90
         Pd         5.710           531.75

       Values used:

         atom   Coordination number  R0_AB[au]  C6      C8
         Pd        11.468            3.168    531.75  48720.73
         Pd        11.468            3.168    531.75  48720.73
         Pd        11.468            3.168    531.75  48720.73
         Pd        11.468            3.168    531.75  48720.73

         Molecular C6 ( Ry / a.u.^6 ) =      8507.99


     number of k points=   189  Methfessel-Paxton smearing, width (Ry)=  0.0147

     Number of k-points >= 100: set verbosity='high' to print them.

     Dense  grid:    48885 G-vectors     FFT dimensions: (  45,  45,  45)

     Smooth grid:    17269 G-vectors     FFT dimensions: (  36,  36,  36)

     Estimated max dynamical RAM per process >      20.95 MB

     Estimated total dynamical RAM >     598.77 MB
     Generating pointlists ...
     new r_m :   0.2585 (alat units)  1.6809 (a.u.) for type    1

     Initial potential from superposition of free atoms

     starting charge      39.9979, renormalised to      40.0000
     Starting wfcs are   36 atomic wfcs
     Checking if some PAW data can be deallocated... 

     total cpu time spent up to now is        2.6 secs

     Self-consistent Calculation

     iteration #  1     ecut=    60.00 Ry     beta= 0.50
     Davidson diagonalization with overlap
     ethr =  1.00E-02,  avg # of iterations =  4.1

     Threshold (ethr) on eigenvalues was too large:
     Diagonalizing with lowered threshold

     Davidson diagonalization with overlap
     ethr =  6.11E-04,  avg # of iterations =  2.8

     total cpu time spent up to now is       14.0 secs

     total energy              =   -1324.00721692 Ry
     estimated scf accuracy    <       0.27966336 Ry

     total magnetization       =     2.21 Bohr mag/cell
     absolute magnetization    =     2.21 Bohr mag/cell

     iteration #  2     ecut=    60.00 Ry     beta= 0.50
     Davidson diagonalization with overlap
     ethr =  6.99E-04,  avg # of iterations =  1.1

     total cpu time spent up to now is       18.0 secs

     total energy              =   -1324.02989409 Ry
     estimated scf accuracy    <       0.08741848 Ry

     total magnetization       =     1.59 Bohr mag/cell
     absolute magnetization    =     1.59 Bohr mag/cell

     iteration #  3     ecut=    60.00 Ry     beta= 0.50
     Davidson diagonalization with overlap
     ethr =  2.19E-04,  avg # of iterations =  2.2

     total cpu time spent up to now is       23.5 secs

     total energy              =   -1324.05820555 Ry
     estimated scf accuracy    <       0.00909874 Ry

     total magnetization       =     0.55 Bohr mag/cell
     absolute magnetization    =     0.63 Bohr mag/cell

     iteration #  4     ecut=    60.00 Ry     beta= 0.50
     Davidson diagonalization with overlap
     ethr =  2.27E-05,  avg # of iterations =  2.7

     total cpu time spent up to now is       28.6 secs

     total energy              =   -1324.06047699 Ry
     estimated scf accuracy    <       0.00508970 Ry

     total magnetization       =     0.51 Bohr mag/cell
     absolute magnetization    =     0.58 Bohr mag/cell

     iteration #  5     ecut=    60.00 Ry     beta= 0.50
     Davidson diagonalization with overlap
     ethr =  1.27E-05,  avg # of iterations =  1.1

     total cpu time spent up to now is       32.8 secs

     total energy              =   -1324.06185649 Ry
     estimated scf accuracy    <       0.00062430 Ry

     total magnetization       =     0.19 Bohr mag/cell
     absolute magnetization    =     0.24 Bohr mag/cell

     iteration #  6     ecut=    60.00 Ry     beta= 0.50
     Davidson diagonalization with overlap
     ethr =  1.56E-06,  avg # of iterations =  2.8

     total cpu time spent up to now is       39.5 secs

     total energy              =   -1324.06208277 Ry
     estimated scf accuracy    <       0.00011896 Ry

     total magnetization       =     0.13 Bohr mag/cell
     absolute magnetization    =     0.16 Bohr mag/cell

     iteration #  7     ecut=    60.00 Ry     beta= 0.50
     Davidson diagonalization with overlap
     ethr =  2.97E-07,  avg # of iterations =  1.5

     total cpu time spent up to now is       43.7 secs

     total energy              =   -1324.06213979 Ry
     estimated scf accuracy    <       0.00011865 Ry

     total magnetization       =     0.12 Bohr mag/cell
     absolute magnetization    =     0.14 Bohr mag/cell

     iteration #  8     ecut=    60.00 Ry     beta= 0.50
     Davidson diagonalization with overlap
     ethr =  2.97E-07,  avg # of iterations =  2.6

     total cpu time spent up to now is       50.9 secs

     total energy              =   -1324.06226661 Ry
     estimated scf accuracy    <       0.00002481 Ry

     total magnetization       =     0.03 Bohr mag/cell
     absolute magnetization    =     0.04 Bohr mag/cell

     iteration #  9     ecut=    60.00 Ry     beta= 0.50
     Davidson diagonalization with overlap
     ethr =  6.20E-08,  avg # of iterations =  1.7

     total cpu time spent up to now is       55.3 secs

     total energy              =   -1324.06227366 Ry
     estimated scf accuracy    <       0.00002839 Ry

     total magnetization       =     0.01 Bohr mag/cell
     absolute magnetization    =     0.01 Bohr mag/cell

     iteration # 10     ecut=    60.00 Ry     beta= 0.50
     Davidson diagonalization with overlap
     ethr =  6.20E-08,  avg # of iterations =  1.6

     total cpu time spent up to now is       59.6 secs

     total energy              =   -1324.06227484 Ry
     estimated scf accuracy    <       0.00000518 Ry

     total magnetization       =     0.01 Bohr mag/cell
     absolute magnetization    =     0.01 Bohr mag/cell

     iteration # 11     ecut=    60.00 Ry     beta= 0.50
     Davidson diagonalization with overlap
     ethr =  1.29E-08,  avg # of iterations =  2.9

     total cpu time spent up to now is       66.1 secs

     total energy              =   -1324.06227803 Ry
     estimated scf accuracy    <       0.00000022 Ry

     total magnetization       =     0.00 Bohr mag/cell
     absolute magnetization    =     0.00 Bohr mag/cell

     iteration # 12     ecut=    60.00 Ry     beta= 0.50
     Davidson diagonalization with overlap
     ethr =  5.39E-10,  avg # of iterations =  2.2

     total cpu time spent up to now is       71.7 secs

     total energy              =   -1324.06227795 Ry
     estimated scf accuracy    <       0.00000047 Ry

     total magnetization       =     0.00 Bohr mag/cell
     absolute magnetization    =     0.00 Bohr mag/cell

     iteration # 13     ecut=    60.00 Ry     beta= 0.50
     Davidson diagonalization with overlap
     ethr =  5.39E-10,  avg # of iterations =  2.7

     total cpu time spent up to now is       77.7 secs

     total energy              =   -1324.06227800 Ry
     estimated scf accuracy    <       0.00000001 Ry

     total magnetization       =     0.00 Bohr mag/cell
     absolute magnetization    =     0.00 Bohr mag/cell

     iteration # 14     ecut=    60.00 Ry     beta= 0.50
     Davidson diagonalization with overlap
     ethr =  2.99E-11,  avg # of iterations =  3.0

     total cpu time spent up to now is       84.8 secs

     total energy              =   -1324.06227801 Ry
     estimated scf accuracy    <          7.5E-09 Ry

     total magnetization       =    -0.00 Bohr mag/cell
     absolute magnetization    =     0.00 Bohr mag/cell

     iteration # 15     ecut=    60.00 Ry     beta= 0.50
     Davidson diagonalization with overlap
     ethr =  1.87E-11,  avg # of iterations =  2.0
 
     Magnetic moment per site  (integrated on atomic sphere of radius R)
     atom   1 (R=0.258)  charge=  7.1583  magn= -0.0000
     atom   2 (R=0.258)  charge=  7.1584  magn= -0.0000
     atom   3 (R=0.258)  charge=  7.1584  magn= -0.0000
     atom   4 (R=0.258)  charge=  7.1584  magn= -0.0000

     total cpu time spent up to now is       89.0 secs

     End of self-consistent calculation

     Number of k-points >= 100: set verbosity='high' to print the bands.

     the Fermi energy is    23.8669 ev

!    total energy              =   -1324.06227801 Ry
     total all-electron energy =    -40367.859243 Ry
     estimated scf accuracy    <          3.8E-10 Ry
     smearing contrib. (-TS)   =      -0.00021188 Ry
     internal energy E=F+TS    =   -1324.06206613 Ry

     The total energy is F=E-TS. E is the sum of the following terms:
     one-electron contribution =      82.84063823 Ry
     hartree contribution      =      30.32669986 Ry
     xc contribution           =    -132.08145270 Ry
     ewald contribution        =    -276.84078315 Ry
     DFT-D3 Dispersion         =      -0.70720743 Ry
     one-center paw contrib.   =   -1027.59996094 Ry

     total magnetization       =    -0.00 Bohr mag/cell
     absolute magnetization    =     0.00 Bohr mag/cell

     convergence has been achieved in  15 iterations

     Writing all to output data dir ./Pd_k_12.save/ :
     XML data file, charge density, pseudopotentials, collected wavefunctions
 
     init_run     :      2.26s CPU      2.37s WALL (       1 calls)
     electrons    :     58.72s CPU     86.44s WALL (       1 calls)

     Called by init_run:
     wfcinit      :      1.82s CPU      1.89s WALL (       1 calls)
     potinit      :      0.29s CPU      0.31s WALL (       1 calls)
     hinit0       :      0.09s CPU      0.10s WALL (       1 calls)

     Called by electrons:
     c_bands      :     46.66s CPU     73.10s WALL (      16 calls)
     sum_band     :      8.26s CPU      9.41s WALL (      16 calls)
     v_of_rho     :      0.19s CPU      0.20s WALL (      16 calls)
     newd         :      0.12s CPU      0.13s WALL (      16 calls)
     PAW_pot      :      3.25s CPU      3.28s WALL (      16 calls)
     mix_rho      :      0.08s CPU      0.08s WALL (      16 calls)
     energy_dftd3 :      0.30s CPU      0.30s WALL (       1 calls)

     Called by c_bands:
     init_us_2    :      0.42s CPU      0.56s WALL (    6237 calls)
     init_us_2:cp :      0.41s CPU      0.55s WALL (    6237 calls)
     cegterg      :     41.88s CPU     54.18s WALL (    3024 calls)

     Called by *egterg:
     cdiaghg      :      9.43s CPU     16.22s WALL (    9904 calls)
     h_psi        :     28.00s CPU     32.56s WALL (   10282 calls)
     s_psi        :      0.66s CPU      0.86s WALL (   10282 calls)
     g_psi        :      0.11s CPU      0.12s WALL (    7069 calls)

     Called by h_psi:
     h_psi:calbec :      1.46s CPU      1.80s WALL (   10282 calls)
     vloc_psi     :     25.69s CPU     29.56s WALL (   10282 calls)
     add_vuspsi   :      0.70s CPU      0.99s WALL (   10282 calls)

     General routines
     calbec       :      2.07s CPU      2.50s WALL (   13306 calls)
     fft          :      0.14s CPU      0.15s WALL (     396 calls)
     ffts         :      0.08s CPU      0.08s WALL (     310 calls)
     fftw         :     29.43s CPU     33.63s WALL (  457510 calls)
     interpolate  :      0.03s CPU      0.03s WALL (      32 calls)
 
     Parallel routines
 
     PWSCF        :   1m 1.41s CPU   1m30.30s WALL

 
   This run was terminated on:   0:57:33   6Sep2025            

=------------------------------------------------------------------------------=
   JOB DONE.
=------------------------------------------------------------------------------=
