
     Program PWSCF v.7.3 starts on  6Sep2025 at  0:50:39 

     This program is part of the open-source Quantum ESPRESSO suite
     for quantum simulation of materials; please cite
         "P. Giannozzi et al., J. Phys.:Condens. Matter 21 395502 (2009);
         "P. Giannozzi et al., J. Phys.:Condens. Matter 29 465901 (2017);
         "P. Giannozzi et al., J. Chem. Phys. 152 154105 (2020);
          URL http://www.quantum-espresso.org", 
     in publications or presentations arising from this work. More details at
     http://www.quantum-espresso.org/quote

     Parallel version (MPI), running on    30 processors

     MPI processes distributed on     1 nodes
     222139 MiB available memory on the printing compute node when the environment starts
 
     Waiting for input...
     Reading input from standard input

     Current dimensions of program PWSCF are:
     Max number of different atomic species (ntypx) = 10
     Max number of k-points (npk) =  40000
     Max angular momentum in pseudopotentials (lmaxx) =  4
     file Pd.upf: wavefunction(s)  5S 4D renormalized

     IMPORTANT: XC functional enforced from input :
     Exchange-correlation= PBE
                           (   1   4   3   4   0   0   0)
     Any further DFT definition will be discarded
     Please, verify this is what you really want

     Message from routine setup:
     using ibrav=0 with symmetry is DISCOURAGED, use correct ibrav instead
 
     K-points division:     npool     =       2
     R & G space division:  proc/nbgrp/npool/nimage =      15
     Subspace diagonalization in iterative solution of the eigenvalue problem:
     a serial algorithm will be used

 
     Parallelization info
     --------------------
     sticks:   dense  smooth     PW     G-vecs:    dense   smooth      PW
     Min         107      53     16                 3258     1151     184
     Max         109      55     17                 3260     1152     187
     Sum        1617     805    241                48885    17269    2777
 
     Using Slab Decomposition
 

     Title: 
     Pd_k_5                                                                     


     bravais-lattice index     =            0
     lattice parameter (alat)  =       6.5025  a.u.
     unit-cell volume          =     274.9107 (a.u.)^3
     number of atoms/cell      =            4
     number of atomic types    =            1
     number of electrons       =        40.00
     number of Kohn-Sham states=           24
     kinetic-energy cutoff     =      60.0000  Ry
     charge density cutoff     =     480.0000  Ry
     scf convergence threshold =      6.4E-09
     mixing beta               =       0.5000
     number of iterations used =           10  local-TF  mixing
     Exchange-correlation= PBE
                           (   1   4   3   4   0   0   0)

     celldm(1)=   6.502548  celldm(2)=   0.000000  celldm(3)=   0.000000
     celldm(4)=   0.000000  celldm(5)=   0.000000  celldm(6)=   0.000000

     crystal axes: (cart. coord. in units of alat)
               a(1) = (   0.999955   0.000000   0.000000 )  
               a(2) = (   0.000000   0.999955   0.000000 )  
               a(3) = (   0.000000   0.000000   0.999955 )  

     reciprocal axes: (cart. coord. in units 2 pi/alat)
               b(1) = (  1.000045  0.000000  0.000000 )  
               b(2) = (  0.000000  1.000045  0.000000 )  
               b(3) = (  0.000000  0.000000  1.000045 )  


     PseudoPot. # 1 for Pd read from file:
     /tmpu/mdach_g/mdach/PP/Pd.upf
     MD5 check sum: e9d6f14fd83b79f8105499163af174c9
     Pseudo is Projector augmented-wave + core cor, Zval = 10.0
     Generated using "atomic" code by A. Dal Corso  v.5.0.2 svn rev. 9415
     Shape of augmentation charge: PSQ
     Using radial grid of 1235 points,  6 beta functions with: 
                l(1) =   0
                l(2) =   0
                l(3) =   1
                l(4) =   1
                l(5) =   2
                l(6) =   2
     Q(r) pseudized with 0 coefficients 


     atomic species   valence    mass     pseudopotential
     Pd               10.00   106.42000     Pd( 1.00)

     Starting magnetic structure 
     atomic species   magnetization
     Pd              0.200

      6 Sym. Ops. (no inversion) found



   Cartesian axes

     site n.     atom                  positions (alat units)
         1        Pd     tau(   1) = (  -0.0054534  -0.0054534  -0.0054534  )
         2        Pd     tau(   2) = (  -0.0054550   0.5513882   0.5513882  )
         3        Pd     tau(   3) = (   0.5513882  -0.0054550   0.5513882  )
         4        Pd     tau(   4) = (   0.5513882   0.5513882  -0.0054550  )

     --------------------------------------------
     DFT-D3 Dispersion Correction (3-body terms):
     --------------------------------------------
       Reference C6 values for interpolation: 

         atom   Coordination number   C6
         Pd         0.000          1217.01
         Pd         1.863           573.90
         Pd         5.710           531.75

       Values used:

         atom   Coordination number  R0_AB[au]  C6      C8
         Pd        11.468            3.168    531.75  48720.73
         Pd        11.468            3.168    531.75  48720.73
         Pd        11.468            3.168    531.75  48720.73
         Pd        11.468            3.168    531.75  48720.73

         Molecular C6 ( Ry / a.u.^6 ) =      8507.99


     number of k points=    19  Methfessel-Paxton smearing, width (Ry)=  0.0147
                       cart. coord. in units 2pi/alat
        k(    1) = (   0.0000000   0.0000000   0.0000000), wk =   0.0080000
        k(    2) = (   0.0000000   0.0000000   0.2000091), wk =   0.0480000
        k(    3) = (   0.0000000   0.0000000   0.4000181), wk =   0.0480000
        k(    4) = (   0.0000000   0.2000091   0.2000091), wk =   0.0480000
        k(    5) = (   0.0000000   0.2000091   0.4000181), wk =   0.0960000
        k(    6) = (   0.0000000   0.4000181   0.4000181), wk =   0.0480000
        k(    7) = (   0.2000091   0.2000091   0.2000091), wk =   0.0160000
        k(    8) = (   0.2000091   0.2000091   0.4000181), wk =   0.0480000
        k(    9) = (   0.2000091   0.4000181   0.4000181), wk =   0.0480000
        k(   10) = (   0.4000181   0.4000181   0.4000181), wk =   0.0160000
        k(   11) = (  -0.2000091   0.0000000   0.2000091), wk =   0.0480000
        k(   12) = (  -0.2000091   0.0000000   0.4000181), wk =   0.0960000
        k(   13) = (  -0.4000181   0.0000000   0.4000181), wk =   0.0480000
        k(   14) = (   0.2000091  -0.2000091   0.2000091), wk =   0.0480000
        k(   15) = (   0.2000091  -0.2000091   0.4000181), wk =   0.0960000
        k(   16) = (  -0.4000181   0.2000091   0.2000091), wk =   0.0480000
        k(   17) = (   0.4000181  -0.2000091   0.4000181), wk =   0.0480000
        k(   18) = (  -0.4000181   0.2000091   0.4000181), wk =   0.0960000
        k(   19) = (   0.4000181  -0.4000181   0.4000181), wk =   0.0480000

     Dense  grid:    48885 G-vectors     FFT dimensions: (  45,  45,  45)

     Smooth grid:    17269 G-vectors     FFT dimensions: (  36,  36,  36)

     Estimated max dynamical RAM per process >      12.05 MB

     Estimated total dynamical RAM >     331.69 MB
     Generating pointlists ...
     new r_m :   0.2585 (alat units)  1.6809 (a.u.) for type    1

     Initial potential from superposition of free atoms

     starting charge      39.9979, renormalised to      40.0000
     Starting wfcs are   36 atomic wfcs
     Checking if some PAW data can be deallocated... 

     total cpu time spent up to now is        0.8 secs

     Self-consistent Calculation

     iteration #  1     ecut=    60.00 Ry     beta= 0.50
     Davidson diagonalization with overlap
     ethr =  1.00E-02,  avg # of iterations =  3.8

     Threshold (ethr) on eigenvalues was too large:
     Diagonalizing with lowered threshold

     Davidson diagonalization with overlap
     ethr =  6.16E-04,  avg # of iterations =  2.7

     total cpu time spent up to now is        2.5 secs

     total energy              =   -1324.00923865 Ry
     estimated scf accuracy    <       0.27977793 Ry

     total magnetization       =     2.09 Bohr mag/cell
     absolute magnetization    =     2.09 Bohr mag/cell

     iteration #  2     ecut=    60.00 Ry     beta= 0.50
     Davidson diagonalization with overlap
     ethr =  6.99E-04,  avg # of iterations =  1.0

     total cpu time spent up to now is        3.1 secs

     total energy              =   -1324.03282948 Ry
     estimated scf accuracy    <       0.09137471 Ry

     total magnetization       =     1.42 Bohr mag/cell
     absolute magnetization    =     1.43 Bohr mag/cell

     iteration #  3     ecut=    60.00 Ry     beta= 0.50
     Davidson diagonalization with overlap
     ethr =  2.28E-04,  avg # of iterations =  2.0

     total cpu time spent up to now is        3.8 secs

     total energy              =   -1324.06149212 Ry
     estimated scf accuracy    <       0.00930589 Ry

     total magnetization       =     0.50 Bohr mag/cell
     absolute magnetization    =     0.58 Bohr mag/cell

     iteration #  4     ecut=    60.00 Ry     beta= 0.50
     Davidson diagonalization with overlap
     ethr =  2.33E-05,  avg # of iterations =  2.5

     total cpu time spent up to now is        4.6 secs

     total energy              =   -1324.06464123 Ry
     estimated scf accuracy    <       0.00259209 Ry

     total magnetization       =     0.49 Bohr mag/cell
     absolute magnetization    =     0.54 Bohr mag/cell

     iteration #  5     ecut=    60.00 Ry     beta= 0.50
     Davidson diagonalization with overlap
     ethr =  6.48E-06,  avg # of iterations =  1.5

     total cpu time spent up to now is        5.3 secs

     total energy              =   -1324.06585587 Ry
     estimated scf accuracy    <       0.00023971 Ry

     total magnetization       =     0.19 Bohr mag/cell
     absolute magnetization    =     0.24 Bohr mag/cell

     iteration #  6     ecut=    60.00 Ry     beta= 0.50
     Davidson diagonalization with overlap
     ethr =  5.99E-07,  avg # of iterations =  2.9

     total cpu time spent up to now is        6.0 secs

     total energy              =   -1324.06600831 Ry
     estimated scf accuracy    <       0.00009926 Ry

     total magnetization       =     0.18 Bohr mag/cell
     absolute magnetization    =     0.21 Bohr mag/cell

     iteration #  7     ecut=    60.00 Ry     beta= 0.50
     Davidson diagonalization with overlap
     ethr =  2.48E-07,  avg # of iterations =  1.6

     total cpu time spent up to now is        6.8 secs

     total energy              =   -1324.06603146 Ry
     estimated scf accuracy    <       0.00005564 Ry

     total magnetization       =     0.16 Bohr mag/cell
     absolute magnetization    =     0.18 Bohr mag/cell

     iteration #  8     ecut=    60.00 Ry     beta= 0.50
     Davidson diagonalization with overlap
     ethr =  1.39E-07,  avg # of iterations =  3.0

     total cpu time spent up to now is        7.8 secs

     total energy              =   -1324.06615119 Ry
     estimated scf accuracy    <       0.00000746 Ry

     total magnetization       =     0.05 Bohr mag/cell
     absolute magnetization    =     0.06 Bohr mag/cell

     iteration #  9     ecut=    60.00 Ry     beta= 0.50
     Davidson diagonalization with overlap
     ethr =  1.87E-08,  avg # of iterations =  3.0

     total cpu time spent up to now is        8.8 secs

     total energy              =   -1324.06619584 Ry
     estimated scf accuracy    <       0.00000472 Ry

     total magnetization       =    -0.01 Bohr mag/cell
     absolute magnetization    =     0.02 Bohr mag/cell

     iteration # 10     ecut=    60.00 Ry     beta= 0.50
     Davidson diagonalization with overlap
     ethr =  1.18E-08,  avg # of iterations =  2.1

     total cpu time spent up to now is        9.6 secs

     total energy              =   -1324.06619895 Ry
     estimated scf accuracy    <       0.00000033 Ry

     total magnetization       =     0.00 Bohr mag/cell
     absolute magnetization    =     0.00 Bohr mag/cell

     iteration # 11     ecut=    60.00 Ry     beta= 0.50
     Davidson diagonalization with overlap
     ethr =  8.14E-10,  avg # of iterations =  2.6

     total cpu time spent up to now is       10.4 secs

     total energy              =   -1324.06619915 Ry
     estimated scf accuracy    <       0.00000019 Ry

     total magnetization       =     0.00 Bohr mag/cell
     absolute magnetization    =     0.00 Bohr mag/cell

     iteration # 12     ecut=    60.00 Ry     beta= 0.50
     Davidson diagonalization with overlap
     ethr =  4.72E-10,  avg # of iterations =  1.9

     total cpu time spent up to now is       11.2 secs

     total energy              =   -1324.06619924 Ry
     estimated scf accuracy    <       0.00000003 Ry

     total magnetization       =     0.00 Bohr mag/cell
     absolute magnetization    =     0.00 Bohr mag/cell

     iteration # 13     ecut=    60.00 Ry     beta= 0.50
     Davidson diagonalization with overlap
     ethr =  8.29E-11,  avg # of iterations =  2.6
 
     Magnetic moment per site  (integrated on atomic sphere of radius R)
     atom   1 (R=0.258)  charge=  7.1599  magn= -0.0000
     atom   2 (R=0.258)  charge=  7.1600  magn= -0.0000
     atom   3 (R=0.258)  charge=  7.1600  magn= -0.0000
     atom   4 (R=0.258)  charge=  7.1600  magn= -0.0000

     total cpu time spent up to now is       11.9 secs

     End of self-consistent calculation

 ------ SPIN UP ------------


          k = 0.0000 0.0000 0.0000 (  2109 PWs)   bands (ev):

    13.2592  13.5676  13.6796  13.6796  13.6796  14.2951  14.2951  18.2569
    18.2570  18.2570  20.6969  20.6969  23.4721  23.4721  23.4721  23.5885
    23.5885  23.5885  24.2160  24.2161  24.2161  27.8813  27.8813  27.9254

          k = 0.0000 0.0000 0.2000 (  2152 PWs)   bands (ev):

    13.6116  13.9759  14.1405  14.1405  14.1664  14.7900  14.7952  17.8969
    18.5245  18.5245  19.7971  20.7712  22.1199  22.1298  22.4248  22.4248
    23.2624  23.2624  23.2833  24.3254  24.3254  25.6339  30.0308  30.2749

          k = 0.0000 0.0000 0.4000 (  2140 PWs)   bands (ev):

    14.3085  14.7756  15.1180  15.1180  15.3454  16.0722  16.1241  17.0732
    18.2446  18.9803  18.9804  19.1696  20.2838  21.1016  21.1016  21.2863
    22.3099  22.3099  22.4282  22.9099  24.3354  24.3354  33.3761  33.6232

          k = 0.0000 0.2000 0.2000 (  2157 PWs)   bands (ev):

    13.8017  14.4394  14.4895  14.5530  14.7277  15.1736  15.3572  17.8622
    18.4889  18.5210  19.4877  20.2430  21.1038  21.4697  21.4729  22.1940
    22.6673  22.8958  23.2641  23.3721  24.1789  27.8070  27.8800  31.7689

          k = 0.0000 0.2000 0.4000 (  2154 PWs)   bands (ev):

    14.3999  15.1609  15.4431  15.6025  15.8127  16.2756  16.4627  17.1787
    17.7493  18.3147  18.8683  19.3459  19.7544  20.5246  20.7499  21.2603
    21.8828  22.2205  22.8557  23.3360  23.9901  24.8375  30.6293  33.1105

          k = 0.0000 0.4000 0.4000 (  2152 PWs)   bands (ev):

    14.7762  15.7757  16.0582  16.3476  16.5905  16.9319  16.9973  17.4344
    17.6204  17.7274  18.4955  18.9408  19.1765  19.7116  20.1816  20.1998
    21.5325  22.0747  22.1349  23.4426  24.6278  27.1097  27.2640  29.8796

          k = 0.2000 0.2000 0.2000 (  2151 PWs)   bands (ev):

    13.8923  14.7057  14.7057  14.8666  15.4026  15.6987  15.6987  18.1681
    18.2779  18.2779  19.7634  19.7634  20.2351  20.9665  20.9665  21.3628
    22.2372  22.2372  23.6109  23.6109  24.1524  28.7864  29.0692  29.0692

          k = 0.2000 0.2000 0.4000 (  2172 PWs)   bands (ev):

    14.2611  15.3107  15.5678  15.6635  16.2169  16.3813  16.4268  17.5244
    18.1085  18.2458  18.9655  19.3756  19.7152  19.7782  20.4853  20.5786
    22.1583  22.6249  23.1914  23.3320  23.9740  25.1996  30.7929  30.9733

          k = 0.2000 0.4000 0.4000 (  2155 PWs)   bands (ev):

    14.2873  15.4592  15.4609  15.6317  16.6372  16.7481  16.8287  18.1811
    18.2368  18.4385  18.7985  19.2100  19.4603  19.9458  20.0369  20.2206
    22.0505  22.7100  22.9095  23.8540  24.2117  26.8151  27.0436  29.2952

          k = 0.4000 0.4000 0.4000 (  2188 PWs)   bands (ev):

    13.8969  14.7935  14.7935  14.8206  16.9942  17.1608  17.1608  18.0160
    18.0160  18.5748  18.5748  18.8701  20.8531  21.0370  21.0370  22.6951
    23.2180  23.2180  23.4148  23.4148  23.9506  26.2705  26.5476  26.5476

          k =-0.2000 0.0000 0.2000 (  2157 PWs)   bands (ev):

    13.8017  14.4394  14.4895  14.5530  14.7277  15.1736  15.3572  17.8622
    18.4889  18.5210  19.4877  20.2430  21.1038  21.4697  21.4729  22.1940
    22.6673  22.8958  23.2641  23.3721  24.1789  27.8070  27.8800  31.7689

          k =-0.2000 0.0000 0.4000 (  2154 PWs)   bands (ev):

    14.3999  15.1609  15.4431  15.6025  15.8127  16.2756  16.4627  17.1787
    17.7493  18.3147  18.8683  19.3459  19.7544  20.5246  20.7499  21.2603
    21.8828  22.2205  22.8557  23.3360  23.9901  24.8375  30.6293  33.1105

          k =-0.4000 0.0000 0.4000 (  2152 PWs)   bands (ev):

    14.7762  15.7757  16.0582  16.3476  16.5906  16.9319  16.9973  17.4344
    17.6204  17.7274  18.4955  18.9408  19.1765  19.7116  20.1816  20.1998
    21.5324  22.0747  22.1350  23.4426  24.6278  27.1097  27.2640  29.8796

          k = 0.2000-0.2000 0.2000 (  2151 PWs)   bands (ev):

    13.8923  14.7057  14.7057  14.8666  15.4026  15.6987  15.6987  18.1681
    18.2779  18.2779  19.7634  19.7634  20.2351  20.9665  20.9665  21.3628
    22.2372  22.2372  23.6109  23.6109  24.1524  28.7864  29.0692  29.0692

          k = 0.2000-0.2000 0.4000 (  2172 PWs)   bands (ev):

    14.2611  15.3107  15.5678  15.6635  16.2169  16.3813  16.4268  17.5244
    18.1085  18.2457  18.9655  19.3756  19.7152  19.7782  20.4853  20.5786
    22.1583  22.6249  23.1914  23.3320  23.9740  25.1996  30.7929  30.9733

          k =-0.4000 0.2000 0.2000 (  2172 PWs)   bands (ev):

    14.2611  15.3107  15.5678  15.6635  16.2169  16.3813  16.4267  17.5244
    18.1084  18.2457  18.9655  19.3756  19.7152  19.7782  20.4853  20.5786
    22.1583  22.6249  23.1914  23.3320  23.9740  25.1996  30.7929  30.9733

          k = 0.4000-0.2000 0.4000 (  2155 PWs)   bands (ev):

    14.2873  15.4591  15.4609  15.6318  16.6373  16.7481  16.8288  18.1811
    18.2368  18.4385  18.7985  19.2099  19.4602  19.9457  20.0369  20.2206
    22.0505  22.7100  22.9095  23.8540  24.2117  26.8151  27.0436  29.2952

          k =-0.4000 0.2000 0.4000 (  2155 PWs)   bands (ev):

    14.2873  15.4592  15.4609  15.6317  16.6373  16.7481  16.8287  18.1811
    18.2368  18.4385  18.7985  19.2100  19.4603  19.9457  20.0369  20.2206
    22.0505  22.7100  22.9095  23.8540  24.2117  26.8150  27.0436  29.2952

          k = 0.4000-0.4000 0.4000 (  2188 PWs)   bands (ev):

    13.8969  14.7935  14.7935  14.8206  16.9942  17.1608  17.1608  18.0159
    18.0159  18.5748  18.5748  18.8701  20.8531  21.0370  21.0370  22.6951
    23.2180  23.2180  23.4148  23.4148  23.9506  26.2706  26.5476  26.5476

 ------ SPIN DOWN ----------


          k = 0.0000 0.0000 0.0000 (  2109 PWs)   bands (ev):

    13.2592  13.5675  13.6795  13.6795  13.6795  14.2950  14.2950  18.2569
    18.2569  18.2569  20.6969  20.6969  23.4720  23.4720  23.4720  23.5884
    23.5884  23.5884  24.2160  24.2160  24.2160  27.8812  27.8812  27.9254

          k = 0.0000 0.0000 0.2000 (  2152 PWs)   bands (ev):

    13.6115  13.9759  14.1404  14.1405  14.1664  14.7899  14.7952  17.8968
    18.5244  18.5244  19.7970  20.7711  22.1199  22.1298  22.4247  22.4247
    23.2623  23.2623  23.2833  24.3253  24.3253  25.6338  30.0307  30.2748

          k = 0.0000 0.0000 0.4000 (  2140 PWs)   bands (ev):

    14.3084  14.7755  15.1180  15.1180  15.3453  16.0722  16.1241  17.0732
    18.2445  18.9803  18.9803  19.1696  20.2838  21.1015  21.1015  21.2862
    22.3098  22.3099  22.4281  22.9099  24.3353  24.3353  33.3761  33.6232

          k = 0.0000 0.2000 0.2000 (  2157 PWs)   bands (ev):

    13.8016  14.4394  14.4894  14.5530  14.7276  15.1736  15.3571  17.8621
    18.4889  18.5210  19.4877  20.2429  21.1037  21.4696  21.4729  22.1940
    22.6672  22.8958  23.2640  23.3721  24.1788  27.8070  27.8800  31.7689

          k = 0.0000 0.2000 0.4000 (  2154 PWs)   bands (ev):

    14.3999  15.1608  15.4430  15.6025  15.8127  16.2756  16.4627  17.1787
    17.7493  18.3147  18.8682  19.3459  19.7544  20.5246  20.7498  21.2602
    21.8827  22.2204  22.8556  23.3360  23.9901  24.8374  30.6293  33.1105

          k = 0.0000 0.4000 0.4000 (  2152 PWs)   bands (ev):

    14.7761  15.7756  16.0581  16.3476  16.5905  16.9318  16.9973  17.4344
    17.6203  17.7274  18.4954  18.9407  19.1765  19.7116  20.1815  20.1997
    21.5324  22.0746  22.1349  23.4425  24.6278  27.1097  27.2639  29.8795

          k = 0.2000 0.2000 0.2000 (  2151 PWs)   bands (ev):

    13.8923  14.7056  14.7056  14.8666  15.4026  15.6987  15.6987  18.1680
    18.2779  18.2779  19.7633  19.7633  20.2351  20.9664  20.9664  21.3627
    22.2371  22.2371  23.6109  23.6109  24.1523  28.7864  29.0692  29.0692

          k = 0.2000 0.2000 0.4000 (  2172 PWs)   bands (ev):

    14.2611  15.3106  15.5677  15.6634  16.2169  16.3813  16.4267  17.5244
    18.1084  18.2457  18.9654  19.3755  19.7151  19.7781  20.4852  20.5786
    22.1583  22.6248  23.1914  23.3319  23.9740  25.1996  30.7929  30.9733

          k = 0.2000 0.4000 0.4000 (  2155 PWs)   bands (ev):

    14.2873  15.4591  15.4609  15.6317  16.6372  16.7480  16.8287  18.1810
    18.2368  18.4385  18.7984  19.2099  19.4602  19.9457  20.0368  20.2205
    22.0505  22.7099  22.9094  23.8539  24.2117  26.8150  27.0435  29.2952

          k = 0.4000 0.4000 0.4000 (  2188 PWs)   bands (ev):

    13.8968  14.7935  14.7935  14.8205  16.9941  17.1608  17.1608  18.0159
    18.0159  18.5747  18.5747  18.8700  20.8531  21.0369  21.0369  22.6951
    23.2179  23.2179  23.4147  23.4147  23.9505  26.2705  26.5476  26.5476

          k =-0.2000 0.0000 0.2000 (  2157 PWs)   bands (ev):

    13.8016  14.4394  14.4894  14.5530  14.7276  15.1736  15.3571  17.8622
    18.4889  18.5210  19.4877  20.2429  21.1038  21.4696  21.4729  22.1940
    22.6672  22.8957  23.2640  23.3721  24.1788  27.8070  27.8800  31.7689

          k =-0.2000 0.0000 0.4000 (  2154 PWs)   bands (ev):

    14.3999  15.1608  15.4430  15.6025  15.8127  16.2756  16.4627  17.1787
    17.7493  18.3147  18.8682  19.3459  19.7544  20.5246  20.7498  21.2602
    21.8827  22.2204  22.8556  23.3360  23.9901  24.8374  30.6293  33.1105

          k =-0.4000 0.0000 0.4000 (  2152 PWs)   bands (ev):

    14.7761  15.7756  16.0581  16.3476  16.5905  16.9318  16.9973  17.4344
    17.6203  17.7274  18.4954  18.9407  19.1765  19.7116  20.1815  20.1997
    21.5324  22.0746  22.1349  23.4425  24.6278  27.1097  27.2639  29.8796

          k = 0.2000-0.2000 0.2000 (  2151 PWs)   bands (ev):

    13.8923  14.7056  14.7057  14.8666  15.4026  15.6987  15.6987  18.1680
    18.2779  18.2779  19.7633  19.7633  20.2351  20.9664  20.9664  21.3627
    22.2371  22.2371  23.6109  23.6109  24.1523  28.7864  29.0692  29.0692

          k = 0.2000-0.2000 0.4000 (  2172 PWs)   bands (ev):

    14.2611  15.3106  15.5677  15.6635  16.2169  16.3813  16.4267  17.5244
    18.1084  18.2457  18.9654  19.3755  19.7151  19.7781  20.4852  20.5786
    22.1583  22.6248  23.1914  23.3319  23.9739  25.1996  30.7929  30.9733

          k =-0.4000 0.2000 0.2000 (  2172 PWs)   bands (ev):

    14.2611  15.3106  15.5677  15.6635  16.2169  16.3813  16.4267  17.5244
    18.1084  18.2457  18.9654  19.3755  19.7151  19.7781  20.4852  20.5786
    22.1582  22.6248  23.1914  23.3319  23.9740  25.1996  30.7929  30.9733

          k = 0.4000-0.2000 0.4000 (  2155 PWs)   bands (ev):

    14.2873  15.4591  15.4609  15.6317  16.6372  16.7480  16.8287  18.1810
    18.2368  18.4385  18.7984  19.2099  19.4602  19.9457  20.0368  20.2206
    22.0505  22.7099  22.9094  23.8539  24.2116  26.8150  27.0436  29.2952

          k =-0.4000 0.2000 0.4000 (  2155 PWs)   bands (ev):

    14.2873  15.4591  15.4609  15.6317  16.6372  16.7480  16.8287  18.1810
    18.2368  18.4385  18.7984  19.2099  19.4602  19.9457  20.0368  20.2205
    22.0505  22.7099  22.9095  23.8539  24.2117  26.8150  27.0436  29.2952

          k = 0.4000-0.4000 0.4000 (  2188 PWs)   bands (ev):

    13.8968  14.7935  14.7935  14.8205  16.9942  17.1607  17.1608  18.0159
    18.0159  18.5747  18.5747  18.8700  20.8530  21.0369  21.0369  22.6951
    23.2179  23.2179  23.4147  23.4147  23.9505  26.2705  26.5476  26.5476

     the Fermi energy is    23.9191 ev

!    total energy              =   -1324.06619924 Ry
     total all-electron energy =    -40367.863164 Ry
     estimated scf accuracy    <          2.4E-10 Ry
     smearing contrib. (-TS)   =      -0.00098479 Ry
     internal energy E=F+TS    =   -1324.06521446 Ry

     The total energy is F=E-TS. E is the sum of the following terms:
     one-electron contribution =      82.82657212 Ry
     hartree contribution      =      30.34539380 Ry
     xc contribution           =    -132.08789607 Ry
     ewald contribution        =    -276.84078315 Ry
     DFT-D3 Dispersion         =      -0.70720743 Ry
     one-center paw contrib.   =   -1027.60129373 Ry

     total magnetization       =    -0.00 Bohr mag/cell
     absolute magnetization    =     0.00 Bohr mag/cell

     convergence has been achieved in  13 iterations

     Writing all to output data dir ./Pd_k_5.save/ :
     XML data file, charge density, pseudopotentials, collected wavefunctions
 
     init_run     :      0.58s CPU      0.63s WALL (       1 calls)
     electrons    :      9.49s CPU     11.04s WALL (       1 calls)

     Called by init_run:
     wfcinit      :      0.12s CPU      0.13s WALL (       1 calls)
     potinit      :      0.27s CPU      0.30s WALL (       1 calls)
     hinit0       :      0.04s CPU      0.05s WALL (       1 calls)

     Called by electrons:
     c_bands      :      5.28s CPU      6.35s WALL (      14 calls)
     sum_band     :      0.92s CPU      1.06s WALL (      14 calls)
     v_of_rho     :      0.12s CPU      0.15s WALL (      14 calls)
     newd         :      0.13s CPU      0.14s WALL (      14 calls)
     PAW_pot      :      2.78s CPU      3.03s WALL (      14 calls)
     mix_rho      :      0.05s CPU      0.07s WALL (      14 calls)
     energy_dftd3 :      0.30s CPU      0.30s WALL (       1 calls)

     Called by c_bands:
     init_us_2    :      0.04s CPU      0.04s WALL (     551 calls)
     init_us_2:cp :      0.04s CPU      0.04s WALL (     551 calls)
     cegterg      :      3.66s CPU      4.16s WALL (     266 calls)

     Called by *egterg:
     cdiaghg      :      0.81s CPU      1.11s WALL (     866 calls)
     h_psi        :      2.36s CPU      2.52s WALL (     904 calls)
     s_psi        :      0.06s CPU      0.06s WALL (     904 calls)
     g_psi        :      0.01s CPU      0.01s WALL (     619 calls)

     Called by h_psi:
     h_psi:calbec :      0.12s CPU      0.15s WALL (     904 calls)
     vloc_psi     :      2.17s CPU      2.29s WALL (     904 calls)
     add_vuspsi   :      0.07s CPU      0.07s WALL (     904 calls)

     General routines
     calbec       :      0.15s CPU      0.18s WALL (    1170 calls)
     fft          :      0.08s CPU      0.08s WALL (     346 calls)
     ffts         :      0.02s CPU      0.02s WALL (     268 calls)
     fftw         :      2.34s CPU      2.54s WALL (   40600 calls)
     interpolate  :      0.03s CPU      0.03s WALL (      28 calls)
 
     Parallel routines
 
     PWSCF        :     10.27s CPU     12.07s WALL

 
   This run was terminated on:   0:50:51   6Sep2025            

=------------------------------------------------------------------------------=
   JOB DONE.
=------------------------------------------------------------------------------=
