
     Program PWSCF v.7.3 starts on  6Sep2025 at  0:51:14 

     This program is part of the open-source Quantum ESPRESSO suite
     for quantum simulation of materials; please cite
         "P. Giannozzi et al., J. Phys.:Condens. Matter 21 395502 (2009);
         "P. Giannozzi et al., J. Phys.:Condens. Matter 29 465901 (2017);
         "P. Giannozzi et al., J. Chem. Phys. 152 154105 (2020);
          URL http://www.quantum-espresso.org", 
     in publications or presentations arising from this work. More details at
     http://www.quantum-espresso.org/quote

     Parallel version (MPI), running on    30 processors

     MPI processes distributed on     1 nodes
     222173 MiB available memory on the printing compute node when the environment starts
 
     Waiting for input...
     Reading input from standard input

     Current dimensions of program PWSCF are:
     Max number of different atomic species (ntypx) = 10
     Max number of k-points (npk) =  40000
     Max angular momentum in pseudopotentials (lmaxx) =  4
     file Pd.upf: wavefunction(s)  5S 4D renormalized

     IMPORTANT: XC functional enforced from input :
     Exchange-correlation= PBE
                           (   1   4   3   4   0   0   0)
     Any further DFT definition will be discarded
     Please, verify this is what you really want

     Message from routine setup:
     using ibrav=0 with symmetry is DISCOURAGED, use correct ibrav instead
 
     K-points division:     npool     =       2
     R & G space division:  proc/nbgrp/npool/nimage =      15
     Subspace diagonalization in iterative solution of the eigenvalue problem:
     a serial algorithm will be used

 
     Parallelization info
     --------------------
     sticks:   dense  smooth     PW     G-vecs:    dense   smooth      PW
     Min         107      53     16                 3258     1151     186
     Max         109      55     17                 3260     1152     189
     Sum        1617     805    241                48885    17269    2801
 
     Using Slab Decomposition
 

     Title: 
     Pd_k_7                                                                     


     bravais-lattice index     =            0
     lattice parameter (alat)  =       6.5025  a.u.
     unit-cell volume          =     274.9107 (a.u.)^3
     number of atoms/cell      =            4
     number of atomic types    =            1
     number of electrons       =        40.00
     number of Kohn-Sham states=           24
     kinetic-energy cutoff     =      60.0000  Ry
     charge density cutoff     =     480.0000  Ry
     scf convergence threshold =      6.4E-09
     mixing beta               =       0.5000
     number of iterations used =           10  local-TF  mixing
     Exchange-correlation= PBE
                           (   1   4   3   4   0   0   0)

     celldm(1)=   6.502548  celldm(2)=   0.000000  celldm(3)=   0.000000
     celldm(4)=   0.000000  celldm(5)=   0.000000  celldm(6)=   0.000000

     crystal axes: (cart. coord. in units of alat)
               a(1) = (   0.999955   0.000000   0.000000 )  
               a(2) = (   0.000000   0.999955   0.000000 )  
               a(3) = (   0.000000   0.000000   0.999955 )  

     reciprocal axes: (cart. coord. in units 2 pi/alat)
               b(1) = (  1.000045  0.000000  0.000000 )  
               b(2) = (  0.000000  1.000045  0.000000 )  
               b(3) = (  0.000000  0.000000  1.000045 )  


     PseudoPot. # 1 for Pd read from file:
     /tmpu/mdach_g/mdach/PP/Pd.upf
     MD5 check sum: e9d6f14fd83b79f8105499163af174c9
     Pseudo is Projector augmented-wave + core cor, Zval = 10.0
     Generated using "atomic" code by A. Dal Corso  v.5.0.2 svn rev. 9415
     Shape of augmentation charge: PSQ
     Using radial grid of 1235 points,  6 beta functions with: 
                l(1) =   0
                l(2) =   0
                l(3) =   1
                l(4) =   1
                l(5) =   2
                l(6) =   2
     Q(r) pseudized with 0 coefficients 


     atomic species   valence    mass     pseudopotential
     Pd               10.00   106.42000     Pd( 1.00)

     Starting magnetic structure 
     atomic species   magnetization
     Pd              0.200

      6 Sym. Ops. (no inversion) found



   Cartesian axes

     site n.     atom                  positions (alat units)
         1        Pd     tau(   1) = (  -0.0054534  -0.0054534  -0.0054534  )
         2        Pd     tau(   2) = (  -0.0054550   0.5513882   0.5513882  )
         3        Pd     tau(   3) = (   0.5513882  -0.0054550   0.5513882  )
         4        Pd     tau(   4) = (   0.5513882   0.5513882  -0.0054550  )

     --------------------------------------------
     DFT-D3 Dispersion Correction (3-body terms):
     --------------------------------------------
       Reference C6 values for interpolation: 

         atom   Coordination number   C6
         Pd         0.000          1217.01
         Pd         1.863           573.90
         Pd         5.710           531.75

       Values used:

         atom   Coordination number  R0_AB[au]  C6      C8
         Pd        11.468            3.168    531.75  48720.73
         Pd        11.468            3.168    531.75  48720.73
         Pd        11.468            3.168    531.75  48720.73
         Pd        11.468            3.168    531.75  48720.73

         Molecular C6 ( Ry / a.u.^6 ) =      8507.99


     number of k points=    44  Methfessel-Paxton smearing, width (Ry)=  0.0147
                       cart. coord. in units 2pi/alat
        k(    1) = (   0.0000000   0.0000000   0.0000000), wk =   0.0029155
        k(    2) = (   0.0000000   0.0000000   0.1428636), wk =   0.0174927
        k(    3) = (   0.0000000   0.0000000   0.2857272), wk =   0.0174927
        k(    4) = (   0.0000000   0.0000000   0.4285908), wk =   0.0174927
        k(    5) = (   0.0000000   0.1428636   0.1428636), wk =   0.0174927
        k(    6) = (   0.0000000   0.1428636   0.2857272), wk =   0.0349854
        k(    7) = (   0.0000000   0.1428636   0.4285908), wk =   0.0349854
        k(    8) = (   0.0000000   0.2857272   0.2857272), wk =   0.0174927
        k(    9) = (   0.0000000   0.2857272   0.4285908), wk =   0.0349854
        k(   10) = (   0.0000000   0.4285908   0.4285908), wk =   0.0174927
        k(   11) = (   0.1428636   0.1428636   0.1428636), wk =   0.0058309
        k(   12) = (   0.1428636   0.1428636   0.2857272), wk =   0.0174927
        k(   13) = (   0.1428636   0.1428636   0.4285908), wk =   0.0174927
        k(   14) = (   0.1428636   0.2857272   0.2857272), wk =   0.0174927
        k(   15) = (   0.1428636   0.2857272   0.4285908), wk =   0.0349854
        k(   16) = (   0.1428636   0.4285908   0.4285908), wk =   0.0174927
        k(   17) = (   0.2857272   0.2857272   0.2857272), wk =   0.0058309
        k(   18) = (   0.2857272   0.2857272   0.4285908), wk =   0.0174927
        k(   19) = (   0.2857272   0.4285908   0.4285908), wk =   0.0174927
        k(   20) = (   0.4285908   0.4285908   0.4285908), wk =   0.0058309
        k(   21) = (  -0.1428636   0.0000000   0.1428636), wk =   0.0174927
        k(   22) = (  -0.1428636   0.0000000   0.2857272), wk =   0.0349854
        k(   23) = (  -0.1428636   0.0000000   0.4285908), wk =   0.0349854
        k(   24) = (  -0.2857272   0.0000000   0.2857272), wk =   0.0174927
        k(   25) = (  -0.2857272   0.0000000   0.4285908), wk =   0.0349854
        k(   26) = (  -0.4285908   0.0000000   0.4285908), wk =   0.0174927
        k(   27) = (   0.1428636  -0.1428636   0.1428636), wk =   0.0174927
        k(   28) = (   0.1428636  -0.1428636   0.2857272), wk =   0.0349854
        k(   29) = (  -0.2857272   0.1428636   0.1428636), wk =   0.0174927
        k(   30) = (   0.1428636  -0.1428636   0.4285908), wk =   0.0349854
        k(   31) = (  -0.4285908   0.1428636   0.1428636), wk =   0.0174927
        k(   32) = (   0.2857272  -0.1428636   0.2857272), wk =   0.0174927
        k(   33) = (  -0.2857272   0.1428636   0.2857272), wk =   0.0349854
        k(   34) = (   0.2857272  -0.1428636   0.4285908), wk =   0.0349854
        k(   35) = (  -0.2857272   0.1428636   0.4285908), wk =   0.0349854
        k(   36) = (  -0.4285908   0.2857272   0.1428636), wk =   0.0349854
        k(   37) = (   0.4285908  -0.1428636   0.4285908), wk =   0.0174927
        k(   38) = (  -0.4285908   0.1428636   0.4285908), wk =   0.0349854
        k(   39) = (   0.2857272  -0.2857272   0.2857272), wk =   0.0174927
        k(   40) = (   0.2857272  -0.2857272   0.4285908), wk =   0.0349854
        k(   41) = (  -0.4285908   0.2857272   0.2857272), wk =   0.0174927
        k(   42) = (   0.4285908  -0.2857272   0.4285908), wk =   0.0174927
        k(   43) = (  -0.4285908   0.2857272   0.4285908), wk =   0.0349854
        k(   44) = (   0.4285908  -0.4285908   0.4285908), wk =   0.0174927

     Dense  grid:    48885 G-vectors     FFT dimensions: (  45,  45,  45)

     Smooth grid:    17269 G-vectors     FFT dimensions: (  36,  36,  36)

     Estimated max dynamical RAM per process >      13.36 MB

     Estimated total dynamical RAM >     370.96 MB
     Generating pointlists ...
     new r_m :   0.2585 (alat units)  1.6809 (a.u.) for type    1

     Initial potential from superposition of free atoms

     starting charge      39.9979, renormalised to      40.0000
     Starting wfcs are   36 atomic wfcs
     Checking if some PAW data can be deallocated... 

     total cpu time spent up to now is        1.1 secs

     Self-consistent Calculation

     iteration #  1     ecut=    60.00 Ry     beta= 0.50
     Davidson diagonalization with overlap
     ethr =  1.00E-02,  avg # of iterations =  4.3

     Threshold (ethr) on eigenvalues was too large:
     Diagonalizing with lowered threshold

     Davidson diagonalization with overlap
     ethr =  6.16E-04,  avg # of iterations =  2.7

     total cpu time spent up to now is        3.8 secs

     total energy              =   -1324.01034411 Ry
     estimated scf accuracy    <       0.27900096 Ry

     total magnetization       =     2.16 Bohr mag/cell
     absolute magnetization    =     2.16 Bohr mag/cell

     iteration #  2     ecut=    60.00 Ry     beta= 0.50
     Davidson diagonalization with overlap
     ethr =  6.98E-04,  avg # of iterations =  1.0

     total cpu time spent up to now is        5.0 secs

     total energy              =   -1324.02749914 Ry
     estimated scf accuracy    <       0.08745998 Ry

     total magnetization       =     1.65 Bohr mag/cell
     absolute magnetization    =     1.66 Bohr mag/cell

     iteration #  3     ecut=    60.00 Ry     beta= 0.50
     Davidson diagonalization with overlap
     ethr =  2.19E-04,  avg # of iterations =  2.1

     total cpu time spent up to now is        6.4 secs

     total energy              =   -1324.05734869 Ry
     estimated scf accuracy    <       0.01003872 Ry

     total magnetization       =     0.51 Bohr mag/cell
     absolute magnetization    =     0.60 Bohr mag/cell

     iteration #  4     ecut=    60.00 Ry     beta= 0.50
     Davidson diagonalization with overlap
     ethr =  2.51E-05,  avg # of iterations =  2.5

     total cpu time spent up to now is        7.8 secs

     total energy              =   -1324.05325821 Ry
     estimated scf accuracy    <       0.01143901 Ry

     total magnetization       =     0.53 Bohr mag/cell
     absolute magnetization    =     0.61 Bohr mag/cell

     iteration #  5     ecut=    60.00 Ry     beta= 0.50
     Davidson diagonalization with overlap
     ethr =  2.51E-05,  avg # of iterations =  2.5

     total cpu time spent up to now is        9.2 secs

     total energy              =   -1324.06037400 Ry
     estimated scf accuracy    <       0.00652948 Ry

     total magnetization       =    -0.10 Bohr mag/cell
     absolute magnetization    =     0.10 Bohr mag/cell

     iteration #  6     ecut=    60.00 Ry     beta= 0.50
     Davidson diagonalization with overlap
     ethr =  1.63E-05,  avg # of iterations =  2.0

     total cpu time spent up to now is       10.6 secs

     total energy              =   -1324.06190890 Ry
     estimated scf accuracy    <       0.00028918 Ry

     total magnetization       =     0.07 Bohr mag/cell
     absolute magnetization    =     0.11 Bohr mag/cell

     iteration #  7     ecut=    60.00 Ry     beta= 0.50
     Davidson diagonalization with overlap
     ethr =  7.23E-07,  avg # of iterations =  3.0

     total cpu time spent up to now is       12.5 secs

     total energy              =   -1324.06204999 Ry
     estimated scf accuracy    <       0.00034350 Ry

     total magnetization       =     0.06 Bohr mag/cell
     absolute magnetization    =     0.08 Bohr mag/cell

     iteration #  8     ecut=    60.00 Ry     beta= 0.50
     Davidson diagonalization with overlap
     ethr =  7.23E-07,  avg # of iterations =  1.0

     total cpu time spent up to now is       13.7 secs

     total energy              =   -1324.06206932 Ry
     estimated scf accuracy    <       0.00010398 Ry

     total magnetization       =     0.04 Bohr mag/cell
     absolute magnetization    =     0.06 Bohr mag/cell

     iteration #  9     ecut=    60.00 Ry     beta= 0.50
     Davidson diagonalization with overlap
     ethr =  2.60E-07,  avg # of iterations =  2.4

     total cpu time spent up to now is       15.4 secs

     total energy              =   -1324.06211037 Ry
     estimated scf accuracy    <       0.00000884 Ry

     total magnetization       =     0.00 Bohr mag/cell
     absolute magnetization    =     0.01 Bohr mag/cell

     iteration # 10     ecut=    60.00 Ry     beta= 0.50
     Davidson diagonalization with overlap
     ethr =  2.21E-08,  avg # of iterations =  2.5

     total cpu time spent up to now is       16.9 secs

     total energy              =   -1324.06211292 Ry
     estimated scf accuracy    <       0.00000139 Ry

     total magnetization       =    -0.00 Bohr mag/cell
     absolute magnetization    =     0.00 Bohr mag/cell

     iteration # 11     ecut=    60.00 Ry     beta= 0.50
     Davidson diagonalization with overlap
     ethr =  3.47E-09,  avg # of iterations =  1.1

     total cpu time spent up to now is       18.1 secs

     total energy              =   -1324.06211284 Ry
     estimated scf accuracy    <       0.00000055 Ry

     total magnetization       =     0.00 Bohr mag/cell
     absolute magnetization    =     0.00 Bohr mag/cell

     iteration # 12     ecut=    60.00 Ry     beta= 0.50
     Davidson diagonalization with overlap
     ethr =  1.38E-09,  avg # of iterations =  2.5

     total cpu time spent up to now is       19.7 secs

     total energy              =   -1324.06211306 Ry
     estimated scf accuracy    <       0.00000016 Ry

     total magnetization       =    -0.00 Bohr mag/cell
     absolute magnetization    =     0.00 Bohr mag/cell

     iteration # 13     ecut=    60.00 Ry     beta= 0.50
     Davidson diagonalization with overlap
     ethr =  3.98E-10,  avg # of iterations =  1.2

     total cpu time spent up to now is       20.9 secs

     total energy              =   -1324.06211303 Ry
     estimated scf accuracy    <       0.00000009 Ry

     total magnetization       =    -0.00 Bohr mag/cell
     absolute magnetization    =     0.00 Bohr mag/cell

     iteration # 14     ecut=    60.00 Ry     beta= 0.50
     Davidson diagonalization with overlap
     ethr =  2.13E-10,  avg # of iterations =  2.2

     total cpu time spent up to now is       22.6 secs

     total energy              =   -1324.06211305 Ry
     estimated scf accuracy    <       0.00000001 Ry

     total magnetization       =     0.00 Bohr mag/cell
     absolute magnetization    =     0.00 Bohr mag/cell

     iteration # 15     ecut=    60.00 Ry     beta= 0.50
     Davidson diagonalization with overlap
     ethr =  3.08E-11,  avg # of iterations =  1.8
 
     Magnetic moment per site  (integrated on atomic sphere of radius R)
     atom   1 (R=0.258)  charge=  7.1561  magn=  0.0000
     atom   2 (R=0.258)  charge=  7.1562  magn=  0.0000
     atom   3 (R=0.258)  charge=  7.1562  magn=  0.0000
     atom   4 (R=0.258)  charge=  7.1562  magn=  0.0000

     total cpu time spent up to now is       24.0 secs

     End of self-consistent calculation

 ------ SPIN UP ------------


          k = 0.0000 0.0000 0.0000 (  2109 PWs)   bands (ev):

    13.2567  13.5553  13.6714  13.6714  13.6714  14.2811  14.2811  18.2403
    18.2404  18.2404  20.6819  20.6819  23.4549  23.4549  23.4549  23.5679
    23.5679  23.5679  24.1950  24.1950  24.1950  27.8757  27.8757  27.9199

          k = 0.0000 0.0000 0.1429 (  2148 PWs)   bands (ev):

    13.4737  13.6928  13.9132  13.9132  13.9774  14.5291  14.5385  18.0496
    18.3821  18.3821  20.2032  20.7352  22.6803  22.8307  22.8307  22.8895
    23.3554  23.4274  23.4274  24.2828  24.2828  26.5892  29.1402  29.3210

          k = 0.0000 0.0000 0.2857 (  2148 PWs)   bands (ev):

    13.8690  14.3952  14.5477  14.5478  14.5902  15.2732  15.2790  17.5616
    18.7326  18.7326  19.0433  20.4505  21.2691  21.2827  21.7432  21.7432
    22.8597  22.8597  23.1024  24.1064  24.3125  24.3125  31.4640  31.7464

          k = 0.0000 0.0000 0.4286 (  2140 PWs)   bands (ev):

    14.3794  14.8451  15.2114  15.2114  15.4605  16.2467  16.3090  16.9286
    18.1209  18.8743  18.9870  18.9870  20.0845  21.0040  21.0040  21.2920
    22.1381  22.1827  22.1827  22.8565  24.3132  24.3132  33.7829  34.0102

          k = 0.0000 0.1429 0.1429 (  2161 PWs)   bands (ev):

    13.5826  13.9807  14.0653  14.1291  14.2990  14.7456  14.8213  18.0074
    18.3941  18.4504  20.0225  20.5292  21.9746  22.1635  22.2094  22.7281
    23.0313  23.3474  23.5069  23.5437  24.2509  27.8732  27.9933  30.2603

          k = 0.0000 0.1429 0.2857 (  2154 PWs)   bands (ev):

    13.9386  14.5714  14.7020  14.8023  14.8910  15.4242  15.5738  17.6226
    18.4430  18.6669  19.1036  20.2340  20.5877  21.1871  21.3529  21.8127
    22.3195  22.8891  22.9674  23.5596  24.1664  25.6460  30.0805  32.3716

          k = 0.0000 0.1429 0.4286 (  2154 PWs)   bands (ev):

    14.4103  15.0590  15.3776  15.4855  15.7217  16.3455  16.4344  16.9854
    17.7900  18.3685  18.9343  19.2371  20.0306  20.4170  20.9101  21.2607
    21.8302  22.1184  22.7709  23.3063  24.0956  24.2129  32.0613  33.9058

          k = 0.0000 0.2857 0.2857 (  2151 PWs)   bands (ev):

    14.2074  15.1179  15.1446  15.4057  15.5605  15.9322  16.2612  17.6222
    18.1280  18.3097  18.8876  19.0925  20.1393  20.5107  21.1154  21.2920
    22.1184  22.4618  22.7870  23.0657  23.8834  27.5357  27.5722  33.1035

          k = 0.0000 0.2857 0.4286 (  2146 PWs)   bands (ev):

    14.5891  15.5078  15.8953  16.0499  16.2845  16.6061  16.8074  17.0669
    17.4627  17.9873  18.6518  19.0984  19.3551  20.1478  20.3440  20.8095
    21.6852  22.0403  22.6947  23.6480  23.7756  25.4164  29.3790  31.2705

          k = 0.0000 0.4286 0.4286 (  2160 PWs)   bands (ev):

    14.8604  15.8423  16.1311  16.3030  16.8553  16.9960  17.1035  17.5155
    17.6550  17.7750  18.4488  18.8548  19.0003  19.6002  19.9398  19.9861
    21.4320  21.9307  21.9829  23.3266  25.2649  27.0266  27.1930  29.0688

          k = 0.1429 0.1429 0.1429 (  2148 PWs)   bands (ev):

    13.6624  14.2440  14.2492  14.2492  14.6621  15.0245  15.0245  18.0463
    18.3991  18.3991  20.1341  20.1341  21.3539  21.8120  21.8120  22.2161
    22.7496  22.7496  23.6493  23.6493  24.1799  28.7447  28.8817  28.8817

          k = 0.1429 0.1429 0.2857 (  2145 PWs)   bands (ev):

    13.9639  14.6936  14.7967  14.9517  15.2721  15.6945  15.7299  17.7840
    18.3149  18.4060  19.2947  20.0881  20.3881  20.6094  21.1306  21.4728
    22.2723  22.3252  23.4531  23.4841  24.1191  26.2907  30.5106  30.7313

          k = 0.1429 0.1429 0.4286 (  2155 PWs)   bands (ev):

    14.3565  15.2170  15.5326  15.6597  15.9123  16.3762  16.4274  17.1494
    17.7720  18.2531  18.8190  19.4743  19.8713  19.9727  20.8213  20.8367
    21.9727  22.5492  23.0269  23.1586  23.9907  24.3451  32.2315  32.3806

          k = 0.1429 0.2857 0.2857 (  2166 PWs)   bands (ev):

    14.1278  15.1245  15.1402  15.3826  15.9030  16.1734  16.3056  17.8738
    18.0705  18.2955  19.1151  19.1928  19.9586  20.3748  20.4903  20.9092
    21.9048  22.5165  23.1712  23.3275  24.0231  27.7008  27.8606  31.5573

          k = 0.1429 0.2857 0.4286 (  2151 PWs)   bands (ev):

    14.3820  15.4874  15.7901  15.8730  16.3290  16.4756  16.5906  17.4487
    18.0153  18.3865  18.7120  19.1177  19.5336  19.7921  20.1082  20.5258
    21.9207  22.6524  22.9406  23.5429  23.8488  25.3445  29.3955  30.9824

          k = 0.1429 0.4286 0.4286 (  2163 PWs)   bands (ev):

    14.5148  15.6535  15.7177  15.8532  16.7376  16.7994  16.8846  18.0236
    18.1900  18.2155  18.8058  18.8740  19.4203  19.7573  19.8339  19.9226
    21.7086  22.3090  22.4409  23.6022  25.0366  26.8299  27.0240  28.8501

          k = 0.2857 0.2857 0.2857 (  2172 PWs)   bands (ev):

    14.0584  15.2445  15.2445  15.4159  16.2653  16.5414  16.5414  18.0725
    18.0725  18.9515  19.0050  19.0050  19.8870  20.0772  20.1556  20.1556
    22.2895  22.2895  23.4765  23.4765  24.0338  28.1390  28.5419  28.5419

          k = 0.2857 0.2857 0.4286 (  2168 PWs)   bands (ev):

    14.1168  15.2200  15.4219  15.4842  16.4619  16.6401  16.8117  18.0665
    18.4359  18.6189  18.7339  19.2747  19.5418  19.9124  20.1974  20.4635
    22.7536  22.9623  23.3212  23.3652  23.9436  25.4896  28.9413  29.1020

          k = 0.2857 0.4286 0.4286 (  2172 PWs)   bands (ev):

    14.0416  15.0245  15.0310  15.1516  16.8525  17.0121  17.0516  18.0357
    18.0950  18.6265  18.6601  19.1169  19.9291  20.5309  20.5743  21.3951
    22.5779  22.9742  23.1233  23.9254  24.3930  26.2860  26.5300  27.8351

          k = 0.4286 0.4286 0.4286 (  2179 PWs)   bands (ev):

    13.8307  14.6207  14.6207  14.6331  17.1286  17.2465  17.2465  17.8996
    17.8996  18.5306  18.5306  18.6820  21.4158  21.5455  21.5455  23.2598
    23.2598  23.4148  23.5472  23.5472  23.9107  25.7145  25.9274  25.9274

          k =-0.1429 0.0000 0.1429 (  2161 PWs)   bands (ev):

    13.5826  13.9807  14.0653  14.1291  14.2990  14.7456  14.8213  18.0074
    18.3941  18.4504  20.0225  20.5292  21.9746  22.1635  22.2095  22.7281
    23.0313  23.3474  23.5069  23.5437  24.2509  27.8732  27.9933  30.2603

          k =-0.1429 0.0000 0.2857 (  2154 PWs)   bands (ev):

    13.9386  14.5714  14.7020  14.8023  14.8910  15.4242  15.5738  17.6226
    18.4430  18.6669  19.1036  20.2340  20.5877  21.1871  21.3529  21.8127
    22.3195  22.8891  22.9674  23.5596  24.1664  25.6460  30.0805  32.3716

          k =-0.1429 0.0000 0.4286 (  2154 PWs)   bands (ev):

    14.4103  15.0590  15.3776  15.4855  15.7217  16.3455  16.4344  16.9854
    17.7900  18.3685  18.9343  19.2371  20.0306  20.4170  20.9101  21.2607
    21.8302  22.1185  22.7710  23.3063  24.0956  24.2129  32.0613  33.9058

          k =-0.2857 0.0000 0.2857 (  2151 PWs)   bands (ev):

    14.2074  15.1179  15.1446  15.4057  15.5605  15.9322  16.2612  17.6222
    18.1280  18.3097  18.8876  19.0925  20.1393  20.5107  21.1154  21.2920
    22.1184  22.4618  22.7870  23.0657  23.8834  27.5357  27.5722  33.1035

          k =-0.2857 0.0000 0.4286 (  2146 PWs)   bands (ev):

    14.5891  15.5078  15.8953  16.0499  16.2845  16.6061  16.8074  17.0669
    17.4627  17.9873  18.6518  19.0984  19.3551  20.1478  20.3440  20.8095
    21.6852  22.0403  22.6947  23.6480  23.7756  25.4164  29.3790  31.2705

          k =-0.4286 0.0000 0.4286 (  2160 PWs)   bands (ev):

    14.8604  15.8423  16.1311  16.3030  16.8553  16.9960  17.1035  17.5155
    17.6550  17.7750  18.4489  18.8548  19.0003  19.6003  19.9398  19.9861
    21.4320  21.9307  21.9829  23.3266  25.2649  27.0266  27.1930  29.0688

          k = 0.1429-0.1429 0.1429 (  2148 PWs)   bands (ev):

    13.6624  14.2440  14.2492  14.2492  14.6621  15.0245  15.0245  18.0463
    18.3990  18.3991  20.1341  20.1341  21.3539  21.8120  21.8120  22.2161
    22.7496  22.7496  23.6493  23.6493  24.1798  28.7447  28.8817  28.8817

          k = 0.1429-0.1429 0.2857 (  2145 PWs)   bands (ev):

    13.9639  14.6936  14.7967  14.9517  15.2721  15.6945  15.7299  17.7840
    18.3150  18.4060  19.2947  20.0881  20.3881  20.6094  21.1306  21.4728
    22.2723  22.3252  23.4531  23.4841  24.1191  26.2907  30.5106  30.7313

          k =-0.2857 0.1429 0.1429 (  2145 PWs)   bands (ev):

    13.9639  14.6936  14.7967  14.9517  15.2721  15.6944  15.7299  17.7840
    18.3150  18.4060  19.2947  20.0881  20.3881  20.6094  21.1306  21.4728
    22.2722  22.3252  23.4531  23.4841  24.1191  26.2907  30.5106  30.7313

          k = 0.1429-0.1429 0.4286 (  2155 PWs)   bands (ev):

    14.3565  15.2170  15.5326  15.6597  15.9123  16.3762  16.4274  17.1494
    17.7720  18.2531  18.8190  19.4743  19.8713  19.9727  20.8213  20.8367
    21.9727  22.5492  23.0269  23.1586  23.9907  24.3451  32.2315  32.3806

          k =-0.4286 0.1429 0.1429 (  2155 PWs)   bands (ev):

    14.3565  15.2170  15.5326  15.6597  15.9123  16.3762  16.4274  17.1494
    17.7720  18.2531  18.8190  19.4743  19.8713  19.9727  20.8213  20.8367
    21.9727  22.5492  23.0269  23.1586  23.9907  24.3451  32.2315  32.3806

          k = 0.2857-0.1429 0.2857 (  2166 PWs)   bands (ev):

    14.1278  15.1244  15.1402  15.3826  15.9030  16.1734  16.3056  17.8738
    18.0705  18.2955  19.1151  19.1928  19.9586  20.3748  20.4903  20.9092
    21.9048  22.5165  23.1711  23.3275  24.0230  27.7008  27.8606  31.5573

          k =-0.2857 0.1429 0.2857 (  2166 PWs)   bands (ev):

    14.1278  15.1245  15.1402  15.3826  15.9030  16.1734  16.3056  17.8738
    18.0705  18.2955  19.1151  19.1928  19.9586  20.3748  20.4903  20.9092
    21.9048  22.5165  23.1712  23.3275  24.0230  27.7008  27.8607  31.5573

          k = 0.2857-0.1429 0.4286 (  2151 PWs)   bands (ev):

    14.3820  15.4875  15.7901  15.8730  16.3290  16.4756  16.5907  17.4487
    18.0153  18.3864  18.7120  19.1177  19.5336  19.7921  20.1082  20.5258
    21.9207  22.6524  22.9406  23.5429  23.8488  25.3445  29.3955  30.9824

          k =-0.2857 0.1429 0.4286 (  2151 PWs)   bands (ev):

    14.3820  15.4875  15.7901  15.8730  16.3290  16.4756  16.5906  17.4487
    18.0153  18.3865  18.7120  19.1177  19.5336  19.7921  20.1082  20.5258
    21.9207  22.6524  22.9406  23.5429  23.8488  25.3445  29.3955  30.9825

          k =-0.4286 0.2857 0.1429 (  2151 PWs)   bands (ev):

    14.3820  15.4875  15.7901  15.8730  16.3290  16.4756  16.5906  17.4487
    18.0153  18.3865  18.7120  19.1177  19.5336  19.7921  20.1082  20.5258
    21.9207  22.6524  22.9406  23.5429  23.8488  25.3445  29.3955  30.9825

          k = 0.4286-0.1429 0.4286 (  2163 PWs)   bands (ev):

    14.5148  15.6535  15.7177  15.8532  16.7376  16.7994  16.8846  18.0236
    18.1900  18.2154  18.8058  18.8740  19.4203  19.7573  19.8339  19.9226
    21.7086  22.3090  22.4409  23.6022  25.0366  26.8299  27.0240  28.8501

          k =-0.4286 0.1429 0.4286 (  2163 PWs)   bands (ev):

    14.5148  15.6535  15.7177  15.8532  16.7376  16.7994  16.8846  18.0236
    18.1900  18.2155  18.8058  18.8740  19.4203  19.7573  19.8339  19.9225
    21.7086  22.3090  22.4409  23.6022  25.0366  26.8299  27.0240  28.8501

          k = 0.2857-0.2857 0.2857 (  2172 PWs)   bands (ev):

    14.0584  15.2445  15.2445  15.4160  16.2654  16.5414  16.5414  18.0725
    18.0725  18.9515  19.0049  19.0049  19.8871  20.0772  20.1556  20.1556
    22.2895  22.2895  23.4765  23.4765  24.0338  28.1390  28.5419  28.5419

          k = 0.2857-0.2857 0.4286 (  2168 PWs)   bands (ev):

    14.1168  15.2200  15.4219  15.4842  16.4619  16.6400  16.8117  18.0665
    18.4359  18.6189  18.7339  19.2747  19.5418  19.9124  20.1974  20.4635
    22.7535  22.9623  23.3212  23.3652  23.9436  25.4896  28.9413  29.1020

          k =-0.4286 0.2857 0.2857 (  2168 PWs)   bands (ev):

    14.1168  15.2200  15.4219  15.4842  16.4619  16.6401  16.8117  18.0665
    18.4359  18.6189  18.7339  19.2747  19.5418  19.9124  20.1974  20.4635
    22.7535  22.9623  23.3212  23.3652  23.9436  25.4896  28.9413  29.1020

          k = 0.4286-0.2857 0.4286 (  2172 PWs)   bands (ev):

    14.0416  15.0245  15.0310  15.1516  16.8525  17.0120  17.0516  18.0357
    18.0950  18.6265  18.6601  19.1169  19.9291  20.5309  20.5742  21.3951
    22.5779  22.9742  23.1233  23.9254  24.3930  26.2860  26.5300  27.8351

          k =-0.4286 0.2857 0.4286 (  2172 PWs)   bands (ev):

    14.0416  15.0245  15.0310  15.1516  16.8525  17.0121  17.0516  18.0357
    18.0950  18.6265  18.6601  19.1169  19.9291  20.5309  20.5742  21.3951
    22.5779  22.9742  23.1233  23.9254  24.3930  26.2860  26.5300  27.8352

          k = 0.4286-0.4286 0.4286 (  2179 PWs)   bands (ev):

    13.8307  14.6207  14.6207  14.6331  17.1286  17.2465  17.2465  17.8996
    17.8996  18.5306  18.5306  18.6820  21.4158  21.5455  21.5455  23.2598
    23.2598  23.4148  23.5472  23.5472  23.9106  25.7145  25.9274  25.9274

 ------ SPIN DOWN ----------


          k = 0.0000 0.0000 0.0000 (  2109 PWs)   bands (ev):

    13.2567  13.5553  13.6714  13.6714  13.6714  14.2811  14.2811  18.2404
    18.2404  18.2404  20.6820  20.6820  23.4550  23.4550  23.4550  23.5679
    23.5679  23.5679  24.1950  24.1950  24.1950  27.8756  27.8756  27.9199

          k = 0.0000 0.0000 0.1429 (  2148 PWs)   bands (ev):

    13.4737  13.6928  13.9132  13.9132  13.9775  14.5291  14.5385  18.0497
    18.3821  18.3822  20.2033  20.7352  22.6803  22.8308  22.8308  22.8895
    23.3554  23.4274  23.4274  24.2828  24.2828  26.5892  29.1402  29.3210

          k = 0.0000 0.0000 0.2857 (  2148 PWs)   bands (ev):

    13.8691  14.3952  14.5478  14.5478  14.5902  15.2732  15.2790  17.5617
    18.7326  18.7326  19.0434  20.4506  21.2691  21.2828  21.7432  21.7432
    22.8597  22.8598  23.1025  24.1064  24.3125  24.3125  31.4640  31.7464

          k = 0.0000 0.0000 0.4286 (  2140 PWs)   bands (ev):

    14.3795  14.8451  15.2114  15.2115  15.4605  16.2468  16.3090  16.9286
    18.1209  18.8743  18.9870  18.9871  20.0845  21.0040  21.0040  21.2920
    22.1381  22.1827  22.1828  22.8566  24.3132  24.3132  33.7829  34.0102

          k = 0.0000 0.1429 0.1429 (  2161 PWs)   bands (ev):

    13.5827  13.9807  14.0653  14.1291  14.2990  14.7457  14.8214  18.0074
    18.3941  18.4504  20.0225  20.5292  21.9746  22.1636  22.2095  22.7281
    23.0313  23.3474  23.5069  23.5438  24.2509  27.8732  27.9933  30.2603

          k = 0.0000 0.1429 0.2857 (  2154 PWs)   bands (ev):

    13.9386  14.5714  14.7020  14.8023  14.8910  15.4242  15.5738  17.6226
    18.4430  18.6670  19.1036  20.2341  20.5877  21.1871  21.3530  21.8128
    22.3196  22.8892  22.9674  23.5596  24.1664  25.6460  30.0805  32.3716

          k = 0.0000 0.1429 0.4286 (  2154 PWs)   bands (ev):

    14.4104  15.0591  15.3776  15.4855  15.7217  16.3455  16.4345  16.9855
    17.7900  18.3685  18.9343  19.2371  20.0306  20.4170  20.9101  21.2607
    21.8302  22.1185  22.7710  23.3063  24.0956  24.2129  32.0613  33.9058

          k = 0.0000 0.2857 0.2857 (  2151 PWs)   bands (ev):

    14.2074  15.1179  15.1447  15.4057  15.5605  15.9323  16.2612  17.6222
    18.1280  18.3097  18.8876  19.0925  20.1393  20.5107  21.1154  21.2920
    22.1185  22.4619  22.7871  23.0657  23.8834  27.5357  27.5722  33.1035

          k = 0.0000 0.2857 0.4286 (  2146 PWs)   bands (ev):

    14.5891  15.5078  15.8953  16.0500  16.2845  16.6061  16.8075  17.0669
    17.4627  17.9873  18.6519  19.0984  19.3551  20.1478  20.3440  20.8095
    21.6852  22.0404  22.6947  23.6480  23.7756  25.4164  29.3790  31.2705

          k = 0.0000 0.4286 0.4286 (  2160 PWs)   bands (ev):

    14.8605  15.8423  16.1312  16.3031  16.8553  16.9961  17.1036  17.5155
    17.6550  17.7750  18.4489  18.8549  19.0003  19.6003  19.9399  19.9861
    21.4320  21.9308  21.9829  23.3266  25.2649  27.0266  27.1931  29.0688

          k = 0.1429 0.1429 0.1429 (  2148 PWs)   bands (ev):

    13.6624  14.2440  14.2492  14.2492  14.6621  15.0245  15.0245  18.0463
    18.3991  18.3991  20.1341  20.1341  21.3539  21.8120  21.8120  22.2162
    22.7496  22.7496  23.6493  23.6493  24.1799  28.7448  28.8817  28.8817

          k = 0.1429 0.1429 0.2857 (  2145 PWs)   bands (ev):

    13.9640  14.6936  14.7967  14.9517  15.2721  15.6945  15.7299  17.7840
    18.3150  18.4060  19.2948  20.0881  20.3881  20.6094  21.1306  21.4728
    22.2723  22.3252  23.4531  23.4841  24.1192  26.2907  30.5106  30.7313

          k = 0.1429 0.1429 0.4286 (  2155 PWs)   bands (ev):

    14.3565  15.2170  15.5327  15.6597  15.9123  16.3762  16.4275  17.1495
    17.7720  18.2531  18.8190  19.4743  19.8713  19.9727  20.8213  20.8367
    21.9727  22.5492  23.0269  23.1586  23.9907  24.3451  32.2315  32.3806

          k = 0.1429 0.2857 0.2857 (  2166 PWs)   bands (ev):

    14.1279  15.1245  15.1402  15.3826  15.9030  16.1734  16.3057  17.8738
    18.0706  18.2955  19.1151  19.1928  19.9586  20.3749  20.4904  20.9092
    21.9048  22.5165  23.1712  23.3275  24.0231  27.7008  27.8606  31.5573

          k = 0.1429 0.2857 0.4286 (  2151 PWs)   bands (ev):

    14.3821  15.4875  15.7902  15.8730  16.3290  16.4757  16.5907  17.4487
    18.0153  18.3865  18.7120  19.1177  19.5336  19.7921  20.1082  20.5258
    21.9207  22.6524  22.9406  23.5429  23.8489  25.3445  29.3955  30.9825

          k = 0.1429 0.4286 0.4286 (  2163 PWs)   bands (ev):

    14.5148  15.6535  15.7177  15.8532  16.7376  16.7994  16.8846  18.0236
    18.1900  18.2155  18.8058  18.8740  19.4204  19.7573  19.8339  19.9226
    21.7087  22.3090  22.4409  23.6022  25.0366  26.8299  27.0240  28.8501

          k = 0.2857 0.2857 0.2857 (  2172 PWs)   bands (ev):

    14.0584  15.2445  15.2445  15.4160  16.2654  16.5414  16.5414  18.0725
    18.0725  18.9515  19.0050  19.0050  19.8871  20.0772  20.1556  20.1556
    22.2895  22.2895  23.4766  23.4766  24.0338  28.1390  28.5419  28.5419

          k = 0.2857 0.2857 0.4286 (  2168 PWs)   bands (ev):

    14.1169  15.2200  15.4219  15.4842  16.4619  16.6401  16.8117  18.0665
    18.4359  18.6189  18.7339  19.2747  19.5418  19.9124  20.1974  20.4635
    22.7536  22.9623  23.3212  23.3652  23.9437  25.4896  28.9413  29.1020

          k = 0.2857 0.4286 0.4286 (  2172 PWs)   bands (ev):

    14.0416  15.0245  15.0310  15.1516  16.8525  17.0121  17.0516  18.0357
    18.0951  18.6265  18.6601  19.1169  19.9292  20.5309  20.5743  21.3951
    22.5779  22.9743  23.1233  23.9254  24.3930  26.2860  26.5300  27.8351

          k = 0.4286 0.4286 0.4286 (  2179 PWs)   bands (ev):

    13.8307  14.6208  14.6208  14.6331  17.1286  17.2466  17.2466  17.8997
    17.8997  18.5306  18.5306  18.6820  21.4159  21.5455  21.5455  23.2598
    23.2598  23.4148  23.5472  23.5472  23.9107  25.7145  25.9274  25.9274

          k =-0.1429 0.0000 0.1429 (  2161 PWs)   bands (ev):

    13.5827  13.9807  14.0653  14.1291  14.2990  14.7457  14.8214  18.0074
    18.3941  18.4505  20.0225  20.5292  21.9746  22.1636  22.2095  22.7281
    23.0313  23.3474  23.5069  23.5438  24.2509  27.8732  27.9933  30.2603

          k =-0.1429 0.0000 0.2857 (  2154 PWs)   bands (ev):

    13.9386  14.5714  14.7020  14.8024  14.8910  15.4242  15.5738  17.6226
    18.4430  18.6669  19.1036  20.2340  20.5878  21.1871  21.3529  21.8128
    22.3195  22.8892  22.9674  23.5597  24.1664  25.6460  30.0805  32.3716

          k =-0.1429 0.0000 0.4286 (  2154 PWs)   bands (ev):

    14.4104  15.0591  15.3776  15.4855  15.7217  16.3455  16.4345  16.9855
    17.7900  18.3685  18.9343  19.2371  20.0306  20.4170  20.9101  21.2607
    21.8302  22.1185  22.7710  23.3063  24.0956  24.2129  32.0613  33.9058

          k =-0.2857 0.0000 0.2857 (  2151 PWs)   bands (ev):

    14.2074  15.1179  15.1447  15.4057  15.5605  15.9323  16.2612  17.6222
    18.1280  18.3097  18.8876  19.0925  20.1394  20.5107  21.1154  21.2920
    22.1184  22.4619  22.7871  23.0657  23.8834  27.5357  27.5722  33.1035

          k =-0.2857 0.0000 0.4286 (  2146 PWs)   bands (ev):

    14.5891  15.5078  15.8953  16.0500  16.2845  16.6061  16.8075  17.0669
    17.4627  17.9873  18.6518  19.0984  19.3551  20.1478  20.3440  20.8095
    21.6852  22.0404  22.6947  23.6480  23.7756  25.4164  29.3790  31.2705

          k =-0.4286 0.0000 0.4286 (  2160 PWs)   bands (ev):

    14.8605  15.8423  16.1311  16.3031  16.8553  16.9961  17.1036  17.5155
    17.6550  17.7750  18.4489  18.8548  19.0003  19.6003  19.9399  19.9861
    21.4320  21.9308  21.9829  23.3266  25.2649  27.0266  27.1931  29.0688

          k = 0.1429-0.1429 0.1429 (  2148 PWs)   bands (ev):

    13.6624  14.2440  14.2492  14.2492  14.6621  15.0245  15.0246  18.0463
    18.3991  18.3991  20.1341  20.1341  21.3539  21.8120  21.8120  22.2162
    22.7496  22.7496  23.6493  23.6493  24.1799  28.7448  28.8817  28.8818

          k = 0.1429-0.1429 0.2857 (  2145 PWs)   bands (ev):

    13.9640  14.6936  14.7967  14.9517  15.2721  15.6945  15.7299  17.7840
    18.3150  18.4060  19.2948  20.0881  20.3881  20.6094  21.1306  21.4728
    22.2723  22.3252  23.4531  23.4841  24.1191  26.2907  30.5106  30.7313

          k =-0.2857 0.1429 0.1429 (  2145 PWs)   bands (ev):

    13.9640  14.6936  14.7967  14.9517  15.2721  15.6945  15.7299  17.7840
    18.3150  18.4060  19.2947  20.0881  20.3881  20.6094  21.1306  21.4728
    22.2722  22.3252  23.4531  23.4841  24.1192  26.2907  30.5106  30.7313

          k = 0.1429-0.1429 0.4286 (  2155 PWs)   bands (ev):

    14.3565  15.2171  15.5327  15.6597  15.9123  16.3762  16.4275  17.1495
    17.7720  18.2531  18.8190  19.4743  19.8713  19.9727  20.8213  20.8367
    21.9727  22.5492  23.0269  23.1586  23.9907  24.3451  32.2315  32.3806

          k =-0.4286 0.1429 0.1429 (  2155 PWs)   bands (ev):

    14.3565  15.2170  15.5327  15.6597  15.9123  16.3762  16.4275  17.1495
    17.7720  18.2531  18.8190  19.4743  19.8713  19.9727  20.8213  20.8367
    21.9727  22.5492  23.0269  23.1586  23.9907  24.3451  32.2315  32.3806

          k = 0.2857-0.1429 0.2857 (  2166 PWs)   bands (ev):

    14.1279  15.1245  15.1402  15.3826  15.9030  16.1734  16.3057  17.8738
    18.0706  18.2955  19.1151  19.1928  19.9586  20.3749  20.4903  20.9092
    21.9048  22.5165  23.1712  23.3275  24.0231  27.7008  27.8607  31.5573

          k =-0.2857 0.1429 0.2857 (  2166 PWs)   bands (ev):

    14.1279  15.1245  15.1402  15.3826  15.9030  16.1734  16.3057  17.8738
    18.0706  18.2955  19.1151  19.1928  19.9586  20.3748  20.4903  20.9092
    21.9048  22.5165  23.1712  23.3275  24.0231  27.7008  27.8607  31.5573

          k = 0.2857-0.1429 0.4286 (  2151 PWs)   bands (ev):

    14.3821  15.4875  15.7902  15.8731  16.3290  16.4757  16.5907  17.4487
    18.0153  18.3865  18.7120  19.1177  19.5336  19.7921  20.1082  20.5258
    21.9207  22.6524  22.9406  23.5429  23.8489  25.3445  29.3955  30.9825

          k =-0.2857 0.1429 0.4286 (  2151 PWs)   bands (ev):

    14.3821  15.4875  15.7902  15.8730  16.3290  16.4757  16.5907  17.4487
    18.0153  18.3865  18.7120  19.1177  19.5336  19.7921  20.1082  20.5258
    21.9207  22.6524  22.9406  23.5429  23.8489  25.3445  29.3955  30.9825

          k =-0.4286 0.2857 0.1429 (  2151 PWs)   bands (ev):

    14.3821  15.4875  15.7902  15.8730  16.3290  16.4757  16.5907  17.4487
    18.0153  18.3865  18.7120  19.1177  19.5336  19.7921  20.1082  20.5258
    21.9207  22.6524  22.9406  23.5429  23.8489  25.3445  29.3955  30.9825

          k = 0.4286-0.1429 0.4286 (  2163 PWs)   bands (ev):

    14.5148  15.6535  15.7177  15.8532  16.7376  16.7994  16.8846  18.0236
    18.1900  18.2155  18.8058  18.8740  19.4204  19.7573  19.8339  19.9226
    21.7087  22.3090  22.4409  23.6022  25.0366  26.8299  27.0240  28.8501

          k =-0.4286 0.1429 0.4286 (  2163 PWs)   bands (ev):

    14.5148  15.6535  15.7177  15.8532  16.7376  16.7994  16.8846  18.0236
    18.1900  18.2155  18.8058  18.8741  19.4204  19.7573  19.8339  19.9226
    21.7086  22.3090  22.4409  23.6022  25.0366  26.8299  27.0240  28.8501

          k = 0.2857-0.2857 0.2857 (  2172 PWs)   bands (ev):

    14.0584  15.2445  15.2445  15.4160  16.2654  16.5414  16.5415  18.0725
    18.0725  18.9515  19.0050  19.0050  19.8871  20.0772  20.1556  20.1556
    22.2895  22.2895  23.4766  23.4766  24.0338  28.1390  28.5419  28.5419

          k = 0.2857-0.2857 0.4286 (  2168 PWs)   bands (ev):

    14.1169  15.2200  15.4219  15.4842  16.4620  16.6401  16.8117  18.0665
    18.4359  18.6190  18.7340  19.2747  19.5418  19.9124  20.1974  20.4635
    22.7536  22.9623  23.3212  23.3652  23.9436  25.4896  28.9413  29.1020

          k =-0.4286 0.2857 0.2857 (  2168 PWs)   bands (ev):

    14.1169  15.2200  15.4219  15.4842  16.4619  16.6401  16.8117  18.0665
    18.4359  18.6189  18.7340  19.2747  19.5418  19.9124  20.1974  20.4635
    22.7536  22.9623  23.3212  23.3652  23.9436  25.4896  28.9413  29.1020

          k = 0.4286-0.2857 0.4286 (  2172 PWs)   bands (ev):

    14.0416  15.0246  15.0310  15.1516  16.8525  17.0121  17.0516  18.0357
    18.0950  18.6265  18.6601  19.1169  19.9291  20.5309  20.5743  21.3951
    22.5779  22.9743  23.1233  23.9254  24.3930  26.2860  26.5300  27.8351

          k =-0.4286 0.2857 0.4286 (  2172 PWs)   bands (ev):

    14.0416  15.0245  15.0310  15.1516  16.8525  17.0121  17.0516  18.0357
    18.0950  18.6265  18.6601  19.1169  19.9291  20.5309  20.5743  21.3951
    22.5779  22.9743  23.1233  23.9254  24.3930  26.2860  26.5300  27.8352

          k = 0.4286-0.4286 0.4286 (  2179 PWs)   bands (ev):

    13.8307  14.6208  14.6208  14.6331  17.1286  17.2465  17.2466  17.8997
    17.8997  18.5306  18.5306  18.6820  21.4158  21.5455  21.5455  23.2598
    23.2598  23.4148  23.5472  23.5472  23.9107  25.7145  25.9274  25.9274

     the Fermi energy is    23.8037 ev

!    total energy              =   -1324.06211304 Ry
     total all-electron energy =    -40367.859078 Ry
     estimated scf accuracy    <          2.3E-09 Ry
     smearing contrib. (-TS)   =       0.00078866 Ry
     internal energy E=F+TS    =   -1324.06290170 Ry

     The total energy is F=E-TS. E is the sum of the following terms:
     one-electron contribution =      82.85196894 Ry
     hartree contribution      =      30.30395898 Ry
     xc contribution           =    -132.07294617 Ry
     ewald contribution        =    -276.84078315 Ry
     DFT-D3 Dispersion         =      -0.70720743 Ry
     one-center paw contrib.   =   -1027.59789287 Ry

     total magnetization       =     0.00 Bohr mag/cell
     absolute magnetization    =     0.00 Bohr mag/cell

     convergence has been achieved in  15 iterations

     Writing all to output data dir ./Pd_k_7.save/ :
     XML data file, charge density, pseudopotentials, collected wavefunctions
 
     init_run     :      0.45s CPU      0.82s WALL (       1 calls)
     electrons    :     18.86s CPU     22.92s WALL (       1 calls)

     Called by init_run:
     wfcinit      :      0.24s CPU      0.36s WALL (       1 calls)
     potinit      :      0.13s CPU      0.30s WALL (       1 calls)
     hinit0       :      0.04s CPU      0.08s WALL (       1 calls)

     Called by electrons:
     c_bands      :     12.44s CPU     15.73s WALL (      16 calls)
     sum_band     :      2.23s CPU      2.58s WALL (      16 calls)
     v_of_rho     :      0.16s CPU      0.19s WALL (      16 calls)
     newd         :      0.18s CPU      0.18s WALL (      16 calls)
     PAW_pot      :      3.40s CPU      3.84s WALL (      16 calls)
     mix_rho      :      0.06s CPU      0.07s WALL (      16 calls)
     energy_dftd3 :      0.36s CPU      0.36s WALL (       1 calls)

     Called by c_bands:
     init_us_2    :      0.11s CPU      0.13s WALL (    1452 calls)
     init_us_2:cp :      0.10s CPU      0.13s WALL (    1452 calls)
     cegterg      :      8.48s CPU      9.93s WALL (     704 calls)

     Called by *egterg:
     cdiaghg      :      2.03s CPU      2.82s WALL (    2210 calls)
     h_psi        :      5.72s CPU      6.37s WALL (    2298 calls)
     s_psi        :      0.16s CPU      0.18s WALL (    2298 calls)
     g_psi        :      0.03s CPU      0.03s WALL (    1550 calls)

     Called by h_psi:
     h_psi:calbec :      0.31s CPU      0.36s WALL (    2298 calls)
     vloc_psi     :      5.21s CPU      5.77s WALL (    2298 calls)
     add_vuspsi   :      0.17s CPU      0.20s WALL (    2298 calls)

     General routines
     calbec       :      0.41s CPU      0.49s WALL (    3002 calls)
     fft          :      0.12s CPU      0.16s WALL (     396 calls)
     ffts         :      0.05s CPU      0.06s WALL (     310 calls)
     fftw         :      5.78s CPU      6.49s WALL (  105302 calls)
     interpolate  :      0.01s CPU      0.03s WALL (      32 calls)
 
     Parallel routines
 
     PWSCF        :     19.50s CPU     24.32s WALL

 
   This run was terminated on:   0:51:38   6Sep2025            

=------------------------------------------------------------------------------=
   JOB DONE.
=------------------------------------------------------------------------------=
