
     Program PWSCF v.7.3 starts on  6Sep2025 at  2:12:51 

     This program is part of the open-source Quantum ESPRESSO suite
     for quantum simulation of materials; please cite
         "P. Giannozzi et al., J. Phys.:Condens. Matter 21 395502 (2009);
         "P. Giannozzi et al., J. Phys.:Condens. Matter 29 465901 (2017);
         "P. Giannozzi et al., J. Chem. Phys. 152 154105 (2020);
          URL http://www.quantum-espresso.org", 
     in publications or presentations arising from this work. More details at
     http://www.quantum-espresso.org/quote

     Parallel version (MPI), running on    30 processors

     MPI processes distributed on     1 nodes
     229139 MiB available memory on the printing compute node when the environment starts
 
     Waiting for input...
     Reading input from standard input

     Current dimensions of program PWSCF are:
     Max number of different atomic species (ntypx) = 10
     Max number of k-points (npk) =  40000
     Max angular momentum in pseudopotentials (lmaxx) =  4
     file Pd.upf: wavefunction(s)  5S 4D renormalized

     IMPORTANT: XC functional enforced from input :
     Exchange-correlation= PBE
                           (   1   4   3   4   0   0   0)
     Any further DFT definition will be discarded
     Please, verify this is what you really want

     Message from routine setup:
     using ibrav=0 with symmetry is DISCOURAGED, use correct ibrav instead
 
     K-points division:     npool     =       2
     R & G space division:  proc/nbgrp/npool/nimage =      15
     Subspace diagonalization in iterative solution of the eigenvalue problem:
     a serial algorithm will be used

 
     Parallelization info
     --------------------
     sticks:   dense  smooth     PW     G-vecs:    dense   smooth      PW
     Min         107      53     16                 3258     1151     196
     Max         109      55     17                 3260     1152     201
     Sum        1617     805    241                48885    17269    2945
 
     Using Slab Decomposition
 

     Title: 
     Pd_k_24                                                                    


     bravais-lattice index     =            0
     lattice parameter (alat)  =       6.5025  a.u.
     unit-cell volume          =     274.9107 (a.u.)^3
     number of atoms/cell      =            4
     number of atomic types    =            1
     number of electrons       =        40.00
     number of Kohn-Sham states=           24
     kinetic-energy cutoff     =      60.0000  Ry
     charge density cutoff     =     480.0000  Ry
     scf convergence threshold =      6.4E-09
     mixing beta               =       0.5000
     number of iterations used =           10  local-TF  mixing
     Exchange-correlation= PBE
                           (   1   4   3   4   0   0   0)

     celldm(1)=   6.502548  celldm(2)=   0.000000  celldm(3)=   0.000000
     celldm(4)=   0.000000  celldm(5)=   0.000000  celldm(6)=   0.000000

     crystal axes: (cart. coord. in units of alat)
               a(1) = (   0.999955   0.000000   0.000000 )  
               a(2) = (   0.000000   0.999955   0.000000 )  
               a(3) = (   0.000000   0.000000   0.999955 )  

     reciprocal axes: (cart. coord. in units 2 pi/alat)
               b(1) = (  1.000045  0.000000  0.000000 )  
               b(2) = (  0.000000  1.000045  0.000000 )  
               b(3) = (  0.000000  0.000000  1.000045 )  


     PseudoPot. # 1 for Pd read from file:
     /tmpu/mdach_g/mdach/PP/Pd.upf
     MD5 check sum: e9d6f14fd83b79f8105499163af174c9
     Pseudo is Projector augmented-wave + core cor, Zval = 10.0
     Generated using "atomic" code by A. Dal Corso  v.5.0.2 svn rev. 9415
     Shape of augmentation charge: PSQ
     Using radial grid of 1235 points,  6 beta functions with: 
                l(1) =   0
                l(2) =   0
                l(3) =   1
                l(4) =   1
                l(5) =   2
                l(6) =   2
     Q(r) pseudized with 0 coefficients 


     atomic species   valence    mass     pseudopotential
     Pd               10.00   106.42000     Pd( 1.00)

     Starting magnetic structure 
     atomic species   magnetization
     Pd              0.200

      6 Sym. Ops. (no inversion) found



   Cartesian axes

     site n.     atom                  positions (alat units)
         1        Pd     tau(   1) = (  -0.0054534  -0.0054534  -0.0054534  )
         2        Pd     tau(   2) = (  -0.0054550   0.5513882   0.5513882  )
         3        Pd     tau(   3) = (   0.5513882  -0.0054550   0.5513882  )
         4        Pd     tau(   4) = (   0.5513882   0.5513882  -0.0054550  )

     --------------------------------------------
     DFT-D3 Dispersion Correction (3-body terms):
     --------------------------------------------
       Reference C6 values for interpolation: 

         atom   Coordination number   C6
         Pd         0.000          1217.01
         Pd         1.863           573.90
         Pd         5.710           531.75

       Values used:

         atom   Coordination number  R0_AB[au]  C6      C8
         Pd        11.468            3.168    531.75  48720.73
         Pd        11.468            3.168    531.75  48720.73
         Pd        11.468            3.168    531.75  48720.73
         Pd        11.468            3.168    531.75  48720.73

         Molecular C6 ( Ry / a.u.^6 ) =      8507.99


     number of k points=  1313  Methfessel-Paxton smearing, width (Ry)=  0.0147

     Number of k-points >= 100: set verbosity='high' to print them.

     Dense  grid:    48885 G-vectors     FFT dimensions: (  45,  45,  45)

     Smooth grid:    17269 G-vectors     FFT dimensions: (  36,  36,  36)

     Estimated max dynamical RAM per process >      79.82 MB

     Estimated total dynamical RAM >       2.31 GB
     Generating pointlists ...
     new r_m :   0.2585 (alat units)  1.6809 (a.u.) for type    1

     Initial potential from superposition of free atoms

     starting charge      39.9979, renormalised to      40.0000
     Starting wfcs are   36 atomic wfcs
     Checking if some PAW data can be deallocated... 

     total cpu time spent up to now is       13.8 secs

     Self-consistent Calculation

     iteration #  1     ecut=    60.00 Ry     beta= 0.50
     Davidson diagonalization with overlap
     ethr =  1.00E-02,  avg # of iterations =  4.2

     Threshold (ethr) on eigenvalues was too large:
     Diagonalizing with lowered threshold

     Davidson diagonalization with overlap
     ethr =  6.13E-04,  avg # of iterations =  2.8

     total cpu time spent up to now is       95.6 secs

     total energy              =   -1324.00811617 Ry
     estimated scf accuracy    <       0.28014021 Ry

     total magnetization       =     2.18 Bohr mag/cell
     absolute magnetization    =     2.18 Bohr mag/cell

     iteration #  2     ecut=    60.00 Ry     beta= 0.50
     Davidson diagonalization with overlap
     ethr =  7.00E-04,  avg # of iterations =  1.1

     total cpu time spent up to now is      122.2 secs

     total energy              =   -1324.02945793 Ry
     estimated scf accuracy    <       0.08715922 Ry

     total magnetization       =     1.60 Bohr mag/cell
     absolute magnetization    =     1.61 Bohr mag/cell

     iteration #  3     ecut=    60.00 Ry     beta= 0.50
     Davidson diagonalization with overlap
     ethr =  2.18E-04,  avg # of iterations =  2.3

     total cpu time spent up to now is      160.0 secs

     total energy              =   -1324.05822505 Ry
     estimated scf accuracy    <       0.00946965 Ry

     total magnetization       =     0.55 Bohr mag/cell
     absolute magnetization    =     0.63 Bohr mag/cell

     iteration #  4     ecut=    60.00 Ry     beta= 0.50
     Davidson diagonalization with overlap
     ethr =  2.37E-05,  avg # of iterations =  2.8

     total cpu time spent up to now is      193.9 secs

     total energy              =   -1324.06247162 Ry
     estimated scf accuracy    <       0.00812758 Ry

     total magnetization       =     0.53 Bohr mag/cell
     absolute magnetization    =     0.61 Bohr mag/cell

     iteration #  5     ecut=    60.00 Ry     beta= 0.50
     Davidson diagonalization with overlap
     ethr =  2.03E-05,  avg # of iterations =  1.0

     total cpu time spent up to now is      220.7 secs

     total energy              =   -1324.06086361 Ry
     estimated scf accuracy    <       0.00648721 Ry

     total magnetization       =     0.32 Bohr mag/cell
     absolute magnetization    =     0.38 Bohr mag/cell

     iteration #  6     ecut=    60.00 Ry     beta= 0.50
     Davidson diagonalization with overlap
     ethr =  1.62E-05,  avg # of iterations =  1.5

     total cpu time spent up to now is      257.9 secs

     total energy              =   -1324.06218776 Ry
     estimated scf accuracy    <       0.00066698 Ry

     total magnetization       =     0.11 Bohr mag/cell
     absolute magnetization    =     0.13 Bohr mag/cell

     iteration #  7     ecut=    60.00 Ry     beta= 0.50
     Davidson diagonalization with overlap
     ethr =  1.67E-06,  avg # of iterations =  2.3

     total cpu time spent up to now is      290.2 secs

     total energy              =   -1324.06223797 Ry
     estimated scf accuracy    <       0.00043940 Ry

     total magnetization       =     0.09 Bohr mag/cell
     absolute magnetization    =     0.11 Bohr mag/cell

     iteration #  8     ecut=    60.00 Ry     beta= 0.50
     Davidson diagonalization with overlap
     ethr =  1.10E-06,  avg # of iterations =  1.0

     total cpu time spent up to now is      316.3 secs

     total energy              =   -1324.06224378 Ry
     estimated scf accuracy    <       0.00043406 Ry

     total magnetization       =     0.09 Bohr mag/cell
     absolute magnetization    =     0.11 Bohr mag/cell

     iteration #  9     ecut=    60.00 Ry     beta= 0.50
     Davidson diagonalization with overlap
     ethr =  1.09E-06,  avg # of iterations =  1.0

     total cpu time spent up to now is      343.6 secs

     total energy              =   -1324.06211263 Ry
     estimated scf accuracy    <       0.00043770 Ry

     total magnetization       =     0.09 Bohr mag/cell
     absolute magnetization    =     0.11 Bohr mag/cell

     iteration # 10     ecut=    60.00 Ry     beta= 0.50
     Davidson diagonalization with overlap
     ethr =  1.09E-06,  avg # of iterations =  2.0

     total cpu time spent up to now is      378.7 secs

     total energy              =   -1324.06220214 Ry
     estimated scf accuracy    <       0.00009565 Ry

     total magnetization       =     0.06 Bohr mag/cell
     absolute magnetization    =     0.07 Bohr mag/cell

     iteration # 11     ecut=    60.00 Ry     beta= 0.50
     Davidson diagonalization with overlap
     ethr =  2.39E-07,  avg # of iterations =  3.0

     total cpu time spent up to now is      431.3 secs

     total energy              =   -1324.06233023 Ry
     estimated scf accuracy    <       0.00022452 Ry

     total magnetization       =     0.02 Bohr mag/cell
     absolute magnetization    =     0.03 Bohr mag/cell

     iteration # 12     ecut=    60.00 Ry     beta= 0.50
     Davidson diagonalization with overlap
     ethr =  2.39E-07,  avg # of iterations =  1.0

     total cpu time spent up to now is      458.8 secs

     total energy              =   -1324.06228256 Ry
     estimated scf accuracy    <       0.00025482 Ry

     total magnetization       =     0.01 Bohr mag/cell
     absolute magnetization    =     0.02 Bohr mag/cell

     iteration # 13     ecut=    60.00 Ry     beta= 0.50
     Davidson diagonalization with overlap
     ethr =  2.39E-07,  avg # of iterations =  1.5

     total cpu time spent up to now is      487.1 secs

     total energy              =   -1324.06226825 Ry
     estimated scf accuracy    <       0.00020109 Ry

     total magnetization       =    -0.00 Bohr mag/cell
     absolute magnetization    =     0.01 Bohr mag/cell

     iteration # 14     ecut=    60.00 Ry     beta= 0.50
     Davidson diagonalization with overlap
     ethr =  2.39E-07,  avg # of iterations =  1.5

     total cpu time spent up to now is      517.1 secs

     total energy              =   -1324.06226971 Ry
     estimated scf accuracy    <       0.00012426 Ry

     total magnetization       =    -0.01 Bohr mag/cell
     absolute magnetization    =     0.01 Bohr mag/cell

     iteration # 15     ecut=    60.00 Ry     beta= 0.50
     Davidson diagonalization with overlap
     ethr =  2.39E-07,  avg # of iterations =  1.2

     total cpu time spent up to now is      544.9 secs

     total energy              =   -1324.06225389 Ry
     estimated scf accuracy    <       0.00012745 Ry

     total magnetization       =    -0.01 Bohr mag/cell
     absolute magnetization    =     0.01 Bohr mag/cell

     iteration # 16     ecut=    60.00 Ry     beta= 0.50
     Davidson diagonalization with overlap
     ethr =  2.39E-07,  avg # of iterations =  2.0

     total cpu time spent up to now is      582.4 secs

     total energy              =   -1324.06227032 Ry
     estimated scf accuracy    <       0.00001613 Ry

     total magnetization       =    -0.00 Bohr mag/cell
     absolute magnetization    =     0.00 Bohr mag/cell

     iteration # 17     ecut=    60.00 Ry     beta= 0.50
     Davidson diagonalization with overlap
     ethr =  4.03E-08,  avg # of iterations =  2.3

     total cpu time spent up to now is      620.0 secs

     total energy              =   -1324.06227114 Ry
     estimated scf accuracy    <       0.00001092 Ry

     total magnetization       =     0.00 Bohr mag/cell
     absolute magnetization    =     0.00 Bohr mag/cell

     iteration # 18     ecut=    60.00 Ry     beta= 0.50
     Davidson diagonalization with overlap
     ethr =  2.73E-08,  avg # of iterations =  1.5

     total cpu time spent up to now is      650.9 secs

     total energy              =   -1324.06227118 Ry
     estimated scf accuracy    <       0.00000184 Ry

     total magnetization       =     0.00 Bohr mag/cell
     absolute magnetization    =     0.00 Bohr mag/cell

     iteration # 19     ecut=    60.00 Ry     beta= 0.50
     Davidson diagonalization with overlap
     ethr =  4.60E-09,  avg # of iterations =  2.6

     total cpu time spent up to now is      696.6 secs

     total energy              =   -1324.06227194 Ry
     estimated scf accuracy    <       0.00000008 Ry

     total magnetization       =     0.00 Bohr mag/cell
     absolute magnetization    =     0.00 Bohr mag/cell

     iteration # 20     ecut=    60.00 Ry     beta= 0.50
     Davidson diagonalization with overlap
     ethr =  2.06E-10,  avg # of iterations =  2.3
 
     Magnetic moment per site  (integrated on atomic sphere of radius R)
     atom   1 (R=0.258)  charge=  7.1586  magn= -0.0000
     atom   2 (R=0.258)  charge=  7.1587  magn= -0.0000
     atom   3 (R=0.258)  charge=  7.1587  magn= -0.0000
     atom   4 (R=0.258)  charge=  7.1587  magn= -0.0000

     total cpu time spent up to now is      738.2 secs

     End of self-consistent calculation

     Number of k-points >= 100: set verbosity='high' to print the bands.

     the Fermi energy is    23.8689 ev

!    total energy              =   -1324.06227196 Ry
     total all-electron energy =    -40367.859237 Ry
     estimated scf accuracy    <          1.7E-09 Ry
     smearing contrib. (-TS)   =      -0.00002667 Ry
     internal energy E=F+TS    =   -1324.06224529 Ry

     The total energy is F=E-TS. E is the sum of the following terms:
     one-electron contribution =      82.83877900 Ry
     hartree contribution      =      30.32952978 Ry
     xc contribution           =    -132.08250802 Ry
     ewald contribution        =    -276.84078315 Ry
     DFT-D3 Dispersion         =      -0.70720743 Ry
     one-center paw contrib.   =   -1027.60005546 Ry

     total magnetization       =    -0.00 Bohr mag/cell
     absolute magnetization    =     0.00 Bohr mag/cell

     convergence has been achieved in  20 iterations

     Writing all to output data dir ./Pd_k_24.save/ :
     XML data file, charge density, pseudopotentials, collected wavefunctions
 
     init_run     :     12.87s CPU     13.58s WALL (       1 calls)
     electrons    :    474.57s CPU    724.41s WALL (       1 calls)

     Called by init_run:
     wfcinit      :     12.41s CPU     13.09s WALL (       1 calls)
     potinit      :      0.29s CPU      0.31s WALL (       1 calls)
     hinit0       :      0.11s CPU      0.11s WALL (       1 calls)

     Called by electrons:
     c_bands      :    395.44s CPU    636.12s WALL (      21 calls)
     sum_band     :     73.93s CPU     82.61s WALL (      21 calls)
     v_of_rho     :      0.27s CPU      0.29s WALL (      21 calls)
     newd         :      0.17s CPU      0.18s WALL (      21 calls)
     PAW_pot      :      4.39s CPU      4.68s WALL (      21 calls)
     mix_rho      :      0.12s CPU      0.13s WALL (      21 calls)
     energy_dftd3 :      0.31s CPU      0.31s WALL (       1 calls)

     Called by c_bands:
     init_us_2    :      3.87s CPU      4.67s WALL (   56459 calls)
     init_us_2:cp :      3.69s CPU      4.54s WALL (   56459 calls)
     cegterg      :    347.44s CPU    470.13s WALL (   27573 calls)

     Called by *egterg:
     cdiaghg      :     71.05s CPU    113.36s WALL (   81766 calls)
     h_psi        :    241.58s CPU    311.83s WALL (   84392 calls)
     s_psi        :      5.64s CPU      7.70s WALL (   84392 calls)
     g_psi        :      0.88s CPU      1.08s WALL (   55506 calls)

     Called by h_psi:
     h_psi:calbec :     11.40s CPU     14.43s WALL (   84392 calls)
     vloc_psi     :    222.91s CPU    287.65s WALL (   84392 calls)
     add_vuspsi   :      5.92s CPU      7.99s WALL (   84392 calls)

     General routines
     calbec       :     16.62s CPU     20.02s WALL (  111965 calls)
     fft          :      0.23s CPU      0.24s WALL (     521 calls)
     ffts         :      0.11s CPU      0.12s WALL (     419 calls)
     fftw         :    259.75s CPU    322.85s WALL ( 3931782 calls)
     interpolate  :      0.01s CPU      0.02s WALL (      42 calls)
 
     Parallel routines
 
     PWSCF        :   8m 9.96s CPU  12m27.15s WALL

 
   This run was terminated on:   2:25:18   6Sep2025            

=------------------------------------------------------------------------------=
   JOB DONE.
=------------------------------------------------------------------------------=
