
     Program PWSCF v.7.3 starts on  6Sep2025 at  0:50:15 

     This program is part of the open-source Quantum ESPRESSO suite
     for quantum simulation of materials; please cite
         "P. Giannozzi et al., J. Phys.:Condens. Matter 21 395502 (2009);
         "P. Giannozzi et al., J. Phys.:Condens. Matter 29 465901 (2017);
         "P. Giannozzi et al., J. Chem. Phys. 152 154105 (2020);
          URL http://www.quantum-espresso.org", 
     in publications or presentations arising from this work. More details at
     http://www.quantum-espresso.org/quote

     Parallel version (MPI), running on    30 processors

     MPI processes distributed on     1 nodes
     222011 MiB available memory on the printing compute node when the environment starts
 
     Waiting for input...
     Reading input from standard input

     Current dimensions of program PWSCF are:
     Max number of different atomic species (ntypx) = 10
     Max number of k-points (npk) =  40000
     Max angular momentum in pseudopotentials (lmaxx) =  4
     file Pd.upf: wavefunction(s)  5S 4D renormalized

     IMPORTANT: XC functional enforced from input :
     Exchange-correlation= PBE
                           (   1   4   3   4   0   0   0)
     Any further DFT definition will be discarded
     Please, verify this is what you really want

     Message from routine setup:
     using ibrav=0 with symmetry is DISCOURAGED, use correct ibrav instead
 
     K-points division:     npool     =       2
     R & G space division:  proc/nbgrp/npool/nimage =      15
     Subspace diagonalization in iterative solution of the eigenvalue problem:
     a serial algorithm will be used

 
     Parallelization info
     --------------------
     sticks:   dense  smooth     PW     G-vecs:    dense   smooth      PW
     Min         107      53     15                 3258     1151     173
     Max         109      55     17                 3260     1152     174
     Sum        1617     805    233                48885    17269    2601
 
     Using Slab Decomposition
 

     Title: 
     Pd_k_3                                                                     


     bravais-lattice index     =            0
     lattice parameter (alat)  =       6.5025  a.u.
     unit-cell volume          =     274.9107 (a.u.)^3
     number of atoms/cell      =            4
     number of atomic types    =            1
     number of electrons       =        40.00
     number of Kohn-Sham states=           24
     kinetic-energy cutoff     =      60.0000  Ry
     charge density cutoff     =     480.0000  Ry
     scf convergence threshold =      6.4E-09
     mixing beta               =       0.5000
     number of iterations used =           10  local-TF  mixing
     Exchange-correlation= PBE
                           (   1   4   3   4   0   0   0)

     celldm(1)=   6.502548  celldm(2)=   0.000000  celldm(3)=   0.000000
     celldm(4)=   0.000000  celldm(5)=   0.000000  celldm(6)=   0.000000

     crystal axes: (cart. coord. in units of alat)
               a(1) = (   0.999955   0.000000   0.000000 )  
               a(2) = (   0.000000   0.999955   0.000000 )  
               a(3) = (   0.000000   0.000000   0.999955 )  

     reciprocal axes: (cart. coord. in units 2 pi/alat)
               b(1) = (  1.000045  0.000000  0.000000 )  
               b(2) = (  0.000000  1.000045  0.000000 )  
               b(3) = (  0.000000  0.000000  1.000045 )  


     PseudoPot. # 1 for Pd read from file:
     /tmpu/mdach_g/mdach/PP/Pd.upf
     MD5 check sum: e9d6f14fd83b79f8105499163af174c9
     Pseudo is Projector augmented-wave + core cor, Zval = 10.0
     Generated using "atomic" code by A. Dal Corso  v.5.0.2 svn rev. 9415
     Shape of augmentation charge: PSQ
     Using radial grid of 1235 points,  6 beta functions with: 
                l(1) =   0
                l(2) =   0
                l(3) =   1
                l(4) =   1
                l(5) =   2
                l(6) =   2
     Q(r) pseudized with 0 coefficients 


     atomic species   valence    mass     pseudopotential
     Pd               10.00   106.42000     Pd( 1.00)

     Starting magnetic structure 
     atomic species   magnetization
     Pd              0.200

      6 Sym. Ops. (no inversion) found



   Cartesian axes

     site n.     atom                  positions (alat units)
         1        Pd     tau(   1) = (  -0.0054534  -0.0054534  -0.0054534  )
         2        Pd     tau(   2) = (  -0.0054550   0.5513882   0.5513882  )
         3        Pd     tau(   3) = (   0.5513882  -0.0054550   0.5513882  )
         4        Pd     tau(   4) = (   0.5513882   0.5513882  -0.0054550  )

     --------------------------------------------
     DFT-D3 Dispersion Correction (3-body terms):
     --------------------------------------------
       Reference C6 values for interpolation: 

         atom   Coordination number   C6
         Pd         0.000          1217.01
         Pd         1.863           573.90
         Pd         5.710           531.75

       Values used:

         atom   Coordination number  R0_AB[au]  C6      C8
         Pd        11.468            3.168    531.75  48720.73
         Pd        11.468            3.168    531.75  48720.73
         Pd        11.468            3.168    531.75  48720.73
         Pd        11.468            3.168    531.75  48720.73

         Molecular C6 ( Ry / a.u.^6 ) =      8507.99


     number of k points=     6  Methfessel-Paxton smearing, width (Ry)=  0.0147
                       cart. coord. in units 2pi/alat
        k(    1) = (   0.0000000   0.0000000   0.0000000), wk =   0.0370370
        k(    2) = (   0.0000000   0.0000000   0.3333484), wk =   0.2222222
        k(    3) = (   0.0000000   0.3333484   0.3333484), wk =   0.2222222
        k(    4) = (   0.3333484   0.3333484   0.3333484), wk =   0.0740741
        k(    5) = (  -0.3333484   0.0000000   0.3333484), wk =   0.2222222
        k(    6) = (   0.3333484  -0.3333484   0.3333484), wk =   0.2222222

     Dense  grid:    48885 G-vectors     FFT dimensions: (  45,  45,  45)

     Smooth grid:    17269 G-vectors     FFT dimensions: (  36,  36,  36)

     Estimated max dynamical RAM per process >      11.37 MB

     Estimated total dynamical RAM >     311.26 MB
     Generating pointlists ...
     new r_m :   0.2585 (alat units)  1.6809 (a.u.) for type    1

     Initial potential from superposition of free atoms

     starting charge      39.9979, renormalised to      40.0000
     Starting wfcs are   36 atomic wfcs
     Checking if some PAW data can be deallocated... 

     total cpu time spent up to now is        0.6 secs

     Self-consistent Calculation

     iteration #  1     ecut=    60.00 Ry     beta= 0.50
     Davidson diagonalization with overlap
     ethr =  1.00E-02,  avg # of iterations =  3.7

     Threshold (ethr) on eigenvalues was too large:
     Diagonalizing with lowered threshold

     Davidson diagonalization with overlap
     ethr =  6.07E-04,  avg # of iterations =  2.6

     total cpu time spent up to now is        1.7 secs

     total energy              =   -1324.01514423 Ry
     estimated scf accuracy    <       0.27947683 Ry

     total magnetization       =     2.43 Bohr mag/cell
     absolute magnetization    =     2.43 Bohr mag/cell

     iteration #  2     ecut=    60.00 Ry     beta= 0.50
     Davidson diagonalization with overlap
     ethr =  6.99E-04,  avg # of iterations =  1.0

     total cpu time spent up to now is        1.9 secs

     total energy              =   -1324.02942974 Ry
     estimated scf accuracy    <       0.09938686 Ry

     total magnetization       =     1.66 Bohr mag/cell
     absolute magnetization    =     1.67 Bohr mag/cell

     iteration #  3     ecut=    60.00 Ry     beta= 0.50
     Davidson diagonalization with overlap
     ethr =  2.48E-04,  avg # of iterations =  2.0

     total cpu time spent up to now is        2.2 secs

     total energy              =   -1324.05930992 Ry
     estimated scf accuracy    <       0.01110763 Ry

     total magnetization       =     0.62 Bohr mag/cell
     absolute magnetization    =     0.68 Bohr mag/cell

     iteration #  4     ecut=    60.00 Ry     beta= 0.50
     Davidson diagonalization with overlap
     ethr =  2.78E-05,  avg # of iterations =  2.0

     total cpu time spent up to now is        2.7 secs

     total energy              =   -1324.06259418 Ry
     estimated scf accuracy    <       0.00330689 Ry

     total magnetization       =     0.65 Bohr mag/cell
     absolute magnetization    =     0.69 Bohr mag/cell

     iteration #  5     ecut=    60.00 Ry     beta= 0.50
     Davidson diagonalization with overlap
     ethr =  8.27E-06,  avg # of iterations =  1.7

     total cpu time spent up to now is        3.1 secs

     total energy              =   -1324.06461588 Ry
     estimated scf accuracy    <       0.00010627 Ry

     total magnetization       =     0.19 Bohr mag/cell
     absolute magnetization    =     0.23 Bohr mag/cell

     iteration #  6     ecut=    60.00 Ry     beta= 0.50
     Davidson diagonalization with overlap
     ethr =  2.66E-07,  avg # of iterations =  3.0

     total cpu time spent up to now is        3.6 secs

     total energy              =   -1324.06484957 Ry
     estimated scf accuracy    <       0.00013759 Ry

     total magnetization       =     0.13 Bohr mag/cell
     absolute magnetization    =     0.15 Bohr mag/cell

     iteration #  7     ecut=    60.00 Ry     beta= 0.50
     Davidson diagonalization with overlap
     ethr =  2.66E-07,  avg # of iterations =  1.7

     total cpu time spent up to now is        4.1 secs

     total energy              =   -1324.06483507 Ry
     estimated scf accuracy    <       0.00006632 Ry

     total magnetization       =     0.12 Bohr mag/cell
     absolute magnetization    =     0.13 Bohr mag/cell

     iteration #  8     ecut=    60.00 Ry     beta= 0.50
     Davidson diagonalization with overlap
     ethr =  1.66E-07,  avg # of iterations =  2.5

     total cpu time spent up to now is        4.6 secs

     total energy              =   -1324.06495330 Ry
     estimated scf accuracy    <       0.00001339 Ry

     total magnetization       =     0.01 Bohr mag/cell
     absolute magnetization    =     0.01 Bohr mag/cell

     iteration #  9     ecut=    60.00 Ry     beta= 0.50
     Davidson diagonalization with overlap
     ethr =  3.35E-08,  avg # of iterations =  1.6

     total cpu time spent up to now is        5.1 secs

     total energy              =   -1324.06496043 Ry
     estimated scf accuracy    <       0.00001746 Ry

     total magnetization       =    -0.01 Bohr mag/cell
     absolute magnetization    =     0.01 Bohr mag/cell

     iteration # 10     ecut=    60.00 Ry     beta= 0.50
     Davidson diagonalization with overlap
     ethr =  3.35E-08,  avg # of iterations =  2.2

     total cpu time spent up to now is        5.6 secs

     total energy              =   -1324.06496669 Ry
     estimated scf accuracy    <       0.00000036 Ry

     total magnetization       =     0.01 Bohr mag/cell
     absolute magnetization    =     0.01 Bohr mag/cell

     iteration # 11     ecut=    60.00 Ry     beta= 0.50
     Davidson diagonalization with overlap
     ethr =  8.96E-10,  avg # of iterations =  2.8

     total cpu time spent up to now is        6.1 secs

     total energy              =   -1324.06496692 Ry
     estimated scf accuracy    <       0.00000011 Ry

     total magnetization       =     0.00 Bohr mag/cell
     absolute magnetization    =     0.00 Bohr mag/cell

     iteration # 12     ecut=    60.00 Ry     beta= 0.50
     Davidson diagonalization with overlap
     ethr =  2.66E-10,  avg # of iterations =  1.2

     total cpu time spent up to now is        6.5 secs

     total energy              =   -1324.06496689 Ry
     estimated scf accuracy    <       0.00000004 Ry

     total magnetization       =     0.00 Bohr mag/cell
     absolute magnetization    =     0.00 Bohr mag/cell

     iteration # 13     ecut=    60.00 Ry     beta= 0.50
     Davidson diagonalization with overlap
     ethr =  9.55E-11,  avg # of iterations =  2.8
 
     Magnetic moment per site  (integrated on atomic sphere of radius R)
     atom   1 (R=0.258)  charge=  7.1412  magn= -0.0001
     atom   2 (R=0.258)  charge=  7.1413  magn= -0.0001
     atom   3 (R=0.258)  charge=  7.1413  magn= -0.0001
     atom   4 (R=0.258)  charge=  7.1413  magn= -0.0001

     total cpu time spent up to now is        6.9 secs

     End of self-consistent calculation

 ------ SPIN UP ------------


          k = 0.0000 0.0000 0.0000 (  2109 PWs)   bands (ev):

    13.2506  13.5012  13.6492  13.6492  13.6492  14.2314  14.2314  18.1774
    18.1774  18.1774  20.6295  20.6295  23.3945  23.3945  23.3946  23.4844
    23.4844  23.4844  24.1147  24.1147  24.1147  27.8587  27.8587  27.8865

          k = 0.0000 0.0000 0.3333 (  2156 PWs)   bands (ev):

    14.0054  14.5202  14.7706  14.7706  14.9196  15.5440  15.5618  17.3026
    18.6051  18.7875  18.7876  19.8729  20.7678  21.1655  21.3555  21.3555
    22.5498  22.5498  22.9493  23.2915  24.2287  24.2287  32.2339  32.5259

          k = 0.0000 0.3333 0.3333 (  2152 PWs)   bands (ev):

    14.4069  15.3953  15.5422  15.8527  16.0106  16.3348  16.6605  17.4312
    17.8010  17.8491  18.6011  18.8539  19.6377  20.0644  20.7252  20.7553
    21.7394  22.3685  22.4115  23.3206  23.6086  27.2907  27.3727  31.7237

          k = 0.3333 0.3333 0.3333 (  2151 PWs)   bands (ev):

    13.9702  15.1483  15.1483  15.2440  16.5124  16.7372  16.7372  18.2164
    18.2164  18.5963  18.5963  19.4396  19.5540  20.1067  20.1067  20.8424
    22.6023  22.6023  23.3396  23.3396  23.8998  27.4313  27.8081  27.8081

          k =-0.3333 0.0000 0.3333 (  2152 PWs)   bands (ev):

    14.4069  15.3953  15.5422  15.8527  16.0106  16.3348  16.6605  17.4312
    17.8010  17.8491  18.6011  18.8539  19.6377  20.0643  20.7252  20.7553
    21.7394  22.3685  22.4116  23.3206  23.6086  27.2907  27.3727  31.7237

          k = 0.3333-0.3333 0.3333 (  2151 PWs)   bands (ev):

    13.9702  15.1483  15.1483  15.2440  16.5125  16.7372  16.7372  18.2164
    18.2164  18.5963  18.5963  19.4395  19.5540  20.1066  20.1067  20.8424
    22.6023  22.6023  23.3396  23.3396  23.8998  27.4313  27.8081  27.8081

 ------ SPIN DOWN ----------


          k = 0.0000 0.0000 0.0000 (  2109 PWs)   bands (ev):

    13.2506  13.5011  13.6492  13.6492  13.6492  14.2313  14.2313  18.1772
    18.1773  18.1773  20.6294  20.6294  23.3944  23.3944  23.3944  23.4842
    23.4842  23.4842  24.1145  24.1145  24.1145  27.8587  27.8587  27.8865

          k = 0.0000 0.0000 0.3333 (  2156 PWs)   bands (ev):

    14.0054  14.5201  14.7706  14.7706  14.9196  15.5439  15.5617  17.3025
    18.6050  18.7874  18.7874  19.8728  20.7677  21.1654  21.3554  21.3554
    22.5496  22.5496  22.9492  23.2914  24.2285  24.2285  32.2339  32.5258

          k = 0.0000 0.3333 0.3333 (  2152 PWs)   bands (ev):

    14.4069  15.3952  15.5422  15.8527  16.0106  16.3347  16.6604  17.4311
    17.8009  17.8490  18.6010  18.8538  19.6376  20.0642  20.7251  20.7552
    21.7393  22.3683  22.4114  23.3205  23.6084  27.2906  27.3726  31.7236

          k = 0.3333 0.3333 0.3333 (  2151 PWs)   bands (ev):

    13.9701  15.1482  15.1482  15.2439  16.5124  16.7371  16.7371  18.2163
    18.2163  18.5962  18.5962  19.4395  19.5539  20.1066  20.1066  20.8423
    22.6022  22.6022  23.3394  23.3394  23.8996  27.4312  27.8080  27.8080

          k =-0.3333 0.0000 0.3333 (  2152 PWs)   bands (ev):

    14.4069  15.3952  15.5422  15.8527  16.0105  16.3347  16.6604  17.4311
    17.8009  17.8490  18.6010  18.8538  19.6376  20.0642  20.7251  20.7552
    21.7393  22.3683  22.4114  23.3205  23.6084  27.2906  27.3726  31.7236

          k = 0.3333-0.3333 0.3333 (  2151 PWs)   bands (ev):

    13.9701  15.1482  15.1482  15.2439  16.5124  16.7371  16.7371  18.2162
    18.2163  18.5962  18.5962  19.4394  19.5539  20.1065  20.1066  20.8424
    22.6022  22.6022  23.3394  23.3394  23.8996  27.4312  27.8080  27.8080

     the Fermi energy is    23.5296 ev

!    total energy              =   -1324.06496695 Ry
     total all-electron energy =    -40367.861932 Ry
     estimated scf accuracy    <          3.4E-09 Ry
     smearing contrib. (-TS)   =       0.00068034 Ry
     internal energy E=F+TS    =   -1324.06564729 Ry

     The total energy is F=E-TS. E is the sum of the following terms:
     one-electron contribution =      82.92692996 Ry
     hartree contribution      =      30.15242549 Ry
     xc contribution           =    -132.01338633 Ry
     ewald contribution        =    -276.84078315 Ry
     DFT-D3 Dispersion         =      -0.70720743 Ry
     one-center paw contrib.   =   -1027.58362583 Ry

     total magnetization       =    -0.00 Bohr mag/cell
     absolute magnetization    =     0.00 Bohr mag/cell

     convergence has been achieved in  13 iterations

     Writing all to output data dir ./Pd_k_3.save/ :
     XML data file, charge density, pseudopotentials, collected wavefunctions
 
     init_run     :      0.38s CPU      0.43s WALL (       1 calls)
     electrons    :      5.94s CPU      6.33s WALL (       1 calls)

     Called by init_run:
     wfcinit      :      0.04s CPU      0.04s WALL (       1 calls)
     potinit      :      0.20s CPU      0.23s WALL (       1 calls)
     hinit0       :      0.05s CPU      0.06s WALL (       1 calls)

     Called by electrons:
     c_bands      :      1.72s CPU      1.79s WALL (      14 calls)
     sum_band     :      0.55s CPU      0.56s WALL (      14 calls)
     v_of_rho     :      0.14s CPU      0.14s WALL (      14 calls)
     newd         :      0.16s CPU      0.17s WALL (      14 calls)
     PAW_pot      :      3.12s CPU      3.38s WALL (      14 calls)
     mix_rho      :      0.04s CPU      0.04s WALL (      14 calls)
     energy_dftd3 :      0.32s CPU      0.32s WALL (       1 calls)

     Called by c_bands:
     init_us_2    :      0.01s CPU      0.01s WALL (     174 calls)
     init_us_2:cp :      0.01s CPU      0.01s WALL (     174 calls)
     cegterg      :      0.92s CPU      0.96s WALL (      84 calls)

     Called by *egterg:
     cdiaghg      :      0.23s CPU      0.23s WALL (     257 calls)
     h_psi        :      0.63s CPU      0.66s WALL (     269 calls)
     s_psi        :      0.02s CPU      0.02s WALL (     269 calls)
     g_psi        :      0.00s CPU      0.00s WALL (     179 calls)

     Called by h_psi:
     h_psi:calbec :      0.03s CPU      0.04s WALL (     269 calls)
     vloc_psi     :      0.57s CPU      0.60s WALL (     269 calls)
     add_vuspsi   :      0.02s CPU      0.02s WALL (     269 calls)

     General routines
     calbec       :      0.04s CPU      0.05s WALL (     353 calls)
     fft          :      0.05s CPU      0.05s WALL (     346 calls)
     ffts         :      0.03s CPU      0.03s WALL (     266 calls)
     fftw         :      0.60s CPU      0.63s WALL (   12790 calls)
     interpolate  :      0.01s CPU      0.01s WALL (      28 calls)
 
     Parallel routines
 
     PWSCF        :      6.51s CPU      7.08s WALL

 
   This run was terminated on:   0:50:22   6Sep2025            

=------------------------------------------------------------------------------=
   JOB DONE.
=------------------------------------------------------------------------------=
