
     Program PWSCF v.7.3 starts on  6Sep2025 at  1:19:12 

     This program is part of the open-source Quantum ESPRESSO suite
     for quantum simulation of materials; please cite
         "P. Giannozzi et al., J. Phys.:Condens. Matter 21 395502 (2009);
         "P. Giannozzi et al., J. Phys.:Condens. Matter 29 465901 (2017);
         "P. Giannozzi et al., J. Chem. Phys. 152 154105 (2020);
          URL http://www.quantum-espresso.org", 
     in publications or presentations arising from this work. More details at
     http://www.quantum-espresso.org/quote

     Parallel version (MPI), running on    30 processors

     MPI processes distributed on     1 nodes
     225452 MiB available memory on the printing compute node when the environment starts
 
     Waiting for input...
     Reading input from standard input

     Current dimensions of program PWSCF are:
     Max number of different atomic species (ntypx) = 10
     Max number of k-points (npk) =  40000
     Max angular momentum in pseudopotentials (lmaxx) =  4
     file Pd.upf: wavefunction(s)  5S 4D renormalized

     IMPORTANT: XC functional enforced from input :
     Exchange-correlation= PBE
                           (   1   4   3   4   0   0   0)
     Any further DFT definition will be discarded
     Please, verify this is what you really want

     Message from routine setup:
     using ibrav=0 with symmetry is DISCOURAGED, use correct ibrav instead
 
     K-points division:     npool     =       2
     R & G space division:  proc/nbgrp/npool/nimage =      15
     Subspace diagonalization in iterative solution of the eigenvalue problem:
     a serial algorithm will be used

 
     Parallelization info
     --------------------
     sticks:   dense  smooth     PW     G-vecs:    dense   smooth      PW
     Min         107      53     16                 3258     1151     196
     Max         109      55     17                 3260     1152     201
     Sum        1617     805    241                48885    17269    2945
 
     Using Slab Decomposition
 

     Title: 
     Pd_k_18                                                                    


     bravais-lattice index     =            0
     lattice parameter (alat)  =       6.5025  a.u.
     unit-cell volume          =     274.9107 (a.u.)^3
     number of atoms/cell      =            4
     number of atomic types    =            1
     number of electrons       =        40.00
     number of Kohn-Sham states=           24
     kinetic-energy cutoff     =      60.0000  Ry
     charge density cutoff     =     480.0000  Ry
     scf convergence threshold =      6.4E-09
     mixing beta               =       0.5000
     number of iterations used =           10  local-TF  mixing
     Exchange-correlation= PBE
                           (   1   4   3   4   0   0   0)

     celldm(1)=   6.502548  celldm(2)=   0.000000  celldm(3)=   0.000000
     celldm(4)=   0.000000  celldm(5)=   0.000000  celldm(6)=   0.000000

     crystal axes: (cart. coord. in units of alat)
               a(1) = (   0.999955   0.000000   0.000000 )  
               a(2) = (   0.000000   0.999955   0.000000 )  
               a(3) = (   0.000000   0.000000   0.999955 )  

     reciprocal axes: (cart. coord. in units 2 pi/alat)
               b(1) = (  1.000045  0.000000  0.000000 )  
               b(2) = (  0.000000  1.000045  0.000000 )  
               b(3) = (  0.000000  0.000000  1.000045 )  


     PseudoPot. # 1 for Pd read from file:
     /tmpu/mdach_g/mdach/PP/Pd.upf
     MD5 check sum: e9d6f14fd83b79f8105499163af174c9
     Pseudo is Projector augmented-wave + core cor, Zval = 10.0
     Generated using "atomic" code by A. Dal Corso  v.5.0.2 svn rev. 9415
     Shape of augmentation charge: PSQ
     Using radial grid of 1235 points,  6 beta functions with: 
                l(1) =   0
                l(2) =   0
                l(3) =   1
                l(4) =   1
                l(5) =   2
                l(6) =   2
     Q(r) pseudized with 0 coefficients 


     atomic species   valence    mass     pseudopotential
     Pd               10.00   106.42000     Pd( 1.00)

     Starting magnetic structure 
     atomic species   magnetization
     Pd              0.200

      6 Sym. Ops. (no inversion) found



   Cartesian axes

     site n.     atom                  positions (alat units)
         1        Pd     tau(   1) = (  -0.0054534  -0.0054534  -0.0054534  )
         2        Pd     tau(   2) = (  -0.0054550   0.5513882   0.5513882  )
         3        Pd     tau(   3) = (   0.5513882  -0.0054550   0.5513882  )
         4        Pd     tau(   4) = (   0.5513882   0.5513882  -0.0054550  )

     --------------------------------------------
     DFT-D3 Dispersion Correction (3-body terms):
     --------------------------------------------
       Reference C6 values for interpolation: 

         atom   Coordination number   C6
         Pd         0.000          1217.01
         Pd         1.863           573.90
         Pd         5.710           531.75

       Values used:

         atom   Coordination number  R0_AB[au]  C6      C8
         Pd        11.468            3.168    531.75  48720.73
         Pd        11.468            3.168    531.75  48720.73
         Pd        11.468            3.168    531.75  48720.73
         Pd        11.468            3.168    531.75  48720.73

         Molecular C6 ( Ry / a.u.^6 ) =      8507.99


     number of k points=   580  Methfessel-Paxton smearing, width (Ry)=  0.0147

     Number of k-points >= 100: set verbosity='high' to print them.

     Dense  grid:    48885 G-vectors     FFT dimensions: (  45,  45,  45)

     Smooth grid:    17269 G-vectors     FFT dimensions: (  36,  36,  36)

     Estimated max dynamical RAM per process >      41.43 MB

     Estimated total dynamical RAM >       1.18 GB
     Generating pointlists ...
     new r_m :   0.2585 (alat units)  1.6809 (a.u.) for type    1

     Initial potential from superposition of free atoms

     starting charge      39.9979, renormalised to      40.0000
     Starting wfcs are   36 atomic wfcs
     Checking if some PAW data can be deallocated... 

     total cpu time spent up to now is        5.2 secs

     Self-consistent Calculation

     iteration #  1     ecut=    60.00 Ry     beta= 0.50
     Davidson diagonalization with overlap
     ethr =  1.00E-02,  avg # of iterations =  4.1

     Threshold (ethr) on eigenvalues was too large:
     Diagonalizing with lowered threshold

     Davidson diagonalization with overlap
     ethr =  6.13E-04,  avg # of iterations =  2.9

     total cpu time spent up to now is       41.6 secs

     total energy              =   -1324.00793802 Ry
     estimated scf accuracy    <       0.28014591 Ry

     total magnetization       =     2.18 Bohr mag/cell
     absolute magnetization    =     2.18 Bohr mag/cell

     iteration #  2     ecut=    60.00 Ry     beta= 0.50
     Davidson diagonalization with overlap
     ethr =  7.00E-04,  avg # of iterations =  1.1

     total cpu time spent up to now is       54.0 secs

     total energy              =   -1324.02939715 Ry
     estimated scf accuracy    <       0.08722523 Ry

     total magnetization       =     1.60 Bohr mag/cell
     absolute magnetization    =     1.60 Bohr mag/cell

     iteration #  3     ecut=    60.00 Ry     beta= 0.50
     Davidson diagonalization with overlap
     ethr =  2.18E-04,  avg # of iterations =  2.2

     total cpu time spent up to now is       71.4 secs

     total energy              =   -1324.05819193 Ry
     estimated scf accuracy    <       0.00940701 Ry

     total magnetization       =     0.55 Bohr mag/cell
     absolute magnetization    =     0.63 Bohr mag/cell

     iteration #  4     ecut=    60.00 Ry     beta= 0.50
     Davidson diagonalization with overlap
     ethr =  2.35E-05,  avg # of iterations =  2.8

     total cpu time spent up to now is       86.4 secs

     total energy              =   -1324.06204350 Ry
     estimated scf accuracy    <       0.00782250 Ry

     total magnetization       =     0.54 Bohr mag/cell
     absolute magnetization    =     0.61 Bohr mag/cell

     iteration #  5     ecut=    60.00 Ry     beta= 0.50
     Davidson diagonalization with overlap
     ethr =  1.96E-05,  avg # of iterations =  1.0

     total cpu time spent up to now is       97.7 secs

     total energy              =   -1324.06106424 Ry
     estimated scf accuracy    <       0.00505214 Ry

     total magnetization       =     0.29 Bohr mag/cell
     absolute magnetization    =     0.35 Bohr mag/cell

     iteration #  6     ecut=    60.00 Ry     beta= 0.50
     Davidson diagonalization with overlap
     ethr =  1.26E-05,  avg # of iterations =  1.5

     total cpu time spent up to now is      114.3 secs

     total energy              =   -1324.06213703 Ry
     estimated scf accuracy    <       0.00041598 Ry

     total magnetization       =     0.11 Bohr mag/cell
     absolute magnetization    =     0.13 Bohr mag/cell

     iteration #  7     ecut=    60.00 Ry     beta= 0.50
     Davidson diagonalization with overlap
     ethr =  1.04E-06,  avg # of iterations =  2.4

     total cpu time spent up to now is      129.2 secs

     total energy              =   -1324.06217625 Ry
     estimated scf accuracy    <       0.00030185 Ry

     total magnetization       =     0.09 Bohr mag/cell
     absolute magnetization    =     0.11 Bohr mag/cell

     iteration #  8     ecut=    60.00 Ry     beta= 0.50
     Davidson diagonalization with overlap
     ethr =  7.55E-07,  avg # of iterations =  1.0

     total cpu time spent up to now is      141.0 secs

     total energy              =   -1324.06221381 Ry
     estimated scf accuracy    <       0.00028463 Ry

     total magnetization       =     0.09 Bohr mag/cell
     absolute magnetization    =     0.11 Bohr mag/cell

     iteration #  9     ecut=    60.00 Ry     beta= 0.50
     Davidson diagonalization with overlap
     ethr =  7.12E-07,  avg # of iterations =  1.0

     total cpu time spent up to now is      153.3 secs

     total energy              =   -1324.06215144 Ry
     estimated scf accuracy    <       0.00019978 Ry

     total magnetization       =     0.08 Bohr mag/cell
     absolute magnetization    =     0.10 Bohr mag/cell

     iteration # 10     ecut=    60.00 Ry     beta= 0.50
     Davidson diagonalization with overlap
     ethr =  4.99E-07,  avg # of iterations =  3.0

     total cpu time spent up to now is      175.9 secs

     total energy              =   -1324.06230834 Ry
     estimated scf accuracy    <       0.00029672 Ry

     total magnetization       =     0.02 Bohr mag/cell
     absolute magnetization    =     0.02 Bohr mag/cell

     iteration # 11     ecut=    60.00 Ry     beta= 0.50
     Davidson diagonalization with overlap
     ethr =  4.99E-07,  avg # of iterations =  1.0

     total cpu time spent up to now is      188.0 secs

     total energy              =   -1324.06227597 Ry
     estimated scf accuracy    <       0.00024948 Ry

     total magnetization       =     0.01 Bohr mag/cell
     absolute magnetization    =     0.02 Bohr mag/cell

     iteration # 12     ecut=    60.00 Ry     beta= 0.50
     Davidson diagonalization with overlap
     ethr =  4.99E-07,  avg # of iterations =  1.0

     total cpu time spent up to now is      200.2 secs

     total energy              =   -1324.06222784 Ry
     estimated scf accuracy    <       0.00015531 Ry

     total magnetization       =     0.02 Bohr mag/cell
     absolute magnetization    =     0.02 Bohr mag/cell

     iteration # 13     ecut=    60.00 Ry     beta= 0.50
     Davidson diagonalization with overlap
     ethr =  3.88E-07,  avg # of iterations =  2.1

     total cpu time spent up to now is      218.1 secs

     total energy              =   -1324.06225943 Ry
     estimated scf accuracy    <       0.00000074 Ry

     total magnetization       =     0.00 Bohr mag/cell
     absolute magnetization    =     0.01 Bohr mag/cell

     iteration # 14     ecut=    60.00 Ry     beta= 0.50
     Davidson diagonalization with overlap
     ethr =  1.85E-09,  avg # of iterations =  3.8

     total cpu time spent up to now is      244.7 secs

     total energy              =   -1324.06226082 Ry
     estimated scf accuracy    <       0.00000176 Ry

     total magnetization       =     0.00 Bohr mag/cell
     absolute magnetization    =     0.00 Bohr mag/cell

     iteration # 15     ecut=    60.00 Ry     beta= 0.50
     Davidson diagonalization with overlap
     ethr =  1.85E-09,  avg # of iterations =  2.0

     total cpu time spent up to now is      260.1 secs

     total energy              =   -1324.06226089 Ry
     estimated scf accuracy    <       0.00000060 Ry

     total magnetization       =     0.00 Bohr mag/cell
     absolute magnetization    =     0.00 Bohr mag/cell

     iteration # 16     ecut=    60.00 Ry     beta= 0.50
     Davidson diagonalization with overlap
     ethr =  1.50E-09,  avg # of iterations =  2.1

     total cpu time spent up to now is      276.0 secs

     total energy              =   -1324.06226097 Ry
     estimated scf accuracy    <       0.00000011 Ry

     total magnetization       =     0.00 Bohr mag/cell
     absolute magnetization    =     0.00 Bohr mag/cell

     iteration # 17     ecut=    60.00 Ry     beta= 0.50
     Davidson diagonalization with overlap
     ethr =  2.74E-10,  avg # of iterations =  2.3

     total cpu time spent up to now is      292.1 secs

     total energy              =   -1324.06226098 Ry
     estimated scf accuracy    <       0.00000001 Ry

     total magnetization       =     0.00 Bohr mag/cell
     absolute magnetization    =     0.00 Bohr mag/cell

     iteration # 18     ecut=    60.00 Ry     beta= 0.50
     Davidson diagonalization with overlap
     ethr =  3.72E-11,  avg # of iterations =  3.0
 
     Magnetic moment per site  (integrated on atomic sphere of radius R)
     atom   1 (R=0.258)  charge=  7.1583  magn=  0.0000
     atom   2 (R=0.258)  charge=  7.1584  magn=  0.0000
     atom   3 (R=0.258)  charge=  7.1584  magn=  0.0000
     atom   4 (R=0.258)  charge=  7.1584  magn=  0.0000

     total cpu time spent up to now is      309.6 secs

     End of self-consistent calculation

     Number of k-points >= 100: set verbosity='high' to print the bands.

     the Fermi energy is    23.8642 ev

!    total energy              =   -1324.06226099 Ry
     total all-electron energy =    -40367.859226 Ry
     estimated scf accuracy    <          4.1E-09 Ry
     smearing contrib. (-TS)   =      -0.00002301 Ry
     internal energy E=F+TS    =   -1324.06223798 Ry

     The total energy is F=E-TS. E is the sum of the following terms:
     one-electron contribution =      82.84089027 Ry
     hartree contribution      =      30.32572461 Ry
     xc contribution           =    -132.08113045 Ry
     ewald contribution        =    -276.84078315 Ry
     DFT-D3 Dispersion         =      -0.70720743 Ry
     one-center paw contrib.   =   -1027.59973183 Ry

     total magnetization       =     0.00 Bohr mag/cell
     absolute magnetization    =     0.00 Bohr mag/cell

     convergence has been achieved in  18 iterations

     Writing all to output data dir ./Pd_k_18.save/ :
     XML data file, charge density, pseudopotentials, collected wavefunctions
 
     init_run     :      4.70s CPU      5.02s WALL (       1 calls)
     electrons    :    198.95s CPU    304.38s WALL (       1 calls)

     Called by init_run:
     wfcinit      :      4.28s CPU      4.55s WALL (       1 calls)
     potinit      :      0.28s CPU      0.31s WALL (       1 calls)
     hinit0       :      0.10s CPU      0.11s WALL (       1 calls)

     Called by electrons:
     c_bands      :    164.20s CPU    264.89s WALL (      19 calls)
     sum_band     :     29.99s CPU     34.35s WALL (      19 calls)
     v_of_rho     :      0.18s CPU      0.18s WALL (      19 calls)
     newd         :      0.15s CPU      0.17s WALL (      19 calls)
     PAW_pot      :      4.19s CPU      4.31s WALL (      19 calls)
     mix_rho      :      0.09s CPU      0.11s WALL (      19 calls)
     energy_dftd3 :      0.21s CPU      0.30s WALL (       1 calls)

     Called by c_bands:
     init_us_2    :      1.51s CPU      1.98s WALL (   22620 calls)
     init_us_2:cp :      1.45s CPU      1.90s WALL (   22620 calls)
     cegterg      :    146.56s CPU    201.07s WALL (   11020 calls)

     Called by *egterg:
     cdiaghg      :     31.29s CPU     50.34s WALL (   34055 calls)
     h_psi        :     98.96s CPU    128.95s WALL (   35215 calls)
     s_psi        :      2.32s CPU      3.22s WALL (   35215 calls)
     g_psi        :      0.37s CPU      0.50s WALL (   23615 calls)

     Called by h_psi:
     h_psi:calbec :      4.59s CPU      5.99s WALL (   35215 calls)
     vloc_psi     :     91.35s CPU    118.88s WALL (   35215 calls)
     add_vuspsi   :      2.46s CPU      3.42s WALL (   35215 calls)

     General routines
     calbec       :      6.58s CPU      8.17s WALL (   46235 calls)
     fft          :      0.21s CPU      0.21s WALL (     471 calls)
     ffts         :      0.07s CPU      0.08s WALL (     375 calls)
     fftw         :    106.17s CPU    133.63s WALL ( 1617812 calls)
     interpolate  :      0.01s CPU      0.02s WALL (      38 calls)
 
     Parallel routines
 
     PWSCF        :   3m24.92s CPU   5m13.65s WALL

 
   This run was terminated on:   1:24:25   6Sep2025            

=------------------------------------------------------------------------------=
   JOB DONE.
=------------------------------------------------------------------------------=
