
     Program PWSCF v.7.3 starts on  6Sep2025 at  2:25:21 

     This program is part of the open-source Quantum ESPRESSO suite
     for quantum simulation of materials; please cite
         "P. Giannozzi et al., J. Phys.:Condens. Matter 21 395502 (2009);
         "P. Giannozzi et al., J. Phys.:Condens. Matter 29 465901 (2017);
         "P. Giannozzi et al., J. Chem. Phys. 152 154105 (2020);
          URL http://www.quantum-espresso.org", 
     in publications or presentations arising from this work. More details at
     http://www.quantum-espresso.org/quote

     Parallel version (MPI), running on    30 processors

     MPI processes distributed on     1 nodes
     229033 MiB available memory on the printing compute node when the environment starts
 
     Waiting for input...
     Reading input from standard input

     Current dimensions of program PWSCF are:
     Max number of different atomic species (ntypx) = 10
     Max number of k-points (npk) =  40000
     Max angular momentum in pseudopotentials (lmaxx) =  4
     file Pd.upf: wavefunction(s)  5S 4D renormalized

     IMPORTANT: XC functional enforced from input :
     Exchange-correlation= PBE
                           (   1   4   3   4   0   0   0)
     Any further DFT definition will be discarded
     Please, verify this is what you really want

     Message from routine setup:
     using ibrav=0 with symmetry is DISCOURAGED, use correct ibrav instead
 
     K-points division:     npool     =       2
     R & G space division:  proc/nbgrp/npool/nimage =      15
     Subspace diagonalization in iterative solution of the eigenvalue problem:
     a serial algorithm will be used

 
     Parallelization info
     --------------------
     sticks:   dense  smooth     PW     G-vecs:    dense   smooth      PW
     Min         107      53     16                 3258     1151     196
     Max         109      55     17                 3260     1152     201
     Sum        1617     805    241                48885    17269    2945
 
     Using Slab Decomposition
 

     Title: 
     Pd_k_25                                                                    


     bravais-lattice index     =            0
     lattice parameter (alat)  =       6.5025  a.u.
     unit-cell volume          =     274.9107 (a.u.)^3
     number of atoms/cell      =            4
     number of atomic types    =            1
     number of electrons       =        40.00
     number of Kohn-Sham states=           24
     kinetic-energy cutoff     =      60.0000  Ry
     charge density cutoff     =     480.0000  Ry
     scf convergence threshold =      6.4E-09
     mixing beta               =       0.5000
     number of iterations used =           10  local-TF  mixing
     Exchange-correlation= PBE
                           (   1   4   3   4   0   0   0)

     celldm(1)=   6.502548  celldm(2)=   0.000000  celldm(3)=   0.000000
     celldm(4)=   0.000000  celldm(5)=   0.000000  celldm(6)=   0.000000

     crystal axes: (cart. coord. in units of alat)
               a(1) = (   0.999955   0.000000   0.000000 )  
               a(2) = (   0.000000   0.999955   0.000000 )  
               a(3) = (   0.000000   0.000000   0.999955 )  

     reciprocal axes: (cart. coord. in units 2 pi/alat)
               b(1) = (  1.000045  0.000000  0.000000 )  
               b(2) = (  0.000000  1.000045  0.000000 )  
               b(3) = (  0.000000  0.000000  1.000045 )  


     PseudoPot. # 1 for Pd read from file:
     /tmpu/mdach_g/mdach/PP/Pd.upf
     MD5 check sum: e9d6f14fd83b79f8105499163af174c9
     Pseudo is Projector augmented-wave + core cor, Zval = 10.0
     Generated using "atomic" code by A. Dal Corso  v.5.0.2 svn rev. 9415
     Shape of augmentation charge: PSQ
     Using radial grid of 1235 points,  6 beta functions with: 
                l(1) =   0
                l(2) =   0
                l(3) =   1
                l(4) =   1
                l(5) =   2
                l(6) =   2
     Q(r) pseudized with 0 coefficients 


     atomic species   valence    mass     pseudopotential
     Pd               10.00   106.42000     Pd( 1.00)

     Starting magnetic structure 
     atomic species   magnetization
     Pd              0.200

      6 Sym. Ops. (no inversion) found



   Cartesian axes

     site n.     atom                  positions (alat units)
         1        Pd     tau(   1) = (  -0.0054534  -0.0054534  -0.0054534  )
         2        Pd     tau(   2) = (  -0.0054550   0.5513882   0.5513882  )
         3        Pd     tau(   3) = (   0.5513882  -0.0054550   0.5513882  )
         4        Pd     tau(   4) = (   0.5513882   0.5513882  -0.0054550  )

     --------------------------------------------
     DFT-D3 Dispersion Correction (3-body terms):
     --------------------------------------------
       Reference C6 values for interpolation: 

         atom   Coordination number   C6
         Pd         0.000          1217.01
         Pd         1.863           573.90
         Pd         5.710           531.75

       Values used:

         atom   Coordination number  R0_AB[au]  C6      C8
         Pd        11.468            3.168    531.75  48720.73
         Pd        11.468            3.168    531.75  48720.73
         Pd        11.468            3.168    531.75  48720.73
         Pd        11.468            3.168    531.75  48720.73

         Molecular C6 ( Ry / a.u.^6 ) =      8507.99


     number of k points=  1469  Methfessel-Paxton smearing, width (Ry)=  0.0147

     Number of k-points >= 100: set verbosity='high' to print them.

     Dense  grid:    48885 G-vectors     FFT dimensions: (  45,  45,  45)

     Smooth grid:    17269 G-vectors     FFT dimensions: (  36,  36,  36)

     Estimated max dynamical RAM per process >      87.98 MB

     Estimated total dynamical RAM >       2.55 GB
     Generating pointlists ...
     new r_m :   0.2585 (alat units)  1.6809 (a.u.) for type    1

     Initial potential from superposition of free atoms

     starting charge      39.9979, renormalised to      40.0000
     Starting wfcs are   36 atomic wfcs
     Checking if some PAW data can be deallocated... 

     total cpu time spent up to now is       14.7 secs

     Self-consistent Calculation

     iteration #  1     ecut=    60.00 Ry     beta= 0.50
     Davidson diagonalization with overlap
     ethr =  1.00E-02,  avg # of iterations =  4.2

     Threshold (ethr) on eigenvalues was too large:
     Diagonalizing with lowered threshold

     Davidson diagonalization with overlap
     ethr =  6.13E-04,  avg # of iterations =  2.8

     total cpu time spent up to now is      106.0 secs

     total energy              =   -1324.00822230 Ry
     estimated scf accuracy    <       0.28006842 Ry

     total magnetization       =     2.17 Bohr mag/cell
     absolute magnetization    =     2.17 Bohr mag/cell

     iteration #  2     ecut=    60.00 Ry     beta= 0.50
     Davidson diagonalization with overlap
     ethr =  7.00E-04,  avg # of iterations =  1.0

     total cpu time spent up to now is      136.5 secs

     total energy              =   -1324.02930793 Ry
     estimated scf accuracy    <       0.08723895 Ry

     total magnetization       =     1.60 Bohr mag/cell
     absolute magnetization    =     1.61 Bohr mag/cell

     iteration #  3     ecut=    60.00 Ry     beta= 0.50
     Davidson diagonalization with overlap
     ethr =  2.18E-04,  avg # of iterations =  2.3

     total cpu time spent up to now is      179.1 secs

     total energy              =   -1324.05826442 Ry
     estimated scf accuracy    <       0.00949159 Ry

     total magnetization       =     0.55 Bohr mag/cell
     absolute magnetization    =     0.63 Bohr mag/cell

     iteration #  4     ecut=    60.00 Ry     beta= 0.50
     Davidson diagonalization with overlap
     ethr =  2.37E-05,  avg # of iterations =  2.8

     total cpu time spent up to now is      214.7 secs

     total energy              =   -1324.06294968 Ry
     estimated scf accuracy    <       0.00836718 Ry

     total magnetization       =     0.54 Bohr mag/cell
     absolute magnetization    =     0.61 Bohr mag/cell

     iteration #  5     ecut=    60.00 Ry     beta= 0.50
     Davidson diagonalization with overlap
     ethr =  2.09E-05,  avg # of iterations =  1.0

     total cpu time spent up to now is      243.0 secs

     total energy              =   -1324.06080552 Ry
     estimated scf accuracy    <       0.00830025 Ry

     total magnetization       =     0.35 Bohr mag/cell
     absolute magnetization    =     0.41 Bohr mag/cell

     iteration #  6     ecut=    60.00 Ry     beta= 0.50
     Davidson diagonalization with overlap
     ethr =  2.08E-05,  avg # of iterations =  1.5

     total cpu time spent up to now is      282.1 secs

     total energy              =   -1324.06227449 Ry
     estimated scf accuracy    <       0.00120595 Ry

     total magnetization       =     0.11 Bohr mag/cell
     absolute magnetization    =     0.13 Bohr mag/cell

     iteration #  7     ecut=    60.00 Ry     beta= 0.50
     Davidson diagonalization with overlap
     ethr =  3.01E-06,  avg # of iterations =  1.8

     total cpu time spent up to now is      315.7 secs

     total energy              =   -1324.06235170 Ry
     estimated scf accuracy    <       0.00069394 Ry

     total magnetization       =     0.08 Bohr mag/cell
     absolute magnetization    =     0.10 Bohr mag/cell

     iteration #  8     ecut=    60.00 Ry     beta= 0.50
     Davidson diagonalization with overlap
     ethr =  1.73E-06,  avg # of iterations =  1.0

     total cpu time spent up to now is      344.8 secs

     total energy              =   -1324.06234225 Ry
     estimated scf accuracy    <       0.00070305 Ry

     total magnetization       =     0.08 Bohr mag/cell
     absolute magnetization    =     0.10 Bohr mag/cell

     iteration #  9     ecut=    60.00 Ry     beta= 0.50
     Davidson diagonalization with overlap
     ethr =  1.73E-06,  avg # of iterations =  1.0

     total cpu time spent up to now is      375.3 secs

     total energy              =   -1324.06210473 Ry
     estimated scf accuracy    <       0.00071395 Ry

     total magnetization       =     0.08 Bohr mag/cell
     absolute magnetization    =     0.09 Bohr mag/cell

     iteration # 10     ecut=    60.00 Ry     beta= 0.50
     Davidson diagonalization with overlap
     ethr =  1.73E-06,  avg # of iterations =  1.5

     total cpu time spent up to now is      412.3 secs

     total energy              =   -1324.06226758 Ry
     estimated scf accuracy    <       0.00010467 Ry

     total magnetization       =     0.05 Bohr mag/cell
     absolute magnetization    =     0.05 Bohr mag/cell

     iteration # 11     ecut=    60.00 Ry     beta= 0.50
     Davidson diagonalization with overlap
     ethr =  2.62E-07,  avg # of iterations =  3.2

     total cpu time spent up to now is      471.5 secs

     total energy              =   -1324.06259705 Ry
     estimated scf accuracy    <       0.00122899 Ry

     total magnetization       =     0.01 Bohr mag/cell
     absolute magnetization    =     0.02 Bohr mag/cell

     iteration # 12     ecut=    60.00 Ry     beta= 0.50
     Davidson diagonalization with overlap
     ethr =  2.62E-07,  avg # of iterations =  1.0

     total cpu time spent up to now is      503.5 secs

     total energy              =   -1324.06235724 Ry
     estimated scf accuracy    <       0.00120104 Ry

     total magnetization       =     0.00 Bohr mag/cell
     absolute magnetization    =     0.01 Bohr mag/cell

     iteration # 13     ecut=    60.00 Ry     beta= 0.50
     Davidson diagonalization with overlap
     ethr =  2.62E-07,  avg # of iterations =  2.3

     total cpu time spent up to now is      548.0 secs

     total energy              =   -1324.06218639 Ry
     estimated scf accuracy    <       0.00054853 Ry

     total magnetization       =     0.00 Bohr mag/cell
     absolute magnetization    =     0.01 Bohr mag/cell

     iteration # 14     ecut=    60.00 Ry     beta= 0.50
     Davidson diagonalization with overlap
     ethr =  2.62E-07,  avg # of iterations =  3.0

     total cpu time spent up to now is      604.8 secs

     total energy              =   -1324.06229362 Ry
     estimated scf accuracy    <       0.00000276 Ry

     total magnetization       =     0.00 Bohr mag/cell
     absolute magnetization    =     0.01 Bohr mag/cell

     iteration # 15     ecut=    60.00 Ry     beta= 0.50
     Davidson diagonalization with overlap
     ethr =  6.90E-09,  avg # of iterations =  2.3

     total cpu time spent up to now is      645.1 secs

     total energy              =   -1324.06229465 Ry
     estimated scf accuracy    <       0.00000258 Ry

     total magnetization       =     0.00 Bohr mag/cell
     absolute magnetization    =     0.00 Bohr mag/cell

     iteration # 16     ecut=    60.00 Ry     beta= 0.50
     Davidson diagonalization with overlap
     ethr =  6.44E-09,  avg # of iterations =  1.0

     total cpu time spent up to now is      674.7 secs

     total energy              =   -1324.06229476 Ry
     estimated scf accuracy    <       0.00000126 Ry

     total magnetization       =     0.00 Bohr mag/cell
     absolute magnetization    =     0.00 Bohr mag/cell

     iteration # 17     ecut=    60.00 Ry     beta= 0.50
     Davidson diagonalization with overlap
     ethr =  3.15E-09,  avg # of iterations =  1.0

     total cpu time spent up to now is      703.7 secs

     total energy              =   -1324.06229476 Ry
     estimated scf accuracy    <       0.00000060 Ry

     total magnetization       =     0.00 Bohr mag/cell
     absolute magnetization    =     0.00 Bohr mag/cell

     iteration # 18     ecut=    60.00 Ry     beta= 0.50
     Davidson diagonalization with overlap
     ethr =  1.49E-09,  avg # of iterations =  1.0

     total cpu time spent up to now is      732.1 secs

     total energy              =   -1324.06229471 Ry
     estimated scf accuracy    <       0.00000021 Ry

     total magnetization       =     0.00 Bohr mag/cell
     absolute magnetization    =     0.00 Bohr mag/cell

     iteration # 19     ecut=    60.00 Ry     beta= 0.50
     Davidson diagonalization with overlap
     ethr =  5.33E-10,  avg # of iterations =  2.6

     total cpu time spent up to now is      780.5 secs

     total energy              =   -1324.06229478 Ry
     estimated scf accuracy    <          8.0E-09 Ry

     total magnetization       =     0.00 Bohr mag/cell
     absolute magnetization    =     0.00 Bohr mag/cell

     iteration # 20     ecut=    60.00 Ry     beta= 0.50
     Davidson diagonalization with overlap
     ethr =  2.00E-11,  avg # of iterations =  2.4
 
     Magnetic moment per site  (integrated on atomic sphere of radius R)
     atom   1 (R=0.258)  charge=  7.1584  magn= -0.0000
     atom   2 (R=0.258)  charge=  7.1585  magn= -0.0000
     atom   3 (R=0.258)  charge=  7.1585  magn= -0.0000
     atom   4 (R=0.258)  charge=  7.1585  magn= -0.0000

     total cpu time spent up to now is      819.6 secs

     End of self-consistent calculation

     Number of k-points >= 100: set verbosity='high' to print the bands.

     the Fermi energy is    23.8661 ev

!    total energy              =   -1324.06229478 Ry
     total all-electron energy =    -40367.859260 Ry
     estimated scf accuracy    <          1.2E-10 Ry
     smearing contrib. (-TS)   =       0.00000543 Ry
     internal energy E=F+TS    =   -1324.06230021 Ry

     The total energy is F=E-TS. E is the sum of the following terms:
     one-electron contribution =      82.83985062 Ry
     hartree contribution      =      30.32750721 Ry
     xc contribution           =    -132.08174611 Ry
     ewald contribution        =    -276.84078315 Ry
     DFT-D3 Dispersion         =      -0.70720743 Ry
     one-center paw contrib.   =   -1027.59992135 Ry

     total magnetization       =    -0.00 Bohr mag/cell
     absolute magnetization    =     0.00 Bohr mag/cell

     convergence has been achieved in  20 iterations

     Writing all to output data dir ./Pd_k_25.save/ :
     XML data file, charge density, pseudopotentials, collected wavefunctions
 
     init_run     :     14.02s CPU     14.54s WALL (       1 calls)
     electrons    :    536.56s CPU    804.94s WALL (       1 calls)

     Called by init_run:
     wfcinit      :     13.58s CPU     14.08s WALL (       1 calls)
     potinit      :      0.27s CPU      0.28s WALL (       1 calls)
     hinit0       :      0.10s CPU      0.10s WALL (       1 calls)

     Called by electrons:
     c_bands      :    452.46s CPU    711.64s WALL (      21 calls)
     sum_band     :     78.98s CPU     87.46s WALL (      21 calls)
     v_of_rho     :      0.22s CPU      0.24s WALL (      21 calls)
     newd         :      0.14s CPU      0.17s WALL (      21 calls)
     PAW_pot      :      4.31s CPU      4.84s WALL (      21 calls)
     mix_rho      :      0.13s CPU      0.14s WALL (      21 calls)
     energy_dftd3 :      0.31s CPU      0.31s WALL (       1 calls)

     Called by c_bands:
     init_us_2    :      4.39s CPU      5.57s WALL (   63167 calls)
     init_us_2:cp :      4.20s CPU      5.39s WALL (   63167 calls)
     cegterg      :    398.09s CPU    499.37s WALL (   30849 calls)

     Called by *egterg:
     cdiaghg      :     82.00s CPU    138.62s WALL (   91430 calls)
     h_psi        :    274.87s CPU    310.31s WALL (   94368 calls)
     s_psi        :      6.43s CPU      8.27s WALL (   94368 calls)
     g_psi        :      1.03s CPU      1.12s WALL (   62050 calls)

     Called by h_psi:
     h_psi:calbec :     12.24s CPU     14.59s WALL (   94368 calls)
     vloc_psi     :    254.38s CPU    285.62s WALL (   94368 calls)
     add_vuspsi   :      6.74s CPU      8.31s WALL (   94368 calls)

     General routines
     calbec       :     17.54s CPU     20.45s WALL (  125217 calls)
     fft          :      0.18s CPU      0.18s WALL (     521 calls)
     ffts         :      0.13s CPU      0.14s WALL (     413 calls)
     fftw         :    291.06s CPU    324.44s WALL ( 4488370 calls)
     interpolate  :      0.03s CPU      0.03s WALL (      42 calls)
 
     Parallel routines
 
     PWSCF        :   9m13.42s CPU  13m49.85s WALL

 
   This run was terminated on:   2:39:11   6Sep2025            

=------------------------------------------------------------------------------=
   JOB DONE.
=------------------------------------------------------------------------------=
