
     Program PWSCF v.7.3 starts on  6Sep2025 at  1: 9: 6 

     This program is part of the open-source Quantum ESPRESSO suite
     for quantum simulation of materials; please cite
         "P. Giannozzi et al., J. Phys.:Condens. Matter 21 395502 (2009);
         "P. Giannozzi et al., J. Phys.:Condens. Matter 29 465901 (2017);
         "P. Giannozzi et al., J. Chem. Phys. 152 154105 (2020);
          URL http://www.quantum-espresso.org", 
     in publications or presentations arising from this work. More details at
     http://www.quantum-espresso.org/quote

     Parallel version (MPI), running on    30 processors

     MPI processes distributed on     1 nodes
     224465 MiB available memory on the printing compute node when the environment starts
 
     Waiting for input...
     Reading input from standard input

     Current dimensions of program PWSCF are:
     Max number of different atomic species (ntypx) = 10
     Max number of k-points (npk) =  40000
     Max angular momentum in pseudopotentials (lmaxx) =  4
     file Pd.upf: wavefunction(s)  5S 4D renormalized

     IMPORTANT: XC functional enforced from input :
     Exchange-correlation= PBE
                           (   1   4   3   4   0   0   0)
     Any further DFT definition will be discarded
     Please, verify this is what you really want

     Message from routine setup:
     using ibrav=0 with symmetry is DISCOURAGED, use correct ibrav instead
 
     K-points division:     npool     =       2
     R & G space division:  proc/nbgrp/npool/nimage =      15
     Subspace diagonalization in iterative solution of the eigenvalue problem:
     a serial algorithm will be used

 
     Parallelization info
     --------------------
     sticks:   dense  smooth     PW     G-vecs:    dense   smooth      PW
     Min         107      53     16                 3258     1151     196
     Max         109      55     17                 3260     1152     201
     Sum        1617     805    241                48885    17269    2945
 
     Using Slab Decomposition
 

     Title: 
     Pd_k_16                                                                    


     bravais-lattice index     =            0
     lattice parameter (alat)  =       6.5025  a.u.
     unit-cell volume          =     274.9107 (a.u.)^3
     number of atoms/cell      =            4
     number of atomic types    =            1
     number of electrons       =        40.00
     number of Kohn-Sham states=           24
     kinetic-energy cutoff     =      60.0000  Ry
     charge density cutoff     =     480.0000  Ry
     scf convergence threshold =      6.4E-09
     mixing beta               =       0.5000
     number of iterations used =           10  local-TF  mixing
     Exchange-correlation= PBE
                           (   1   4   3   4   0   0   0)

     celldm(1)=   6.502548  celldm(2)=   0.000000  celldm(3)=   0.000000
     celldm(4)=   0.000000  celldm(5)=   0.000000  celldm(6)=   0.000000

     crystal axes: (cart. coord. in units of alat)
               a(1) = (   0.999955   0.000000   0.000000 )  
               a(2) = (   0.000000   0.999955   0.000000 )  
               a(3) = (   0.000000   0.000000   0.999955 )  

     reciprocal axes: (cart. coord. in units 2 pi/alat)
               b(1) = (  1.000045  0.000000  0.000000 )  
               b(2) = (  0.000000  1.000045  0.000000 )  
               b(3) = (  0.000000  0.000000  1.000045 )  


     PseudoPot. # 1 for Pd read from file:
     /tmpu/mdach_g/mdach/PP/Pd.upf
     MD5 check sum: e9d6f14fd83b79f8105499163af174c9
     Pseudo is Projector augmented-wave + core cor, Zval = 10.0
     Generated using "atomic" code by A. Dal Corso  v.5.0.2 svn rev. 9415
     Shape of augmentation charge: PSQ
     Using radial grid of 1235 points,  6 beta functions with: 
                l(1) =   0
                l(2) =   0
                l(3) =   1
                l(4) =   1
                l(5) =   2
                l(6) =   2
     Q(r) pseudized with 0 coefficients 


     atomic species   valence    mass     pseudopotential
     Pd               10.00   106.42000     Pd( 1.00)

     Starting magnetic structure 
     atomic species   magnetization
     Pd              0.200

      6 Sym. Ops. (no inversion) found



   Cartesian axes

     site n.     atom                  positions (alat units)
         1        Pd     tau(   1) = (  -0.0054534  -0.0054534  -0.0054534  )
         2        Pd     tau(   2) = (  -0.0054550   0.5513882   0.5513882  )
         3        Pd     tau(   3) = (   0.5513882  -0.0054550   0.5513882  )
         4        Pd     tau(   4) = (   0.5513882   0.5513882  -0.0054550  )

     --------------------------------------------
     DFT-D3 Dispersion Correction (3-body terms):
     --------------------------------------------
       Reference C6 values for interpolation: 

         atom   Coordination number   C6
         Pd         0.000          1217.01
         Pd         1.863           573.90
         Pd         5.710           531.75

       Values used:

         atom   Coordination number  R0_AB[au]  C6      C8
         Pd        11.468            3.168    531.75  48720.73
         Pd        11.468            3.168    531.75  48720.73
         Pd        11.468            3.168    531.75  48720.73
         Pd        11.468            3.168    531.75  48720.73

         Molecular C6 ( Ry / a.u.^6 ) =      8507.99


     number of k points=   417  Methfessel-Paxton smearing, width (Ry)=  0.0147

     Number of k-points >= 100: set verbosity='high' to print them.

     Dense  grid:    48885 G-vectors     FFT dimensions: (  45,  45,  45)

     Smooth grid:    17269 G-vectors     FFT dimensions: (  36,  36,  36)

     Estimated max dynamical RAM per process >      32.89 MB

     Estimated total dynamical RAM >     956.96 MB
     Generating pointlists ...
     new r_m :   0.2585 (alat units)  1.6809 (a.u.) for type    1

     Initial potential from superposition of free atoms

     starting charge      39.9979, renormalised to      40.0000
     Starting wfcs are   36 atomic wfcs
     Checking if some PAW data can be deallocated... 

     total cpu time spent up to now is        4.8 secs

     Self-consistent Calculation

     iteration #  1     ecut=    60.00 Ry     beta= 0.50
     Davidson diagonalization with overlap
     ethr =  1.00E-02,  avg # of iterations =  4.1

     Threshold (ethr) on eigenvalues was too large:
     Diagonalizing with lowered threshold

     Davidson diagonalization with overlap
     ethr =  6.12E-04,  avg # of iterations =  2.9

     total cpu time spent up to now is       30.0 secs

     total energy              =   -1324.00792974 Ry
     estimated scf accuracy    <       0.28029366 Ry

     total magnetization       =     2.18 Bohr mag/cell
     absolute magnetization    =     2.18 Bohr mag/cell

     iteration #  2     ecut=    60.00 Ry     beta= 0.50
     Davidson diagonalization with overlap
     ethr =  7.01E-04,  avg # of iterations =  1.0

     total cpu time spent up to now is       38.5 secs

     total energy              =   -1324.02959675 Ry
     estimated scf accuracy    <       0.08718725 Ry

     total magnetization       =     1.60 Bohr mag/cell
     absolute magnetization    =     1.60 Bohr mag/cell

     iteration #  3     ecut=    60.00 Ry     beta= 0.50
     Davidson diagonalization with overlap
     ethr =  2.18E-04,  avg # of iterations =  2.2

     total cpu time spent up to now is       50.6 secs

     total energy              =   -1324.05816488 Ry
     estimated scf accuracy    <       0.00936447 Ry

     total magnetization       =     0.54 Bohr mag/cell
     absolute magnetization    =     0.62 Bohr mag/cell

     iteration #  4     ecut=    60.00 Ry     beta= 0.50
     Davidson diagonalization with overlap
     ethr =  2.34E-05,  avg # of iterations =  2.7

     total cpu time spent up to now is       61.0 secs

     total energy              =   -1324.06160148 Ry
     estimated scf accuracy    <       0.00748304 Ry

     total magnetization       =     0.52 Bohr mag/cell
     absolute magnetization    =     0.60 Bohr mag/cell

     iteration #  5     ecut=    60.00 Ry     beta= 0.50
     Davidson diagonalization with overlap
     ethr =  1.87E-05,  avg # of iterations =  1.0

     total cpu time spent up to now is       69.7 secs

     total energy              =   -1324.06134453 Ry
     estimated scf accuracy    <       0.00350073 Ry

     total magnetization       =     0.26 Bohr mag/cell
     absolute magnetization    =     0.32 Bohr mag/cell

     iteration #  6     ecut=    60.00 Ry     beta= 0.50
     Davidson diagonalization with overlap
     ethr =  8.75E-06,  avg # of iterations =  1.5

     total cpu time spent up to now is       81.1 secs

     total energy              =   -1324.06213857 Ry
     estimated scf accuracy    <       0.00026599 Ry

     total magnetization       =     0.11 Bohr mag/cell
     absolute magnetization    =     0.14 Bohr mag/cell

     iteration #  7     ecut=    60.00 Ry     beta= 0.50
     Davidson diagonalization with overlap
     ethr =  6.65E-07,  avg # of iterations =  2.5

     total cpu time spent up to now is       91.0 secs

     total energy              =   -1324.06217516 Ry
     estimated scf accuracy    <       0.00020751 Ry

     total magnetization       =     0.10 Bohr mag/cell
     absolute magnetization    =     0.12 Bohr mag/cell

     iteration #  8     ecut=    60.00 Ry     beta= 0.50
     Davidson diagonalization with overlap
     ethr =  5.19E-07,  avg # of iterations =  1.0

     total cpu time spent up to now is      100.0 secs

     total energy              =   -1324.06216296 Ry
     estimated scf accuracy    <       0.00017047 Ry

     total magnetization       =     0.10 Bohr mag/cell
     absolute magnetization    =     0.12 Bohr mag/cell

     iteration #  9     ecut=    60.00 Ry     beta= 0.50
     Davidson diagonalization with overlap
     ethr =  4.26E-07,  avg # of iterations =  3.0

     total cpu time spent up to now is      115.8 secs

     total energy              =   -1324.06228358 Ry
     estimated scf accuracy    <       0.00014005 Ry

     total magnetization       =     0.03 Bohr mag/cell
     absolute magnetization    =     0.04 Bohr mag/cell

     iteration # 10     ecut=    60.00 Ry     beta= 0.50
     Davidson diagonalization with overlap
     ethr =  3.50E-07,  avg # of iterations =  1.0

     total cpu time spent up to now is      124.6 secs

     total energy              =   -1324.06226899 Ry
     estimated scf accuracy    <       0.00009935 Ry

     total magnetization       =     0.02 Bohr mag/cell
     absolute magnetization    =     0.02 Bohr mag/cell

     iteration # 11     ecut=    60.00 Ry     beta= 0.50
     Davidson diagonalization with overlap
     ethr =  2.48E-07,  avg # of iterations =  1.3

     total cpu time spent up to now is      133.9 secs

     total energy              =   -1324.06227506 Ry
     estimated scf accuracy    <       0.00002607 Ry

     total magnetization       =     0.02 Bohr mag/cell
     absolute magnetization    =     0.02 Bohr mag/cell

     iteration # 12     ecut=    60.00 Ry     beta= 0.50
     Davidson diagonalization with overlap
     ethr =  6.52E-08,  avg # of iterations =  2.5

     total cpu time spent up to now is      147.4 secs

     total energy              =   -1324.06228496 Ry
     estimated scf accuracy    <       0.00000054 Ry

     total magnetization       =     0.00 Bohr mag/cell
     absolute magnetization    =     0.00 Bohr mag/cell

     iteration # 13     ecut=    60.00 Ry     beta= 0.50
     Davidson diagonalization with overlap
     ethr =  1.36E-09,  avg # of iterations =  2.8

     total cpu time spent up to now is      161.2 secs

     total energy              =   -1324.06228538 Ry
     estimated scf accuracy    <       0.00000027 Ry

     total magnetization       =     0.00 Bohr mag/cell
     absolute magnetization    =     0.00 Bohr mag/cell

     iteration # 14     ecut=    60.00 Ry     beta= 0.50
     Davidson diagonalization with overlap
     ethr =  6.66E-10,  avg # of iterations =  1.2

     total cpu time spent up to now is      170.0 secs

     total energy              =   -1324.06228528 Ry
     estimated scf accuracy    <       0.00000029 Ry

     total magnetization       =     0.00 Bohr mag/cell
     absolute magnetization    =     0.00 Bohr mag/cell

     iteration # 15     ecut=    60.00 Ry     beta= 0.50
     Davidson diagonalization with overlap
     ethr =  6.66E-10,  avg # of iterations =  2.0

     total cpu time spent up to now is      180.3 secs

     total energy              =   -1324.06228532 Ry
     estimated scf accuracy    <       0.00000002 Ry

     total magnetization       =     0.00 Bohr mag/cell
     absolute magnetization    =     0.00 Bohr mag/cell

     iteration # 16     ecut=    60.00 Ry     beta= 0.50
     Davidson diagonalization with overlap
     ethr =  4.85E-11,  avg # of iterations =  3.0
 
     Magnetic moment per site  (integrated on atomic sphere of radius R)
     atom   1 (R=0.258)  charge=  7.1583  magn= -0.0000
     atom   2 (R=0.258)  charge=  7.1584  magn= -0.0000
     atom   3 (R=0.258)  charge=  7.1584  magn= -0.0000
     atom   4 (R=0.258)  charge=  7.1584  magn= -0.0000

     total cpu time spent up to now is      194.4 secs

     End of self-consistent calculation

     Number of k-points >= 100: set verbosity='high' to print the bands.

     the Fermi energy is    23.8681 ev

!    total energy              =   -1324.06228534 Ry
     total all-electron energy =    -40367.859250 Ry
     estimated scf accuracy    <          7.4E-10 Ry
     smearing contrib. (-TS)   =       0.00001227 Ry
     internal energy E=F+TS    =   -1324.06229760 Ry

     The total energy is F=E-TS. E is the sum of the following terms:
     one-electron contribution =      82.84038235 Ry
     hartree contribution      =      30.32649421 Ry
     xc contribution           =    -132.08135136 Ry
     ewald contribution        =    -276.84078315 Ry
     DFT-D3 Dispersion         =      -0.70720743 Ry
     one-center paw contrib.   =   -1027.59983222 Ry

     total magnetization       =    -0.00 Bohr mag/cell
     absolute magnetization    =     0.00 Bohr mag/cell

     convergence has been achieved in  16 iterations

     Writing all to output data dir ./Pd_k_16.save/ :
     XML data file, charge density, pseudopotentials, collected wavefunctions
 
     init_run     :      4.38s CPU      4.62s WALL (       1 calls)
     electrons    :    128.75s CPU    189.65s WALL (       1 calls)

     Called by init_run:
     wfcinit      :      4.01s CPU      4.21s WALL (       1 calls)
     potinit      :      0.23s CPU      0.25s WALL (       1 calls)
     hinit0       :      0.10s CPU      0.11s WALL (       1 calls)

     Called by electrons:
     c_bands      :    106.13s CPU    163.14s WALL (      17 calls)
     sum_band     :     18.57s CPU     21.99s WALL (      17 calls)
     v_of_rho     :      0.14s CPU      0.20s WALL (      17 calls)
     newd         :      0.13s CPU      0.13s WALL (      17 calls)
     PAW_pot      :      3.38s CPU      3.67s WALL (      17 calls)
     mix_rho      :      0.11s CPU      0.12s WALL (      17 calls)
     energy_dftd3 :      0.31s CPU      0.31s WALL (       1 calls)

     Called by c_bands:
     init_us_2    :      0.99s CPU      1.40s WALL (   14595 calls)
     init_us_2:cp :      0.95s CPU      1.35s WALL (   14595 calls)
     cegterg      :     92.63s CPU    115.61s WALL (    7089 calls)

     Called by *egterg:
     cdiaghg      :     19.95s CPU     32.62s WALL (   21958 calls)
     h_psi        :     63.63s CPU     72.27s WALL (   22792 calls)
     s_psi        :      1.49s CPU      1.86s WALL (   22792 calls)
     g_psi        :      0.24s CPU      0.24s WALL (   15286 calls)

     Called by h_psi:
     h_psi:calbec :      2.89s CPU      3.62s WALL (   22792 calls)
     vloc_psi     :     58.81s CPU     66.19s WALL (   22792 calls)
     add_vuspsi   :      1.57s CPU      2.03s WALL (   22792 calls)

     General routines
     calbec       :      4.17s CPU      5.14s WALL (   29881 calls)
     fft          :      0.11s CPU      0.11s WALL (     421 calls)
     ffts         :      0.08s CPU      0.09s WALL (     335 calls)
     fftw         :     66.96s CPU     75.51s WALL ( 1036088 calls)
     interpolate  :      0.02s CPU      0.02s WALL (      34 calls)
 
     Parallel routines
 
     PWSCF        :   2m14.01s CPU   3m17.29s WALL

 
   This run was terminated on:   1:12:23   6Sep2025            

=------------------------------------------------------------------------------=
   JOB DONE.
=------------------------------------------------------------------------------=
